production = [0.0, 0.0, 0.0, 0.0, 0.0, 0.0, 0.0, 0.0, 0.0, 0.0, 0.0, 0.0, 0.0, 0.0, 0.0, 0.0, 0.0, 0.0, 0.0, 0.0, 0.0, 9.399999999999999e-05, 0.000192, 0.000967, 0.001955, 0.035092, 0.061525, 0.084985, 0.009976, 0.142494, 0.037893, 0.377603, 0.370099, 0.539853, 0.44012, 0.112438, 0.651936, 0.144199, 0.995472, 0.436673, 0.08833100000000001, 0.890848, 0.863079, 0.40848, 0.7536659999999999, 0.126654, 0.439712, 0.024261, 0.034461, 0.024543, 0.048328, 0.013486, 0.032849, 0.06333800000000001, 0.402891, 0.581731, 0.369735, 0.08518100000000001, 0.260847, 0.048764, 0.249625, 0.487972, 0.402393, 0.066163, 0.192752, 0.153952, 0.185876, 0.047754, 0.106111, 0.041053, 0.03152, 0.025623, 0.002173, 0.000253, 0.000258, 0.0, 0.0, 0.0, 0.0, 0.0, 0.0, 0.0, 0.0, 0.0, 0.0, 0.0, 0.0, 0.0, 0.0, 0.0, 0.0, 0.0, 0.0, 0.0, 0.0, 0.0];
buy = [2.223896, 34.478196, 594.723699, 224.106434, 463.401653, 559.143886, 971.031291, 250.468471, 551.507867, 647.190416, 978.352153, 208.5888, 307.626013, 177.049858, 293.860457, 10.653344, 696.820768, 446.321496, 208.792072, 359.829684, 103.636791, 639.831204, 944.218171, 449.162448, 704.63743, 812.726419, 539.884293, 465.164309, 406.274646, 168.699675, 713.8018029999999, 883.303962, 666.227973, 542.003564, 228.644073, 720.866503, 29.584744, 189.235132, 825.397726, 482.777795, 786.051238, 822.784171, 266.239588, 602.425582, 993.9731870000001, 95.577896, 614.186452, 287.170779, 73.025074, 839.50273, 670.426186, 663.0782369999999, 801.6380360000001, 977.86429, 92.161793, 242.796971, 304.114085, 769.372384, 753.451735, 290.333175, 800.981048, 110.488515, 814.677793, 778.4112270000001, 350.301073, 89.343335, 519.56226, 650.962673, 959.719599, 487.790573, 594.070462, 656.0299220000001, 560.870325, 502.060664, 629.891912, 194.283553, 557.083676, 286.335835, 64.142123, 727.769089, 549.846915, 37.88545, 471.659392, 233.241078, 260.921762, 487.549687, 826.221556, 971.051823, 995.929903, 992.422427, 195.83965, 435.263471, 104.008649, 143.173394, 158.338913, 869.909218];
sell = [3.267737, 0.946605, 3.139507, 1.699978, 3.059134, 0.290043, 1.641886, 1.908275, 3.890923, 3.742041, 3.239221, 1.766969, 3.683416, 3.620051, 2.26588, 2.119557, 1.684805, 2.94414, 3.683012, 1.316959, 0.135013, 0.541915, 2.243199, 2.86696, 2.3166, 0.864809, 3.227338, 1.200581, 2.191732, 2.586169, 2.587545, 3.221011, 3.020495, 3.990654, 0.468185, 2.934432, 0.863222, 0.055952, 1.806343, 3.226149, 2.286793, 2.848631, 1.960231, 0.107779, 1.670485, 2.976945, 1.25527, 0.416933, 2.040519, 3.115821, 3.799555, 3.491703, 1.391493, 2.945663, 3.94323, 1.037201, 1.076691, 1.897896, 0.011639, 0.90774, 3.912702, 1.768342, 2.95618, 2.551411, 0.822207, 1.238347, 3.731879, 0.599119, 1.727662, 1.489227, 2.95481, 2.497917, 0.884924, 0.9597059999999999, 0.426416, 3.360237, 0.70134, 3.055757, 1.804729, 2.270134, 1.470965, 1.580127, 3.645105, 0.284165, 3.953589, 0.996082, 0.938982, 3.14079, 0.08075599999999999, 0.570786, 2.551116, 1.638281, 1.386165, 2.74646, 0.388164, 0.409417];
charge = [0.620978, 0.614522, 0.53315, 0.628371, 0.727369, 0.762052, 0.9522969999999999, 0.472891, 0.803914, 0.785754, 0.805114, 0.798604, 0.670608, 0.681381, 0.213365, 0.503237, 0.9875969999999999, 0.872335, 0.244314, 0.290735, 0.321497, 0.7896840000000001, 0.752375, 0.662887, 0.326683, 0.832426, 0.882425, 0.457835, 0.628448, 0.712496, 0.095414, 0.7433650000000001, 0.5756790000000001, 0.708704, 0.09893200000000001, 0.146479, 0.108922, 0.355434, 0.799888, 0.153942, 0.706882, 0.368332, 0.450373, 0.775452, 0.363502, 0.449196, 0.791863, 0.285593, 0.971306, 0.7411799999999999, 0.67181, 0.564539, 0.7485039999999999, 0.09875200000000001, 0.661788, 0.792072, 0.820902, 0.368275, 0.670003, 0.672745, 0.219397, 0.906322, 0.89498, 0.841596, 0.847787, 0.796853, 0.347734, 0.586854, 0.171125, 0.849803, 0.150541, 0.814854, 0.534594, 0.667621, 0.239377, 0.047329, 0.323759, 0.852984, 0.014133, 0.713844, 0.576573, 0.756383, 0.276173, 0.420793, 0.138577, 0.068204, 0.946422, 0.585931, 0.625178, 0.125733, 0.7468630000000001, 0.262577, 0.302335, 0.420575, 0.135167, 0.306674];
discharge = [0.595776, 0.213386, 0.702709, 0.206631, 0.6172879999999999, 0.653605, 0.70951, 0.293788, 0.574722, 0.809218, 0.115706, 0.731277, 0.428735, 0.390284, 0.699311, 0.479132, 0.452379, 0.275747, 0.09132700000000001, 0.418413, 0.015461, 0.460582, 0.484338, 0.652623, 0.874032, 0.568376, 0.024381, 0.375844, 0.473745, 0.398963, 0.755542, 0.617318, 0.435948, 0.907545, 0.488526, 0.250034, 0.152038, 0.569998, 0.82364, 0.934156, 0.007654, 0.903933, 0.058075, 0.061645, 0.769779, 0.911145, 0.927213, 0.348294, 0.66178, 0.605908, 0.59876, 0.06518699999999999, 0.334439, 0.669436, 0.587481, 0.435029, 0.727567, 0.911618, 0.851285, 0.122824, 0.910347, 0.108223, 0.107436, 0.949381, 0.08283799999999999, 0.697294, 0.523346, 0.389622, 0.046049, 0.474606, 0.821065, 0.735878, 0.194949, 0.840527, 0.999018, 0.970768, 0.468247, 0.650115, 0.835331, 0.790015, 0.826005, 0.495993, 0.285695, 0.564809, 0.424287, 0.468901, 0.827036, 0.8587360000000001, 0.238577, 0.091402, 0.183479, 0.431841, 0.233925, 0.705136, 0.442391, 0.880029];
soc = [4.102359, 4.940313, 6.299006, 4.613531, 3.356646, 6.771285, 4.235386, 4.759235, 4.59086, 12.666207, 11.188303, 13.712768, 7.207268, 8.042922000000001, 12.729309, 9.730959, 11.711194, 12.278265, 5.379535, 11.058981, 10.294379, 14.626011, 7.154534, 8.231303, 12.772911, 3.779219, 8.971009, 12.173382, 8.320826, 6.939071, 3.148394, 13.709506, 12.488662, 11.720843, 13.532631, 6.488909, 15.569708, 7.226204, 9.296431, 9.964211000000001, 6.401213, 12.564669, 8.823326, 13.036264, 12.172181, 12.763707, 8.803019000000001, 6.165121, 7.279652, 13.559776, 10.208218, 6.738754, 8.232239, 9.916117, 14.648435, 8.42454, 15.320369, 3.433525, 10.792529, 12.582855, 5.833468, 4.211288, 7.663093, 9.123258, 14.452214, 8.227978, 11.042834, 15.648341, 12.735197, 7.638417, 4.276748, 7.437837, 5.750701, 13.855492, 15.332244, 9.206045, 14.873594, 12.618117, 7.06749, 12.01526, 3.824059, 10.364381, 8.411618000000001, 3.336733, 14.684574, 13.845266, 6.600577, 15.426132, 11.081381, 4.274973, 10.042818, 13.691313, 11.034903, 3.654252, 7.421851, 14.054192];
cost = [351.019454, 403.321746, 585.198809, 138.22139, 420.239184, 523.943811, 390.170184, 11.323833, 246.142269, 542.619425, 551.359991, 484.390151, 202.749006, 520.155305, 161.807817, 204.099674, 142.978844, 560.8231060000001, 176.790466, 201.538577, 43.635387, 364.58859, 195.937061, 477.892253, 63.391726, 582.886829, 945.864326, 66.42853700000001, 931.123662, 1099.625947, 475.089564, 682.2319230000001, 539.30074, 565.2676290000001, 808.0069559999999, 373.871715, 891.0472569999999, 401.99329, 209.775399, 490.505966, 763.594298, 301.386621, 652.095149, 562.736429, 214.63153, 380.961301, 494.457909, 924.358821, 846.1167840000001, 506.0082, 192.131711, 722.550573, 486.693136, 307.0329, 355.647751, 554.344695, 39.64147, 13.399565, 156.704507, 482.265753, 199.822028, 299.063923, 209.852771, 272.447221, 964.501624, 549.486005, 726.942775, 301.65497, 922.627258, 751.3690810000001, 460.973066, 237.206108, 1025.231587, 124.7741, 190.519134, 725.8050459999999, 272.887119, 160.679353, 293.640637, 148.532776, 167.536195, 73.30524800000001, 86.101456, 403.595663, 65.27472899999999, 241.883906, 613.166277, 142.262215, 417.882553, 489.321814, 286.878981, 481.241316, 26.734672, 451.411384, 421.511097, 207.261639];
earn = [1.163048, 1.07626, 1.301341, 0.241005, 1.306653, 0.325725, 0.871764, 1.733446, 0.408783, 1.510856, 1.321927, 1.939795, 1.085111, 0.121356, 1.901406, 0.619161, 0.870333, 0.421927, 1.16196, 0.6850889999999999, 2.163219, 1.689319, 0.181669, 0.152198, 0.690574, 0.966862, 1.53872, 1.42948, 0.167497, 0.6840850000000001, 1.692865, 0.497067, 1.068995, 0.395589, 0.098131, 0.361842, 0.057179, 0.064652, -0.035936, -0.00902, -0.002306, -0.014414, -0.012997, -0.071628, -0.052939, -0.00696, -0.170132, -0.17859, -0.129341, -0.177693, -0.075506, -0.14699, -0.067773, -0.057954, -0.041648, -0.009386, -0.030772, -0.001419, -0.00664, -8.4e-05, 0.055941, 0.176952, 0.162588, 0.5920339999999999, 0.856343, 1.893308, 1.589607, 0.722756, 0.885288, 1.487802, 1.268039, 2.38194, 3.504184, 2.068422, 1.001095, 3.482706, 2.474262, 3.304748, 1.070695, 0.886025, 1.447064, 0.774114, 0.329663, 2.712194, 0.40972, 1.116448, 2.670934, 1.294465, 1.858278, 0.270803, 2.25213, 2.115734, 1.215471, 0.439202, 2.58059, 0.005913];
total_cost = 45.63915077054593;
total_earn = 12.27833357427732;
% _objective = 33.36081719626861;
