production = [0.0, 0.0, 0.0, 0.0, 0.0, 0.0, 0.0, 0.0, 0.0, 0.0, 0.0, 0.0, 0.0, 0.0, 0.0, 0.0, 0.0, 0.0, 0.0, 0.0, 0.0, 7.7e-05, 0.000236, 0.001305, 0.000608, 0.021844, 0.040519, 0.069498, 0.07961600000000001, 0.032544, 0.045767, 0.47573, 0.177737, 0.653709, 0.430178, 0.007759, 0.845293, 0.747304, 0.46886, 0.629318, 0.216231, 0.021431, 0.408691, 0.785635, 0.105057, 0.670702, 0.681974, 0.007666, 0.023785, 0.020518, 0.053354, 0.000162, 0.002585, 0.560124, 0.357778, 0.635035, 0.023993, 0.030598, 0.06891700000000001, 0.022862, 0.065354, 0.113224, 0.020569, 0.097788, 0.650497, 0.008522999999999999, 0.166946, 0.096472, 0.095612, 0.042113, 0.01375, 0.010035, 0.000461, 0.0007470000000000001, 0.000148, 0.0, 0.0, 0.0, 0.0, 0.0, 0.0, 0.0, 0.0, 0.0, 0.0, 0.0, 0.0, 0.0, 0.0, 0.0, 0.0, 0.0, 0.0, 0.0, 0.0, 0.0];
buy = [593.0799019999999, 309.064918, 572.031476, 676.4392800000001, 738.0091650000001, 731.06465, 589.042242, 205.324435, 600.491437, 239.776402, 585.732154, 791.135396, 605.141132, 716.657328, 476.287911, 164.267103, 382.230841, 219.50178, 869.679399, 859.648094, 81.104767, 974.097065, 147.661506, 939.931877, 624.16488, 122.440339, 199.262588, 997.311196, 879.085034, 353.395222, 629.344604, 268.772601, 325.736102, 965.507933, 819.7353000000001, 213.730502, 840.311498, 172.146108, 658.496835, 402.739029, 996.302723, 76.491241, 385.842692, 743.636883, 667.611676, 372.214707, 594.13564, 380.631247, 454.941811, 111.990884, 704.1669000000001, 801.055524, 13.375217, 771.038619, 315.707183, 226.509882, 505.999263, 308.65976, 902.245443, 695.651164, 187.384751, 569.591875, 190.988674, 38.132858, 248.224657, 140.893706, 389.094342, 724.877514, 967.036911, 179.792711, 440.643574, 752.731197, 189.35784, 474.401726, 569.741309, 765.711805, 73.70180999999999, 312.39031, 167.299921, 345.409297, 49.458885, 101.839811, 754.161735, 396.964196, 214.150306, 879.627962, 250.398273, 697.327099, 825.704022, 995.3201800000001, 357.138126, 267.576566, 175.608789, 800.473562, 525.957081, 196.537252];
sell = [3.017445, 2.866077, 1.628139, 2.648541, 2.485769, 1.133217, 1.557577, 3.690079, 2.194497, 2.989484, 0.590269, 0.253993, 0.30554, 0.019643, 0.412911, 1.588189, 1.528214, 2.545088, 0.9791260000000001, 2.501555, 1.236353, 2.952135, 2.877191, 2.223478, 2.86844, 1.679787, 2.173344, 2.19539, 1.464497, 1.864974, 1.59221, 2.813681, 0.363084, 3.578246, 2.632935, 1.954308, 1.989586, 1.141054, 2.721136, 0.977917, 0.186238, 0.25407, 2.553709, 2.856762, 1.173417, 0.225592, 2.295592, 1.551363, 2.841857, 3.136558, 0.781843, 3.366941, 0.805352, 0.127855, 1.038345, 3.292344, 2.896554, 0.891991, 1.079298, 0.460694, 3.149587, 3.285323, 3.750586, 2.314557, 3.865741, 0.947141, 2.314955, 0.592621, 2.932166, 0.032794, 3.723733, 3.025433, 3.127329, 0.559589, 2.044696, 3.173124, 0.007045, 0.236994, 1.4466, 2.837821, 3.53583, 3.449617, 3.468034, 2.612121, 3.776477, 2.915423, 2.804806, 2.411409, 1.201724, 3.64946, 0.8037029999999999, 2.545244, 3.588806, 1.184373, 2.983713, 3.215938];
charge = [0.366183, 0.220291, 0.9522890000000001, 0.941597, 0.311866, 0.341267, 0.39806, 0.769107, 0.519408, 0.483343, 0.042257, 0.691733, 0.06615699999999999, 0.697469, 0.126516, 0.101782, 0.378621, 0.964762, 0.109564, 0.159693, 0.49999, 0.445397, 0.905466, 0.7964830000000001, 0.817756, 0.485914, 0.712264, 0.295703, 0.029605, 0.905855, 0.117202, 0.856061, 0.08866400000000001, 0.6852240000000001, 0.800488, 0.00844, 0.752685, 0.61055, 0.271837, 0.85694, 0.184816, 0.530217, 0.874318, 0.525928, 0.390794, 0.458601, 0.50342, 0.7892940000000001, 0.036704, 0.695587, 0.10415, 0.699925, 0.843665, 0.87525, 0.033777, 0.945403, 0.6818419999999999, 0.262281, 0.55481, 0.172988, 0.834613, 0.72943, 0.799324, 0.989823, 0.012801, 0.336819, 0.721334, 0.15685, 0.510666, 0.934449, 0.288711, 0.375088, 0.5982769999999999, 0.490359, 0.668917, 0.110914, 0.318033, 0.293676, 0.6874169999999999, 0.147323, 0.816906, 0.579106, 0.581032, 0.7116170000000001, 0.177526, 0.932756, 0.891077, 0.995071, 0.796141, 0.5343909999999999, 0.564172, 0.821495, 0.810173, 0.639088, 0.474716, 0.176104];
discharge = [0.012856, 0.138305, 0.378735, 0.433819, 0.08405600000000001, 0.276786, 0.123278, 0.074791, 0.121767, 0.141331, 0.004738, 0.422884, 0.445557, 0.889483, 0.034581, 0.099671, 0.723496, 0.89573, 0.935022, 0.172777, 0.6957179999999999, 0.089559, 0.9957549999999999, 0.979005, 0.910927, 0.679545, 0.90018, 0.606482, 0.469234, 0.151138, 0.897535, 0.43907, 0.282923, 0.083802, 0.836963, 0.984474, 0.981525, 0.982172, 0.721298, 0.842101, 0.922201, 0.324826, 0.391394, 0.715193, 0.109918, 0.075378, 0.759431, 0.08845, 0.777649, 0.617017, 0.31521, 0.60525, 0.640232, 0.193941, 0.81399, 0.99927, 0.826013, 0.477653, 0.405139, 0.968988, 0.240078, 0.791477, 0.947465, 0.870432, 0.789282, 0.698438, 0.352877, 0.896575, 0.467435, 0.57972, 0.523611, 0.0878, 0.832908, 0.09102300000000001, 0.820681, 0.033454, 0.277158, 0.257011, 0.639714, 0.249184, 0.5037430000000001, 0.076816, 0.943229, 0.212304, 0.998085, 0.305661, 0.451942, 0.311482, 0.690118, 0.07017900000000001, 0.992151, 0.8020659999999999, 0.5441820000000001, 0.140396, 0.431256, 0.029993];
soc = [3.688689, 5.847438, 6.400304, 5.597302, 7.626393, 3.130481, 7.093331, 3.739001, 10.482451, 8.908640999999999, 12.395096, 8.454234, 5.949542, 13.531586, 13.016103, 6.535581, 6.419291, 12.193236, 14.546377, 10.679384, 5.356449, 8.74456, 13.186919, 14.250342, 12.166547, 6.172243, 3.8136, 3.639241, 13.114232, 13.607493, 3.235905, 9.148701000000001, 3.847438, 8.69448, 7.705834, 8.612735000000001, 15.337789, 2.652899, 10.080669, 5.780872, 14.807494, 15.31842, 8.684944, 10.036604, 13.687712, 13.700038, 13.204459, 5.237523, 3.598459, 3.995287, 4.364253, 8.085235000000001, 7.54841, 10.560471, 6.34511, 8.989673, 4.442797, 11.680165, 14.841016, 15.579754, 3.877205, 13.601197, 6.896522, 2.755033, 3.209414, 5.806086, 10.057037, 6.825464, 5.943626, 6.068954, 11.050283, 5.759273, 11.105896, 14.595439, 5.012715, 6.416326, 13.271166, 14.704971, 10.065467, 15.375651, 9.030154, 14.274575, 14.767133, 12.68111, 15.048063, 10.143161, 14.46146, 10.815501, 5.10197, 13.004763, 10.187581, 11.460467, 3.11855, 8.466240000000001, 13.231543, 12.797412];
cost = [197.53014, 263.520802, 75.324944, 117.102656, 101.389088, 532.299447, 425.889434, 290.98711, 447.723333, 116.970721, 109.148358, 111.007932, 321.976636, 216.859694, 0.200113, 411.654453, 159.72541, 377.602741, 66.749082, 520.145726, 290.59592, 99.965756, 96.100077, 388.293205, 304.949272, 59.495013, 1078.609528, 1135.016719, 505.746476, 903.6407, 838.671385, 1118.852571, 649.286276, 531.652477, 276.793524, 181.306906, 184.512803, 614.642056, 395.221467, 476.334911, 176.247682, 401.492014, 875.042294, 317.791552, 151.238376, 762.380267, 212.887101, 1030.342619, 1153.696527, 181.441994, 305.205222, 872.119433, 605.616813, 335.796437, 117.173342, 408.879222, 242.050264, 111.464368, 534.264155, 535.380249, 441.780822, 91.528778, 647.098655, 96.102903, 607.527989, 980.2124209999999, 610.9277499999999, 445.692458, 175.938872, 1171.143595, 1033.235845, 210.274526, 860.1085, 554.960608, 1149.345048, 808.698451, 1185.684965, 1028.146424, 546.707852, 908.474888, 322.871988, 370.702265, 200.187239, 695.672104, 909.278583, 1095.965911, 378.789534, 86.894834, 21.210447, 546.170306, 102.925636, 457.171138, 521.452836, 178.446204, 444.092589, 160.043866];
earn = [1.999027, 0.628975, 0.557802, 0.707172, 0.712408, 0.7667350000000001, 1.645436, 1.042609, 1.810327, 0.728034, 0.233945, 1.786267, 1.462788, 0.130336, 1.959522, 1.332691, 1.369389, 0.832259, 0.326548, 2.091355, 1.431903, 1.561503, 0.609049, 0.067773, 1.761998, 0.734904, 0.6745989999999999, 0.782234, 0.178906, 1.7666, 1.390178, 0.451928, 0.771846, 0.493263, 0.261559, 0.369728, 0.080176, 0.001925, -0.038761, -0.01244, -0.018739, -0.009743999999999999, -0.01947, -0.072188, -0.085842, -0.127342, -0.024061, -0.182279, -0.067181, -0.166988, -0.107395, -0.101938, -0.018215, -0.042215, -0.009446, -0.021088, -0.024053, -0.006787, -0.002582, -0.00031, 0.020676, 0.384942, 0.260871, 0.060702, 0.232072, 0.253397, 0.37957, 1.356851, 2.368727, 2.039991, 2.190815, 2.841126, 0.766296, 1.49766, 0.727232, 3.425474, 1.809466, 0.962893, 0.154998, 1.217063, 1.915353, 1.000003, 1.471521, 0.514679, 0.292675, 2.230789, 2.178898, 0.16574, 1.748219, 0.175136, 1.397112, 1.927268, 2.809234, 1.465517, 1.956162, 2.379387];
total_cost = 55.93674364838638;
total_earn = 10.12292894931285;
