production = [0: 0.0, 1: 0.0, 2: 0.0, 3: 0.0, 4: 0.0, 5: 0.0, 6: 0.0, 7: 0.0, 8: 0.0, 9: 0.0, 10: 0.0, 11: 0.0, 12: 0.0, 13: 0.0, 14: 0.0, 15: 0.0, 16: 0.0, 17: 0.0, 18: 0.0, 19: 0.0, 20: 0.0, 21: 0.0, 22: 0.0008, 23: 0.0011, 24: 0.0013, 25: 0.0016, 26: 0.0, 27: 0.0364, 28: 0.0789, 29: 0.0, 30: 0.148, 31: 0.2343, 32: 0.3048, 33: 0.3948, 34: 0.0, 35: 0.4043, 36: 1.0088, 37: 0.0, 38: 1.2313, 39: 0.0, 40: 1.4659, 41: 1.5614, 42: 1.120133333, 43: 1.7736, 44: 0.0, 45: 0.0, 46: 1.9631, 47: 2.0124, 48: 2.0546, 49: 1.7649, 50: 1.176333333, 51: 2.1483, 52: 0.161033333, 53: 1.6298, 54: 1.9538, 55: 2.0929, 56: 0.0, 57: 1.208633333, 58: 1.9098, 59: 0.0, 60: 1.7733, 61: 0.0, 62: 0.0, 63: 0.0, 64: 1.2347, 65: 1.1073, 66: 0.0, 67: 0.0, 68: 0.0, 69: 0.0, 70: 0.0, 71: 0.4185, 72: 0.1969, 73: 0.1494, 74: 0.08309999999999999, 75: 0.0, 76: 0.0, 77: 0.0, 78: 0.0, 79: 0.0016, 80: 0.0, 81: 0.0, 82: 0.0, 83: 0.0, 84: 0.0, 85: 0.0, 86: 0.0, 87: 0.0, 88: 0.0, 89: 0.0, 90: 0.0, 91: 0.0, 92: 0.0, 93: 0.0, 94: 0.0, 95: 0.0];
buy = [0: 1.495433333, 1: 0.0, 2: 2.022333333, 3: 0.0, 4: 1.482733333, 5: 0.0, 6: 0.482433333, 7: 1.468433333, 8: 1.427033333, 9: 0.0, 10: 0.0, 11: 0.495133333, 12: 1.408833333, 13: 0.404333333, 14: 2.196033333, 15: 0.0, 16: 0.386133333, 17: 1.385133333, 18: 1.376933333, 19: 0.982533333, 20: 0.0, 21: 0.785833333, 22: 1.686733333, 23: 1.588033333, 24: 1.489533333, 25: 0.390833333, 26: 0.053733333, 27: 1.378733333, 28: 0.0, 29: 0.0, 30: 0.984233333, 31: 0.889833333, 32: 0.0, 33: 0.0, 34: 0.0, 35: 0.0, 36: 0.0, 37: 1.134933333, 38: 0.0, 39: 0.145433333, 40: 0.0, 41: 0.0, 42: 0.0, 43: 0.0, 44: 0.0, 45: 0.0, 46: 0.0, 47: 0.0, 48: 0.0, 49: 0.0, 50: 0.0, 51: 0.0, 52: 0.0, 53: 0.0, 54: 0.0, 55: 0.0, 56: 1.446833333, 57: 0.0, 58: 0.0, 59: 1.959833333, 60: 0.0, 61: 1.445033333, 62: 0.0, 63: 1.385633333, 64: 0.0, 65: 0.047133333, 66: 1.153933333, 67: 0.147533333, 68: 0.0, 69: 1.148133333, 70: 1.147333333, 71: 0.724333333, 72: 0.0, 73: 0.0, 74: 0.0, 75: 1.132833333, 76: 0.133033333, 77: 0.0, 78: 1.125433333, 79: 0.122733333, 80: 0.0, 81: 0.0, 82: 1.133033333, 83: 0.0, 84: 1.143333333, 85: 1.149733333, 86: 1.151533333, 87: 0.152033333, 88: 1.141733333, 89: 1.142333333, 90: 1.142033333, 91: 0.0, 92: 0.0, 93: 0.0, 94: 0.0, 95: 1.358733333];
sell = [0: 0.0, 1: 0.401666667, 2: 0.0, 3: 0.376666667, 4: 0.0, 5: 0.414866667, 6: 0.0, 7: 0.0, 8: 0.0, 9: 0.465266667, 10: 0.463166667, 11: 0.0, 12: 0.0, 13: 0.0, 14: 0.0, 15: 0.0, 16: 0.0, 17: 0.0, 18: 0.0, 19: 0.0, 20: 0.015766667, 21: 0.0, 22: 0.0, 23: 0.0, 24: 0.0, 25: 0.0, 26: 0.0, 27: 0.0, 28: 0.845866667, 29: 0.767166667, 30: 0.0, 31: 0.0, 32: 1.081766667, 33: 0.167166667, 34: 0.630466667, 35: 0.0, 36: 0.737966667, 37: 0.0, 38: 1.548152432, 39: 0.0, 40: 2.221966667, 41: 2.324866667, 42: 0.0, 43: 0.606966667, 44: 0.735566667, 45: 0.713666667, 46: 2.675366667, 47: 1.807066667, 48: 2.789866667, 49: 2.512866667, 50: 0.0, 51: 2.873266667, 52: 0.0, 53: 2.383766667, 54: 0.257366667, 55: 1.931066667, 56: 0.0, 57: 0.0, 58: 1.064266667, 59: 0.0, 60: 0.820066667, 61: 0.0, 62: 0.455566667, 63: 0.0, 64: 1.990766667, 65: 0.0, 66: 0.0, 67: 0.0, 68: 0.754266667, 69: 0.0, 70: 0.0, 71: 0.0, 72: 0.960666667, 73: 0.911866667, 74: 0.841866667, 75: 0.0, 76: 0.0, 77: 0.766666667, 78: 0.0, 79: 0.0, 80: 0.766666667, 81: 0.765566667, 82: 0.0, 83: 0.775066667, 84: 0.0, 85: 0.0, 86: 0.0, 87: 0.0, 88: 0.0, 89: 0.0, 90: 0.0, 91: 0.751666667, 92: 0.750066667, 93: 0.566666667, 94: 0.540766667, 95: 0.0];
charge = [0: 1.0, 1: 0.0, 2: 1.0, 3: 0.0, 4: 1.0, 5: 0.0, 6: 0.0, 7: 1.0, 8: 1.0, 9: 0.0, 10: 0.0, 11: 0.0, 12: 1.0, 13: 0.0, 14: 1.0, 15: 0.0, 16: 0.0, 17: 1.0, 18: 1.0, 19: 0.0, 20: 0.0, 21: 0.0, 22: 1.0, 23: 1.0, 24: 1.0, 25: 0.0, 26: 0.0, 27: 1.0, 28: 0.0, 29: 0.0, 30: 1.0, 31: 1.0, 32: 0.0, 33: 0.0, 34: 0.0, 35: 0.118966667, 36: 0.0, 37: 1.0, 38: 0.0, 39: 0.0, 40: 0.0, 41: 0.0, 42: 1.0, 43: 1.0, 44: 0.0, 45: 0.0, 46: 0.0, 47: 0.0, 48: 0.0, 49: 0.0, 50: 1.0, 51: 0.0, 52: 0.0, 53: 0.0, 54: 1.0, 55: 0.0, 56: 1.0, 57: 0.0, 58: 0.0, 59: 1.0, 60: 0.0, 61: 1.0, 62: 0.0, 63: 1.0, 64: 0.0, 65: 1.0, 66: 1.0, 67: 0.0, 68: 0.0, 69: 1.0, 70: 1.0, 71: 1.0, 72: 0.0, 73: 0.0, 74: 0.0, 75: 1.0, 76: 0.0, 77: 0.0, 78: 1.0, 79: 0.0, 80: 0.0, 81: 0.0, 82: 1.0, 83: 0.0, 84: 1.0, 85: 1.0, 86: 1.0, 87: 0.0, 88: 1.0, 89: 1.0, 90: 1.0, 91: 0.0, 92: 0.0, 93: 0.0, 94: 0.0, 95: 1.0];
discharge = [0: 0.0, 1: 1.0, 2: 0.0, 3: 1.0, 4: 0.0, 5: 1.0, 6: 0.0, 7: 0.0, 8: 0.0, 9: 1.0, 10: 1.0, 11: 0.0, 12: 0.0, 13: 0.0, 14: 0.0, 15: 0.472703704, 16: 0.0, 17: 0.0, 18: 0.0, 19: 0.0, 20: 1.0, 21: 0.0, 22: 0.0, 23: 0.0, 24: 0.0, 25: 0.0, 26: 1.0, 27: 0.0, 28: 1.0, 29: 1.0, 30: 0.0, 31: 0.0, 32: 1.0, 33: 1.0, 34: 1.0, 35: 0.0, 36: 0.0, 37: 0.0, 38: 0.5143175169999999, 39: 0.0, 40: 1.0, 41: 1.0, 42: 0.0, 43: 0.0, 44: 1.0, 45: 1.0, 46: 1.0, 47: 0.0, 48: 1.0, 49: 1.0, 50: 0.0, 51: 1.0, 52: 0.0, 53: 1.0, 54: 0.0, 55: 0.0, 56: 0.0, 57: 0.0, 58: 0.0, 59: 0.0, 60: 0.0, 61: 0.0, 62: 1.0, 63: 0.0, 64: 1.0, 65: 0.0, 66: 0.0, 67: 0.0, 68: 1.0, 69: 0.0, 70: 0.0, 71: 0.0, 72: 1.0, 73: 1.0, 74: 1.0, 75: 0.0, 76: 0.0, 77: 1.0, 78: 0.0, 79: 0.0, 80: 1.0, 81: 1.0, 82: 0.0, 83: 1.0, 84: 0.0, 85: 0.0, 86: 0.0, 87: 0.0, 88: 0.0, 89: 0.0, 90: 0.0, 91: 1.0, 92: 1.0, 93: 1.0, 94: 1.0, 95: 0.0];
soc = [0: 8.418495999999999, 1: 7.416812301, 2: 8.315328938, 3: 7.313665873, 4: 8.212203139, 5: 7.210560699, 6: 7.209118587, 7: 8.107676763000001, 8: 9.006055227999999, 9: 8.004254016000001, 10: 7.002653166, 11: 7.001252635, 12: 7.899852385, 13: 7.898272414, 14: 8.796692760000001, 15: 8.322229717000001, 16: 8.320565271, 17: 9.218901158, 18: 10.117057378, 19: 10.115033967, 20: 9.11301096, 21: 9.111188358, 22: 10.00936612, 23: 10.907364247, 24: 11.805182774, 25: 11.802821737, 26: 10.800461173, 27: 11.698301081, 28: 10.695961421, 29: 9.693822228, 30: 10.591883464, 31: 11.489765087, 32: 10.487467134, 33: 9.485369641, 34: 8.483472567, 35: 8.588845872, 36: 8.587128103, 37: 9.485410677000001, 38: 8.969196079, 39: 8.96740224, 40: 7.965608759, 41: 6.964015637, 42: 7.862622834, 43: 8.76105031, 44: 7.7592981, 45: 6.75774624, 46: 5.756394691, 47: 5.755243412, 48: 4.754092363, 49: 3.753141545, 50: 4.652390916, 51: 3.651460438, 52: 3.650730146, 53: 2.65, 54: 3.54947, 55: 3.548760106, 56: 4.448050354, 57: 4.447160744, 58: 4.446271312, 59: 5.345382057, 60: 5.344312981, 61: 6.243244118, 62: 5.24199547, 63: 6.140947071, 64: 5.139718881, 65: 6.038690937, 66: 6.937483199, 67: 6.936095703, 68: 5.934708483, 69: 6.833521542, 70: 7.732154837, 71: 8.630608406, 72: 7.628882285, 73: 6.627356508, 74: 5.626031037, 75: 6.524905831, 76: 6.52360085, 77: 5.522296129, 78: 6.42119167, 79: 6.419907432, 80: 5.41862345, 81: 4.417539726, 82: 5.316656218, 83: 4.315592887, 84: 5.214729768, 85: 6.113686822, 86: 7.012464085, 87: 7.011061592, 88: 7.90965938, 89: 8.808077448000001, 90: 9.706315832, 91: 8.704374569000001, 92: 7.702633694, 93: 6.701093167, 94: 5.699752949, 95: 6.598612998];
cost = [0: 1.031738389, 1: 0.0, 2: 1.353621599, 3: 0.0, 4: 1.023979959, 5: 0.0, 6: 0.294718523, 7: 1.015244089, 8: 0.989952829, 9: 0.0, 10: 0.0, 11: 0.302476953, 12: 0.9788344490000001, 13: 0.247007233, 14: 1.459734929, 15: 0.0, 16: 0.235888853, 17: 0.964356119, 18: 0.959346739, 19: 0.600229613, 20: 0.0, 21: 0.480065583, 22: 1.148603559, 23: 1.088307729, 24: 1.890127019, 25: 0.464935333, 26: 0.063921173, 27: 1.758319339, 28: 0.0, 29: 0.0, 30: 1.289022139, 31: 1.176723899, 32: 0.0, 33: 0.0, 34: 0.0, 35: 0.014059262, 36: 0.0, 37: 1.468294859, 38: 0.0, 39: 0.173007493, 40: 0.0, 41: 0.0, 42: 0.118178165, 43: 0.118178165, 44: 0.0, 45: 0.0, 46: 0.0, 47: 0.0, 48: 0.0, 49: 0.0, 50: 0.118178165, 51: 0.0, 52: 0.0, 53: 0.0, 54: 0.118178165, 55: 0.0, 56: 1.002048649, 57: 0.0, 58: 0.0, 59: 1.315440349, 60: 0.0, 61: 1.837189819, 62: 0.0, 63: 1.766527579, 64: 0.0, 65: 0.174247979, 66: 1.490897259, 67: 0.175505653, 68: 0.0, 69: 1.483997579, 70: 1.483045899, 71: 0.9798450990000001, 72: 0.0, 73: 0.0, 74: 0.0, 75: 1.465796699, 76: 0.158256453, 77: 0.0, 78: 1.456993659, 79: 0.146003573, 80: 0.0, 81: 0.0, 82: 1.466034619, 83: 0.0, 84: 1.478287499, 85: 1.485900939, 86: 1.488042219, 87: 0.180858853, 88: 0.815663059, 89: 0.816029599, 90: 0.815846329, 91: 0.0, 92: 0.0, 93: 0.0, 94: 0.0, 95: 0.948228359];
earn = [0: 0.0, 1: 0.300245833, 2: 0.0, 3: 0.261331333, 4: 0.0, 5: 0.28140406, 6: 0.0, 7: 0.0, 8: 0.0, 9: 0.30861138, 10: 0.30888585, 11: 0.0, 12: 0.0, 13: 0.0, 14: 0.0, 15: 0.0, 16: 0.0, 17: 0.0, 18: 0.0, 19: 0.0, 20: 0.011478133, 21: 0.0, 22: 0.0, 23: 0.0, 24: 0.0, 25: 0.0, 26: 0.0, 27: 0.0, 28: 0.909306667, 29: 0.814731, 30: 0.0, 31: 0.0, 32: 0.8597881469999999, 33: 0.1379125, 34: 0.529907233, 35: 0.0, 36: 0.551777677, 37: 0.0, 38: 1.159411356, 39: 0.0, 40: 1.456054757, 41: 1.32656892, 42: 0.0, 43: 0.313801767, 44: 0.358294523, 45: 0.331284067, 46: 1.28176817, 47: 0.727705747, 48: 1.149704053, 49: 1.046860253, 50: 0.0, 51: 1.197002893, 52: 0.0, 53: 0.794032677, 54: 0.08104476300000001, 55: 0.56715428, 56: 0.0, 57: 0.0, 58: 0.341523173, 59: 0.0, 60: 0.33999964, 61: 0.0, 62: 0.18149776, 63: 0.0, 64: 0.96213753, 65: 0.0, 66: 0.0, 67: 0.0, 68: 0.493592107, 69: 0.0, 70: 0.0, 71: 0.0, 72: 0.741730733, 73: 0.755937467, 74: 0.725773253, 75: 0.0, 76: 0.0, 77: 0.814966667, 78: 0.0, 79: 0.0, 80: 0.795033333, 81: 0.783940267, 82: 0.0, 83: 0.750264533, 84: 0.0, 85: 0.0, 86: 0.0, 87: 0.0, 88: 0.0, 89: 0.0, 90: 0.0, 91: 0.573972667, 92: 0.559024687, 93: 0.409416667, 94: 0.381186423, 95: 0.0];
total_cost = 47.375918043;
total_earn = 26.676064946;
