production = [0: 0.0, 1: 0.0, 2: 0.0, 3: 0.0, 4: 0.0, 5: 0.0, 6: 0.0, 7: 0.0, 8: 0.0, 9: 0.0, 10: 0.0, 11: 0.0, 12: 0.0, 13: 0.0, 14: 0.0, 15: 0.0, 16: 0.0, 17: 0.0, 18: 0.0, 19: 0.0, 20: 0.0, 21: 0.0, 22: 0.0008, 23: 0.0011, 24: 0.0, 25: 0.0016, 26: 0.0, 27: 0.0364, 28: 0.0789, 29: 0.0, 30: 0.0, 31: 0.0, 32: 0.0, 33: 0.0, 34: 0.0, 35: 0.4043, 36: 0.0, 37: 0.0, 38: 1.2313, 39: 0.0, 40: 1.4659, 41: 1.5614, 42: 1.120133333, 43: 1.7736, 44: 1.7834, 45: 1.186333333, 46: 0.0, 47: 0.0, 48: 0.0, 49: 1.7649, 50: 1.176333333, 51: 1.175033333, 52: 2.2576, 53: 1.6298, 54: 0.0, 55: 1.161833333, 56: 0.0, 57: 1.9691, 58: 0.0, 59: 0.0, 60: 1.7733, 61: 0.0, 62: 1.497, 63: 1.3524, 64: 1.2347, 65: 0.0, 66: 0.0, 67: 0.8975, 68: 0.5787, 69: 0.6837, 70: 0.0, 71: 0.0, 72: 0.1969, 73: 0.1494, 74: 0.08309999999999999, 75: 0.0549, 76: 0.0464, 77: 0.0219, 78: 0.0, 79: 0.0, 80: 0.0, 81: 0.0, 82: 0.0, 83: 0.0, 84: 0.0, 85: 0.0, 86: 0.0, 87: 0.0, 88: 0.0, 89: 0.0, 90: 0.0, 91: 0.0, 92: 0.0, 93: 0.0, 94: 0.0, 95: 0.0];
buy = [0: 0.0, 1: 1.498333333, 2: 1.022333333, 3: 1.523333333, 4: 1.482733333, 5: 0.485133333, 6: 0.0, 7: 0.468433333, 8: 1.427033333, 9: 0.434733333, 10: 0.0, 11: 0.0, 12: 0.0, 13: 0.404333333, 14: 1.196033333, 15: 0.425433333, 16: 0.0, 17: 0.385133333, 18: 1.376933333, 19: 0.082533333, 20: 1.884233333, 21: 0.0, 22: 1.686733333, 23: 1.310890632, 24: 1.490833333, 25: 1.390833333, 26: 0.053733333, 27: 0.378733333, 28: 0.0, 29: 1.132833333, 30: 1.132233333, 31: 0.124133333, 32: 1.123033333, 33: 1.127633333, 34: 0.269533333, 35: 0.0, 36: 1.270833333, 37: 1.134933333, 38: 0.0, 39: 1.145433333, 40: 0.0, 41: 0.0, 42: 0.0, 43: 0.0, 44: 0.0, 45: 0.0, 46: 1.187733333, 47: 0.0, 48: 0.164733333, 49: 0.0, 50: 0.0, 51: 0.0, 52: 0.0, 53: 0.0, 54: 0.696433333, 55: 0.0, 56: 0.0, 57: 0.0, 58: 1.407403365, 59: 0.059833333, 60: 0.179933333, 61: 0.0, 62: 0.0, 63: 0.0, 64: 0.0, 65: 1.154433333, 66: 0.153933333, 67: 0.0, 68: 0.567033333, 69: 0.0, 70: 0.147333333, 71: 1.142833333, 72: 0.0, 73: 0.0, 74: 0.0, 75: 0.07793333299999999, 76: 1.086633333, 77: 1.111433333, 78: 0.125433333, 79: 0.546958183, 80: 1.133333333, 81: 0.0, 82: 0.0, 83: 0.0, 84: 0.0, 85: 0.149733333, 86: 0.0, 87: 1.152033333, 88: 1.141733333, 89: 0.0, 90: 1.142033333, 91: 0.0, 92: 1.149933333, 93: 0.0, 94: 1.359233333, 95: 0.0];
sell = [0: 0.404566667, 1: 0.0, 2: 0.0, 3: 0.0, 4: 0.0, 5: 0.0, 6: 0.417566667, 7: 0.0, 8: 0.0, 9: 0.0, 10: 0.463166667, 11: 0.404866667, 12: 0.491166667, 13: 0.0, 14: 0.0, 15: 0.0, 16: 0.5138666670000001, 17: 0.0, 18: 0.0, 19: 0.0, 20: 0.0, 21: 0.114166667, 22: 0.0, 23: 0.0, 24: 0.0, 25: 0.0, 26: 0.0, 27: 0.0, 28: 0.845866667, 29: 0.0, 30: 0.0, 31: 0.0, 32: 0.0, 33: 0.0, 34: 0.0, 35: 0.118966667, 36: 0.0, 37: 0.0, 38: 1.985266667, 39: 0.0, 40: 2.221966667, 41: 0.424866667, 42: 0.0, 43: 0.606966667, 44: 1.618966667, 45: 0.0, 46: 0.0, 47: 0.694666667, 48: 0.0, 49: 2.512866667, 50: 0.0, 51: 0.0, 52: 1.096566667, 53: 1.483766667, 54: 0.0, 55: 0.0, 56: 0.0, 57: 0.760466667, 58: 0.0, 59: 0.0, 60: 0.0, 61: 0.454966667, 62: 1.952566667, 63: 1.866766667, 64: 0.090766667, 65: 0.0, 66: 0.0, 67: 1.649966667, 68: 0.0, 69: 0.0, 70: 0.0, 71: 0.0, 72: 0.960666667, 73: 0.911866667, 74: 0.841866667, 75: 0.0, 76: 0.0, 77: 0.0, 78: 0.0, 79: 0.0, 80: 0.0, 81: 0.765566667, 82: 0.766966667, 83: 0.775066667, 84: 0.756666667, 85: 0.0, 86: 0.748466667, 87: 0.0, 88: 0.0, 89: 0.757666667, 90: 0.0, 91: 0.751666667, 92: 0.0, 93: 0.566666667, 94: 0.0, 95: 0.541266667];
charge = [0: 0.0, 1: 1.0, 2: 0.0, 3: 1.0, 4: 1.0, 5: 0.0, 6: 0.0, 7: 0.0, 8: 1.0, 9: 0.0, 10: 0.0, 11: 0.0, 12: 0.0, 13: 0.0, 14: 0.0, 15: 0.0, 16: 0.0, 17: 0.0, 18: 1.0, 19: 0.0, 20: 1.0, 21: 0.0, 22: 1.0, 23: 0.722857299, 24: 1.0, 25: 1.0, 26: 0.0, 27: 0.0, 28: 0.0, 29: 1.0, 30: 1.0, 31: 0.0, 32: 1.0, 33: 0.0, 34: 0.0, 35: 0.0, 36: 1.0, 37: 1.0, 38: 0.0, 39: 1.0, 40: 0.0, 41: 1.0, 42: 1.0, 43: 1.0, 44: 0.0, 45: 1.0, 46: 1.0, 47: 0.0, 48: 0.0, 49: 0.0, 50: 1.0, 51: 1.0, 52: 1.0, 53: 0.0, 54: 0.0, 55: 1.0, 56: 0.0, 57: 0.0, 58: 0.561870032, 59: 0.0, 60: 1.0, 61: 0.0, 62: 0.0, 63: 0.0, 64: 1.0, 65: 1.0, 66: 0.0, 67: 0.0, 68: 1.0, 69: 0.535566667, 70: 0.0, 71: 1.0, 72: 0.0, 73: 0.0, 74: 0.0, 75: 0.0, 76: 1.0, 77: 1.0, 78: 0.0, 79: 0.42262485, 80: 1.0, 81: 0.0, 82: 0.0, 83: 0.0, 84: 0.0, 85: 0.0, 86: 0.0, 87: 1.0, 88: 1.0, 89: 0.0, 90: 1.0, 91: 0.0, 92: 1.0, 93: 0.0, 94: 1.0, 95: 0.0];
discharge = [0: 1.0, 1: 0.0, 2: 0.0, 3: 0.0, 4: 0.0, 5: 0.0, 6: 1.0, 7: 0.0, 8: 0.0, 9: 0.0, 10: 1.0, 11: 1.0, 12: 1.0, 13: 0.0, 14: 0.0, 15: 0.0, 16: 1.0, 17: 0.0, 18: 0.0, 19: 1.0, 20: 0.0, 21: 1.0, 22: 0.0, 23: 0.0, 24: 0.0, 25: 0.0, 26: 1.0, 27: 0.0, 28: 1.0, 29: 0.0, 30: 0.0, 31: 0.0, 32: 0.0, 33: 0.0, 34: 0.0, 35: 0.0, 36: 0.0, 37: 0.0, 38: 1.0, 39: 0.0, 40: 1.0, 41: 0.0, 42: 0.0, 43: 0.0, 44: 0.0, 45: 0.0, 46: 0.0, 47: 1.0, 48: 0.0, 49: 1.0, 50: 0.0, 51: 0.0, 52: 0.0, 53: 0.0, 54: 0.0, 55: 0.0, 56: 0.496481481, 57: 0.0, 58: 0.0, 59: 1.0, 60: 0.0, 61: 1.0, 62: 1.0, 63: 1.0, 64: 0.0, 65: 0.0, 66: 0.0, 67: 1.0, 68: 0.0, 69: 0.0, 70: 0.0, 71: 0.0, 72: 1.0, 73: 1.0, 74: 1.0, 75: 0.0, 76: 0.0, 77: 0.0, 78: 0.0, 79: 0.0, 80: 0.0, 81: 1.0, 82: 1.0, 83: 1.0, 84: 1.0, 85: 0.0, 86: 1.0, 87: 0.0, 88: 0.0, 89: 1.0, 90: 0.0, 91: 1.0, 92: 0.0, 93: 1.0, 94: 0.0, 95: 1.0];
soc = [0: 6.518496, 1: 7.417192301, 2: 7.415708862, 3: 8.314225721, 4: 9.212562875, 5: 9.210720363, 6: 8.208878219000001, 7: 8.207236442999999, 8: 9.105594996000001, 9: 9.103773877, 10: 8.101953121999999, 11: 7.100332731, 12: 6.098912665, 13: 6.097692882, 14: 6.096473344, 15: 6.095254049, 16: 5.094034998, 17: 5.093016191, 18: 5.991997588, 19: 4.990799189, 20: 5.889801029, 21: 4.888623069, 22: 5.787645344, 23: 6.437059384, 24: 7.335771972, 25: 8.234304818, 26: 7.232657957, 27: 7.231211425, 28: 6.229765183, 29: 7.12851923, 30: 8.027093526, 31: 8.025488106999999, 32: 8.923883009000001, 33: 8.922098233, 34: 8.920313813, 35: 8.918529749999999, 36: 9.816746045, 37: 10.714782695, 38: 9.712639739, 39: 10.610697211, 40: 9.608575071000001, 41: 10.506653356, 42: 11.404552026, 43: 12.302271115, 44: 12.299810661, 45: 13.197350699, 46: 14.094711229, 47: 13.091892287, 48: 13.089273908, 49: 12.086656053, 50: 12.984238722, 51: 13.881641874, 52: 14.778865546, 53: 14.775909773, 54: 14.772954591, 55: 15.67, 56: 15.170384519, 57: 15.167350442, 58: 15.67, 59: 14.666866, 60: 15.563932627, 61: 14.56081984, 62: 13.557907676, 63: 12.555196095, 64: 13.452685056, 65: 14.349994519, 66: 14.34712452, 67: 13.344255095, 68: 14.241586244, 69: 14.720747926, 70: 14.717803777, 71: 15.614860216, 72: 14.611737244, 73: 13.608814897, 74: 12.606093134, 75: 12.603571915, 76: 13.501051201, 77: 14.39835099, 78: 14.39547132, 79: 14.772954591, 80: 15.67, 81: 14.666866, 82: 13.663932627, 83: 12.66119984, 84: 11.6586676, 85: 11.656335867, 86: 10.6540046, 87: 11.551873799, 88: 12.449563424, 89: 11.447073511, 90: 12.344784097, 91: 11.34231514, 92: 12.240046677, 93: 11.237598667, 94: 12.135351148, 95: 11.132924077];
cost = [0: 0.0, 1: 1.033509999, 2: 0.624543433, 3: 1.048782499, 4: 1.023979959, 5: 0.296367953, 6: 0.0, 7: 0.286165923, 8: 0.989952829, 9: 0.265578593, 10: 0.0, 11: 0.0, 12: 0.0, 13: 0.247007233, 14: 0.730656763, 15: 0.259897223, 16: 0.0, 17: 0.235277953, 18: 0.959346739, 19: 0.050419613, 20: 1.269256309, 21: 0.0, 22: 1.148603559, 23: 0.886249037, 24: 1.891673499, 25: 1.772713499, 26: 0.063921173, 27: 0.450541173, 28: 0.0, 29: 1.465796699, 30: 1.465082939, 31: 0.147669013, 32: 1.454138619, 33: 1.341432613, 34: 0.320636853, 35: 0.0, 36: 1.629961499, 37: 1.468294859, 38: 0.0, 39: 1.480785659, 40: 0.0, 41: 0.118178165, 42: 0.118178165, 43: 0.118178165, 44: 0.0, 45: 0.118178165, 46: 1.531105739, 47: 0.0, 48: 0.195966773, 49: 0.0, 50: 0.118178165, 51: 0.118178165, 52: 0.118178165, 53: 0.0, 54: 0.425451123, 55: 0.118178165, 56: 0.0, 57: 0.0, 58: 0.926183485, 59: 0.036552183, 60: 0.332226859, 61: 0.0, 62: 0.0, 63: 0.0, 64: 0.118178165, 65: 1.491492059, 66: 0.183119093, 67: 0.0, 68: 0.792721019, 69: 0.063292286, 70: 0.175267733, 71: 1.477692699, 72: 0.0, 73: 0.0, 74: 0.0, 75: 0.092709493, 76: 1.410837179, 77: 1.440339259, 78: 0.149215493, 79: 0.700606484, 80: 1.466391499, 81: 0.0, 82: 0.0, 83: 0.0, 84: 0.0, 85: 0.178122773, 86: 0.0, 87: 1.488637019, 88: 0.815663059, 89: 0.0, 90: 0.815846329, 91: 0.0, 92: 0.820672439, 93: 0.0, 94: 0.948533809, 95: 0.0];
earn = [0: 0.31483378, 1: 0.0, 2: 0.0, 3: 0.0, 4: 0.0, 5: 0.0, 6: 0.282943173, 7: 0.0, 8: 0.0, 9: 0.0, 10: 0.30888585, 11: 0.27000558, 12: 0.323384133, 13: 0.0, 14: 0.0, 15: 0.0, 16: 0.350354293, 17: 0.0, 18: 0.0, 19: 0.0, 20: 0.0, 21: 0.08568208300000001, 22: 0.0, 23: 0.0, 24: 0.0, 25: 0.0, 26: 0.0, 27: 0.0, 28: 0.909306667, 29: 0.0, 30: 0.0, 31: 0.0, 32: 0.0, 33: 0.0, 34: 0.0, 35: 0.103013237, 36: 0.0, 37: 0.0, 38: 1.486766207, 39: 0.0, 40: 1.456054757, 41: 0.24242892, 42: 0.0, 43: 0.313801767, 44: 0.788598663, 45: 0.0, 46: 0.0, 47: 0.279742267, 48: 0.0, 49: 1.046860253, 50: 0.0, 51: 0.0, 52: 0.397176447, 53: 0.494242677, 54: 0.0, 55: 0.0, 56: 0.0, 57: 0.232170473, 58: 0.0, 59: 0.0, 60: 0.0, 61: 0.184898453, 62: 0.77790256, 63: 0.784788707, 64: 0.04386753, 65: 0.0, 66: 0.0, 67: 0.955660693, 68: 0.0, 69: 0.0, 70: 0.0, 71: 0.0, 72: 0.741730733, 73: 0.755937467, 74: 0.725773253, 75: 0.0, 76: 0.0, 77: 0.0, 78: 0.0, 79: 0.0, 80: 0.0, 81: 0.783940267, 82: 0.7754033, 83: 0.750264533, 84: 0.657694667, 85: 0.0, 86: 0.6444298000000001, 87: 0.0, 88: 0.0, 89: 0.605830267, 90: 0.0, 91: 0.573972667, 92: 0.0, 93: 0.409416667, 94: 0.0, 95: 0.368386093];
total_cost = 45.330493089;
total_earn = 20.226148883;
% _objective = 25.104344206;