production = [0: 0.0, 1: 0.0, 2: 0.0, 3: 0.0, 4: 0.0, 5: 0.0, 6: 0.0, 7: 0.0, 8: 0.0, 9: 0.0, 10: 0.0, 11: 0.0, 12: 0.0, 13: 0.0, 14: 0.0, 15: 0.0, 16: 0.0, 17: 0.0, 18: 0.0, 19: 0.0, 20: 0.0, 21: 0.0005, 22: 0.0008, 23: 0.0011, 24: 0.0013, 25: 0.0016, 26: 0.0, 27: 0.0, 28: 0.0, 29: 0.1011, 30: 0.148, 31: 0.2343, 32: 0.0, 33: 0.0, 34: 0.0, 35: 0.4043, 36: 0.0, 37: 1.1215, 38: 0.146033333, 39: 0.0, 40: 0.0, 41: 1.5614, 42: 0.0, 43: 0.0, 44: 1.7834, 45: 0.0, 46: 0.0, 47: 0.0, 48: 0.0, 49: 0.0, 50: 0.0, 51: 0.0, 52: 2.2576, 53: 0.0, 54: 0.0, 55: 2.0929, 56: 0.0, 57: 0.0, 58: 0.0, 59: 0.0, 60: 1.7733, 61: 1.6514, 62: 1.497, 63: 0.0, 64: 0.0, 65: 0.0, 66: 1.1252, 67: 0.8975, 68: 0.5787, 69: 0.6837, 70: 0.0, 71: 0.4185, 72: 0.1969, 73: 0.0, 74: 0.08309999999999999, 75: 0.0549, 76: 0.0, 77: 0.0219, 78: 0.0037, 79: 0.0, 80: 0.0, 81: 0.0, 82: 0.0, 83: 0.0, 84: 0.0, 85: 0.0, 86: 0.0, 87: 0.0, 88: 0.0, 89: 0.0, 90: 0.0, 91: 0.0, 92: 0.0, 93: 0.0, 94: 0.0, 95: 0.0];
buy = [0: 1.495433333, 1: 1.498333333, 2: 1.022333333, 3: 0.523333333, 4: 0.482733333, 5: 0.0, 6: 0.482433333, 7: 0.0, 8: 0.427033333, 9: 0.434733333, 10: 0.0, 11: 0.0, 12: 1.408833333, 13: 1.404333333, 14: 2.196033333, 15: 1.425433333, 16: 1.386133333, 17: 1.385133333, 18: 0.0, 19: 1.982533333, 20: 0.0, 21: 1.785333333, 22: 1.686733333, 23: 1.588033333, 24: 1.489533333, 25: 1.390833333, 26: 0.053733333, 27: 0.415133333, 28: 1.133033333, 29: 0.0, 30: 0.0, 31: 0.0, 32: 1.123033333, 33: 0.227633333, 34: 0.269533333, 35: 0.0, 36: 0.0, 37: 0.0, 38: 0.0, 39: 0.0, 40: 0.0, 41: 0.0, 42: 1.120133333, 43: 1.166633333, 44: 0.0, 45: 0.0, 46: 0.0, 47: 0.205333333, 48: 1.164733333, 49: 0.152033333, 50: 1.176333333, 51: 1.175033333, 52: 0.0, 53: 1.146033333, 54: 0.696433333, 55: 0.0, 56: 1.446833333, 57: 2.208633333, 58: 1.845533333, 59: 1.959833333, 60: 0.179933333, 61: 0.0, 62: 0.0, 63: 0.0, 64: 1.143933333, 65: 1.154433333, 66: 0.0, 67: 0.250033333, 68: 0.0, 69: 0.464433333, 70: 0.147333333, 71: 0.724333333, 72: 0.939333333, 73: 0.0, 74: 0.058133333, 75: 0.0, 76: 1.133033333, 77: 0.111433333, 78: 0.121733333, 79: 1.124333333, 80: 0.0, 81: 0.0, 82: 1.133033333, 83: 0.124933333, 84: 0.143333333, 85: 0.0, 86: 0.151533333, 87: 0.152033333, 88: 0.141733333, 89: 0.0, 90: 0.0, 91: 0.0, 92: 1.149933333, 93: 0.0, 94: 0.359233333, 95: 0.0];
sell = [0: 0.0, 1: 0.0, 2: 0.0, 3: 0.0, 4: 0.0, 5: 0.414866667, 6: 0.0, 7: 0.431566667, 8: 0.0, 9: 0.0, 10: 0.0, 11: 0.404866667, 12: 0.0, 13: 0.0, 14: 0.0, 15: 0.0, 16: 0.0, 17: 0.0, 18: 0.523066667, 19: 0.0, 20: 0.015766667, 21: 0.0, 22: 0.0, 23: 0.0, 24: 0.0, 25: 0.0, 26: 0.0, 27: 0.0, 28: 0.0, 29: 0.868266667, 30: 0.915766667, 31: 0.9341721589999999, 32: 0.0, 33: 0.0, 34: 0.0, 35: 0.118966667, 36: 0.629166667, 37: 1.886566667, 38: 0.0, 39: 0.754566667, 40: 0.756066667, 41: 1.424866667, 42: 0.0, 43: 0.0, 44: 2.518966667, 45: 0.713666667, 46: 0.712266667, 47: 0.0, 48: 0.0, 49: 0.0, 50: 0.0, 51: 0.0, 52: 2.096566667, 53: 0.0, 54: 0.0, 55: 2.831066667, 56: 0.0, 57: 0.0, 58: 0.0, 59: 0.0, 60: 0.0, 61: 2.106366667, 62: 1.052566667, 63: 0.514366667, 64: 0.0, 65: 0.0, 66: 1.871266667, 67: 0.0, 68: 0.432966667, 69: 0.0, 70: 0.0, 71: 0.0, 72: 0.0, 73: 0.762466667, 74: 0.0, 75: 0.822066667, 76: 0.0, 77: 0.0, 78: 0.0, 79: 0.0, 80: 0.766666667, 81: 0.765566667, 82: 0.0, 83: 0.0, 84: 0.0, 85: 0.750266667, 86: 0.0, 87: 0.0, 88: 0.0, 89: 0.757666667, 90: 0.757966667, 91: 0.751666667, 92: 0.0, 93: 0.566666667, 94: 0.0, 95: 0.541266667];
charge = [0: 1.0, 1: 1.0, 2: 0.0, 3: 0.0, 4: 0.0, 5: 0.0, 6: 0.0, 7: 0.0, 8: 0.0, 9: 0.0, 10: 0.0, 11: 0.0, 12: 1.0, 13: 1.0, 14: 1.0, 15: 1.0, 16: 1.0, 17: 1.0, 18: 0.0, 19: 1.0, 20: 0.0, 21: 1.0, 22: 1.0, 23: 1.0, 24: 1.0, 25: 1.0, 26: 0.0, 27: 0.0, 28: 1.0, 29: 0.0, 30: 0.0, 31: 0.0, 32: 1.0, 33: 0.0, 34: 0.0, 35: 0.0, 36: 0.0, 37: 0.0, 38: 0.0, 39: 0.0, 40: 0.0, 41: 0.0, 42: 1.0, 43: 1.0, 44: 0.0, 45: 0.0, 46: 0.0, 47: 0.0, 48: 1.0, 49: 0.0, 50: 1.0, 51: 1.0, 52: 0.0, 53: 1.0, 54: 0.0, 55: 0.0, 56: 1.0, 57: 1.0, 58: 1.0, 59: 1.0, 60: 1.0, 61: 0.0, 62: 0.0, 63: 0.0, 64: 1.0, 65: 1.0, 66: 0.0, 67: 1.0, 68: 0.0, 69: 1.0, 70: 0.0, 71: 1.0, 72: 1.0, 73: 0.0, 74: 0.0, 75: 0.0, 76: 1.0, 77: 0.0, 78: 0.0, 79: 1.0, 80: 0.0, 81: 0.0, 82: 1.0, 83: 0.0, 84: 0.0, 85: 0.0, 86: 0.0, 87: 0.0, 88: 0.0, 89: 0.0, 90: 0.0, 91: 0.0, 92: 1.0, 93: 0.0, 94: 0.0, 95: 0.0];
discharge = [0: 0.0, 1: 0.0, 2: 0.0, 3: 0.0, 4: 0.0, 5: 1.0, 6: 0.0, 7: 1.0, 8: 0.0, 9: 0.0, 10: 0.48537037, 11: 1.0, 12: 0.0, 13: 0.0, 14: 0.0, 15: 0.0, 16: 0.0, 17: 0.0, 18: 1.0, 19: 0.0, 20: 1.0, 21: 0.0, 22: 0.0, 23: 0.0, 24: 0.0, 25: 0.0, 26: 1.0, 27: 0.0, 28: 0.0, 29: 1.0, 30: 1.0, 31: 0.915561659, 32: 0.0, 33: 1.0, 34: 0.0, 35: 0.0, 36: 1.0, 37: 1.0, 38: 0.0, 39: 1.0, 40: 1.0, 41: 0.0, 42: 0.0, 43: 0.0, 44: 1.0, 45: 1.0, 46: 1.0, 47: 0.0, 48: 0.0, 49: 0.0, 50: 0.0, 51: 0.0, 52: 0.0, 53: 0.0, 54: 0.0, 55: 1.0, 56: 0.0, 57: 0.0, 58: 0.0, 59: 0.0, 60: 0.0, 61: 1.0, 62: 0.0, 63: 1.0, 64: 0.0, 65: 0.0, 66: 1.0, 67: 0.0, 68: 0.0, 69: 0.0, 70: 0.0, 71: 0.0, 72: 0.0, 73: 1.0, 74: 0.0, 75: 1.0, 76: 0.0, 77: 0.0, 78: 0.0, 79: 0.0, 80: 1.0, 81: 1.0, 82: 0.0, 83: 0.0, 84: 0.0, 85: 1.0, 86: 0.0, 87: 0.0, 88: 0.0, 89: 1.0, 90: 1.0, 91: 1.0, 92: 0.0, 93: 1.0, 94: 0.0, 95: 1.0];
soc = [0: 8.418495999999999, 1: 9.316812301000001, 2: 9.314948938000001, 3: 9.313085949, 4: 9.311223331000001, 5: 8.309361086999999, 6: 8.307699213999999, 7: 7.306037675, 8: 7.304576467, 9: 7.303115552, 10: 6.816284558, 11: 5.814921301, 12: 6.713758317, 13: 7.612415565, 14: 8.510893082000001, 15: 9.409190904000001, 16: 10.307309066, 17: 11.205247604, 18: 10.203006554, 19: 11.100965953, 20: 10.09874576, 21: 10.996726011, 22: 11.894526665, 23: 12.79214776, 24: 13.689589331, 25: 14.586851413, 26: 13.583934042, 27: 13.581217256, 28: 14.478501012, 29: 13.475605312, 30: 12.472910191, 31: 11.55485395, 32: 12.452542979, 33: 11.450052471, 34: 11.44776246, 35: 11.445472908, 36: 10.443183813, 37: 9.441095176999999, 38: 9.439206958, 39: 8.437319115999999, 40: 7.435631652, 41: 7.434144526, 42: 8.332657697, 43: 9.230991166000001, 44: 8.229144967, 45: 7.227499138, 46: 6.226053638, 47: 6.224808428, 48: 7.123563466, 49: 7.122138753, 50: 8.020714326, 51: 8.919110183000001, 52: 8.917326361000001, 53: 9.815542895, 54: 9.813579787, 55: 8.811617071000001, 56: 9.709854747, 57: 10.607912777, 58: 11.505791194, 59: 12.403490036, 60: 13.301009338, 61: 12.298349136, 62: 12.295889466, 63: 11.293430288, 64: 12.191171602, 65: 13.088733368, 66: 12.086115621, 67: 12.983698398, 68: 12.981101658, 69: 13.878505438, 70: 13.875729737, 71: 14.772954591, 72: 15.67, 73: 14.666866, 74: 14.663932627, 75: 13.66099984, 76: 14.55826764, 77: 14.555355987, 78: 14.552444916, 79: 15.449534427, 80: 14.44644452, 81: 13.443555231, 82: 14.34086652, 83: 14.337998346, 84: 14.335130747, 85: 13.332263721, 86: 13.329597268, 87: 13.326931348, 88: 13.324265962, 89: 12.321601109, 90: 11.319136789, 91: 10.316872961, 92: 11.214809587, 93: 10.212566625, 94: 10.210524112, 95: 9.208482007000001];
cost = [0: 1.031738389, 1: 1.033509999, 2: 0.624543433, 3: 0.319704333, 4: 0.294901793, 5: 0.0, 6: 0.294718523, 7: 0.0, 8: 0.260874663, 9: 0.265578593, 10: 0.0, 11: 0.0, 12: 0.9788344490000001, 13: 0.976085399, 14: 1.459734929, 15: 0.988975389, 16: 0.964967019, 17: 0.964356119, 18: 0.0, 19: 1.329307779, 20: 0.0, 21: 1.208838299, 22: 1.148603559, 23: 1.088307729, 24: 1.890127019, 25: 1.772713499, 26: 0.063921173, 27: 0.493842613, 28: 1.466034619, 29: 0.0, 30: 0.0, 31: 0.0, 32: 1.454138619, 33: 0.270792613, 34: 0.320636853, 35: 0.0, 36: 0.0, 37: 0.0, 38: 0.0, 39: 0.0, 40: 0.0, 41: 0.0, 42: 1.450688779, 43: 1.506005179, 44: 0.0, 45: 0.0, 46: 0.0, 47: 0.244264533, 48: 1.503744939, 49: 0.180858853, 50: 1.517544299, 51: 1.515997819, 52: 0.0, 53: 0.818289929, 54: 0.425451123, 55: 0.0, 56: 1.002048649, 57: 1.467432269, 58: 1.245614479, 59: 1.315440349, 60: 0.332226859, 61: 0.0, 62: 0.0, 63: 0.0, 64: 1.479001259, 65: 1.491492059, 66: 0.0, 67: 0.415617819, 68: 0.0, 69: 0.670668059, 70: 0.175267733, 71: 0.9798450990000001, 72: 1.235609099, 73: 0.0, 74: 0.069155413, 75: 0.0, 76: 1.466034619, 77: 0.132561093, 78: 0.144813973, 79: 1.455685099, 80: 0.0, 81: 0.0, 82: 1.466034619, 83: 0.148620693, 84: 0.170509333, 85: 0.0, 86: 0.180264053, 87: 0.180858853, 88: 0.086584893, 89: 0.0, 90: 0.0, 91: 0.0, 92: 0.820672439, 93: 0.0, 94: 0.219455643, 95: 0.0];
earn = [0: 0.0, 1: 0.0, 2: 0.0, 3: 0.0, 4: 0.0, 5: 0.28140406, 6: 0.0, 7: 0.282071973, 8: 0.0, 9: 0.0, 10: 0.0, 11: 0.27000558, 12: 0.0, 13: 0.0, 14: 0.0, 15: 0.0, 16: 0.0, 17: 0.0, 18: 0.372632693, 19: 0.0, 20: 0.011478133, 21: 0.0, 22: 0.0, 23: 0.0, 24: 0.0, 25: 0.0, 26: 0.0, 27: 0.0, 28: 0.0, 29: 0.9220992, 30: 0.952397333, 31: 0.93884302, 32: 0.0, 33: 0.0, 34: 0.0, 35: 0.103013237, 36: 0.470427917, 37: 1.440770963, 38: 0.0, 39: 0.51499175, 40: 0.495450487, 41: 0.81302892, 42: 0.0, 43: 0.0, 44: 1.226988663, 45: 0.331284067, 46: 0.34124696, 47: 0.0, 48: 0.0, 49: 0.0, 50: 0.0, 51: 0.0, 52: 0.759376447, 53: 0.0, 54: 0.0, 55: 0.83148428, 56: 0.0, 57: 0.0, 58: 0.0, 59: 0.0, 60: 0.0, 61: 0.856027413, 62: 0.41934256, 63: 0.216239747, 64: 0.0, 65: 0.0, 66: 0.979420973, 67: 0.0, 68: 0.283333387, 69: 0.0, 70: 0.0, 71: 0.0, 72: 0.0, 73: 0.632084867, 74: 0.0, 75: 0.73912014, 76: 0.0, 77: 0.0, 78: 0.0, 79: 0.0, 80: 0.795033333, 81: 0.783940267, 82: 0.0, 83: 0.0, 84: 0.0, 85: 0.652356867, 86: 0.0, 87: 0.0, 88: 0.0, 89: 0.605830267, 90: 0.6006885830000001, 91: 0.573972667, 92: 0.0, 93: 0.409416667, 94: 0.0, 95: 0.368386093];
total_cost = 50.48014731;
total_earn = 20.274189513;
% _objective = 30.205957797;