production = [0: 0.0, 1: 0.0, 2: 0.0, 3: 0.0, 4: 0.0, 5: 0.0, 6: 0.0, 7: 0.0, 8: 0.0, 9: 0.0, 10: 0.0, 11: 0.0, 12: 0.0, 13: 0.0, 14: 0.0, 15: 0.0, 16: 0.0, 17: 0.0, 18: 0.0, 19: 0.0, 20: 0.0003, 21: 0.0, 22: 0.0008, 23: 0.0, 24: 0.0013, 25: 0.0, 26: 0.008399999999999999, 27: 0.0364, 28: 0.0, 29: 0.1011, 30: 0.148, 31: 0.0, 32: 0.3048, 33: 0.0, 34: 0.4644, 35: 0.0, 36: 0.0, 37: 0.0, 38: 0.0, 39: 1.3358, 40: 1.4659, 41: 1.5614, 42: 0.0, 43: 0.166633333, 44: 0.0, 45: 0.0, 46: 1.9631, 47: 0.0, 48: 0.0, 49: 0.0, 50: 0.0, 51: 1.175033333, 52: 0.0, 53: 0.0, 54: 0.0, 55: 0.0, 56: 2.0053, 57: 1.9691, 58: 1.9098, 59: 0.0, 60: 1.7733, 61: 0.0, 62: 0.0, 63: 0.0, 64: 1.2347, 65: 0.0, 66: 1.1252, 67: 0.0, 68: 0.5787, 69: 0.0, 70: 0.0, 71: 0.0, 72: 0.0, 73: 0.1494, 74: 0.0, 75: 0.0549, 76: 0.0, 77: 0.0, 78: 0.0, 79: 0.0016, 80: 0.0, 81: 0.0, 82: 0.0, 83: 0.0, 84: 0.0, 85: 0.0, 86: 0.0, 87: 0.0, 88: 0.0, 89: 0.0, 90: 0.0, 91: 0.0, 92: 0.0, 93: 0.0, 94: 0.0, 95: 0.0];
buy = [0: 0.0, 1: 0.498333333, 2: 0.122333333, 3: 0.523333333, 4: 1.482733333, 5: 1.485133333, 6: 1.482433333, 7: 0.0, 8: 0.427033333, 9: 0.0, 10: 0.0, 11: 0.0, 12: 0.0, 13: 1.404333333, 14: 1.196033333, 15: 1.425433333, 16: 0.0, 17: 0.478607668, 18: 0.0, 19: 0.982533333, 20: 0.883933333, 21: 0.0, 22: 0.6867333329999999, 23: 0.589133333, 24: 1.489533333, 25: 1.392433333, 26: 1.945333333, 27: 0.0, 28: 0.133033333, 29: 0.031733333, 30: 0.984233333, 31: 1.124133333, 32: 0.0, 33: 1.127633333, 34: 0.0, 35: 0.285333333, 36: 1.270833333, 37: 0.0, 38: 0.146033333, 39: 0.0, 40: 0.0, 41: 0.0, 42: 1.120133333, 43: 0.0, 44: 1.164433333, 45: 0.186333333, 46: 0.0, 47: 0.0, 48: 0.0, 49: 0.522031438, 50: 0.0, 51: 0.0, 52: 0.0, 53: 0.146033333, 54: 1.696433333, 55: 0.0, 56: 0.0, 57: 0.239533333, 58: 0.0, 59: 0.959833333, 60: 0.0, 61: 0.0, 62: 0.0, 63: 1.385633333, 64: 0.0, 65: 1.154433333, 66: 0.0, 67: 0.0, 68: 0.567033333, 69: 0.0, 70: 0.0, 71: 0.142833333, 72: 0.136233333, 73: 0.9881333329999999, 74: 0.0, 75: 1.077933333, 76: 0.133033333, 77: 1.133333333, 78: 0.125433333, 79: 1.122733333, 80: 1.133333333, 81: 0.134433333, 82: 0.0, 83: 1.124933333, 84: 1.143333333, 85: 1.149733333, 86: 0.0, 87: 0.152033333, 88: 0.0, 89: 1.142333333, 90: 0.0, 91: 0.0, 92: 0.149933333, 93: 0.333333333, 94: 0.359233333, 95: 1.358733333];
sell = [0: 0.404566667, 1: 0.0, 2: 0.0, 3: 0.0, 4: 0.0, 5: 0.0, 6: 0.0, 7: 0.431566667, 8: 0.0, 9: 0.465266667, 10: 0.463166667, 11: 0.404866667, 12: 0.491166667, 13: 0.0, 14: 0.0, 15: 0.0, 16: 0.0, 17: 0.0, 18: 0.523066667, 19: 0.0, 20: 0.0, 21: 0.114166667, 22: 0.0, 23: 0.0, 24: 0.0, 25: 0.0, 26: 0.0, 27: 0.521266667, 28: 0.0, 29: 0.0, 30: 0.0, 31: 0.0, 32: 0.181766667, 33: 0.0, 34: 0.194866667, 35: 0.0, 36: 0.0, 37: 0.765066667, 38: 0.0, 39: 2.090366667, 40: 2.221966667, 41: 1.424866667, 42: 0.0, 43: 0.0, 44: 0.0, 45: 0.0, 46: 2.675366667, 47: 0.694666667, 48: 0.0, 49: 0.0, 50: 0.723666667, 51: 0.0, 52: 0.0, 53: 0.0, 54: 0.0, 55: 0.738166667, 56: 1.558466667, 57: 0.0, 58: 0.064266667, 59: 0.0, 60: 0.820066667, 61: 0.454966667, 62: 0.455566667, 63: 0.0, 64: 0.090766667, 65: 0.0, 66: 1.871266667, 67: 0.752466667, 68: 0.0, 69: 0.751866667, 70: 0.752666667, 71: 0.0, 72: 0.0, 73: 0.0, 74: 0.758766667, 75: 0.0, 76: 0.0, 77: 0.0, 78: 0.0, 79: 0.0, 80: 0.0, 81: 0.0, 82: 0.766966667, 83: 0.0, 84: 0.0, 85: 0.0, 86: 0.748466667, 87: 0.0, 88: 0.758266667, 89: 0.0, 90: 0.757966667, 91: 0.751666667, 92: 0.0, 93: 0.0, 94: 0.0, 95: 0.0];
charge = [0: 0.0, 1: 0.0, 2: 0.0, 3: 0.0, 4: 1.0, 5: 1.0, 6: 1.0, 7: 0.0, 8: 0.0, 9: 0.0, 10: 0.0, 11: 0.0, 12: 0.0, 13: 1.0, 14: 0.0, 15: 1.0, 16: 0.0, 17: 0.09347433500000001, 18: 0.0, 19: 0.0, 20: 0.0, 21: 0.0, 22: 0.0, 23: 0.0, 24: 1.0, 25: 1.0, 26: 1.0, 27: 0.0, 28: 0.0, 29: 0.0, 30: 1.0, 31: 1.0, 32: 0.0, 33: 0.0, 34: 0.0, 35: 0.0, 36: 1.0, 37: 0.0, 38: 0.0, 39: 0.0, 40: 0.0, 41: 0.0, 42: 1.0, 43: 0.0, 44: 1.0, 45: 0.0, 46: 0.0, 47: 0.0, 48: 0.0, 49: 0.369998105, 50: 0.0, 51: 1.0, 52: 0.0, 53: 0.0, 54: 1.0, 55: 0.0, 56: 0.0, 57: 1.0, 58: 1.0, 59: 0.0, 60: 0.0, 61: 0.0, 62: 0.0, 63: 1.0, 64: 1.0, 65: 1.0, 66: 0.0, 67: 0.0, 68: 1.0, 69: 0.0, 70: 0.0, 71: 0.0, 72: 0.0, 73: 1.0, 74: 0.0, 75: 1.0, 76: 0.0, 77: 1.0, 78: 0.0, 79: 1.0, 80: 1.0, 81: 0.0, 82: 0.0, 83: 1.0, 84: 1.0, 85: 1.0, 86: 0.0, 87: 0.0, 88: 0.0, 89: 1.0, 90: 0.0, 91: 0.0, 92: 0.0, 93: 0.0, 94: 0.0, 95: 1.0];
discharge = [0: 1.0, 1: 0.0, 2: 1.0, 3: 0.0, 4: 0.0, 5: 0.0, 6: 0.0, 7: 1.0, 8: 0.0, 9: 1.0, 10: 1.0, 11: 1.0, 12: 1.0, 13: 0.0, 14: 0.0, 15: 0.0, 16: 0.429037037, 17: 0.0, 18: 1.0, 19: 0.0, 20: 0.0, 21: 1.0, 22: 0.0, 23: 0.0, 24: 0.0, 25: 0.0, 26: 0.0, 27: 1.0, 28: 0.0, 29: 0.0, 30: 0.0, 31: 0.0, 32: 0.0, 33: 0.0, 34: 0.0, 35: 0.0, 36: 0.0, 37: 1.0, 38: 0.0, 39: 1.0, 40: 1.0, 41: 0.0, 42: 0.0, 43: 0.0, 44: 0.0, 45: 0.0, 46: 1.0, 47: 1.0, 48: 0.183037037, 49: 0.0, 50: 1.0, 51: 0.0, 52: 0.178925926, 53: 0.0, 54: 0.0, 55: 1.0, 56: 0.0, 57: 0.0, 58: 0.0, 59: 0.0, 60: 0.0, 61: 1.0, 62: 1.0, 63: 0.0, 64: 0.0, 65: 0.0, 66: 1.0, 67: 1.0, 68: 0.0, 69: 1.0, 70: 1.0, 71: 0.0, 72: 0.0, 73: 0.0, 74: 1.0, 75: 0.0, 76: 0.0, 77: 0.0, 78: 0.0, 79: 0.0, 80: 0.0, 81: 0.0, 82: 1.0, 83: 0.0, 84: 0.0, 85: 0.0, 86: 1.0, 87: 0.0, 88: 1.0, 89: 0.0, 90: 1.0, 91: 1.0, 92: 0.0, 93: 0.0, 94: 0.0, 95: 0.0];
soc = [0: 6.518496, 1: 6.517192301, 2: 5.515888862, 3: 5.514785685, 4: 6.413682727, 5: 7.312399991, 6: 8.210937510999999, 7: 7.209295323, 8: 7.207853464, 9: 6.206411894, 10: 5.205170611, 11: 4.204129577, 12: 3.203288751, 13: 4.102648093, 14: 4.101827564, 15: 5.001007198, 16: 4.57096996, 17: 4.654182667, 18: 3.653251831, 19: 3.65252118, 20: 3.651790676, 21: 2.651060318, 22: 2.650530106, 23: 2.65, 24: 3.54947, 25: 4.448760106, 26: 5.347870354, 27: 4.34680078, 28: 4.34593142, 29: 4.345062233, 30: 5.244193221, 31: 6.143144382, 32: 6.141915754, 33: 6.14068737, 34: 6.139459233, 35: 6.138231341, 36: 7.037003695, 37: 6.035596294, 38: 6.034389175, 39: 5.033182297, 40: 4.03217566, 41: 4.031369225, 42: 4.930562951, 43: 4.929576839, 44: 5.828590924, 45: 5.827425205, 46: 4.82625972, 47: 3.825294468, 48: 3.641492372, 49: 3.973762368, 50: 2.972967616, 51: 3.872373022, 52: 3.692672622, 53: 3.691934087, 54: 4.5911957, 55: 3.590277461, 56: 3.589559406, 57: 4.488841494, 58: 5.387943726, 59: 5.386866137, 60: 5.385788764, 61: 4.384711606, 62: 3.383834664, 63: 4.283157897, 64: 5.182301265, 65: 6.081264805, 66: 5.080048552, 67: 4.079032542, 68: 4.978216736, 69: 3.977221092, 70: 2.976425648, 71: 2.975830363, 72: 2.975235197, 73: 3.87464015, 74: 2.873865222, 75: 3.773290449, 76: 3.772535791, 77: 4.671781284, 78: 4.670846927, 79: 5.569912758, 80: 6.468798775, 81: 6.467505016, 82: 5.466211515, 83: 6.365118272, 84: 7.263845249, 85: 8.162392479999999, 86: 7.160760001, 87: 7.159327849, 88: 6.157895984, 89: 7.056664404, 90: 6.055253071, 91: 5.054042021, 92: 5.053031212, 93: 5.052020606, 94: 5.051010202, 95: 5.95];
cost = [0: 0.0, 1: 0.304431833, 2: 0.074733433, 3: 0.319704333, 4: 1.023979959, 5: 1.025446119, 6: 1.023796689, 7: 0.0, 8: 0.260874663, 9: 0.0, 10: 0.0, 11: 0.0, 12: 0.0, 13: 0.976085399, 14: 0.730656763, 15: 0.988975389, 16: 0.0, 17: 0.30342805, 18: 0.0, 19: 0.600229613, 20: 0.539994873, 21: 0.0, 22: 0.419525393, 23: 0.359901553, 24: 1.890127019, 25: 1.774616859, 26: 2.432346699, 27: 0.0, 28: 0.158256453, 29: 0.037749973, 30: 1.289022139, 31: 1.455447179, 32: 0.0, 33: 1.341432613, 34: 0.0, 35: 0.339432533, 36: 1.629961499, 37: 0.0, 38: 0.173721253, 39: 0.0, 40: 0.0, 41: 0.0, 42: 1.450688779, 43: 0.0, 44: 1.503388059, 45: 0.221662133, 46: 0.0, 47: 0.0, 48: 0.0, 49: 0.664734296, 50: 0.0, 51: 0.118178165, 52: 0.0, 53: 0.089211763, 54: 1.154529289, 55: 0.0, 56: 0.0, 57: 0.264509079, 58: 0.118178165, 59: 0.586362183, 60: 0.0, 61: 0.0, 62: 0.0, 63: 1.766527579, 64: 0.118178165, 65: 1.491492059, 66: 0.0, 67: 0.0, 68: 0.792721019, 69: 0.0, 70: 0.0, 71: 0.169914533, 72: 0.162063173, 73: 1.293661579, 74: 0.0, 75: 1.400487659, 76: 0.158256453, 77: 1.466391499, 78: 0.149215493, 79: 1.453781739, 80: 1.466391499, 81: 0.159921893, 82: 0.0, 83: 1.456398859, 84: 1.478287499, 85: 1.485900939, 86: 0.0, 87: 0.180858853, 88: 0.0, 89: 0.816029599, 90: 0.0, 91: 0.0, 92: 0.091594273, 93: 0.203633333, 94: 0.219455643, 95: 0.948228359];
earn = [0: 0.31483378, 1: 0.0, 2: 0.0, 3: 0.0, 4: 0.0, 5: 0.0, 6: 0.0, 7: 0.282071973, 8: 0.0, 9: 0.30861138, 10: 0.30888585, 11: 0.27000558, 12: 0.323384133, 13: 0.0, 14: 0.0, 15: 0.0, 16: 0.0, 17: 0.0, 18: 0.372632693, 19: 0.0, 20: 0.0, 21: 0.08568208300000001, 22: 0.0, 23: 0.0, 24: 0.0, 25: 0.0, 26: 0.0, 27: 0.467941087, 28: 0.0, 29: 0.0, 30: 0.0, 31: 0.0, 32: 0.144468147, 33: 0.0, 34: 0.163785433, 35: 0.0, 36: 0.0, 37: 0.584281413, 38: 0.0, 39: 1.42667525, 40: 1.456054757, 41: 0.81302892, 42: 0.0, 43: 0.0, 44: 0.0, 45: 0.0, 46: 1.28176817, 47: 0.279742267, 48: 0.0, 49: 0.0, 50: 0.302275567, 51: 0.0, 52: 0.0, 53: 0.0, 54: 0.0, 55: 0.21679955, 56: 0.496839173, 57: 0.0, 58: 0.020623173, 59: 0.0, 60: 0.33999964, 61: 0.184898453, 62: 0.18149776, 63: 0.0, 64: 0.04386753, 65: 0.0, 66: 0.979420973, 67: 0.435828693, 68: 0.0, 69: 0.491645613, 70: 0.503684533, 71: 0.0, 72: 0.0, 73: 0.0, 74: 0.654132743, 75: 0.0, 76: 0.0, 77: 0.0, 78: 0.0, 79: 0.0, 80: 0.0, 81: 0.0, 82: 0.7754033, 83: 0.0, 84: 0.0, 85: 0.0, 86: 0.6444298000000001, 87: 0.0, 88: 0.627996453, 89: 0.0, 90: 0.6006885830000001, 91: 0.573972667, 92: 0.0, 93: 0.0, 94: 0.0, 95: 0.0];
total_cost = 46.574711894;
total_earn = 16.957857123;
