production = [0: 0.0, 1: 0.0, 2: 0.0, 3: 0.0, 4: 0.0, 5: 0.0, 6: 0.0, 7: 0.0, 8: 0.0, 9: 0.0, 10: 0.0, 11: 0.0, 12: 0.0, 13: 0.0, 14: 0.0, 15: 0.0, 16: 0.0, 17: 0.0, 18: 0.0, 19: 0.0, 20: 0.0, 21: 0.0005, 22: 0.0, 23: 0.0, 24: 0.0, 25: 0.0016, 26: 0.0, 27: 0.0, 28: 0.0, 29: 0.0, 30: 0.0, 31: 0.2343, 32: 0.3048, 33: 0.3948, 34: 0.0, 35: 0.4043, 36: 1.0088, 37: 0.0, 38: 1.2313, 39: 1.145433333, 40: 1.4659, 41: 1.5614, 42: 1.6076, 43: 1.7736, 44: 0.0, 45: 1.8992, 46: 0.0, 47: 0.0, 48: 2.0546, 49: 0.0, 50: 2.2048, 51: 2.1483, 52: 0.0, 53: 1.6298, 54: 1.9538, 55: 2.0929, 56: 2.0053, 57: 1.9691, 58: 1.9098, 59: 0.0, 60: 1.7733, 61: 0.0, 62: 0.0, 63: 0.0, 64: 1.2347, 65: 0.0, 66: 1.1252, 67: 0.0, 68: 0.0, 69: 0.0, 70: 0.0, 71: 0.0, 72: 0.0, 73: 0.0, 74: 0.08309999999999999, 75: 0.0, 76: 0.0464, 77: 0.0, 78: 0.0, 79: 0.0, 80: 0.0, 81: 0.0, 82: 0.0, 83: 0.0, 84: 0.0, 85: 0.0, 86: 0.0, 87: 0.0, 88: 0.0, 89: 0.0, 90: 0.0, 91: 0.0, 92: 0.0, 93: 0.0, 94: 0.0, 95: 0.0];
buy = [0: 1.495433333, 1: 1.498333333, 2: 1.022333333, 3: 0.0, 4: 0.482733333, 5: 0.485133333, 6: 0.482433333, 7: 1.468433333, 8: 1.427033333, 9: 1.434733333, 10: 0.0, 11: 0.495133333, 12: 0.408833333, 13: 0.0, 14: 0.296033333, 15: 0.0, 16: 0.386133333, 17: 0.0, 18: 0.0, 19: 0.082533333, 20: 1.884233333, 21: 1.785333333, 22: 1.687533333, 23: 0.0, 24: 0.0, 25: 1.390833333, 26: 1.953733333, 27: 1.415133333, 28: 0.0, 29: 1.132833333, 30: 1.132233333, 31: 0.889833333, 32: 0.818233333, 33: 0.0, 34: 1.269533333, 35: 0.0, 36: 0.0, 37: 1.134933333, 38: 0.0, 39: 0.0, 40: 0.0, 41: 0.0, 42: 0.0, 43: 0.0, 44: 0.164433333, 45: 0.0, 46: 1.187733333, 47: 1.205333333, 48: 0.0, 49: 1.152033333, 50: 0.0, 51: 0.0, 52: 0.0, 53: 0.0, 54: 0.0, 55: 0.0, 56: 0.0, 57: 0.0, 58: 0.0, 59: 1.959833333, 60: 0.0, 61: 0.445033333, 62: 1.444433333, 63: 1.385633333, 64: 0.0, 65: 0.0, 66: 0.0, 67: 0.147533333, 68: 1.145733333, 69: 0.148133333, 70: 0.147333333, 71: 0.0, 72: 0.136233333, 73: 1.137533333, 74: 0.507449888, 75: 0.0, 76: 0.0, 77: 1.133333333, 78: 1.125433333, 79: 0.0, 80: 0.0, 81: 0.0, 82: 1.133033333, 83: 1.124933333, 84: 0.0, 85: 1.149733333, 86: 0.0, 87: 0.0, 88: 0.0, 89: 0.0, 90: 0.142033333, 91: 1.148333333, 92: 0.0, 93: 0.333333333, 94: 0.0, 95: 0.0];
sell = [0: 0.0, 1: 0.0, 2: 0.0, 3: 0.376666667, 4: 0.0, 5: 0.0, 6: 0.0, 7: 0.0, 8: 0.0, 9: 0.0, 10: 0.463166667, 11: 0.0, 12: 0.0, 13: 0.495666667, 14: 0.0, 15: 0.474566667, 16: 0.0, 17: 0.5148666669999999, 18: 0.523066667, 19: 0.0, 20: 0.0, 21: 0.0, 22: 0.0, 23: 0.310866667, 24: 0.0, 25: 0.0, 26: 0.0, 27: 0.0, 28: 0.766966667, 29: 0.0, 30: 0.0, 31: 0.0, 32: 0.0, 33: 0.0, 34: 0.0, 35: 1.018966667, 36: 0.737966667, 37: 0.0, 38: 0.085266667, 39: 0.0, 40: 0.609701063, 41: 2.324866667, 42: 1.487466667, 43: 0.606966667, 44: 0.0, 45: 0.712866667, 46: 0.0, 47: 0.0, 48: 2.789866667, 49: 0.0, 50: 2.928466667, 51: 0.973266667, 52: 0.738966667, 53: 2.383766667, 54: 0.257366667, 55: 1.931066667, 56: 2.458466667, 57: 0.760466667, 58: 0.064266667, 59: 0.0, 60: 1.720066667, 61: 0.0, 62: 0.0, 63: 0.0, 64: 1.990766667, 65: 0.0, 66: 0.971266667, 67: 0.0, 68: 0.0, 69: 0.0, 70: 0.0, 71: 0.757166667, 72: 0.0, 73: 0.0, 74: 0.0, 75: 0.767166667, 76: 0.813366667, 77: 0.0, 78: 0.0, 79: 0.775666667, 80: 0.766666667, 81: 0.765566667, 82: 0.0, 83: 0.0, 84: 0.756666667, 85: 0.0, 86: 0.748466667, 87: 0.747966667, 88: 0.758266667, 89: 0.757666667, 90: 0.0, 91: 0.0, 92: 0.750066667, 93: 0.0, 94: 0.540766667, 95: 0.541266667];
charge = [0: 1.0, 1: 1.0, 2: 0.0, 3: 0.0, 4: 0.0, 5: 0.0, 6: 0.0, 7: 1.0, 8: 1.0, 9: 1.0, 10: 0.0, 11: 0.0, 12: 0.0, 13: 0.0, 14: 0.0, 15: 0.0, 16: 0.0, 17: 0.0, 18: 0.0, 19: 0.0, 20: 1.0, 21: 1.0, 22: 1.0, 23: 0.0, 24: 0.0, 25: 1.0, 26: 1.0, 27: 1.0, 28: 0.0, 29: 1.0, 30: 1.0, 31: 1.0, 32: 1.0, 33: 0.0, 34: 1.0, 35: 0.0, 36: 0.0, 37: 1.0, 38: 1.0, 39: 1.0, 40: 0.7122656040000001, 41: 0.0, 42: 0.0, 43: 1.0, 44: 0.0, 45: 1.0, 46: 1.0, 47: 1.0, 48: 0.0, 49: 1.0, 50: 0.0, 51: 1.0, 52: 0.0, 53: 0.0, 54: 1.0, 55: 0.0, 56: 0.0, 57: 0.0, 58: 1.0, 59: 1.0, 60: 0.0, 61: 0.0, 62: 1.0, 63: 1.0, 64: 0.0, 65: 0.0, 66: 0.0, 67: 0.0, 68: 1.0, 69: 0.0, 70: 0.0, 71: 0.0, 72: 0.0, 73: 1.0, 74: 0.449316554, 75: 0.0, 76: 0.0, 77: 1.0, 78: 1.0, 79: 0.0, 80: 0.0, 81: 0.0, 82: 1.0, 83: 1.0, 84: 0.0, 85: 1.0, 86: 0.0, 87: 0.0, 88: 0.0, 89: 0.0, 90: 0.0, 91: 1.0, 92: 0.0, 93: 0.0, 94: 0.0, 95: 0.0];
discharge = [0: 0.0, 1: 0.0, 2: 0.0, 3: 1.0, 4: 0.0, 5: 0.0, 6: 0.0, 7: 0.0, 8: 0.0, 9: 0.0, 10: 1.0, 11: 0.0, 12: 0.0, 13: 1.0, 14: 1.0, 15: 1.0, 16: 0.0, 17: 1.0, 18: 1.0, 19: 1.0, 20: 0.0, 21: 0.0, 22: 0.0, 23: 1.0, 24: 0.54537037, 25: 0.0, 26: 0.0, 27: 0.0, 28: 1.0, 29: 0.0, 30: 0.0, 31: 0.0, 32: 0.0, 33: 0.814259259, 34: 0.0, 35: 1.0, 36: 0.0, 37: 0.0, 38: 0.0, 39: 0.0, 40: 0.0, 41: 1.0, 42: 0.0, 43: 0.0, 44: 0.0, 45: 0.0, 46: 0.0, 47: 0.0, 48: 1.0, 49: 0.0, 50: 1.0, 51: 0.0, 52: 1.0, 53: 1.0, 54: 0.0, 55: 0.0, 56: 1.0, 57: 0.0, 58: 0.0, 59: 0.0, 60: 1.0, 61: 0.0, 62: 0.0, 63: 0.0, 64: 1.0, 65: 0.171592593, 66: 0.0, 67: 0.0, 68: 0.0, 69: 0.0, 70: 0.0, 71: 1.0, 72: 0.0, 73: 0.0, 74: 0.0, 75: 1.0, 76: 1.0, 77: 0.0, 78: 0.0, 79: 1.0, 80: 1.0, 81: 1.0, 82: 0.0, 83: 0.0, 84: 1.0, 85: 0.0, 86: 1.0, 87: 1.0, 88: 1.0, 89: 1.0, 90: 0.0, 91: 0.0, 92: 1.0, 93: 0.0, 94: 1.0, 95: 1.0];
soc = [0: 8.418495999999999, 1: 9.316812301000001, 2: 9.314948938000001, 3: 8.313085949, 4: 8.311423331, 5: 8.309761047, 6: 8.308099093999999, 7: 9.206437475, 8: 10.104596187, 9: 11.002575268, 10: 10.000374753, 11: 9.998374677999999, 12: 9.996375003000001, 13: 8.994375728, 14: 7.992576853, 15: 6.990978337, 16: 6.989580142, 17: 5.988182226, 18: 4.986984589, 19: 3.985987192, 20: 4.885189995, 21: 5.784212957, 22: 6.683056114, 23: 5.681719503, 24: 5.135212789, 25: 6.034185746, 26: 6.932978909, 27: 7.831592313, 28: 6.830025995, 29: 7.72865999, 30: 8.627114258000001, 31: 9.525388834999999, 32: 10.423483757, 33: 9.607139801000001, 34: 10.505218373, 35: 9.503117329, 36: 9.501216705999999, 37: 10.399316463, 38: 11.297236599, 39: 12.194977152, 40: 12.8335772, 41: 11.831010485, 42: 11.828644283, 43: 12.726278554, 44: 12.723733298, 45: 13.621188551, 46: 14.518464314, 47: 15.415560621, 48: 14.412477509, 49: 15.309595013, 50: 14.306533094, 51: 15.203671787, 52: 14.200631053, 53: 13.197790927, 54: 14.095151369, 55: 14.092332338, 56: 13.089513872, 57: 13.086895969, 58: 13.98427859, 59: 14.881481734, 60: 13.878505438, 61: 13.875729737, 62: 14.772954591, 63: 15.67, 64: 14.666866, 65: 14.492340034, 66: 14.489441566, 67: 14.486543678, 68: 15.383646369, 69: 15.38056964, 70: 15.377493526, 71: 14.374418027, 72: 14.371543144, 73: 15.268668835, 74: 15.67, 75: 14.666866, 76: 13.663932627, 77: 14.56119984, 78: 15.4582876, 79: 14.455195943, 80: 13.452304904, 81: 12.449614443, 82: 13.34712452, 83: 14.244455095, 84: 13.241606204, 85: 14.138957883, 86: 13.136130091, 87: 12.133502865, 88: 11.131076164, 89: 10.128849949, 90: 10.126824179, 91: 11.024798814, 92: 10.022593855, 93: 10.020589336, 94: 9.018585218, 95: 8.016781501000001];
cost = [0: 1.031738389, 1: 1.033509999, 2: 0.624543433, 3: 0.0, 4: 0.294901793, 5: 0.296367953, 6: 0.294718523, 7: 1.015244089, 8: 0.989952829, 9: 0.9946567589999999, 10: 0.0, 11: 0.302476953, 12: 0.249756283, 13: 0.0, 14: 0.180846763, 15: 0.0, 16: 0.235888853, 17: 0.0, 18: 0.0, 19: 0.050419613, 20: 1.269256309, 21: 1.208838299, 22: 1.149092279, 23: 0.0, 24: 0.0, 25: 1.772713499, 26: 2.442339339, 27: 1.801620779, 28: 0.0, 29: 1.465796699, 30: 1.465082939, 31: 1.176723899, 32: 1.091548539, 33: 0.0, 34: 1.628415019, 35: 0.0, 36: 0.0, 37: 1.468294859, 38: 0.118178165, 39: 0.118178165, 40: 0.084174242, 41: 0.0, 42: 0.0, 43: 0.118178165, 44: 0.195609893, 45: 0.118178165, 46: 1.531105739, 47: 1.552042699, 48: 0.0, 49: 1.488637019, 50: 0.0, 51: 0.118178165, 52: 0.0, 53: 0.0, 54: 0.118178165, 55: 0.0, 56: 0.0, 57: 0.0, 58: 0.118178165, 59: 1.315440349, 60: 0.0, 61: 0.529411653, 62: 1.836476059, 63: 1.766527579, 64: 0.0, 65: 0.0, 66: 0.0, 67: 0.175505653, 68: 1.481142539, 69: 0.176219413, 70: 0.175267733, 71: 0.0, 72: 0.162063173, 73: 1.471387819, 74: 0.656761792, 75: 0.0, 76: 0.0, 77: 1.466391499, 78: 1.456993659, 79: 0.0, 80: 0.0, 81: 0.0, 82: 1.466034619, 83: 1.456398859, 84: 0.0, 85: 1.485900939, 86: 0.0, 87: 0.0, 88: 0.0, 89: 0.0, 90: 0.086768163, 91: 0.819694999, 92: 0.0, 93: 0.203633333, 94: 0.0, 95: 0.0];
earn = [0: 0.0, 1: 0.0, 2: 0.0, 3: 0.261331333, 4: 0.0, 5: 0.0, 6: 0.0, 7: 0.0, 8: 0.0, 9: 0.0, 10: 0.30888585, 11: 0.0, 12: 0.0, 13: 0.332146233, 14: 0.0, 15: 0.32560019, 16: 0.0, 17: 0.356081787, 18: 0.372632693, 19: 0.0, 20: 0.0, 21: 0.0, 22: 0.0, 23: 0.255687833, 24: 0.0, 25: 0.0, 26: 0.0, 27: 0.0, 28: 0.824489167, 29: 0.0, 30: 0.0, 31: 0.0, 32: 0.0, 33: 0.0, 34: 0.0, 35: 0.882323237, 36: 0.551777677, 37: 0.0, 38: 0.063856207, 39: 0.0, 40: 0.399537106, 41: 1.32656892, 42: 0.778093813, 43: 0.313801767, 44: 0.0, 45: 0.330912707, 46: 0.0, 47: 0.0, 48: 1.149704053, 49: 0.0, 50: 1.223220527, 51: 0.405462893, 52: 0.267653727, 53: 0.794032677, 54: 0.08104476300000001, 55: 0.56715428, 56: 0.783759173, 57: 0.232170473, 58: 0.020623173, 59: 0.0, 60: 0.71313964, 61: 0.0, 62: 0.0, 63: 0.0, 64: 0.96213753, 65: 0.0, 66: 0.508360973, 67: 0.0, 68: 0.0, 69: 0.0, 70: 0.0, 71: 0.54493285, 72: 0.0, 73: 0.0, 74: 0.0, 75: 0.68975955, 76: 0.825567167, 77: 0.0, 78: 0.0, 79: 0.854009, 80: 0.795033333, 81: 0.783940267, 82: 0.0, 83: 0.0, 84: 0.657694667, 85: 0.0, 86: 0.6444298000000001, 87: 0.626796067, 88: 0.627996453, 89: 0.605830267, 90: 0.0, 91: 0.0, 92: 0.559024687, 93: 0.0, 94: 0.381186423, 95: 0.368386093];
total_cost = 49.40158127;
total_earn = 24.356777026;
