production = [0: 0.0, 1: 0.0, 2: 0.0, 3: 0.0, 4: 0.0, 5: 0.0, 6: 0.0, 7: 0.0, 8: 0.0, 9: 0.0, 10: 0.0, 11: 0.0, 12: 0.0, 13: 0.0, 14: 0.0, 15: 0.0, 16: 0.0, 17: 0.0, 18: 0.0, 19: 0.0, 20: 0.0003, 21: 0.0, 22: 0.0008, 23: 0.0011, 24: 0.0013, 25: 0.0016, 26: 0.008399999999999999, 27: 0.0364, 28: 0.0, 29: 0.0, 30: 0.0, 31: 0.0, 32: 0.0, 33: 0.0, 34: 0.4644, 35: 0.4043, 36: 1.0088, 37: 0.0, 38: 1.2313, 39: 1.3358, 40: 1.4659, 41: 1.5614, 42: 1.6076, 43: 1.7736, 44: 1.7834, 45: 0.186333333, 46: 1.9631, 47: 2.0124, 48: 2.0546, 49: 0.0, 50: 2.2048, 51: 0.0, 52: 0.0, 53: 1.6298, 54: 0.0, 55: 1.161833333, 56: 2.0053, 57: 1.9691, 58: 0.0, 59: 1.2184, 60: 0.0, 61: 1.6514, 62: 0.0, 63: 1.3524, 64: 1.2347, 65: 1.1073, 66: 1.1252, 67: 0.8975, 68: 0.0, 69: 0.0, 70: 0.5309, 71: 0.4185, 72: 0.1969, 73: 0.0, 74: 0.0, 75: 0.0549, 76: 0.0464, 77: 0.0219, 78: 0.0037, 79: 0.0, 80: 0.0, 81: 0.0, 82: 0.0, 83: 0.0, 84: 0.0, 85: 0.0, 86: 0.0, 87: 0.0, 88: 0.0, 89: 0.0, 90: 0.0, 91: 0.0, 92: 0.0, 93: 0.0, 94: 0.0, 95: 0.0];
buy = [0: 1.495433333, 1: 0.0, 2: 0.122333333, 3: 0.523333333, 4: 0.0, 5: 0.485133333, 6: 1.482433333, 7: 1.468433333, 8: 1.427033333, 9: 1.434733333, 10: 0.0, 11: 0.0, 12: 0.408833333, 13: 1.404333333, 14: 0.296033333, 15: 0.425433333, 16: 1.386133333, 17: 0.385133333, 18: 1.376933333, 19: 1.982533333, 20: 0.883933333, 21: 0.0, 22: 0.0, 23: 0.588033333, 24: 0.0, 25: 1.390833333, 26: 1.945333333, 27: 1.378733333, 28: 0.133033333, 29: 1.132833333, 30: 1.132233333, 31: 0.0379503, 32: 1.123033333, 33: 1.127633333, 34: 0.805133333, 35: 0.0, 36: 0.0, 37: 0.134933333, 38: 0.0, 39: 0.0, 40: 0.0, 41: 0.0, 42: 0.0, 43: 0.0, 44: 0.0, 45: 0.0, 46: 0.0, 47: 0.0, 48: 0.0, 49: 0.152033333, 50: 0.0, 51: 0.175033333, 52: 1.161033333, 53: 0.0, 54: 1.696433333, 55: 0.0, 56: 0.0, 57: 0.0, 58: 0.845533333, 59: 0.0, 60: 1.953233333, 61: 0.0, 62: 1.444433333, 63: 0.0, 64: 0.0, 65: 0.0, 66: 0.0, 67: 0.0, 68: 0.145733333, 69: 0.0, 70: 0.0, 71: 0.0, 72: 0.0, 73: 0.0, 74: 0.141233333, 75: 0.07793333299999999, 76: 0.0, 77: 0.0, 78: 0.121733333, 79: 0.124333333, 80: 0.133333333, 81: 0.134433333, 82: 0.0, 83: 0.0, 84: 0.143333333, 85: 0.149733333, 86: 1.151533333, 87: 0.0, 88: 1.141733333, 89: 0.0, 90: 1.142033333, 91: 0.0, 92: 1.149933333, 93: 1.333333333, 94: 0.359233333, 95: 0.358733333];
sell = [0: 0.0, 1: 0.401666667, 2: 0.0, 3: 0.0, 4: 0.417266667, 5: 0.0, 6: 0.0, 7: 0.0, 8: 0.0, 9: 0.0, 10: 0.463166667, 11: 0.404866667, 12: 0.0, 13: 0.0, 14: 0.0, 15: 0.0, 16: 0.0, 17: 0.0, 18: 0.0, 19: 0.0, 20: 0.0, 21: 0.114166667, 22: 0.213266667, 23: 0.0, 24: 0.410466667, 25: 0.0, 26: 0.0, 27: 0.0, 28: 0.0, 29: 0.0, 30: 0.0, 31: 0.0, 32: 0.0, 33: 0.0, 34: 0.0, 35: 1.018966667, 36: 0.737966667, 37: 0.0, 38: 0.085266667, 39: 2.090366667, 40: 2.221966667, 41: 2.324866667, 42: 2.387466667, 43: 0.606966667, 44: 1.618966667, 45: 0.0, 46: 0.775366667, 47: 2.707066667, 48: 0.8898666669999999, 49: 0.0, 50: 1.028466667, 51: 0.0, 52: 0.0, 53: 0.483766667, 54: 0.0, 55: 0.0, 56: 1.558466667, 57: 1.660466667, 58: 0.0, 59: 1.158566667, 60: 0.0, 61: 2.106366667, 62: 0.0, 63: 1.866766667, 64: 0.090766667, 65: 1.852866667, 66: 0.971266667, 67: 1.649966667, 68: 0.0, 69: 0.751866667, 70: 0.383566667, 71: 1.175666667, 72: 0.060666667, 73: 0.762466667, 74: 0.0, 75: 0.0, 76: 0.813366667, 77: 0.788566667, 78: 0.0, 79: 0.0, 80: 0.0, 81: 0.0, 82: 0.766966667, 83: 0.775066667, 84: 0.0, 85: 0.0, 86: 0.0, 87: 0.747966667, 88: 0.0, 89: 0.757666667, 90: 0.0, 91: 0.751666667, 92: 0.0, 93: 0.0, 94: 0.0, 95: 0.0];
charge = [0: 1.0, 1: 0.0, 2: 0.0, 3: 0.0, 4: 0.0, 5: 0.0, 6: 1.0, 7: 1.0, 8: 1.0, 9: 1.0, 10: 0.0, 11: 0.0, 12: 0.0, 13: 1.0, 14: 0.0, 15: 0.0, 16: 1.0, 17: 0.0, 18: 1.0, 19: 1.0, 20: 0.0, 21: 0.0, 22: 0.0, 23: 0.0, 24: 0.0, 25: 1.0, 26: 1.0, 27: 1.0, 28: 0.0, 29: 1.0, 30: 1.0, 31: 0.0, 32: 1.0, 33: 0.0, 34: 1.0, 35: 0.0, 36: 0.0, 37: 0.0, 38: 1.0, 39: 0.0, 40: 0.0, 41: 0.0, 42: 0.0, 43: 1.0, 44: 0.0, 45: 0.0, 46: 1.0, 47: 0.0, 48: 1.0, 49: 0.0, 50: 1.0, 51: 0.0, 52: 1.0, 53: 1.0, 54: 1.0, 55: 1.0, 56: 0.0, 57: 0.0, 58: 0.0, 59: 0.0, 60: 1.0, 61: 0.0, 62: 1.0, 63: 0.0, 64: 1.0, 65: 0.0, 66: 0.0, 67: 0.0, 68: 0.0, 69: 0.0, 70: 0.0, 71: 0.0, 72: 0.0, 73: 0.0, 74: 0.0, 75: 0.0, 76: 0.0, 77: 0.0, 78: 0.0, 79: 0.0, 80: 0.0, 81: 0.0, 82: 0.0, 83: 0.0, 84: 0.0, 85: 0.0, 86: 1.0, 87: 0.0, 88: 1.0, 89: 0.0, 90: 1.0, 91: 0.0, 92: 1.0, 93: 1.0, 94: 0.0, 95: 0.0];
discharge = [0: 0.0, 1: 1.0, 2: 1.0, 3: 0.0, 4: 1.0, 5: 0.0, 6: 0.0, 7: 0.0, 8: 0.0, 9: 0.0, 10: 1.0, 11: 1.0, 12: 0.0, 13: 0.0, 14: 1.0, 15: 0.0, 16: 0.0, 17: 0.0, 18: 0.0, 19: 0.0, 20: 0.0, 21: 1.0, 22: 1.0, 23: 0.0, 24: 1.0, 25: 0.0, 26: 0.0, 27: 0.0, 28: 0.0, 29: 0.0, 30: 0.0, 31: 0.09575892599999999, 32: 0.0, 33: 0.0, 34: 0.0, 35: 1.0, 36: 0.0, 37: 0.0, 38: 0.0, 39: 1.0, 40: 1.0, 41: 1.0, 42: 1.0, 43: 0.0, 44: 0.0, 45: 0.0, 46: 0.0, 47: 1.0, 48: 0.0, 49: 0.0, 50: 0.0, 51: 0.0, 52: 0.0, 53: 0.0, 54: 0.0, 55: 0.0, 56: 0.0, 57: 1.0, 58: 0.0, 59: 1.0, 60: 0.0, 61: 1.0, 62: 0.0, 63: 1.0, 64: 0.0, 65: 1.0, 66: 0.0, 67: 1.0, 68: 0.0, 69: 1.0, 70: 0.0, 71: 1.0, 72: 0.0, 73: 1.0, 74: 0.0, 75: 0.0, 76: 1.0, 77: 1.0, 78: 0.0, 79: 0.0, 80: 0.0, 81: 0.0, 82: 1.0, 83: 1.0, 84: 0.0, 85: 0.0, 86: 0.0, 87: 1.0, 88: 0.0, 89: 1.0, 90: 0.0, 91: 1.0, 92: 0.0, 93: 0.0, 94: 0.0, 95: 0.0];
soc = [0: 8.418495999999999, 1: 7.416812301, 2: 6.415328938, 3: 6.414045873, 4: 5.412763063, 5: 5.411680511, 6: 6.310598175, 7: 7.209336055, 8: 8.107894188, 9: 9.006272609, 10: 8.004471354, 11: 7.00287046, 12: 7.001469886, 13: 7.900069592, 14: 6.898489578, 15: 6.89710988, 16: 7.795730458, 17: 7.794171312, 18: 8.692612477999999, 19: 9.590873954999999, 20: 9.588955780999999, 21: 8.587037990000001, 22: 7.585320582, 23: 7.583803518, 24: 6.582286757, 25: 7.4809703, 26: 8.379474106, 27: 9.277798211, 28: 9.275942650999999, 29: 10.174087463, 30: 11.072052645, 31: 10.974079308, 32: 11.871884493, 33: 11.869510116, 34: 12.767136214, 35: 11.764582786, 36: 11.76222987, 37: 11.759877424, 38: 12.657525448, 39: 11.654993943, 40: 10.652662944, 41: 9.650532412, 42: 8.648602305000001, 43: 9.546872584999999, 44: 9.544963210000001, 45: 9.543054218, 46: 10.441145607, 47: 9.439057377999999, 48: 10.337169566, 49: 10.335102132, 50: 11.233035112, 51: 11.230788505, 52: 12.128542347, 53: 13.026116639, 54: 13.923511415, 55: 14.820726713, 56: 14.817762568, 57: 13.814799015, 58: 13.812036056, 59: 12.809273648, 60: 13.706711794, 61: 12.703970451, 62: 13.601429657, 63: 12.598709371, 64: 13.496189629, 65: 12.493490391, 66: 12.490991693, 67: 11.488493495, 68: 11.486195796, 69: 10.483898557, 70: 10.481801777, 71: 9.479705417, 72: 9.477809475999999, 73: 8.475913913999999, 74: 8.474218731000001, 75: 8.472523888, 76: 7.470829383, 77: 6.469335217, 78: 6.46804135, 79: 6.466747742, 80: 6.465454392, 81: 6.464161301, 82: 5.462868469, 83: 4.461775895, 84: 4.46088354, 85: 4.459991363, 86: 5.359099365, 87: 4.358027545, 88: 5.25715594, 89: 4.256104508, 90: 5.155253288, 91: 4.154222237, 92: 5.053391392, 93: 5.952380952, 94: 5.951190238, 95: 5.95];
cost = [0: 1.031738389, 1: 0.0, 2: 0.074733433, 3: 0.319704333, 4: 0.0, 5: 0.296367953, 6: 1.023796689, 7: 1.015244089, 8: 0.989952829, 9: 0.9946567589999999, 10: 0.0, 11: 0.0, 12: 0.249756283, 13: 0.976085399, 14: 0.180846763, 15: 0.259897223, 16: 0.964967019, 17: 0.235277953, 18: 0.959346739, 19: 1.329307779, 20: 0.539994873, 21: 0.0, 22: 0.0, 23: 0.359229563, 24: 0.0, 25: 1.772713499, 26: 2.432346699, 27: 1.758319339, 28: 0.158256453, 29: 1.465796699, 30: 1.465082939, 31: 0.045145676, 32: 1.454138619, 33: 1.341432613, 34: 1.075964779, 35: 0.0, 36: 0.0, 37: 0.160516693, 38: 0.118178165, 39: 0.0, 40: 0.0, 41: 0.0, 42: 0.0, 43: 0.118178165, 44: 0.0, 45: 0.0, 46: 0.118178165, 47: 0.0, 48: 0.118178165, 49: 0.180858853, 50: 0.118178165, 51: 0.208219653, 52: 0.827453429, 53: 0.118178165, 54: 1.154529289, 55: 0.118178165, 56: 0.0, 57: 0.0, 58: 0.516536313, 59: 0.0, 60: 2.441744539, 61: 0.0, 62: 1.836476059, 63: 0.0, 64: 0.118178165, 65: 0.0, 66: 0.0, 67: 0.0, 68: 0.173364373, 69: 0.0, 70: 0.0, 71: 0.0, 72: 0.0, 73: 0.0, 74: 0.168011173, 75: 0.092709493, 76: 0.0, 77: 0.0, 78: 0.144813973, 79: 0.147906933, 80: 0.158613333, 81: 0.159921893, 82: 0.0, 83: 0.0, 84: 0.170509333, 85: 0.178122773, 86: 1.488042219, 87: 0.0, 88: 0.815663059, 89: 0.0, 90: 0.815846329, 91: 0.0, 92: 0.820672439, 93: 0.9327114990000001, 94: 0.219455643, 95: 0.219150193];
earn = [0: 0.0, 1: 0.300245833, 2: 0.0, 3: 0.0, 4: 0.288247813, 5: 0.0, 6: 0.0, 7: 0.0, 8: 0.0, 9: 0.0, 10: 0.30888585, 11: 0.27000558, 12: 0.0, 13: 0.0, 14: 0.0, 15: 0.0, 16: 0.0, 17: 0.0, 18: 0.0, 19: 0.0, 20: 0.0, 21: 0.08568208300000001, 22: 0.16494044, 23: 0.0, 24: 0.354479013, 25: 0.0, 26: 0.0, 27: 0.0, 28: 0.0, 29: 0.0, 30: 0.0, 31: 0.0, 32: 0.0, 33: 0.0, 34: 0.0, 35: 0.882323237, 36: 0.551777677, 37: 0.0, 38: 0.063856207, 39: 1.42667525, 40: 1.456054757, 41: 1.32656892, 42: 1.248883813, 43: 0.313801767, 44: 0.788598663, 45: 0.0, 46: 0.37147817, 47: 1.090135747, 48: 0.366714053, 49: 0.0, 50: 0.429590527, 51: 0.0, 52: 0.0, 53: 0.161142677, 54: 0.0, 55: 0.0, 56: 0.496839173, 57: 0.506940473, 58: 0.0, 59: 0.380820863, 60: 0.0, 61: 0.856027413, 62: 0.0, 63: 0.784788707, 64: 0.04386753, 65: 0.9571909199999999, 66: 0.508360973, 67: 0.955660693, 68: 0.0, 69: 0.491645613, 70: 0.256682813, 71: 0.8461273, 72: 0.046840733, 73: 0.632084867, 74: 0.0, 75: 0.0, 76: 0.825567167, 77: 0.838246367, 78: 0.0, 79: 0.0, 80: 0.0, 81: 0.0, 82: 0.7754033, 83: 0.750264533, 84: 0.0, 85: 0.0, 86: 0.0, 87: 0.626796067, 88: 0.0, 89: 0.605830267, 90: 0.0, 91: 0.573972667, 92: 0.0, 93: 0.0, 94: 0.0, 95: 0.0];
total_cost = 39.747376195;
total_earn = 25.010046517;
% _objective = 14.737329678;