production = [0: 0.0, 1: 0.0, 2: 0.0, 3: 0.0, 4: 0.0, 5: 0.0, 6: 0.0, 7: 0.0, 8: 0.0, 9: 0.0, 10: 0.0, 11: 0.0, 12: 0.0, 13: 0.0, 14: 0.0, 15: 0.0, 16: 0.0, 17: 0.0, 18: 0.0, 19: 0.0, 20: 0.0, 21: 0.0005, 22: 0.0008, 23: 0.0, 24: 0.0, 25: 0.0, 26: 0.0, 27: 0.0364, 28: 0.0, 29: 0.0, 30: 0.148, 31: 0.0, 32: 0.0, 33: 0.3948, 34: 0.0, 35: 0.0, 36: 1.0088, 37: 0.0, 38: 1.2313, 39: 1.3358, 40: 1.4659, 41: 1.5614, 42: 1.6076, 43: 0.0, 44: 1.7834, 45: 0.0, 46: 1.9631, 47: 2.0124, 48: 2.0546, 49: 1.7649, 50: 0.0, 51: 0.0, 52: 0.0, 53: 0.0, 54: 1.9538, 55: 2.0929, 56: 2.0053, 57: 0.0, 58: 0.0, 59: 1.2184, 60: 0.0, 61: 1.6514, 62: 0.0, 63: 1.3524, 64: 1.2347, 65: 0.0, 66: 1.1252, 67: 0.0, 68: 0.5787, 69: 0.0, 70: 0.5309, 71: 0.0, 72: 0.1969, 73: 0.1494, 74: 0.08309999999999999, 75: 0.0, 76: 0.0, 77: 0.0219, 78: 0.0, 79: 0.0, 80: 0.0, 81: 0.0, 82: 0.0, 83: 0.0, 84: 0.0, 85: 0.0, 86: 0.0, 87: 0.0, 88: 0.0, 89: 0.0, 90: 0.0, 91: 0.0, 92: 0.0, 93: 0.0, 94: 0.0, 95: 0.0];
buy = [0: 0.0, 1: 0.0, 2: 0.122333333, 3: 0.0, 4: 0.482733333, 5: 0.485133333, 6: 1.482433333, 7: 1.468433333, 8: 0.0, 9: 1.434733333, 10: 0.0, 11: 0.495133333, 12: 1.408833333, 13: 1.404333333, 14: 2.196033333, 15: 0.0, 16: 0.386133333, 17: 0.0, 18: 0.376933333, 19: 1.982533333, 20: 1.884233333, 21: 1.785333333, 22: 1.686733333, 23: 0.589133333, 24: 0.490833333, 25: 1.392433333, 26: 0.953733333, 27: 1.378733333, 28: 1.133033333, 29: 0.0, 30: 0.984233333, 31: 1.124133333, 32: 0.0, 33: 0.0, 34: 0.269533333, 35: 0.0, 36: 0.0, 37: 0.134933333, 38: 0.0, 39: 0.0, 40: 0.0, 41: 0.0, 42: 0.0, 43: 0.0, 44: 0.0, 45: 0.0, 46: 0.0, 47: 0.0, 48: 0.0, 49: 0.0, 50: 0.0, 51: 0.0, 52: 0.161033333, 53: 1.146033333, 54: 0.0, 55: 0.0, 56: 0.0, 57: 2.208633333, 58: 1.845533333, 59: 0.741433333, 60: 1.953233333, 61: 0.0, 62: 0.444433333, 63: 0.0, 64: 0.0, 65: 0.0, 66: 0.028733333, 67: 0.147533333, 68: 0.0, 69: 0.148133333, 70: 0.0, 71: 0.142833333, 72: 0.939333333, 73: 0.0, 74: 0.0, 75: 0.0, 76: 0.0, 77: 1.111433333, 78: 0.0, 79: 0.0, 80: 1.133333333, 81: 0.0, 82: 1.133033333, 83: 1.124933333, 84: 1.143333333, 85: 0.0, 86: 0.151533333, 87: 1.152033333, 88: 0.141733333, 89: 0.142333333, 90: 0.142033333, 91: 1.148333333, 92: 0.0, 93: 0.333333333, 94: 0.0, 95: 0.358733333];
sell = [0: 0.404566667, 1: 0.401666667, 2: 0.0, 3: 0.376666667, 4: 0.0, 5: 0.0, 6: 0.0, 7: 0.0, 8: 0.472966667, 9: 0.0, 10: 0.463166667, 11: 0.0, 12: 0.0, 13: 0.0, 14: 0.0, 15: 0.474566667, 16: 0.0, 17: 0.5148666669999999, 18: 0.0, 19: 0.0, 20: 0.0, 21: 0.0, 22: 0.0, 23: 0.0, 24: 0.0, 25: 0.0, 26: 0.0, 27: 0.0, 28: 0.0, 29: 0.767166667, 30: 0.0, 31: 0.0, 32: 0.7769666670000001, 33: 0.167166667, 34: 0.0, 35: 0.6146666670000001, 36: 1.637966667, 37: 0.0, 38: 1.085266667, 39: 2.090366667, 40: 1.321966667, 41: 2.324866667, 42: 0.487466667, 43: 0.733366667, 44: 0.618966667, 45: 0.713666667, 46: 0.775366667, 47: 1.807066667, 48: 2.789866667, 49: 0.612866667, 50: 0.723666667, 51: 0.724966667, 52: 0.0, 53: 0.0, 54: 1.257366667, 55: 0.931066667, 56: 1.558466667, 57: 0.0, 58: 0.0, 59: 0.0, 60: 0.0, 61: 0.206366667, 62: 0.0, 63: 0.966766667, 64: 1.090766667, 65: 0.745566667, 66: 0.0, 67: 0.0, 68: 0.432966667, 69: 0.0, 70: 1.283566667, 71: 0.0, 72: 0.0, 73: 0.911866667, 74: 0.841866667, 75: 0.767166667, 76: 0.766966667, 77: 0.0, 78: 0.774566667, 79: 0.775666667, 80: 0.0, 81: 0.765566667, 82: 0.0, 83: 0.0, 84: 0.0, 85: 0.750266667, 86: 0.0, 87: 0.0, 88: 0.0, 89: 0.0, 90: 0.0, 91: 0.0, 92: 0.750066667, 93: 0.0, 94: 0.540766667, 95: 0.0];
charge = [0: 0.0, 1: 0.0, 2: 0.0, 3: 0.0, 4: 0.0, 5: 0.0, 6: 1.0, 7: 1.0, 8: 0.0, 9: 1.0, 10: 0.0, 11: 0.0, 12: 1.0, 13: 1.0, 14: 1.0, 15: 0.0, 16: 0.0, 17: 0.0, 18: 0.0, 19: 1.0, 20: 1.0, 21: 1.0, 22: 1.0, 23: 0.0, 24: 0.0, 25: 1.0, 26: 0.0, 27: 1.0, 28: 1.0, 29: 0.0, 30: 1.0, 31: 1.0, 32: 0.0, 33: 0.0, 34: 0.0, 35: 0.0, 36: 0.0, 37: 0.0, 38: 0.0, 39: 0.0, 40: 0.0, 41: 0.0, 42: 1.0, 43: 0.0, 44: 1.0, 45: 0.0, 46: 1.0, 47: 0.0, 48: 0.0, 49: 1.0, 50: 0.0, 51: 0.0, 52: 0.0, 53: 1.0, 54: 0.0, 55: 1.0, 56: 0.0, 57: 1.0, 58: 1.0, 59: 1.0, 60: 1.0, 61: 1.0, 62: 0.0, 63: 0.0, 64: 0.0, 65: 0.0, 66: 1.0, 67: 0.0, 68: 0.0, 69: 0.0, 70: 0.0, 71: 0.0, 72: 1.0, 73: 0.0, 74: 0.0, 75: 0.0, 76: 0.0, 77: 1.0, 78: 0.0, 79: 0.0, 80: 1.0, 81: 0.0, 82: 1.0, 83: 1.0, 84: 1.0, 85: 0.0, 86: 0.0, 87: 1.0, 88: 0.0, 89: 0.0, 90: 0.0, 91: 1.0, 92: 0.0, 93: 0.0, 94: 0.0, 95: 0.0];
discharge = [0: 1.0, 1: 1.0, 2: 1.0, 3: 1.0, 4: 0.0, 5: 0.0, 6: 0.0, 7: 0.0, 8: 1.0, 9: 0.0, 10: 1.0, 11: 0.0, 12: 0.0, 13: 0.0, 14: 0.0, 15: 1.0, 16: 0.0, 17: 1.0, 18: 0.0, 19: 0.0, 20: 0.0, 21: 0.0, 22: 0.0, 23: 0.0, 24: 0.0, 25: 0.0, 26: 0.0, 27: 0.0, 28: 0.0, 29: 1.0, 30: 0.0, 31: 0.0, 32: 1.0, 33: 1.0, 34: 0.0, 35: 1.0, 36: 1.0, 37: 0.0, 38: 0.0, 39: 1.0, 40: 0.0, 41: 1.0, 42: 0.0, 43: 1.0, 44: 0.0, 45: 1.0, 46: 0.0, 47: 0.0, 48: 1.0, 49: 0.0, 50: 1.0, 51: 1.0, 52: 0.0, 53: 0.0, 54: 0.0, 55: 0.0, 56: 0.0, 57: 0.0, 58: 0.0, 59: 0.0, 60: 0.0, 61: 0.0, 62: 0.0, 63: 0.0, 64: 0.0, 65: 1.0, 66: 0.0, 67: 0.0, 68: 0.0, 69: 0.0, 70: 1.0, 71: 0.0, 72: 0.0, 73: 1.0, 74: 1.0, 75: 1.0, 76: 1.0, 77: 0.0, 78: 1.0, 79: 1.0, 80: 0.0, 81: 1.0, 82: 0.0, 83: 0.0, 84: 0.0, 85: 1.0, 86: 0.0, 87: 0.0, 88: 0.0, 89: 0.0, 90: 0.0, 91: 0.0, 92: 1.0, 93: 0.0, 94: 1.0, 95: 0.0];
soc = [0: 6.518496, 1: 5.517192301, 2: 4.516088862, 3: 3.515185645, 4: 3.514482607, 5: 3.513779711, 6: 4.413076955, 7: 5.31219434, 8: 4.311131901, 9: 5.210269674, 10: 4.20922762, 11: 4.208385775, 12: 5.107544098, 13: 6.006522589, 14: 6.905321284, 15: 5.90394022, 16: 5.902759432, 17: 4.90157888, 18: 4.900598564, 19: 5.799618445, 20: 6.698458521, 21: 7.597118829, 22: 8.495599406, 23: 8.493900286000001, 24: 8.492201506000001, 25: 9.390503065000001, 26: 9.388624965, 27: 10.28674724, 28: 11.18468989, 29: 10.182452952, 30: 11.080416462, 31: 11.978200378, 32: 10.975804738, 33: 9.973609577, 34: 9.971614855, 35: 8.969620532, 36: 7.967826608, 37: 7.966233043, 38: 7.964639796, 39: 6.963046868, 40: 6.961654259, 41: 5.960261928, 42: 6.859069876, 43: 5.857698062, 44: 6.756526522, 45: 5.755175217, 46: 6.654024182, 47: 6.652693377, 48: 5.651362838, 49: 6.550232566, 50: 5.548922519, 51: 4.547812735, 52: 4.546903172, 53: 5.445993792, 54: 5.444904593, 55: 6.343815612, 56: 6.342546849, 57: 7.241278339, 58: 8.139830084, 59: 9.038202117999999, 60: 9.936394477, 61: 10.834407198, 62: 10.832240317, 63: 10.830073869, 64: 10.827907854, 65: 9.825742272999999, 66: 10.723777124, 67: 10.721632369, 68: 10.719488042, 69: 10.717344145, 70: 9.715200676, 71: 9.713257636, 72: 10.611314984, 73: 9.609192720999999, 74: 8.607270883, 75: 7.605549428, 76: 6.604028319, 77: 7.502707513, 78: 6.501206971, 79: 5.49990673, 80: 6.398806749, 81: 5.397526987, 82: 6.296447482, 83: 7.195188192, 84: 8.093749154999999, 85: 7.092130405, 86: 7.090711979, 87: 7.989293836, 88: 7.987695978, 89: 7.986098439, 90: 7.984501219, 91: 8.882904319, 92: 7.881127738, 93: 7.879551512, 94: 6.877975602, 95: 6.876600007];
cost = [0: 0.0, 1: 0.0, 2: 0.074733433, 3: 0.0, 4: 0.294901793, 5: 0.296367953, 6: 1.023796689, 7: 1.015244089, 8: 0.0, 9: 0.9946567589999999, 10: 0.0, 11: 0.302476953, 12: 0.9788344490000001, 13: 0.976085399, 14: 1.459734929, 15: 0.0, 16: 0.235888853, 17: 0.0, 18: 0.230268573, 19: 1.329307779, 20: 1.269256309, 21: 1.208838299, 22: 1.148603559, 23: 0.359901553, 24: 0.583895333, 25: 1.774616859, 26: 1.134561173, 27: 1.758319339, 28: 1.466034619, 29: 0.0, 30: 1.289022139, 31: 1.455447179, 32: 0.0, 33: 0.0, 34: 0.320636853, 35: 0.0, 36: 0.0, 37: 0.160516693, 38: 0.0, 39: 0.0, 40: 0.0, 41: 0.0, 42: 0.118178165, 43: 0.0, 44: 0.118178165, 45: 0.0, 46: 0.118178165, 47: 0.0, 48: 0.0, 49: 0.118178165, 50: 0.0, 51: 0.0, 52: 0.098375263, 53: 0.818289929, 54: 0.0, 55: 0.118178165, 56: 0.0, 57: 1.467432269, 58: 1.245614479, 59: 0.571119789, 60: 2.441744539, 61: 0.118178165, 62: 0.528697893, 63: 0.0, 64: 0.0, 65: 0.0, 66: 0.152359339, 67: 0.175505653, 68: 0.0, 69: 0.176219413, 70: 0.0, 71: 0.169914533, 72: 1.235609099, 73: 0.0, 74: 0.0, 75: 0.0, 76: 0.0, 77: 1.440339259, 78: 0.0, 79: 0.0, 80: 1.466391499, 81: 0.0, 82: 1.466034619, 83: 1.456398859, 84: 1.478287499, 85: 0.0, 86: 0.180264053, 87: 1.488637019, 88: 0.086584893, 89: 0.08695143299999999, 90: 0.086768163, 91: 0.819694999, 92: 0.0, 93: 0.203633333, 94: 0.0, 95: 0.219150193];
earn = [0: 0.31483378, 1: 0.300245833, 2: 0.0, 3: 0.261331333, 4: 0.0, 5: 0.0, 6: 0.0, 7: 0.0, 8: 0.314617427, 9: 0.0, 10: 0.30888585, 11: 0.0, 12: 0.0, 13: 0.0, 14: 0.0, 15: 0.32560019, 16: 0.0, 17: 0.356081787, 18: 0.0, 19: 0.0, 20: 0.0, 21: 0.0, 22: 0.0, 23: 0.0, 24: 0.0, 25: 0.0, 26: 0.0, 27: 0.0, 28: 0.0, 29: 0.814731, 30: 0.0, 31: 0.0, 32: 0.617533107, 33: 0.1379125, 34: 0.0, 35: 0.532239867, 36: 1.224707677, 37: 0.0, 38: 0.812756207, 39: 1.42667525, 40: 0.866284757, 41: 1.32656892, 42: 0.254993813, 43: 0.379150567, 44: 0.301498663, 45: 0.331284067, 46: 0.37147817, 47: 0.727705747, 48: 1.149704053, 49: 0.255320253, 50: 0.302275567, 51: 0.302021113, 52: 0.0, 53: 0.0, 54: 0.395944763, 55: 0.27345428, 56: 0.496839173, 57: 0.0, 58: 0.0, 59: 0.0, 60: 0.0, 61: 0.083867413, 62: 0.0, 63: 0.406428707, 64: 0.5271675300000001, 65: 0.38515974, 66: 0.0, 67: 0.0, 68: 0.283333333, 69: 0.0, 70: 0.858962813, 71: 0.0, 72: 0.0, 73: 0.755937467, 74: 0.725773253, 75: 0.68975955, 76: 0.778471167, 77: 0.0, 78: 0.8411794, 79: 0.854009, 80: 0.0, 81: 0.783940267, 82: 0.0, 83: 0.0, 84: 0.0, 85: 0.652356867, 86: 0.0, 87: 0.0, 88: 0.0, 89: 0.0, 90: 0.0, 91: 0.0, 92: 0.559024687, 93: 0.0, 94: 0.381186423, 95: 0.0];
total_cost = 43.411034569;
total_earn = 25.049233383;
% _objective = 18.361801186;