production = [0: 0.0, 1: 0.0, 2: 0.0, 3: 0.0, 4: 0.0, 5: 0.0, 6: 0.0, 7: 0.0, 8: 0.0, 9: 0.0, 10: 0.0, 11: 0.0, 12: 0.0, 13: 0.0, 14: 0.0, 15: 0.0, 16: 0.0, 17: 0.0, 18: 0.0, 19: 0.0, 20: 0.0, 21: 0.0, 22: 0.0, 23: 0.0, 24: 0.0, 25: 0.0003, 26: 0.0, 27: 0.0, 28: 0.005, 29: 0.0115, 30: 0.0253, 31: 0.0, 32: 0.0, 33: 0.0, 34: 0.2727, 35: 0.0, 36: 0.19, 37: 0.1652, 38: 0.2213, 39: 0.0, 40: 0.0, 41: 0.0, 42: 0.1576, 43: 0.0, 44: 0.0, 45: 0.0, 46: 0.4666, 47: 0.0, 48: 0.0, 49: 0.0, 50: 0.3046, 51: 0.0, 52: 0.0, 53: 0.3795, 54: 0.416, 55: 0.0, 56: 0.0, 57: 0.0, 58: 0.0, 59: 0.0, 60: 0.6201, 61: 0.0, 62: 0.7237, 63: 0.5416, 64: 0.3842, 65: 0.2889, 66: 0.0, 67: 0.2714, 68: 0.0, 69: 0.1649, 70: 0.0, 71: 0.1733, 72: 0.0882, 73: 0.0, 74: 0.0545, 75: 0.0, 76: 0.0217, 77: 0.0, 78: 0.0, 79: 0.0, 80: 0.0, 81: 0.0, 82: 0.0, 83: 0.0, 84: 0.0, 85: 0.0, 86: 0.0, 87: 0.0, 88: 0.0, 89: 0.0, 90: 0.0, 91: 0.0, 92: 0.0, 93: 0.0, 94: 0.0, 95: 0.0];
buy = [0: 0.0, 1: 1.228658333, 2: 1.224958333, 3: 0.236458333, 4: 0.213458333, 5: 0.0, 6: 1.204058333, 7: 0.0, 8: 1.208158333, 9: 1.209958333, 10: 0.0, 11: 1.213558333, 12: 0.0, 13: 0.215558333, 14: 0.0, 15: 0.206658333, 16: 1.088458333, 17: 0.0, 18: 0.09445833300000001, 19: 1.092158333, 20: 0.0, 21: 0.0, 22: 0.093158333, 23: 0.093458333, 24: 0.093158333, 25: 1.082958333, 26: 0.0, 27: 0.0, 28: 0.0, 29: 0.0, 30: 0.0, 31: 1.077258333, 32: 1.085358333, 33: 0.0, 34: 0.0, 35: 1.078258333, 36: 0.889558333, 37: 0.922258333, 38: 0.0, 39: 0.0, 40: 1.078758333, 41: 0.07855833299999999, 42: 0.0, 43: 0.086858333, 44: 1.086658333, 45: 1.078758333, 46: 0.0, 47: 1.084558333, 48: 1.086358333, 49: 0.0, 50: 0.771858333, 51: 1.076758333, 52: 1.085358333, 53: 0.7063583329999999, 54: 0.0, 55: 0.241158333, 56: 0.0, 57: 1.811158333, 58: 0.0, 59: 0.0, 60: 0.0, 61: 1.436058333, 62: 0.727758333, 63: 0.0, 64: 0.694858333, 65: 0.0, 66: 1.168358333, 67: 0.0, 68: 0.0, 69: 0.0, 70: 1.119258333, 71: 0.0, 72: 0.0, 73: 0.0, 74: 1.152158333, 75: 1.169658333, 76: 0.0, 77: 0.0, 78: 0.0, 79: 1.103558333, 80: 1.398258333, 81: 0.253958333, 82: 1.258658333, 83: 1.256258333, 84: 1.219958333, 85: 1.199658333, 86: 0.0, 87: 0.0, 88: 0.0, 89: 1.201758333, 90: 1.244058333, 91: 0.206958333, 92: 1.218958333, 93: 1.218158333, 94: 0.0, 95: 0.205658333];
sell = [0: 0.0, 1: 0.0, 2: 0.0, 3: 0.0, 4: 0.0, 5: 0.687041667, 6: 0.0, 7: 0.693541667, 8: 0.0, 9: 0.0, 10: 0.688241667, 11: 0.0, 12: 0.6847416670000001, 13: 0.0, 14: 0.6867416669999999, 15: 0.0, 16: 0.0, 17: 0.805241667, 18: 0.0, 19: 0.0, 20: 0.815941667, 21: 0.815141667, 22: 0.0, 23: 0.0, 24: 0.0, 25: 0.0, 26: 0.814941667, 27: 0.807841667, 28: 0.812841667, 29: 0.825641667, 30: 0.706585346, 31: 0.0, 32: 0.0, 33: 0.812841667, 34: 1.084541667, 35: 0.0, 36: 0.0, 37: 0.0, 38: 0.134141667, 39: 0.820641667, 40: 0.0, 41: 0.0, 42: 0.9730416670000001, 43: 0.0, 44: 0.0, 45: 0.0, 46: 0.390641667, 47: 0.0, 48: 0.0, 49: 0.824041667, 50: 0.0, 51: 0.0, 52: 0.0, 53: 0.0, 54: 1.239841667, 55: 0.0, 56: 0.642641667, 57: 0.0, 58: 0.346741667, 59: 0.08624166699999999, 60: 0.194441667, 61: 0.0, 62: 0.0, 63: 0.133141667, 64: 0.0, 65: 1.104041667, 66: 0.0, 67: 0.09784166699999999, 68: 0.7149416669999999, 69: 0.9044416669999999, 70: 0.0, 71: 0.0, 72: 0.856641667, 73: 0.709741667, 74: 0.0, 75: 0.0, 76: 0.786741667, 77: 0.7653416669999999, 78: 0.759041667, 79: 0.0, 80: 0.0, 81: 0.0, 82: 0.0, 83: 0.0, 84: 0.0, 85: 0.0, 86: 0.701941667, 87: 0.688041667, 88: 0.693041667, 89: 0.0, 90: 0.0, 91: 0.0, 92: 0.0, 93: 0.0, 94: 0.0, 95: 0.0];
charge = [0: 0.0, 1: 1.0, 2: 1.0, 3: 0.0, 4: 0.0, 5: 0.0, 6: 1.0, 7: 0.0, 8: 1.0, 9: 1.0, 10: 0.0, 11: 1.0, 12: 0.0, 13: 0.0, 14: 0.0, 15: 0.0, 16: 1.0, 17: 0.0, 18: 0.0, 19: 1.0, 20: 0.0, 21: 0.0, 22: 0.0, 23: 0.0, 24: 0.0, 25: 1.0, 26: 0.0, 27: 0.0, 28: 0.0, 29: 0.0, 30: 0.0, 31: 1.0, 32: 1.0, 33: 0.0, 34: 0.0, 35: 1.0, 36: 1.0, 37: 1.0, 38: 0.0, 39: 0.0, 40: 1.0, 41: 0.0, 42: 0.0, 43: 0.0, 44: 1.0, 45: 1.0, 46: 0.0, 47: 1.0, 48: 1.0, 49: 0.0, 50: 1.0, 51: 1.0, 52: 1.0, 53: 1.0, 54: 0.0, 55: 0.0, 56: 0.0, 57: 1.0, 58: 0.0, 59: 0.0, 60: 0.0, 61: 1.0, 62: 1.0, 63: 0.0, 64: 1.0, 65: 0.0, 66: 1.0, 67: 0.0, 68: 0.0, 69: 0.0, 70: 1.0, 71: 0.053741667, 72: 0.0, 73: 0.0, 74: 1.0, 75: 1.0, 76: 0.0, 77: 0.0, 78: 0.0, 79: 1.0, 80: 1.0, 81: 0.0, 82: 1.0, 83: 1.0, 84: 1.0, 85: 1.0, 86: 0.0, 87: 0.0, 88: 0.0, 89: 1.0, 90: 1.0, 91: 0.0, 92: 1.0, 93: 1.0, 94: 0.0, 95: 0.0];
discharge = [0: 0.282175926, 1: 0.0, 2: 0.0, 3: 0.0, 4: 0.0, 5: 1.0, 6: 0.0, 7: 1.0, 8: 0.0, 9: 0.0, 10: 1.0, 11: 0.0, 12: 1.0, 13: 0.0, 14: 1.0, 15: 0.0, 16: 0.0, 17: 1.0, 18: 0.0, 19: 0.0, 20: 1.0, 21: 1.0, 22: 0.0, 23: 0.0, 24: 0.0, 25: 0.0, 26: 1.0, 27: 1.0, 28: 1.0, 29: 1.0, 30: 0.845159643, 31: 0.0, 32: 0.0, 33: 1.0, 34: 1.0, 35: 0.0, 36: 0.0, 37: 0.0, 38: 0.0, 39: 1.0, 40: 0.0, 41: 0.0, 42: 1.0, 43: 0.0, 44: 0.0, 45: 0.0, 46: 0.0, 47: 0.0, 48: 0.0, 49: 1.0, 50: 0.0, 51: 0.0, 52: 0.0, 53: 0.0, 54: 1.0, 55: 0.0, 56: 1.0, 57: 0.0, 58: 1.0, 59: 1.0, 60: 0.0, 61: 0.0, 62: 0.0, 63: 0.0, 64: 0.0, 65: 1.0, 66: 0.0, 67: 0.0, 68: 1.0, 69: 1.0, 70: 0.0, 71: 0.0, 72: 1.0, 73: 1.0, 74: 0.0, 75: 0.0, 76: 1.0, 77: 1.0, 78: 1.0, 79: 0.0, 80: 0.0, 81: 0.0, 82: 0.0, 83: 0.0, 84: 0.0, 85: 0.0, 86: 1.0, 87: 1.0, 88: 1.0, 89: 0.0, 90: 0.0, 91: 0.0, 92: 0.0, 93: 0.0, 94: 0.244175926, 95: 0.0];
soc = [0: 11.785410074, 1: 12.683052992, 2: 13.580516381, 3: 13.577800278, 4: 13.575084718, 5: 12.572369701, 6: 13.469855227, 7: 12.467161256, 8: 13.364667824, 9: 14.26199489, 10: 13.259142491, 11: 14.156490663, 12: 13.153659365, 13: 13.151028633, 14: 12.148398427, 15: 12.145968747, 16: 13.043539554, 17: 12.040930846, 18: 12.03852266, 19: 12.936114955, 20: 11.933527732, 21: 10.931141027, 22: 10.928954798, 23: 10.926769007, 24: 10.924583654, 25: 11.822398737, 26: 10.820034257, 27: 9.81787025, 28: 8.815906676000001, 29: 7.814143495, 30: 6.967421023, 31: 7.866027539, 32: 8.764454333, 33: 7.762701442, 34: 6.761148902, 35: 7.659796672, 36: 8.558264713, 37: 9.456553059999999, 38: 9.454661749, 39: 8.452770816999999, 40: 9.351080263, 41: 9.349210047, 42: 8.347340205, 43: 8.345670737000001, 44: 9.244001602999999, 45: 10.142152802, 46: 10.140124372, 47: 11.038096347, 48: 11.935888728, 49: 10.93350155, 50: 11.831314849, 51: 12.728948586, 52: 13.626402797, 53: 14.523677516, 54: 13.520772781, 55: 13.518068626, 56: 12.515365012, 57: 13.412861939, 58: 12.410179367, 59: 11.407697331, 60: 11.405415792, 61: 12.303134709, 62: 13.200674082, 63: 13.198033947, 64: 14.09539434, 65: 13.092575261, 66: 13.989956746, 67: 13.987158755, 68: 12.984361323, 69: 11.981764451, 70: 12.879368098, 71: 12.925159724, 72: 11.922574692, 73: 10.920190177, 74: 11.818006139, 75: 12.715642538, 76: 11.71309941, 77: 10.71075679, 78: 9.708614638, 79: 10.606672915, 80: 11.504551581, 81: 11.50225067, 82: 12.39995022, 83: 13.29747023, 84: 14.194810736, 85: 15.091971774, 86: 14.08895338, 87: 13.086135589, 88: 12.083518362, 89: 12.981101658, 90: 13.878505438, 91: 13.875729737, 92: 14.772954591, 93: 15.67, 94: 15.422690074, 95: 15.419605536];
cost = [0: 0.0, 1: 0.868765541, 2: 0.866505211, 3: 0.144452396, 4: 0.130401696, 5: 0.0, 6: 0.853737401, 7: 0.0, 8: 0.856242091, 9: 0.857341711, 10: 0.0, 11: 0.8595409510000001, 12: 0.0, 13: 0.131684586, 14: 0.0, 15: 0.126247576, 16: 0.783117361, 17: 0.0, 18: 0.057704596, 19: 0.785377691, 20: 0.0, 21: 0.0, 22: 0.056910426, 23: 0.057093696, 24: 0.110821153, 25: 1.406465399, 26: 0.0, 27: 0.0, 28: 0.0, 29: 0.0, 30: 0.0, 31: 1.399684679, 32: 1.409320439, 33: 0.0, 34: 0.0, 35: 1.400874279, 36: 1.176396759, 37: 1.215296679, 38: 0.0, 39: 0.0, 40: 1.401469079, 41: 0.093452993, 42: 0.0, 43: 0.103326673, 44: 1.410866919, 45: 1.401469079, 46: 0.0, 47: 1.408368759, 48: 1.410510039, 49: 0.0, 50: 1.036380839, 51: 1.399089879, 52: 0.781223571, 53: 0.549692471, 54: 0.0, 55: 0.147323626, 56: 0.0, 57: 1.224614791, 58: 0.0, 59: 0.0, 60: 0.0, 61: 1.826513159, 62: 0.983919479, 63: 0.0, 64: 0.944781639, 65: 0.0, 66: 1.508057239, 67: 0.0, 68: 0.0, 69: 0.0, 70: 1.449647879, 71: 0.006351092, 72: 0.0, 73: 0.0, 74: 1.488785719, 75: 1.509603719, 76: 0.0, 77: 0.0, 78: 0.0, 79: 1.430971159, 80: 1.781546279, 81: 0.302108833, 82: 1.615478119, 83: 1.612623079, 84: 1.569440599, 85: 1.545291719, 86: 0.0, 87: 0.0, 88: 0.0, 89: 0.8523323310000001, 90: 0.878173401, 91: 0.126430846, 92: 0.862839811, 93: 0.862351091, 94: 0.0, 95: 0.125636676];
earn = [0: 0.0, 1: 0.0, 2: 0.0, 3: 0.0, 4: 0.0, 5: 0.389827442, 6: 0.0, 7: 0.391504271, 8: 0.0, 9: 0.0, 10: 0.388718893, 11: 0.0, 12: 0.37962078, 13: 0.0, 14: 0.384094614, 15: 0.0, 16: 0.0, 17: 0.453753679, 18: 0.0, 19: 0.0, 20: 0.457580087, 21: 0.46071807, 22: 0.0, 23: 0.0, 24: 0.0, 25: 0.0, 26: 0.466798587, 27: 0.47210267, 28: 0.486160601, 29: 0.483082939, 30: 0.40890094, 31: 0.0, 32: 0.0, 33: 0.495670848, 34: 0.615152033, 35: 0.0, 36: 0.0, 37: 0.0, 38: 0.069431727, 39: 0.426569538, 40: 0.0, 41: 0.0, 42: 0.407412546, 43: 0.0, 44: 0.0, 45: 0.0, 46: 0.108637448, 47: 0.0, 48: 0.0, 49: 0.134401196, 50: 0.0, 51: 0.0, 52: 0.0, 53: 0.0, 54: 0.161303401, 55: 0.0, 56: 0.078723604, 57: 0.0, 58: 0.014077712, 59: 0.005105507, 60: 0.026521843, 61: 0.0, 62: 0.0, 63: 0.01086436, 64: 0.0, 65: 0.384537713, 66: 0.0, 67: 0.043030765, 68: 0.379705519, 69: 0.495814922, 70: 0.0, 71: 0.0, 72: 0.5099587840000001, 73: 0.429322734, 74: 0.0, 75: 0.0, 76: 0.585650497, 77: 0.581965803, 78: 0.592887446, 79: 0.0, 80: 0.0, 81: 0.0, 82: 0.0, 83: 0.0, 84: 0.0, 85: 0.0, 86: 0.469107616, 87: 0.445575783, 88: 0.486376642, 89: 0.0, 90: 0.0, 91: 0.0, 92: 0.0, 93: 0.0, 94: 0.0, 95: 0.0];
total_cost = 51.204654899;
total_earn = 13.580669558;
% _objective = 37.62398534099999;