open = [0, 0, 1, 0, 1];
satisfied = 
[| 0.338592, 0.177311, 0.058256,            0.604136, 0.5146539999999999, 0.478108,           0.807899, 0.994425,  0.51332, 0.024925
 | 0.228607,   0.5613, 0.451012,            0.435158,           0.706187, 0.177777,           0.694266, 0.354897, 0.952739, 0.514838
 | 0.096827, 0.359484, 0.919586,            0.863354,           0.309623, 0.420331,           0.977348, 0.018716, 0.691219, 0.615544
 | 0.287798,  0.25165, 0.928992,             0.64571,           0.713911, 0.282944,           0.155411, 0.875529, 0.544021, 0.593849
 | 0.707328, 0.281362, 0.274354, 0.07738299999999999,            0.56312, 0.633253, 0.8402809999999999, 0.450681, 0.362038,   0.8508
 |];
% _objective = 5368.7892155;
