open = [1, 0, 0, 0, 1];
satisfied = 
[|  0.62879, 0.807357, 0.393343, 0.022662, 0.875437,           0.913225, 0.262733, 0.165327, 0.059968, 0.7998960000000001
 |  0.30825, 0.934827, 0.652813, 0.165584, 0.444902,           0.677701, 0.234141, 0.588039, 0.690202,           0.937686
 | 0.148089, 0.443404, 0.284926, 0.871506, 0.813419,           0.889693, 0.364544, 0.773264, 0.808854,           0.019878
 | 0.205928, 0.315145, 0.919589, 0.369313, 0.689675, 0.7345159999999999, 0.751514, 0.494404, 0.855582,           0.058771
 | 0.552033, 0.619212, 0.586299, 0.816092, 0.050678,           0.433774, 0.310612, 0.579797, 0.315027,           0.845243
 |];
% _objective = 5790.0166595;
