production = [0: 0.0, 1: 0.0, 2: 0.0, 3: 0.0, 4: 0.0, 5: 0.0, 6: 0.0, 7: 0.0, 8: 0.0, 9: 0.0, 10: 0.0, 11: 0.0, 12: 0.0, 13: 0.0, 14: 0.0, 15: 0.0, 16: 0.0, 17: 0.0, 18: 0.0, 19: 0.0, 20: 0.0, 21: 0.0, 22: 0.0, 23: 0.0, 24: 0.0182, 25: 0.0, 26: 0.0927, 27: 0.1487, 28: 0.0, 29: 0.2472, 30: 0.0, 31: 0.0, 32: 0.583, 33: 0.6274999999999999, 34: 0.5523, 35: 0.5948, 36: 0.7485000000000001, 37: 0.9862, 38: 0.0, 39: 0.0, 40: 1.4352, 41: 0.0, 42: 1.0175, 43: 0.0, 44: 0.0, 45: 1.8065, 46: 0.9918, 47: 0.0, 48: 0.0, 49: 0.0, 50: 0.0, 51: 0.0, 52: 0.0, 53: 0.0, 54: 1.8873, 55: 1.7323, 56: 0.6425, 57: 0.0, 58: 0.0, 59: 0.435, 60: 0.2923, 61: 0.242, 62: 0.2948, 63: 0.0, 64: 0.2777, 65: 0.0, 66: 0.0, 67: 0.2392, 68: 0.0, 69: 0.0, 70: 0.068, 71: 0.0, 72: 0.0, 73: 0.001, 74: 0.0, 75: 0.0003, 76: 0.0, 77: 0.0, 78: 0.0, 79: 0.0, 80: 0.0, 81: 0.0, 82: 0.0, 83: 0.0, 84: 0.0, 85: 0.0, 86: 0.0, 87: 0.0, 88: 0.0, 89: 0.0, 90: 0.0, 91: 0.0, 92: 0.0, 93: 0.0, 94: 0.0, 95: 0.0];
buy = [0: 0.0, 1: 0.0, 2: 0.309908333, 3: 0.0, 4: 0.0, 5: 0.0, 6: 1.263408333, 7: 0.271208333, 8: 0.0, 9: 1.234208333, 10: 0.213708333, 11: 0.0, 12: 1.226408333, 13: 1.227908333, 14: 0.0, 15: 0.211508333, 16: 0.0, 17: 1.107708333, 18: 1.099708333, 19: 0.0, 20: 0.0, 21: 0.107208333, 22: 1.103708333, 23: 0.093908333, 24: 0.059008333, 25: 0.084408333, 26: 0.0, 27: 0.934708333, 28: 1.082008333, 29: 0.0, 30: 0.090508333, 31: 1.101208333, 32: 0.510208333, 33: 0.465408333, 34: 0.0, 35: 0.0, 36: 0.352908333, 37: 0.131808333, 38: 1.171908333, 39: 0.0, 40: 0.0, 41: 1.127008333, 42: 0.109708333, 43: 1.131208333, 44: 0.0, 45: 0.0, 46: 0.0, 47: 0.0, 48: 0.0, 49: 0.995577818, 50: 0.0, 51: 0.0, 52: 0.0, 53: 0.0, 54: 0.0, 55: 0.0, 56: 1.181408333, 57: 1.402708333, 58: 0.0, 59: 0.036507937, 60: 0.828908333, 61: 0.0, 62: 0.8374083329999999, 63: 0.143708333, 64: 0.0, 65: 0.0, 66: 0.193708333, 67: 0.890508333, 68: 0.121708333, 69: 0.0, 70: 0.312824153, 71: 1.113708333, 72: 1.103508333, 73: 0.0, 74: 0.0, 75: 1.098908333, 76: 1.099908333, 77: 0.0, 78: 0.0, 79: 0.0, 80: 1.099708333, 81: 0.099908333, 82: 1.092708333, 83: 0.0, 84: 0.0, 85: 0.101408333, 86: 0.0, 87: 1.112508333, 88: 1.101708333, 89: 1.282008333, 90: 0.322708333, 91: 1.321908333, 92: 1.320408333, 93: 1.283208333, 94: 1.253908333, 95: 0.0];
sell = [0: 0.785991667, 1: 0.593091667, 2: 0.0, 3: 0.6020916670000001, 4: 0.607591667, 5: 0.6100916669999999, 6: 0.0, 7: 0.0, 8: 0.6564916669999999, 9: 0.0, 10: 0.0, 11: 0.683291667, 12: 0.0, 13: 0.0, 14: 0.680091667, 15: 0.0, 16: 0.676291667, 17: 0.0, 18: 0.0, 19: 0.807091667, 20: 0.806291667, 21: 0.0, 22: 0.0, 23: 0.0, 24: 0.0, 25: 0.0, 26: 0.901991667, 27: 0.0, 28: 0.0, 29: 1.065991667, 30: 0.0, 31: 0.0, 32: 0.0, 33: 0.0, 34: 1.351091667, 35: 1.393391667, 36: 0.0, 37: 0.0, 38: 0.0, 39: 0.751791667, 40: 0.286491667, 41: 0.0, 42: 0.0, 43: 0.0, 44: 0.746291667, 45: 2.529991667, 46: 1.725091667, 47: 0.726491667, 48: 0.7149916670000001, 49: 0.0, 50: 0.742791667, 51: 0.417991667, 52: 0.751991667, 53: 0.392091667, 54: 1.280591667, 55: 0.123291667, 56: 0.0, 57: 0.0, 58: 0.479491667, 59: 0.0, 60: 0.0, 61: 0.107591667, 62: 0.0, 63: 0.0, 64: 0.115991667, 65: 0.715491667, 66: 0.0, 67: 0.0, 68: 0.0, 69: 0.7915916670000001, 70: 0.0, 71: 0.0, 72: 0.0, 73: 0.809091667, 74: 0.808091667, 75: 0.0, 76: 0.0, 77: 0.801091667, 78: 0.809091667, 79: 0.807291667, 80: 0.0, 81: 0.0, 82: 0.0, 83: 0.816091667, 84: 0.798291667, 85: 0.0, 86: 0.791291667, 87: 0.0, 88: 0.0, 89: 0.0, 90: 0.0, 91: 0.0, 92: 0.0, 93: 0.0, 94: 0.0, 95: 0.638291667];
charge = [0: 0.0, 1: 0.0, 2: 0.0, 3: 0.0, 4: 0.0, 5: 0.0, 6: 1.0, 7: 0.0, 8: 0.0, 9: 1.0, 10: 0.0, 11: 0.0, 12: 1.0, 13: 1.0, 14: 0.0, 15: 0.0, 16: 0.0, 17: 1.0, 18: 1.0, 19: 0.0, 20: 0.0, 21: 0.0, 22: 1.0, 23: 0.0, 24: 0.0, 25: 0.0, 26: 0.0, 27: 1.0, 28: 1.0, 29: 0.0, 30: 0.0, 31: 1.0, 32: 1.0, 33: 1.0, 34: 0.0, 35: 0.0, 36: 1.0, 37: 1.0, 38: 1.0, 39: 0.0, 40: 1.0, 41: 1.0, 42: 1.0, 43: 1.0, 44: 0.0, 45: 0.0, 46: 0.0, 47: 0.0, 48: 0.0, 49: 0.832369485, 50: 0.0, 51: 0.0, 52: 0.0, 53: 0.0, 54: 0.0, 55: 1.0, 56: 1.0, 57: 1.0, 58: 0.0, 59: 0.0, 60: 1.0, 61: 0.0, 62: 1.0, 63: 0.0, 64: 0.0, 65: 0.0, 66: 0.0, 67: 1.0, 68: 0.0, 69: 0.0, 70: 0.258915819, 71: 1.0, 72: 1.0, 73: 0.0, 74: 0.0, 75: 1.0, 76: 1.0, 77: 0.0, 78: 0.0, 79: 0.0, 80: 1.0, 81: 0.0, 82: 1.0, 83: 0.0, 84: 0.0, 85: 0.0, 86: 0.0, 87: 1.0, 88: 1.0, 89: 1.0, 90: 0.0, 91: 1.0, 92: 1.0, 93: 1.0, 94: 1.0, 95: 0.0];
discharge = [0: 1.0, 1: 1.0, 2: 0.0, 3: 1.0, 4: 1.0, 5: 1.0, 6: 0.0, 7: 0.0, 8: 1.0, 9: 0.0, 10: 0.0, 11: 1.0, 12: 0.0, 13: 0.0, 14: 1.0, 15: 0.0, 16: 1.0, 17: 0.0, 18: 0.0, 19: 1.0, 20: 1.0, 21: 0.0, 22: 0.0, 23: 0.0, 24: 0.0, 25: 0.0, 26: 1.0, 27: 0.0, 28: 0.0, 29: 1.0, 30: 0.0, 31: 0.0, 32: 0.0, 33: 0.0, 34: 1.0, 35: 1.0, 36: 0.0, 37: 0.0, 38: 0.0, 39: 1.0, 40: 0.0, 41: 0.0, 42: 0.0, 43: 0.0, 44: 1.0, 45: 1.0, 46: 1.0, 47: 1.0, 48: 1.0, 49: 0.0, 50: 1.0, 51: 1.0, 52: 1.0, 53: 1.0, 54: 0.0, 55: 0.0, 56: 0.0, 57: 0.0, 58: 1.0, 59: 0.0, 60: 0.0, 61: 0.0, 62: 0.0, 63: 0.0, 64: 0.0, 65: 1.0, 66: 0.0, 67: 0.0, 68: 0.0, 69: 1.0, 70: 0.0, 71: 0.0, 72: 0.0, 73: 1.0, 74: 1.0, 75: 0.0, 76: 0.0, 77: 1.0, 78: 1.0, 79: 1.0, 80: 0.0, 81: 0.0, 82: 0.0, 83: 1.0, 84: 1.0, 85: 0.0, 86: 1.0, 87: 0.0, 88: 0.0, 89: 0.0, 90: 0.0, 91: 0.0, 92: 0.0, 93: 0.0, 94: 0.0, 95: 1.0];
soc = [0: 8.868026, 1: 7.866252395, 2: 7.864679144, 3: 6.863106208, 4: 5.861733587, 5: 4.860561241, 6: 5.759589128, 7: 5.75843721, 8: 4.757285523, 9: 5.656334066, 10: 5.655202799, 11: 4.654071759, 12: 5.553140944, 13: 6.452030316, 14: 5.45073991, 15: 5.449649762, 16: 4.448559832, 17: 5.34767012, 18: 6.246600586, 19: 5.245351266, 20: 4.244302196, 21: 4.243453335, 22: 5.142604645, 23: 5.141576124, 24: 5.140547808, 25: 5.139519699, 26: 4.138491795, 27: 5.037664097, 28: 5.936656564, 29: 4.935469232, 30: 4.934482139, 31: 5.833495242, 32: 6.732328543, 33: 7.630982077, 34: 6.629455881, 35: 5.62812999, 36: 6.527004364, 37: 7.425698963, 38: 8.324213822999999, 39: 7.32254898, 40: 8.221084470999999, 41: 9.119440254000001, 42: 10.017616366, 43: 10.915612842, 44: 9.91342972, 45: 8.911447034, 46: 7.909664744, 47: 6.908082811, 48: 5.906701195, 49: 6.654652391, 50: 5.653321461, 51: 4.652190796, 52: 3.651260358, 53: 2.650530106, 54: 2.65, 55: 3.54947, 56: 4.448760106, 57: 5.347870354, 58: 4.34680078, 59: 4.34593142, 60: 5.245062233, 61: 5.244013221, 62: 6.142964418, 63: 6.141735825, 64: 6.140507478, 65: 5.139279377, 66: 5.138251521, 67: 6.037223871, 68: 6.036016426, 69: 5.034809223, 70: 5.266826498, 71: 6.165773133, 72: 7.064539978, 73: 6.06312707, 74: 5.061914445, 75: 5.960902062, 76: 6.859709882, 77: 5.85833794, 78: 4.857166272, 79: 3.856194839, 80: 4.7554236, 81: 4.754472515, 82: 5.653521621, 83: 4.652390916, 84: 3.651460438, 85: 3.650730146, 86: 2.65, 87: 3.54947, 88: 4.448760106, 89: 5.347870354, 90: 5.34680078, 91: 6.24573142, 92: 7.144482273, 93: 8.043053377, 94: 8.941444766, 95: 7.939656477];
cost = [0: 0.0, 1: 0.0, 2: 0.189323001, 3: 0.0, 4: 0.0, 5: 0.0, 6: 0.889994316, 7: 0.165681171, 8: 0.0, 9: 0.872156036, 10: 0.130554421, 11: 0.0, 12: 0.867391016, 13: 0.868307366, 14: 0.0, 15: 0.129210441, 16: 0.0, 17: 0.794877186, 18: 0.789989986, 19: 0.0, 20: 0.0, 21: 0.065493571, 22: 0.792433586, 23: 0.057368601, 24: 0.070196313, 25: 0.100412153, 26: 0.0, 27: 1.230107199, 28: 1.405335279, 29: 0.0, 30: 0.107668713, 31: 1.428175599, 32: 0.725121999, 33: 0.6718279190000001, 34: 0.0, 35: 0.0, 36: 0.537997919, 37: 0.274977359, 38: 1.512280319, 39: 0.0, 40: 0.118178165, 41: 1.458867279, 42: 0.248687199, 43: 1.463863599, 44: 0.0, 45: 0.0, 46: 0.0, 47: 0.0, 48: 0.0, 49: 1.282707271, 50: 0.0, 51: 0.0, 52: 0.0, 53: 0.0, 54: 0.0, 55: 0.118178165, 56: 0.839900516, 57: 0.975092686, 58: 0.0, 59: 0.022302941, 60: 1.104247519, 61: 0.0, 62: 1.114359119, 63: 0.170955433, 64: 0.0, 65: 0.0, 66: 0.230435433, 67: 1.177526879, 68: 0.144784233, 69: 0.0, 70: 0.402733809, 71: 1.443045599, 72: 1.430911679, 73: 0.0, 74: 0.0, 75: 1.425439519, 76: 1.426629119, 77: 0.0, 78: 0.0, 79: 0.0, 80: 1.426391199, 81: 0.118850953, 82: 1.418063999, 83: 0.0, 84: 0.0, 85: 0.120634921, 86: 0.0, 87: 1.441618079, 88: 0.791211786, 89: 0.901357056, 90: 0.197142521, 91: 0.925731966, 92: 0.924815616, 93: 0.902090136, 94: 0.884190766, 95: 0.0];
earn = [0: 0.546264208, 1: 0.387051622, 2: 0.0, 3: 0.375343945, 4: 0.372271414, 5: 0.376182522, 6: 0.0, 7: 0.0, 8: 0.402823287, 9: 0.0, 10: 0.0, 11: 0.433343575, 12: 0.0, 13: 0.0, 14: 0.445664069, 15: 0.0, 16: 0.449666329, 17: 0.0, 18: 0.0, 19: 0.592970248, 20: 0.606976367, 21: 0.0, 22: 0.0, 23: 0.0, 24: 0.0, 25: 0.0, 26: 0.8658218009999999, 27: 0.0, 28: 0.0, 29: 0.942336633, 30: 0.0, 31: 0.0, 32: 0.0, 33: 0.0, 34: 0.850512204, 35: 0.831715486, 36: 0.0, 37: 0.0, 38: 0.0, 39: 0.307407613, 40: 0.102019682, 41: 0.0, 42: 0.0, 43: 0.0, 44: 0.169706725, 45: 0.489806387, 46: 0.299130895, 47: 0.124012128, 48: 0.099812837, 49: 0.0, 50: 0.108150467, 51: 0.07695226600000001, 52: 0.259361926, 53: 0.143819223, 54: 0.516590678, 55: 0.05133865, 56: 0.0, 57: 0.0, 58: 0.258446008, 59: 0.0, 60: 0.0, 61: 0.063425287, 62: 0.0, 63: 0.0, 64: 0.080533014, 65: 0.542342683, 66: 0.0, 67: 0.0, 68: 0.0, 69: 0.695571598, 70: 0.0, 71: 0.0, 72: 0.0, 73: 1.073664642, 74: 1.109509858, 75: 0.0, 76: 0.0, 77: 1.019789692, 78: 1.015410042, 79: 0.984088542, 80: 0.0, 81: 0.0, 82: 0.0, 83: 0.753742263, 84: 0.6731993630000001, 85: 0.0, 86: 0.589195775, 87: 0.0, 88: 0.0, 89: 0.0, 90: 0.0, 91: 0.0, 92: 0.0, 93: 0.0, 94: 0.0, 95: 0.448591383];
total_cost = 41.327827061;
total_earn = 20.534563335;
% _objective = 20.793263726;