production = [0: 0.0, 1: 0.0, 2: 0.0, 3: 0.0, 4: 0.0, 5: 0.0, 6: 0.0, 7: 0.0, 8: 0.0, 9: 0.0, 10: 0.0, 11: 0.0, 12: 0.0, 13: 0.0, 14: 0.0, 15: 0.0, 16: 0.0, 17: 0.0, 18: 0.0, 19: 0.0, 20: 0.0, 21: 0.0, 22: 0.001, 23: 0.0025, 24: 0.0182, 25: 0.0, 26: 0.0, 27: 0.1487, 28: 0.1915, 29: 0.0, 30: 0.0, 31: 0.5125, 32: 0.583, 33: 0.6274999999999999, 34: 0.5523, 35: 0.0, 36: 0.7485000000000001, 37: 0.9862, 38: 1.3553, 39: 0.0, 40: 0.0, 41: 0.91, 42: 0.0, 43: 1.0562, 44: 0.0, 45: 0.0, 46: 0.0, 47: 0.0, 48: 0.0, 49: 0.0, 50: 0.0, 51: 0.0, 52: 0.0, 53: 0.8395, 54: 0.0, 55: 1.7323, 56: 0.6425, 57: 0.4923, 58: 0.4175, 59: 0.435, 60: 0.0, 61: 0.0, 62: 0.0, 63: 0.0, 64: 0.2777, 65: 0.0, 66: 0.2355, 67: 0.129708333, 68: 0.0, 69: 0.0, 70: 0.068, 71: 0.0, 72: 0.0, 73: 0.0, 74: 0.0, 75: 0.0003, 76: 0.0, 77: 0.0, 78: 0.0, 79: 0.0, 80: 0.0, 81: 0.0, 82: 0.0, 83: 0.0, 84: 0.0, 85: 0.0, 86: 0.0, 87: 0.0, 88: 0.0, 89: 0.0, 90: 0.0, 91: 0.0, 92: 0.0, 93: 0.0, 94: 0.0, 95: 0.0];
buy = [0: 1.114008333, 1: 1.306908333, 2: 1.309908333, 3: 0.0, 4: 0.292408333, 5: 1.289908333, 6: 1.263408333, 7: 1.271208333, 8: 0.0, 9: 0.0, 10: 1.213708333, 11: 0.0, 12: 0.0, 13: 1.227908333, 14: 1.219908333, 15: 0.0, 16: 0.0, 17: 1.107708333, 18: 0.0, 19: 1.092908333, 20: 1.093708333, 21: 1.107208333, 22: 1.102708333, 23: 1.091408333, 24: 0.059008333, 25: 0.084408333, 26: 0.0, 27: 0.934708333, 28: 0.0, 29: 0.0, 30: 0.0, 31: 0.0, 32: 0.0, 33: 0.0, 34: 0.548908333, 35: 0.101408333, 36: 0.0, 37: 0.131808333, 38: 0.0, 39: 0.0, 40: 1.148708333, 41: 0.217008333, 42: 1.127208333, 43: 0.0, 44: 0.0, 45: 0.531976984, 46: 0.0, 47: 1.173508333, 48: 1.185008333, 49: 1.163208333, 50: 0.0, 51: 1.482008333, 52: 0.0, 53: 0.0, 54: 0.0, 55: 0.0, 56: 1.181408333, 57: 0.0, 58: 0.0, 59: 0.0, 60: 0.0, 61: 1.134408333, 62: 1.132208333, 63: 1.143708333, 64: 0.0, 65: 0.184508333, 66: 0.0, 67: 0.0, 68: 0.0, 69: 0.108408333, 70: 1.053908333, 71: 0.0, 72: 0.103508333, 73: 0.09190833299999999, 74: 0.0, 75: 1.098908333, 76: 0.0, 77: 0.0, 78: 1.090908333, 79: 0.0, 80: 0.099708333, 81: 1.099908333, 82: 0.0, 83: 0.0, 84: 0.101708333, 85: 0.0, 86: 1.108708333, 87: 0.0, 88: 0.0, 89: 0.0, 90: 1.322708333, 91: 1.321908333, 92: 0.0, 93: 0.0, 94: 1.253908333, 95: 0.0];
sell = [0: 0.0, 1: 0.0, 2: 0.0, 3: 0.6020916670000001, 4: 0.0, 5: 0.0, 6: 0.0, 7: 0.0, 8: 0.332832867, 9: 0.665791667, 10: 0.0, 11: 0.683291667, 12: 0.6735916669999999, 13: 0.0, 14: 0.0, 15: 0.688491667, 16: 0.676291667, 17: 0.0, 18: 0.800291667, 19: 0.0, 20: 0.0, 21: 0.0, 22: 0.0, 23: 0.0, 24: 0.0, 25: 0.0, 26: 0.809291667, 27: 0.0, 28: 0.109491667, 29: 0.8187916669999999, 30: 0.809491667, 31: 1.311291667, 32: 0.489791667, 33: 1.434591667, 34: 0.0, 35: 0.0, 36: 1.547091667, 37: 0.0, 38: 0.183391667, 39: 0.074811954, 40: 0.0, 41: 0.0, 42: 0.0, 43: 1.824991667, 44: 0.746291667, 45: 0.0, 46: 0.733291667, 47: 0.0, 48: 0.0, 49: 0.0, 50: 0.742791667, 51: 0.0, 52: 0.751991667, 53: 0.331591667, 54: 0.293291667, 55: 1.123291667, 56: 0.0, 57: 0.089591667, 58: 0.896991667, 59: 0.863492063, 60: 0.778791667, 61: 0.0, 62: 0.0, 63: 0.0, 64: 1.015991667, 65: 0.0, 66: 0.9417916670000001, 67: 0.0, 68: 0.778291667, 69: 0.0, 70: 0.0, 71: 0.786291667, 72: 0.0, 73: 0.0, 74: 0.808091667, 75: 0.0, 76: 0.800091667, 77: 0.801091667, 78: 0.0, 79: 0.807291667, 80: 0.0, 81: 0.0, 82: 0.807291667, 83: 0.816091667, 84: 0.0, 85: 0.7985916669999999, 86: 0.0, 87: 0.787491667, 88: 0.798291667, 89: 0.617991667, 90: 0.0, 91: 0.0, 92: 0.579591667, 93: 0.616791667, 94: 0.0, 95: 0.638291667];
charge = [0: 1.0, 1: 1.0, 2: 1.0, 3: 0.0, 4: 0.0, 5: 1.0, 6: 1.0, 7: 1.0, 8: 0.0, 9: 0.0, 10: 1.0, 11: 0.0, 12: 0.0, 13: 1.0, 14: 1.0, 15: 0.0, 16: 0.0, 17: 1.0, 18: 0.0, 19: 1.0, 20: 1.0, 21: 1.0, 22: 1.0, 23: 1.0, 24: 0.0, 25: 0.0, 26: 0.0, 27: 1.0, 28: 0.0, 29: 0.0, 30: 0.0, 31: 0.0, 32: 0.0, 33: 0.0, 34: 1.0, 35: 0.0, 36: 0.0, 37: 1.0, 38: 1.0, 39: 0.0, 40: 1.0, 41: 1.0, 42: 1.0, 43: 0.0, 44: 0.0, 45: 0.355468651, 46: 0.0, 47: 1.0, 48: 1.0, 49: 1.0, 50: 0.0, 51: 1.0, 52: 0.0, 53: 0.0, 54: 0.0, 55: 0.0, 56: 1.0, 57: 0.0, 58: 0.0, 59: 0.0, 60: 0.0, 61: 1.0, 62: 1.0, 63: 1.0, 64: 0.0, 65: 0.0, 66: 0.0, 67: 0.0, 68: 0.0, 69: 0.0, 70: 1.0, 71: 0.0, 72: 0.0, 73: 0.0, 74: 0.0, 75: 1.0, 76: 0.0, 77: 0.0, 78: 1.0, 79: 0.0, 80: 0.0, 81: 1.0, 82: 0.0, 83: 0.0, 84: 0.0, 85: 0.0, 86: 1.0, 87: 0.0, 88: 0.0, 89: 0.0, 90: 1.0, 91: 1.0, 92: 0.0, 93: 0.0, 94: 1.0, 95: 0.0];
discharge = [0: 0.0, 1: 0.0, 2: 0.0, 3: 1.0, 4: 0.0, 5: 0.0, 6: 0.0, 7: 0.0, 8: 0.640379111, 9: 1.0, 10: 0.0, 11: 1.0, 12: 1.0, 13: 0.0, 14: 0.0, 15: 1.0, 16: 1.0, 17: 0.0, 18: 1.0, 19: 0.0, 20: 0.0, 21: 0.0, 22: 0.0, 23: 0.0, 24: 0.0, 25: 0.0, 26: 1.0, 27: 0.0, 28: 0.0, 29: 1.0, 30: 1.0, 31: 1.0, 32: 0.0, 33: 1.0, 34: 0.0, 35: 0.0, 36: 1.0, 37: 0.0, 38: 0.0, 39: 0.247800319, 40: 0.0, 41: 0.0, 42: 0.0, 43: 1.0, 44: 1.0, 45: 0.0, 46: 1.0, 47: 0.0, 48: 0.0, 49: 0.0, 50: 1.0, 51: 0.0, 52: 1.0, 53: 0.0, 54: 1.0, 55: 0.0, 56: 0.0, 57: 0.0, 58: 1.0, 59: 1.0, 60: 1.0, 61: 0.0, 62: 0.0, 63: 0.0, 64: 1.0, 65: 0.0, 66: 1.0, 67: 0.0, 68: 1.0, 69: 0.0, 70: 0.0, 71: 1.0, 72: 0.0, 73: 0.0, 74: 1.0, 75: 0.0, 76: 1.0, 77: 1.0, 78: 0.0, 79: 1.0, 80: 0.0, 81: 0.0, 82: 1.0, 83: 1.0, 84: 0.0, 85: 1.0, 86: 0.0, 87: 1.0, 88: 1.0, 89: 1.0, 90: 0.0, 91: 0.0, 92: 1.0, 93: 1.0, 94: 0.0, 95: 1.0];
soc = [0: 10.768026, 1: 11.665872997, 2: 12.56353922, 3: 11.561026512, 4: 11.558714307, 5: 12.456402564, 6: 13.353911284, 7: 14.251240502, 8: 13.608011142, 9: 12.60528954, 10: 13.502768482, 11: 12.500067928, 12: 11.497567915, 13: 12.395268401, 14: 13.292789348, 15: 12.29013079, 16: 11.287672763, 17: 12.185415229, 18: 11.182978146, 19: 12.08074155, 20: 12.978325402, 21: 13.875729737, 22: 14.772954591, 23: 15.67, 24: 15.666866, 25: 15.663732627, 26: 14.66059988, 27: 15.55766776, 28: 15.554556227, 29: 14.551445316, 30: 13.548535026, 31: 12.545825319, 32: 12.543316154, 33: 11.540807491, 34: 12.43849933, 35: 12.43601163, 36: 11.433524427, 37: 12.331237723, 38: 13.228771475, 39: 12.978325402, 40: 13.875729737, 41: 14.772954591, 42: 15.67, 43: 14.666866, 44: 13.663932627, 45: 13.981121626, 46: 12.978325402, 47: 13.875729737, 48: 14.772954591, 49: 15.67, 50: 14.666866, 51: 15.563932627, 52: 14.56081984, 53: 14.557907676, 54: 13.554996095, 55: 13.552285096, 56: 14.449574639, 57: 14.446684724, 58: 13.443795387, 59: 12.441106628, 60: 11.438618406, 61: 12.336330683, 62: 13.233863416, 63: 14.131216644, 64: 13.1283904, 65: 13.125764722, 66: 12.123139569, 67: 12.120714941, 68: 11.118290799, 69: 11.11606714, 70: 12.013843927, 71: 11.011441158, 72: 11.00923887, 73: 11.007037022, 74: 10.004835615, 75: 10.902834648, 76: 9.900654081000001, 77: 8.898673949999999, 78: 9.796894215, 79: 8.794934835999999, 80: 8.793175849000001, 81: 9.691417213999999, 82: 8.689478931, 83: 7.687741035, 84: 7.686203487, 85: 6.684666246, 86: 7.583329313, 87: 6.581812647, 88: 5.580496284, 89: 4.579380185, 90: 5.478464309, 91: 6.377368616, 92: 5.376093142, 93: 4.375017924, 94: 5.27414292, 95: 4.273088092];
cost = [0: 0.798725856, 1: 0.916568466, 2: 0.918401166, 3: 0.0, 4: 0.178632251, 5: 0.906183166, 6: 0.889994316, 7: 0.894759336, 8: 0.0, 9: 0.0, 10: 0.859632586, 11: 0.0, 12: 0.0, 13: 0.868307366, 14: 0.863420166, 15: 0.0, 16: 0.0, 17: 0.794877186, 18: 0.0, 19: 0.785835866, 20: 0.786324586, 21: 0.794571736, 22: 0.7918226860000001, 23: 0.784919516, 24: 0.070196313, 25: 0.100412153, 26: 0.0, 27: 1.230107199, 28: 0.0, 29: 0.0, 30: 0.0, 31: 0.0, 32: 0.0, 33: 0.0, 34: 0.771159519, 35: 0.120635353, 36: 0.0, 37: 0.274977359, 38: 0.118178165, 39: 0.0, 40: 1.484681599, 41: 0.376331279, 42: 1.459105199, 43: 0.0, 44: 0.0, 45: 0.674848454, 46: 0.0, 47: 1.514183679, 48: 1.527864079, 49: 1.501930799, 50: 0.0, 51: 1.881175279, 52: 0.0, 53: 0.0, 54: 0.0, 55: 0.0, 56: 0.839900516, 57: 0.0, 58: 0.0, 59: 0.0, 60: 0.0, 61: 1.467670319, 62: 1.465053199, 63: 1.478733599, 64: 0.0, 65: 0.219491113, 66: 0.0, 67: 0.0, 68: 0.0, 69: 0.128962553, 70: 1.371907519, 71: 0.0, 72: 0.123133513, 73: 0.109334153, 74: 0.0, 75: 1.425439519, 76: 0.0, 77: 0.0, 78: 1.415922719, 79: 0.0, 80: 0.118613033, 81: 1.426629119, 82: 0.0, 83: 0.0, 84: 0.120992233, 85: 0.0, 86: 1.437097599, 87: 0.0, 88: 0.0, 89: 0.0, 90: 0.926220686, 91: 0.925731966, 92: 0.0, 93: 0.0, 94: 0.884190766, 95: 0.0];
earn = [0: 0.0, 1: 0.0, 2: 0.0, 3: 0.375343945, 4: 0.0, 5: 0.0, 6: 0.0, 7: 0.0, 8: 0.204226247, 9: 0.414521892, 10: 0.0, 11: 0.433343575, 12: 0.434129829, 13: 0.0, 14: 0.0, 15: 0.461702512, 16: 0.449666329, 17: 0.0, 18: 0.581171808, 19: 0.0, 20: 0.0, 21: 0.0, 22: 0.0, 23: 0.0, 24: 0.0, 25: 0.0, 26: 0.776839071, 27: 0.0, 28: 0.095969446, 29: 0.723811833, 30: 0.712595514, 31: 1.024249921, 32: 0.339621542, 33: 0.973370446, 34: 0.0, 35: 0.0, 36: 0.838214265, 37: 0.0, 38: 0.090595483, 39: 0.030590608, 40: 0.0, 41: 0.0, 42: 0.0, 43: 0.599874761, 44: 0.169706725, 45: 0.0, 46: 0.127152775, 47: 0.0, 48: 0.0, 49: 0.0, 50: 0.108150467, 51: 0.0, 52: 0.259361926, 53: 0.121627823, 54: 0.118313858, 55: 0.46773865, 56: 0.0, 57: 0.045467771, 58: 0.483478508, 59: 0.465422008, 60: 0.437057883, 61: 0.0, 62: 0.0, 63: 0.0, 64: 0.7054030140000001, 65: 0.0, 66: 0.755128558, 67: 0.0, 68: 0.634619025, 69: 0.0, 70: 0.0, 71: 0.807521542, 72: 0.0, 73: 0.0, 74: 1.109509858, 75: 0.0, 76: 1.040919258, 77: 1.019789692, 78: 0.0, 79: 0.984088542, 80: 0.0, 81: 0.0, 82: 0.804223958, 83: 0.753742263, 84: 0.0, 85: 0.642307278, 86: 0.0, 87: 0.6081010650000001, 88: 0.669047619, 89: 0.507927351, 90: 0.0, 91: 0.0, 92: 0.44582191, 93: 0.463642296, 94: 0.0, 95: 0.448591383];
total_cost = 41.823786806;
total_earn = 24.763702661;
% _objective = 17.060084145;