production = [0: 0.0, 1: 0.0, 2: 0.0, 3: 0.0, 4: 0.0, 5: 0.0, 6: 0.0, 7: 0.0, 8: 0.0, 9: 0.0, 10: 0.0, 11: 0.0, 12: 0.0, 13: 0.0, 14: 0.0, 15: 0.0, 16: 0.0, 17: 0.0, 18: 0.0, 19: 0.0, 20: 0.0, 21: 0.0, 22: 0.0, 23: 0.0, 24: 0.0, 25: 0.0, 26: 0.0, 27: 0.0325, 28: 0.057, 29: 0.0, 30: 0.0, 31: 0.1752, 32: 0.1963, 33: 0.3347, 34: 0.0, 35: 0.0, 36: 0.0, 37: 0.0, 38: 0.0, 39: 1.2303, 40: 0.0, 41: 0.0, 42: 0.0, 43: 0.0, 44: 1.7203, 45: 1.7745, 46: 1.8447, 47: 0.0, 48: 1.9403, 49: 0.0, 50: 0.0, 51: 0.0, 52: 1.184, 53: 1.9503, 54: 0.0, 55: 1.124, 56: 0.0, 57: 1.856, 58: 0.0, 59: 1.7477, 60: 0.0, 61: 1.586, 62: 0.0, 63: 1.3905, 64: 1.2275, 65: 0.0, 66: 0.0, 67: 0.8117, 68: 0.0, 69: 0.7083, 70: 0.0, 71: 0.0, 72: 0.0, 73: 0.1995, 74: 0.1293, 75: 0.103, 76: 0.0445, 77: 0.0, 78: 0.0025, 79: 0.0, 80: 0.0, 81: 0.0, 82: 0.0, 83: 0.0, 84: 0.0, 85: 0.0, 86: 0.0, 87: 0.0, 88: 0.0, 89: 0.0, 90: 0.0, 91: 0.0, 92: 0.0, 93: 0.0, 94: 0.0, 95: 0.0];
buy = [0: 0.0, 1: 1.3033, 2: 1.3337, 3: 0.0, 4: 1.3095, 5: 1.3088, 6: 0.0, 7: 1.2985, 8: 1.054371154, 9: 1.3005, 10: 1.3035, 11: 0.3083, 12: 0.0, 13: 1.2965, 14: 0.3008, 15: 0.0, 16: 0.0, 17: 0.0, 18: 0.0127, 19: 0.0, 20: 0.3485, 21: 0.0, 22: 0.3578, 23: 0.3045, 24: 0.0, 25: 1.262, 26: 0.2622, 27: 0.2297, 28: 0.064, 29: 0.1248, 30: 1.1305, 31: 0.9533, 32: 0.9319, 33: 0.0, 34: 1.1225, 35: 0.0, 36: 1.1298, 37: 1.13, 38: 0.0, 39: 0.0, 40: 0.0, 41: 0.0, 42: 1.134, 43: 0.0, 44: 0.0, 45: 0.0, 46: 0.0, 47: 1.1855, 48: 0.0, 49: 0.17, 50: 1.184, 51: 0.0, 52: 0.0, 53: 0.0, 54: 1.1782, 55: 0.0, 56: 0.0, 57: 0.0, 58: 0.0, 59: 0.0, 60: 1.621, 61: 0.0, 62: 0.0, 63: 0.0, 64: 0.0, 65: 1.122, 66: 0.1323, 67: 0.3211, 68: 1.1223, 69: 0.0, 70: 1.071463118, 71: 1.1277, 72: 1.1295, 73: 0.0, 74: 0.0, 75: 0.0195, 76: 0.0873, 77: 0.0, 78: 0.108, 79: 1.1115, 80: 1.109, 81: 0.0, 82: 0.136, 83: 0.0, 84: 0.0, 85: 0.0, 86: 0.0, 87: 0.0, 88: 1.2745, 89: 1.2438, 90: 0.0, 91: 1.2458, 92: 1.245, 93: 0.0, 94: 0.0, 95: 1.4175];
sell = [0: 0.5573, 1: 0.0, 2: 0.0, 3: 0.6068, 4: 0.0, 5: 0.0, 6: 0.5952, 7: 0.0, 8: 0.0, 9: 0.0, 10: 0.0, 11: 0.0, 12: 0.593, 13: 0.0, 14: 0.0, 15: 0.5905, 16: 0.5903, 17: 0.589, 18: 0.0, 19: 0.6242, 20: 0.0, 21: 0.5362, 22: 0.0, 23: 0.0, 24: 0.638, 25: 0.0, 26: 0.0, 27: 0.0, 28: 0.0, 29: 0.0, 30: 0.0, 31: 0.0, 32: 0.0, 33: 0.2104, 34: 0.0, 35: 0.0, 36: 0.0, 37: 0.0, 38: 0.776, 39: 1.107, 40: 0.778, 41: 0.0, 42: 0.0, 43: 0.2823, 44: 1.4508, 45: 0.574, 46: 1.649, 47: 0.0, 48: 0.7631, 49: 0.0, 50: 0.0, 51: 0.7185, 52: 0.0, 53: 2.6721, 54: 0.0, 55: 0.0, 56: 0.7756999999999999, 57: 1.7317, 58: 0.7835, 59: 2.5297, 60: 0.0, 61: 1.5863, 62: 0.0267, 63: 2.0842, 64: 1.05, 65: 0.0, 66: 0.0, 67: 0.0, 68: 0.0, 69: 0.5833, 70: 0.0, 71: 0.0, 72: 0.0, 73: 0.07779999999999999, 74: 0.0063, 75: 0.0, 76: 0.0, 77: 0.0, 78: 0.0, 79: 0.0, 80: 0.0, 81: 0.781, 82: 0.0, 83: 0.6052, 84: 0.5498, 85: 0.5405, 86: 0.533, 87: 0.531, 88: 0.0, 89: 0.0, 90: 0.6493, 91: 0.0, 92: 0.0, 93: 0.7705, 94: 0.7692, 95: 0.0];
charge = [0: 0.0, 1: 1.0, 2: 1.0, 3: 0.0, 4: 1.0, 5: 1.0, 6: 0.0, 7: 1.0, 8: 0.759871154, 9: 1.0, 10: 1.0, 11: 0.0, 12: 0.0, 13: 1.0, 14: 0.0, 15: 0.0, 16: 0.0, 17: 0.0, 18: 0.0, 19: 0.0, 20: 0.0, 21: 0.0, 22: 0.0, 23: 0.0, 24: 0.0, 25: 1.0, 26: 0.0, 27: 0.0, 28: 0.0, 29: 0.0, 30: 1.0, 31: 1.0, 32: 1.0, 33: 0.0, 34: 1.0, 35: 0.0, 36: 1.0, 37: 1.0, 38: 0.0, 39: 0.0, 40: 0.0, 41: 0.0, 42: 1.0, 43: 0.0, 44: 0.0, 45: 1.0, 46: 0.0, 47: 1.0, 48: 1.0, 49: 0.0, 50: 1.0, 51: 0.0, 52: 1.0, 53: 0.0, 54: 1.0, 55: 1.0, 56: 0.0, 57: 0.0, 58: 0.0, 59: 0.0, 60: 1.0, 61: 0.0, 62: 0.0, 63: 0.0, 64: 0.0, 65: 1.0, 66: 0.0, 67: 1.0, 68: 1.0, 69: 0.0, 70: 0.946663118, 71: 1.0, 72: 1.0, 73: 0.0, 74: 0.0, 75: 0.0, 76: 0.0, 77: 0.0, 78: 0.0, 79: 1.0, 80: 1.0, 81: 0.0, 82: 0.0, 83: 0.0, 84: 0.0, 85: 0.0, 86: 0.0, 87: 0.0, 88: 1.0, 89: 1.0, 90: 0.0, 91: 1.0, 92: 1.0, 93: 0.0, 94: 0.0, 95: 1.0];
discharge = [0: 1.0, 1: 0.0, 2: 0.0, 3: 1.0, 4: 0.0, 5: 0.0, 6: 1.0, 7: 0.0, 8: 0.0, 9: 0.0, 10: 0.0, 11: 0.0, 12: 1.0, 13: 0.0, 14: 0.0, 15: 1.0, 16: 1.0, 17: 1.0, 18: 1.0, 19: 1.0, 20: 0.0, 21: 1.0, 22: 0.0, 23: 0.0, 24: 1.0, 25: 0.0, 26: 0.0, 27: 0.0, 28: 0.0, 29: 0.0, 30: 0.0, 31: 0.0, 32: 0.0, 33: 0.0, 34: 0.0, 35: 0.144222222, 36: 0.0, 37: 0.0, 38: 1.0, 39: 0.0, 40: 1.0, 41: 0.147222222, 42: 0.0, 43: 1.0, 44: 0.0, 45: 0.0, 46: 0.0, 47: 0.0, 48: 0.0, 49: 0.0, 50: 0.0, 51: 1.0, 52: 0.0, 53: 1.0, 54: 0.0, 55: 0.0, 56: 1.0, 57: 0.0, 58: 1.0, 59: 1.0, 60: 0.0, 61: 1.0, 62: 1.0, 63: 1.0, 64: 0.0, 65: 0.0, 66: 0.0, 67: 0.0, 68: 0.0, 69: 0.0, 70: 0.0, 71: 0.0, 72: 0.0, 73: 0.0, 74: 0.0, 75: 0.0, 76: 0.0, 77: 0.145333333, 78: 0.0, 79: 0.0, 80: 0.0, 81: 1.0, 82: 0.0, 83: 1.0, 84: 1.0, 85: 1.0, 86: 1.0, 87: 1.0, 88: 0.0, 89: 0.0, 90: 1.0, 91: 0.0, 92: 0.0, 93: 1.0, 94: 1.0, 95: 0.0];
soc = [0: 4.79884, 1: 5.697880232, 2: 6.596740656, 3: 5.595421308, 4: 6.494302224, 5: 7.393003363, 6: 6.391524762, 7: 7.290246457, 8: 7.972672446, 9: 8.871077912000001, 10: 9.769303696, 11: 9.767349835999999, 12: 8.765396365999999, 13: 9.663643285999999, 14: 9.661710557999999, 15: 8.659778215999999, 16: 7.65804626, 17: 6.656514651, 18: 5.655183348, 19: 4.654052311, 20: 4.653121501, 21: 3.652190876, 22: 3.651460438, 23: 3.650730146, 24: 2.65, 25: 3.54947, 26: 3.548760106, 27: 3.548050354, 28: 3.547340744, 29: 3.546631276, 30: 4.44592195, 31: 5.345032765, 32: 6.243963759, 33: 6.242714966, 34: 7.141466423, 35: 6.995815907, 36: 7.894416744, 37: 8.792837861000001, 38: 7.791079293, 39: 7.789521077, 40: 6.787963173, 41: 6.639383358, 42: 7.538055482, 43: 6.536547871, 44: 6.535240561, 45: 7.433933513, 46: 7.432446726, 47: 8.330960236999999, 48: 9.229294045, 49: 9.227448186, 50: 10.125602696, 51: 9.123577576000001, 52: 10.02175286, 53: 9.019748509999999, 54: 9.91794456, 55: 10.815960971, 56: 9.813797779, 57: 9.811835019, 58: 8.809872651999999, 59: 7.808110678, 60: 8.706549056, 61: 7.704807746, 62: 6.703266784, 63: 5.701926131, 64: 5.700785746, 65: 6.599645589, 66: 6.598325659, 67: 7.497005994, 68: 8.395506593, 69: 8.393827492, 70: 9.244145532999999, 71: 10.142296703, 72: 11.040268244, 73: 11.03806019, 74: 11.035852578, 75: 11.033645408, 76: 11.031438679, 77: 10.883899058, 78: 10.881722278, 79: 11.779545933, 80: 12.677190024, 81: 11.674654586, 82: 11.672319655, 83: 10.669985191, 84: 9.667851194000001, 85: 8.665917624, 86: 7.664184441, 87: 6.662651604, 88: 7.561319073, 89: 8.45980681, 90: 7.458114848, 91: 8.356623225, 92: 9.254951901, 93: 8.253100910000001, 94: 7.25145029, 95: 8.15];
cost = [0: 0.0, 1: 0.914364135, 2: 0.9329354949999999, 3: 0.0, 4: 0.918151715, 5: 0.917724085, 6: 0.0, 7: 0.911431815, 8: 0.733915517, 9: 0.912653615, 10: 0.914486315, 11: 0.18834047, 12: 0.0, 13: 0.910210015, 14: 0.18375872, 15: 0.0, 16: 0.0, 17: 0.0, 18: 0.00775843, 19: 0.0, 20: 0.21289865, 21: 0.0, 22: 0.21858002, 23: 0.18601905, 24: 0.0, 25: 1.619453365, 26: 0.31191312, 27: 0.27325112, 28: 0.0761344, 29: 0.14846208, 30: 1.463020965, 31: 1.252223845, 32: 1.226766405, 33: 0.0, 34: 1.453504165, 35: 0.0, 36: 1.462188245, 37: 1.462426165, 38: 0.0, 39: 0.0, 40: 0.0, 41: 0.0, 42: 1.467184565, 43: 0.0, 44: 0.0, 45: 0.118178165, 46: 0.0, 47: 1.528448965, 48: 0.118178165, 49: 0.202232, 50: 1.526664565, 51: 0.0, 52: 0.118178165, 53: 0.0, 54: 0.837940545, 55: 0.118178165, 56: 0.0, 57: 0.0, 58: 0.0, 59: 0.0, 60: 2.046519765, 61: 0.0, 62: 0.0, 63: 0.0, 64: 0.0, 65: 1.452909365, 66: 0.15738408, 67: 0.500158725, 68: 1.453266245, 69: 0.0, 70: 1.386487436, 71: 1.459690085, 72: 1.461831365, 73: 0.0, 74: 0.0, 75: 0.0231972, 76: 0.10385208, 77: 0.0, 78: 0.1284768, 79: 1.440418565, 80: 1.437444565, 81: 0.0, 82: 0.1617856, 83: 0.0, 84: 0.0, 85: 0.0, 86: 0.0, 87: 0.0, 88: 0.896770215, 89: 0.878015585, 90: 0.0, 91: 0.879237385, 92: 0.878748665, 93: 0.0, 94: 0.0, 95: 0.984128915];
earn = [0: 0.38860529, 1: 0.0, 2: 0.0, 3: 0.3877452, 4: 0.0, 5: 0.0, 6: 0.366048, 7: 0.0, 8: 0.0, 9: 0.0, 10: 0.0, 11: 0.0, 12: 0.3469643, 13: 0.0, 14: 0.0, 15: 0.3467416, 16: 0.34290527, 17: 0.3416789, 18: 0.0, 19: 0.37027544, 20: 0.0, 21: 0.33415984, 22: 0.0, 23: 0.0, 24: 0.4741616, 25: 0.0, 26: 0.0, 27: 0.0, 28: 0.0, 29: 0.0, 30: 0.0, 31: 0.0, 32: 0.0, 33: 0.15561184, 34: 0.0, 35: 0.0, 36: 0.0, 37: 0.0, 38: 0.3987864, 39: 0.5347917, 40: 0.3402194, 41: 0.0, 42: 0.0, 43: 0.09778872, 44: 0.39722904, 45: 0.1488382, 46: 0.3235338, 47: 0.0, 48: 0.13926575, 49: 0.0, 50: 0.0, 51: 0.08399265, 52: 0.0, 53: 0.13146732, 54: 0.0, 55: 0.0, 56: 0.08780924, 57: 0.31378404, 58: 0.14800315, 59: 0.5340196699999999, 60: 0.0, 61: 0.49349793, 62: 0.00984963, 63: 0.82721898, 64: 0.511665, 65: 0.0, 66: 0.0, 67: 0.0, 68: 0.0, 69: 0.33971392, 70: 0.0, 71: 0.0, 72: 0.0, 73: 0.05530024, 74: 0.0046494, 75: 0.0, 76: 0.0, 77: 0.0, 78: 0.0, 79: 0.0, 80: 0.0, 81: 0.6813444, 82: 0.0, 83: 0.51133348, 84: 0.41773804, 85: 0.41623905, 86: 0.4020952, 87: 0.3845502, 88: 0.0, 89: 0.0, 90: 0.44327711, 91: 0.0, 92: 0.0, 93: 0.486956, 94: 0.49444176, 95: 0.0];
total_cost = 43.578077877;
total_earn = 14.0142967;
% _objective = 29.563781177;