production = [0: 0.0, 1: 0.0, 2: 0.0, 3: 0.0, 4: 0.0, 5: 0.0, 6: 0.0, 7: 0.0, 8: 0.0, 9: 0.0, 10: 0.0, 11: 0.0, 12: 0.0, 13: 0.0, 14: 0.0, 15: 0.0, 16: 0.0, 17: 0.0, 18: 0.0, 19: 0.0, 20: 0.0, 21: 0.0, 22: 0.0, 23: 0.0005, 24: 0.0, 25: 0.0, 26: 0.008800000000000001, 27: 0.0, 28: 0.0, 29: 0.08450000000000001, 30: 0.118, 31: 0.0, 32: 0.1963, 33: 0.0, 34: 0.0, 35: 0.8383, 36: 0.9507, 37: 0.0, 38: 1.1632, 39: 0.0, 40: 1.338, 41: 0.0, 42: 0.0, 43: 1.6453, 44: 1.7203, 45: 0.0, 46: 0.0, 47: 0.0, 48: 1.9403, 49: 1.9652, 50: 1.9638, 51: 1.9423, 52: 0.0, 53: 1.9503, 54: 1.9552, 55: 0.0, 56: 1.8902, 57: 1.856, 58: 1.7982, 59: 1.7477, 60: 1.665, 61: 0.0, 62: 0.0, 63: 1.2063, 64: 1.2275, 65: 1.122, 66: 0.0, 67: 0.0, 68: 0.0, 69: 0.7083, 70: 0.5972, 71: 0.3782, 72: 0.2502, 73: 0.1995, 74: 0.0, 75: 0.103, 76: 0.0, 77: 0.0, 78: 0.0025, 79: 0.0, 80: 0.0003, 81: 0.0, 82: 0.0, 83: 0.0, 84: 0.0, 85: 0.0, 86: 0.0, 87: 0.0, 88: 0.0, 89: 0.0, 90: 0.0, 91: 0.0, 92: 0.0, 93: 0.0, 94: 0.0, 95: 0.0];
buy = [0: 0.0, 1: 1.3033, 2: 0.3337, 3: 0.2932, 4: 1.3095, 5: 1.3088, 6: 0.3048, 7: 0.0, 8: 1.2945, 9: 0.0, 10: 0.0, 11: 0.0, 12: 1.307, 13: 0.2965, 14: 1.3008, 15: 0.0, 16: 0.0, 17: 0.0, 18: 0.0127, 19: 1.2758, 20: 0.3485, 21: 0.3638, 22: 0.0, 23: 1.304, 24: 1.262, 25: 0.0, 26: 0.0, 27: 0.0, 28: 1.121, 29: 1.0403, 30: 0.0, 31: 0.1285, 32: 0.0, 33: 0.0, 34: 1.1225, 35: 0.2915, 36: 0.0, 37: 0.13, 38: 0.0, 39: 1.1233, 40: 0.0, 41: 1.1325, 42: 1.134, 43: 0.0, 44: 0.0, 45: 0.0, 46: 1.1957, 47: 0.0, 48: 0.0, 49: 0.0, 50: 0.0, 51: 0.0, 52: 1.184, 53: 0.0, 54: 0.0, 55: 0.124, 56: 0.0, 57: 0.0, 58: 0.0, 59: 0.0, 60: 0.0, 61: 0.8997000000000001, 62: 1.8733, 63: 0.0, 64: 0.0, 65: 0.0, 66: 0.0, 67: 1.1328, 68: 1.1223, 69: 0.4167, 70: 0.5276, 71: 0.0, 72: 0.0, 73: 0.0, 74: 0.123, 75: 0.0195, 76: 0.0, 77: 0.0, 78: 0.108, 79: 0.0, 80: 1.1087, 81: 1.119, 82: 1.136, 83: 1.2948, 84: 0.3502, 85: 1.3595, 86: 0.0, 87: 0.0, 88: 0.0, 89: 1.2438, 90: 1.2507, 91: 1.2458, 92: 0.245, 93: 0.0, 94: 1.1308, 95: 0.0];
sell = [0: 0.5573, 1: 0.0, 2: 0.0, 3: 0.0, 4: 0.0, 5: 0.0, 6: 0.0, 7: 0.6015, 8: 0.0, 9: 0.000971518, 10: 0.5965, 11: 0.0, 12: 0.0, 13: 0.0, 14: 0.0, 15: 0.5905, 16: 0.5903, 17: 0.589, 18: 0.0, 19: 0.0, 20: 0.0, 21: 0.0, 22: 0.0, 23: 0.0, 24: 0.0, 25: 0.638, 26: 0.6466, 27: 0.6378, 28: 0.0, 29: 0.0, 30: 0.8875, 31: 0.0, 32: 0.0, 33: 0.7756999999999999, 34: 0.0, 35: 0.0, 36: 0.8209, 37: 0.0, 38: 0.0392, 39: 0.0, 40: 1.216, 41: 0.0, 42: 0.0, 43: 0.0276, 44: 0.4508, 45: 0.6995, 46: 0.0, 47: 0.7145, 48: 1.7631, 49: 1.7952, 50: 2.6798, 51: 1.7608, 52: 0.0, 53: 0.7721, 54: 2.677, 55: 0.0, 56: 2.6659, 57: 0.7317, 58: 2.5817, 59: 2.5297, 60: 1.044, 61: 0.0, 62: 0.0, 63: 0.0, 64: 1.95, 65: 0.0, 66: 0.7677, 67: 0.0, 68: 0.0, 69: 0.0, 70: 0.0, 71: 0.0, 72: 1.0207, 73: 0.9778, 74: 0.0, 75: 0.0, 76: 0.7682, 77: 0.0, 78: 0.0, 79: 0.7885, 80: 0.0, 81: 0.0, 82: 0.0, 83: 0.0, 84: 0.0, 85: 0.0, 86: 0.533, 87: 0.531, 88: 0.6254999999999999, 89: 0.0, 90: 0.0, 91: 0.0, 92: 0.0, 93: 0.7705, 94: 0.0, 95: 0.4825];
charge = [0: 0.0, 1: 1.0, 2: 0.0, 3: 0.0, 4: 1.0, 5: 1.0, 6: 0.0, 7: 0.0, 8: 1.0, 9: 0.0, 10: 0.0, 11: 0.0, 12: 1.0, 13: 0.0, 14: 1.0, 15: 0.0, 16: 0.0, 17: 0.0, 18: 0.0, 19: 1.0, 20: 0.0, 21: 0.0, 22: 0.0, 23: 1.0, 24: 1.0, 25: 0.0, 26: 0.0, 27: 0.0, 28: 1.0, 29: 1.0, 30: 0.0, 31: 0.0, 32: 0.06809999999999999, 33: 0.0, 34: 1.0, 35: 1.0, 36: 0.0, 37: 0.0, 38: 1.0, 39: 1.0, 40: 0.0, 41: 1.0, 42: 1.0, 43: 1.0, 44: 1.0, 45: 0.0, 46: 1.0, 47: 0.0, 48: 0.0, 49: 0.0, 50: 0.0, 51: 0.0, 52: 1.0, 53: 1.0, 54: 0.0, 55: 0.0, 56: 0.0, 57: 1.0, 58: 0.0, 59: 0.0, 60: 0.0, 61: 0.0, 62: 1.0, 63: 1.0, 64: 0.0, 65: 1.0, 66: 0.0, 67: 1.0, 68: 1.0, 69: 1.0, 70: 1.0, 71: 0.2505, 72: 0.0, 73: 0.0, 74: 0.0, 75: 0.0, 76: 0.0, 77: 0.0, 78: 0.0, 79: 0.0, 80: 1.0, 81: 1.0, 82: 1.0, 83: 1.0, 84: 0.0, 85: 1.0, 86: 0.0, 87: 0.0, 88: 0.0, 89: 1.0, 90: 1.0, 91: 1.0, 92: 0.0, 93: 0.0, 94: 1.0, 95: 0.0];
discharge = [0: 1.0, 1: 0.0, 2: 0.0, 3: 0.0, 4: 0.0, 5: 0.0, 6: 0.0, 7: 1.0, 8: 0.0, 9: 0.334968353, 10: 1.0, 11: 0.342555556, 12: 0.0, 13: 0.0, 14: 0.0, 15: 1.0, 16: 1.0, 17: 1.0, 18: 1.0, 19: 0.0, 20: 0.0, 21: 0.0, 22: 0.397555556, 23: 0.0, 24: 0.0, 25: 1.0, 26: 1.0, 27: 1.0, 28: 0.0, 29: 0.0, 30: 1.0, 31: 0.0, 32: 0.0, 33: 1.0, 34: 0.0, 35: 0.0, 36: 0.0, 37: 0.0, 38: 0.0, 39: 0.0, 40: 0.0, 41: 0.0, 42: 0.0, 43: 0.0, 44: 0.0, 45: 1.0, 46: 0.0, 47: 1.0, 48: 0.0, 49: 0.0, 50: 1.0, 51: 0.0, 52: 0.0, 53: 0.0, 54: 1.0, 55: 0.0, 56: 1.0, 57: 0.0, 58: 1.0, 59: 1.0, 60: 0.0, 61: 0.0, 62: 0.0, 63: 0.0, 64: 1.0, 65: 0.0, 66: 1.0, 67: 0.0, 68: 0.0, 69: 0.0, 70: 0.0, 71: 0.0, 72: 1.0, 73: 1.0, 74: 0.0, 75: 0.0, 76: 1.0, 77: 0.145333333, 78: 0.0, 79: 1.0, 80: 0.0, 81: 0.0, 82: 0.0, 83: 0.0, 84: 0.0, 85: 0.0, 86: 1.0, 87: 1.0, 88: 1.0, 89: 0.0, 90: 0.0, 91: 0.0, 92: 0.0, 93: 1.0, 94: 0.0, 95: 1.0];
soc = [0: 4.79884, 1: 5.697880232, 2: 5.696740656, 3: 5.695601308, 4: 6.594462188, 5: 7.493143295, 6: 7.491644666, 7: 6.490146338, 8: 7.388848308, 9: 7.052402185, 10: 6.050991705, 11: 5.707225951, 12: 6.606084506, 13: 6.604763289, 14: 7.503442336, 15: 6.501941648, 16: 5.500641259, 17: 4.499541131, 18: 3.498641223, 19: 4.397941495, 20: 4.397061906, 21: 4.396182494, 22: 3.997747702, 23: 4.896948152, 24: 5.795968763, 25: 4.794809569, 26: 3.793850607, 27: 2.793091837, 28: 3.692533219, 29: 4.591794712, 30: 3.590876353, 31: 3.590158178, 32: 3.650730146, 33: 2.65, 34: 3.54947, 35: 4.448760106, 36: 4.447870354, 37: 4.44698078, 38: 5.346091384, 39: 6.245022165, 40: 6.243773161, 41: 7.142524406, 42: 8.041095902, 43: 8.939487681999999, 44: 9.837699785, 45: 8.835732245000001, 46: 9.733965098000001, 47: 8.732018305, 48: 8.730271902, 49: 8.728525847, 50: 7.726780142, 51: 7.725234786, 52: 8.623689739, 53: 9.521965001, 54: 8.520060608, 55: 8.518356596, 56: 7.516652925, 57: 8.415149594000001, 58: 7.413466564, 59: 6.411983871, 60: 6.410701474, 61: 6.409419334, 62: 7.30813745, 63: 8.206675822999999, 64: 7.205034487, 65: 8.103593480000001, 66: 7.101972762, 67: 8.000552366999999, 68: 8.898952256999999, 69: 9.797172465999999, 70: 10.695213032, 71: 10.918523989, 72: 9.916340284, 73: 8.914357016, 74: 8.912574145000001, 75: 8.91079163, 76: 7.909009472, 77: 7.762094337, 78: 7.760541918, 79: 6.758989809, 80: 7.657638011, 81: 8.556106484000001, 82: 9.454395262, 83: 10.352504383, 84: 10.350433883, 85: 11.248363796, 86: 10.246114123, 87: 9.2440649, 88: 8.242216086999999, 89: 9.140567644000001, 90: 10.03873953, 91: 10.936731783, 92: 10.934544436, 93: 9.932357527000001, 94: 10.830371056, 95: 9.828204982000001];
cost = [0: 0.0, 1: 0.914364135, 2: 0.20385733, 3: 0.17911588, 4: 0.918151715, 5: 0.917724085, 6: 0.18620232, 7: 0.0, 8: 0.908988215, 9: 0.0, 10: 0.0, 11: 0.0, 12: 0.9166244650000001, 13: 0.18113185, 14: 0.912836885, 15: 0.0, 16: 0.0, 17: 0.0, 18: 0.00775843, 19: 0.897564385, 20: 0.21289865, 21: 0.22224542, 22: 0.0, 23: 0.914791765, 24: 1.619453365, 25: 0.0, 26: 0.0, 27: 0.0, 28: 1.451719765, 29: 1.355719045, 30: 0.0, 31: 0.1528636, 32: 0.008047933, 33: 0.0, 34: 1.453504165, 35: 0.464946565, 36: 0.0, 37: 0.154648, 38: 0.118178165, 39: 1.454455845, 40: 0.0, 41: 1.465400165, 42: 1.467184565, 43: 0.118178165, 44: 0.118178165, 45: 0.0, 46: 1.540582885, 47: 0.0, 48: 0.0, 49: 0.0, 50: 0.0, 51: 0.0, 52: 0.841483765, 53: 0.118178165, 54: 0.0, 55: 0.0757516, 56: 0.0, 57: 0.118178165, 58: 0.0, 59: 0.0, 60: 0.0, 61: 1.07028312, 62: 2.346655845, 63: 0.118178165, 64: 0.0, 65: 0.118178165, 66: 0.0, 67: 1.465757045, 68: 1.453266245, 69: 0.613884485, 70: 0.745811125, 71: 0.02960363, 72: 0.0, 73: 0.0, 74: 0.1463208, 75: 0.0231972, 76: 0.0, 77: 0.0, 78: 0.1284768, 79: 0.0, 80: 1.437087685, 81: 1.449340565, 82: 1.469563765, 83: 1.658472245, 84: 0.41659792, 85: 1.735439365, 86: 0.0, 87: 0.0, 88: 0.0, 89: 0.878015585, 90: 0.882230795, 91: 0.879237385, 92: 0.1496705, 93: 0.0, 94: 0.808983885, 95: 0.0];
earn = [0: 0.38860529, 1: 0.0, 2: 0.0, 3: 0.0, 4: 0.0, 5: 0.0, 6: 0.0, 7: 0.366915, 8: 0.0, 9: 0.000582911, 10: 0.35688595, 11: 0.0, 12: 0.0, 13: 0.0, 14: 0.0, 15: 0.3467416, 16: 0.34290527, 17: 0.3416789, 18: 0.0, 19: 0.0, 20: 0.0, 21: 0.0, 22: 0.0, 23: 0.0, 24: 0.0, 25: 0.5021060000000001, 26: 0.5253625, 27: 0.5229322199999999, 28: 0.0, 29: 0.0, 30: 0.76191875, 31: 0.0, 32: 0.0, 33: 0.57370772, 34: 0.0, 35: 0.0, 36: 0.45921146, 37: 0.0, 38: 0.02014488, 39: 0.0, 40: 0.5317568, 41: 0.0, 42: 0.0, 43: 0.00956064, 44: 0.12342904, 45: 0.18138035, 46: 0.0, 47: 0.10081595, 48: 0.32176575, 49: 0.21039744, 50: 0.3148765, 51: 0.20583752, 52: 0.0, 53: 0.03798732, 54: 0.1317084, 55: 0.0, 56: 0.30177988, 57: 0.13258404, 58: 0.48768313, 59: 0.5340196699999999, 60: 0.2877264, 61: 0.0, 62: 0.0, 63: 0.0, 64: 0.9502350000000001, 65: 0.0, 66: 0.39505842, 67: 0.0, 68: 0.0, 69: 0.0, 70: 0.0, 71: 0.0, 72: 0.70918236, 73: 0.69502024, 74: 0.0, 75: 0.0, 76: 0.65773284, 77: 0.0, 78: 0.0, 79: 0.73164915, 80: 0.0, 81: 0.0, 82: 0.0, 83: 0.0, 84: 0.0, 85: 0.0, 86: 0.4020952, 87: 0.3845502, 88: 0.4514859, 89: 0.0, 90: 0.0, 91: 0.0, 92: 0.0, 93: 0.486956, 94: 0.0, 95: 0.29032025];
total_cost = 42.615159954;
total_earn = 15.577292841;
