production = [0.0, 0.0, 0.0, 0.0, 0.0, 0.0, 0.0, 0.0, 0.0, 0.0, 0.0, 0.0, 0.0, 0.0, 0.0, 0.0, 0.0, 0.0, 0.0, 0.0, 0.0, 0.0, 0.0, 0.0, 0.0, 0.0, 0.008800000000000001, 0.0, 0.0, 0.0, 0.0, 0.0, 0.1963, 0.3347, 0.0, 0.0, 0.9507, 0.0, 0.0, 0.0, 1.338, 1.4732, 1.5545, 0.0, 0.0, 0.0, 1.8447, 1.8927, 0.0, 1.9652, 1.9638, 1.9423, 1.9623, 0.1782, 1.9552, 1.9115, 0.0, 1.856, 1.7982, 0.0, 0.0, 1.586, 1.4155, 0.0, 1.2275, 0.0, 0.0, 0.0, 0.4507, 0.7083, 0.5972, 0.3782, 0.2502, 0.0, 0.0, 0.103, 0.0, 0.0, 0.0025, 0.0, 0.0003, 0.0, 0.0, 0.0, 0.0, 0.0, 0.0, 0.0, 0.0, 0.0, 0.0, 0.0, 0.0, 0.0, 0.0, 0.0];
buy = [1.3427, 0.0, 1.3337, 0.0, 0.0, 0.0, 1.3048, 0.0, 1.2945, 1.3005, 0.005984667, 0.0, 0.0, 0.2965, 1.3008, 0.0, 1.3097, 1.311, 0.9127, 0.0, 0.0, 0.3638, 0.86727713, 1.3045, 0.262, 1.262, 0.2534, 1.2622, 1.121, 1.1248, 1.1305, 0.1285, 0.0, 0.0, 0.0, 0.0, 0.0, 0.13, 0.124, 0.0, 0.0, 0.0, 0.0, 0.0, 0.2695, 0.0, 0.0, 0.0, 0.1772, 0.0, 0.0, 0.0, 0.0, 0.0, 0.0, 0.0, 1.1243, 0.0, 0.0, 0.118, 1.621, 0.0, 0.4578, 1.2063, 0.0, 1.122, 1.1323, 1.1328, 0.0, 0.0, 0.0, 0.0, 0.0, 0.0, 1.123, 1.0195, 0.1318, 0.1308, 0.108, 1.1115, 1.1087, 1.119, 0.0, 0.0, 1.3502, 1.3595, 1.367, 0.0, 1.2745, 0.0, 0.2507, 1.2458, 0.0, 0.1295, 0.1308, 0.0];
sell = [0.0, 0.5967, 0.0, 0.6068, 0.5905, 0.5911999999999999, 0.0, 0.6015, 0.0, 0.0, 0.0, 0.5917, 0.593, 0.0, 0.0, 0.5905, 0.0, 0.0, 0.0, 0.6242, 0.5515, 0.0, 0.0, 0.0, 0.0, 0.0, 0.0, 0.0, 0.0, 0.0, 0.0, 0.0, 0.06809999999999999, 0.2104, 0.7775, 0.7702, 1.7209, 0.0, 0.0, 0.7766999999999999, 2.116, 1.3407, 0.4205, 0.2823, 0.0, 0.0, 0.649, 0.7072000000000001, 0.0, 0.7952, 0.7798, 0.7608, 0.7783, 0.0, 2.677, 0.7875, 0.0, 0.7317, 1.6817, 0.0, 0.0, 1.5863, 0.0, 0.0, 0.05, 0.0, 0.0, 0.0, 0.3284, 1.4833, 1.3724, 1.1505, 1.0207, 0.7783, 0.0, 0.0, 0.0, 0.0, 0.0, 0.0, 0.0, 0.0, 0.764, 0.6052, 0.0, 0.0, 0.0, 0.531, 0.0, 0.6562, 0.0, 0.0, 0.655, 0.0, 0.0, 0.4825];
charge = [1.0, 0.0, 1.0, 0.0, 0.0, 0.0, 1.0, 0.0, 1.0, 1.0, 0.0, 0.0, 0.0, 0.0, 1.0, 0.0, 1.0, 1.0, 0.0, 0.0, 0.0, 0.0, 0.5094771299999999, 1.0, 0.0, 1.0, 0.0, 1.0, 1.0, 1.0, 1.0, 0.0, 0.0, 0.0, 0.0, 0.0, 0.0, 0.0, 0.0, 0.0, 0.0, 0.0, 1.0, 0.0, 0.0, 0.0, 1.0, 1.0, 0.0, 1.0, 1.0, 1.0, 1.0, 0.0, 0.0, 1.0, 1.0, 1.0, 0.0, 0.0, 1.0, 0.0, 1.0, 1.0, 1.0, 1.0, 1.0, 1.0, 0.0, 0.0, 0.0, 0.0, 0.0, 0.0, 1.0, 1.0, 0.0, 0.0, 0.0, 1.0, 1.0, 1.0, 0.0, 0.0, 1.0, 1.0, 1.0, 0.0, 1.0, 0.0, 0.0, 1.0, 0.0, 0.0, 0.0, 0.0];
discharge = [0.0, 1.0, 0.0, 1.0, 1.0, 1.0, 0.0, 1.0, 0.0, 0.0, 0.330572592, 1.0, 1.0, 0.0, 0.0, 1.0, 0.0, 0.0, 0.0, 1.0, 1.0, 0.0, 0.0, 0.0, 0.0, 0.0, 0.0, 0.0, 0.0, 0.0, 0.0, 0.0, 0.0, 0.0, 1.0, 1.0, 1.0, 0.0, 0.0, 1.0, 1.0, 0.0, 0.0, 1.0, 0.0, 0.222777778, 0.0, 0.0, 0.0, 0.0, 0.0, 0.0, 0.0, 0.0, 1.0, 0.0, 0.0, 0.0, 0.0, 0.0, 0.0, 1.0, 0.0, 0.0, 0.0, 0.0, 0.0, 0.0, 0.0, 1.0, 1.0, 1.0, 1.0, 1.0, 0.0, 0.0, 0.0, 0.0, 0.0, 0.0, 0.0, 0.0, 1.0, 1.0, 0.0, 0.0, 0.0, 1.0, 0.0, 1.0, 0.0, 0.0, 1.0, 0.0, 0.0, 1.0];
soc = [6.69884, 5.697500232, 6.596360732, 5.59504146, 4.593922452, 3.593003667, 4.492285066, 3.491386609, 4.390688332, 5.289810194, 4.95817964, 3.957188004, 2.956396567, 2.955805287, 3.855214126, 2.854443084, 3.753872195, 4.653121421, 4.652190796, 3.651260358, 2.650530106, 2.65, 3.107999417, 4.007377817, 4.006576342, 4.905775026, 4.904793871, 5.803812912, 6.70265215, 7.601311619, 8.499791356999999, 8.498091399, 8.496391781, 8.494692501999999, 7.492993564, 6.491494965, 5.490196666, 5.489098627, 5.488000807, 4.486903207, 3.486005826, 3.485308625, 4.384611563, 3.383734641, 3.383057894, 3.159603505, 4.058971584, 4.95815979, 4.957168158, 5.856176724, 6.755005489, 7.653654488, 8.552123757, 8.550413332, 7.548703249, 8.447193509, 9.34550407, 10.243634969, 10.241586242, 10.239537925, 11.137490017, 10.135262519, 11.033235467, 11.93102882, 12.828642614, 13.726076885, 14.62333167, 15.520407004, 15.517302922, 14.514199462, 13.511296622, 12.508594362, 11.506092644, 10.503791425, 11.401690667, 12.299410329, 12.296950447, 12.294491057, 12.292032158, 13.189573752, 14.086935837, 14.98411845, 13.981121626, 12.978325402, 13.875729737, 14.772954591, 15.67, 14.666866, 15.563932627, 14.56081984, 14.557907676, 15.454996095, 14.451905096, 14.449014715, 14.446124912, 13.443235687];
cost = [0.938433595, 0.0, 0.9329354949999999, 0.0, 0.0, 0.0, 0.915280485, 0.0, 0.908988215, 0.912653615, 0.003656033, 0.0, 0.0, 0.18113185, 0.912836885, 0.0, 0.918273895, 0.919068065, 0.55756843, 0.0, 0.0, 0.22224542, 0.590028671, 0.915097215, 0.3116752, 1.619453365, 0.30144464, 1.619691285, 1.451719765, 1.456240245, 1.463020965, 0.1528636, 0.0, 0.0, 0.0, 0.0, 0.0, 0.154648, 0.1475104, 0.0, 0.0, 0.0, 0.118178165, 0.0, 0.3205972, 0.0, 0.118178165, 0.118178165, 0.21079712, 0.118178165, 0.118178165, 0.118178165, 0.118178165, 0.0, 0.0, 0.118178165, 0.805013035, 0.118178165, 0.0, 0.0720862, 2.046519765, 0.0, 0.662777045, 1.553192645, 0.118178165, 1.452909365, 1.465162245, 1.465757045, 0.0, 0.0, 0.0, 0.0, 0.0, 0.0, 1.454098965, 1.330975365, 0.15678928, 0.15559968, 0.1284768, 1.440418565, 1.437087685, 1.449340565, 0.0, 0.0, 1.724376085, 1.735439365, 1.744361365, 0.0, 0.896770215, 0.0, 0.15315263, 0.879237385, 0.0, 0.07911155, 0.07990572, 0.0];
earn = [0.0, 0.39662649, 0.0, 0.3877452, 0.37679805, 0.36766728, 0.0, 0.366915, 0.0, 0.0, 0.0, 0.35064142, 0.3469643, 0.0, 0.0, 0.3467416, 0.0, 0.0, 0.0, 0.37027544, 0.33823495, 0.0, 0.0, 0.0, 0.0, 0.0, 0.0, 0.0, 0.0, 0.0, 0.0, 0.0, 0.05031909, 0.15561184, 0.57573875, 0.50286358, 0.96267146, 0.0, 0.0, 0.37522377, 0.9253268, 0.49525458, 0.1481842, 0.09778872, 0.0, 0.0, 0.1273338, 0.09978592, 0.0, 0.09319744000000001, 0.0916265, 0.08893752000000001, 0.03992679, 0.0, 0.1317084, 0.0382725, 0.0, 0.13258404, 0.31767313, 0.0, 0.0, 0.49349793, 0.0, 0.0, 0.024365, 0.0, 0.0, 0.0, 0.19020928, 0.86387392, 0.82769444, 0.7070973, 0.70918236, 0.55321564, 0.0, 0.0, 0.0, 0.0, 0.0, 0.0, 0.0, 0.0, 0.6617768000000001, 0.51133348, 0.0, 0.0, 0.0, 0.3845502, 0.0, 0.46137422, 0.0, 0.0, 0.4228025, 0.0, 0.0, 0.29032025];
total_cost = 44.588199886;
total_earn = 16.19993188;
% _objective = 28.388268006;