production = [0: 0.0, 1: 0.0, 2: 0.0, 3: 0.0, 4: 0.0, 5: 0.0, 6: 0.0, 7: 0.0, 8: 0.0, 9: 0.0, 10: 0.0, 11: 0.0, 12: 0.0, 13: 0.0, 14: 0.0, 15: 0.0, 16: 0.0, 17: 0.0, 18: 0.0, 19: 0.0, 20: 0.0, 21: 0.0, 22: 0.0, 23: 0.0, 24: 0.0, 25: 0.0, 26: 0.0, 27: 0.0325, 28: 0.057, 29: 0.08450000000000001, 30: 0.0, 31: 0.0, 32: 0.1963, 33: 0.3347, 34: 0.5723, 35: 0.0, 36: 0.9507, 37: 0.0, 38: 0.0, 39: 1.2303, 40: 1.338, 41: 0.0, 42: 0.0, 43: 1.6453, 44: 1.7203, 45: 1.7745, 46: 1.8447, 47: 1.8927, 48: 0.0, 49: 0.0, 50: 0.184, 51: 1.9423, 52: 1.9623, 53: 0.0, 54: 0.0, 55: 1.9115, 56: 0.0, 57: 0.0, 58: 0.0, 59: 0.0, 60: 1.665, 61: 0.0, 62: 1.4155, 63: 0.0, 64: 1.2275, 65: 0.122, 66: 0.9878, 67: 0.0, 68: 0.4507, 69: 0.0, 70: 0.1248, 71: 0.0, 72: 0.0, 73: 0.1995, 74: 0.1293, 75: 0.103, 76: 0.0445, 77: 0.0, 78: 0.0025, 79: 0.0, 80: 0.0003, 81: 0.0, 82: 0.0, 83: 0.0, 84: 0.0, 85: 0.0, 86: 0.0, 87: 0.0, 88: 0.0, 89: 0.0, 90: 0.0, 91: 0.0, 92: 0.0, 93: 0.0, 94: 0.0, 95: 0.0];
buy = [0: 1.3427, 1: 0.3033, 2: 1.3337, 3: 1.2932, 4: 0.0, 5: 1.3088, 6: 1.3048, 7: 1.2985, 8: 1.2945, 9: 0.3005, 10: 0.0, 11: 0.0, 12: 0.0, 13: 0.2965, 14: 1.3008, 15: 0.3095, 16: 1.3097, 17: 0.0, 18: 0.9127, 19: 0.0, 20: 0.3485, 21: 0.3638, 22: 0.3578, 23: 1.3045, 24: 1.262, 25: 0.262, 26: 1.2622, 27: 0.0, 28: 0.064, 29: 1.0403, 30: 0.0, 31: 1.1285, 32: 0.0, 33: 0.0, 34: 0.5502, 35: 0.0, 36: 0.0, 37: 1.13, 38: 0.0, 39: 0.0, 40: 0.0, 41: 0.1325, 42: 0.0, 43: 0.0, 44: 0.0, 45: 0.0, 46: 0.0, 47: 0.0, 48: 1.1772, 49: 0.0, 50: 0.0, 51: 0.0, 52: 0.0, 53: 0.0, 54: 1.1782, 55: 0.0, 56: 1.1243, 57: 1.1243, 58: 1.1165, 59: 0.118, 60: 0.0, 61: 0.0, 62: 0.0, 63: 0.0, 64: 0.0, 65: 0.0, 66: 0.1445, 67: 0.1328, 68: 0.6716, 69: 0.0, 70: 0.0, 71: 1.1277, 72: 0.1295, 73: 0.0, 74: 0.0, 75: 0.0195, 76: 1.0873, 77: 0.0, 78: 1.108, 79: 0.1115, 80: 0.1087, 81: 1.119, 82: 0.0, 83: 1.2948, 84: 1.3502, 85: 1.3595, 86: 1.367, 87: 1.369, 88: 1.2745, 89: 0.0, 90: 0.0, 91: 0.0, 92: 0.245, 93: 1.1295, 94: 1.1308, 95: 0.0];
sell = [0: 0.0, 1: 0.0, 2: 0.0, 3: 0.0, 4: 0.5905, 5: 0.0, 6: 0.0, 7: 0.0, 8: 0.0, 9: 0.0, 10: 0.5965, 11: 0.5917, 12: 0.593, 13: 0.0, 14: 0.0, 15: 0.0, 16: 0.0, 17: 0.589, 18: 0.0, 19: 0.6242, 20: 0.0, 21: 0.0, 22: 0.0, 23: 0.0, 24: 0.0, 25: 0.0, 26: 0.0, 27: 0.0, 28: 0.0, 29: 0.0, 30: 0.0, 31: 0.0, 32: 0.9681, 33: 0.2104, 34: 0.0, 35: 0.7702, 36: 1.7209, 37: 0.0, 38: 0.776, 39: 1.107, 40: 1.216, 41: 0.0, 42: 0.766, 43: 1.9276, 44: 2.3508, 45: 0.574, 46: 2.549, 47: 2.6072, 48: 0.0, 49: 0.612135652, 50: 0.0, 51: 1.7608, 52: 1.7783, 53: 0.7218, 54: 0.0, 55: 0.7875, 56: 0.0, 57: 0.0, 58: 0.0, 59: 0.0, 60: 0.044, 61: 0.0, 62: 1.4422, 63: 0.6937, 64: 0.05, 65: 0.0, 66: 0.0, 67: 0.0, 68: 0.0, 69: 0.775, 70: 0.0, 71: 0.0, 72: 0.0, 73: 0.07779999999999999, 74: 0.0063, 75: 0.0, 76: 0.0, 77: 0.7692, 78: 0.0, 79: 0.0, 80: 0.0, 81: 0.0, 82: 0.764, 83: 0.0, 84: 0.0, 85: 0.0, 86: 0.0, 87: 0.0, 88: 0.0, 89: 0.6562, 90: 0.0, 91: 0.6542, 92: 0.0, 93: 0.0, 94: 0.0, 95: 0.4825];
charge = [0: 1.0, 1: 0.0, 2: 1.0, 3: 1.0, 4: 0.0, 5: 1.0, 6: 1.0, 7: 1.0, 8: 1.0, 9: 0.0, 10: 0.0, 11: 0.0, 12: 0.0, 13: 0.0, 14: 1.0, 15: 0.0, 16: 1.0, 17: 0.0, 18: 0.0, 19: 0.0, 20: 0.0, 21: 0.0, 22: 0.0, 23: 1.0, 24: 1.0, 25: 0.0, 26: 1.0, 27: 0.0, 28: 0.0, 29: 1.0, 30: 0.0, 31: 1.0, 32: 0.0, 33: 0.0, 34: 1.0, 35: 0.0, 36: 0.0, 37: 1.0, 38: 0.0, 39: 0.0, 40: 0.0, 41: 0.0, 42: 0.0, 43: 0.0, 44: 0.0, 45: 1.0, 46: 0.0, 47: 0.0, 48: 1.0, 49: 0.0, 50: 0.0, 51: 0.0, 52: 0.0, 53: 0.0, 54: 1.0, 55: 1.0, 56: 1.0, 57: 1.0, 58: 1.0, 59: 0.0, 60: 1.0, 61: 0.0, 62: 0.0, 63: 0.0, 64: 1.0, 65: 0.0, 66: 1.0, 67: 0.0, 68: 1.0, 69: 0.0, 70: 0.0, 71: 1.0, 72: 0.0, 73: 0.0, 74: 0.0, 75: 0.0, 76: 1.0, 77: 0.0, 78: 1.0, 79: 0.0, 80: 0.0, 81: 1.0, 82: 0.0, 83: 1.0, 84: 1.0, 85: 1.0, 86: 1.0, 87: 1.0, 88: 1.0, 89: 0.0, 90: 0.0, 91: 0.0, 92: 0.0, 93: 1.0, 94: 1.0, 95: 0.0];
discharge = [0: 0.0, 1: 0.0, 2: 0.0, 3: 0.0, 4: 1.0, 5: 0.0, 6: 0.0, 7: 0.0, 8: 0.0, 9: 0.0, 10: 1.0, 11: 1.0, 12: 1.0, 13: 0.0, 14: 0.0, 15: 0.0, 16: 0.0, 17: 1.0, 18: 0.0, 19: 1.0, 20: 0.0, 21: 0.0, 22: 0.0, 23: 0.0, 24: 0.0, 25: 0.0, 26: 0.0, 27: 0.255222222, 28: 0.0, 29: 0.0, 30: 0.145, 31: 0.0, 32: 1.0, 33: 0.0, 34: 0.0, 35: 1.0, 36: 1.0, 37: 0.0, 38: 1.0, 39: 0.0, 40: 0.0, 41: 0.0, 42: 1.0, 43: 1.0, 44: 1.0, 45: 0.0, 46: 1.0, 47: 1.0, 48: 0.0, 49: 0.869039613, 50: 0.0, 51: 0.0, 52: 0.0, 53: 1.0, 54: 0.0, 55: 0.0, 56: 0.0, 57: 0.0, 58: 0.0, 59: 0.0, 60: 0.0, 61: 0.999666667, 62: 1.0, 63: 1.0, 64: 0.0, 65: 0.0, 66: 0.0, 67: 0.0, 68: 0.0, 69: 1.0, 70: 0.0, 71: 0.0, 72: 0.0, 73: 0.0, 74: 0.0, 75: 0.0, 76: 0.0, 77: 1.0, 78: 0.0, 79: 0.0, 80: 0.0, 81: 0.0, 82: 1.0, 83: 0.0, 84: 0.0, 85: 0.0, 86: 0.0, 87: 0.0, 88: 0.0, 89: 1.0, 90: 0.278555556, 91: 1.0, 92: 0.0, 93: 0.0, 94: 0.0, 95: 1.0];
soc = [0: 6.69884, 1: 6.697500232, 2: 7.596160732, 3: 8.4946415, 4: 7.492942572, 5: 8.391443983, 6: 9.289765694, 7: 10.187907741, 8: 11.08587016, 9: 11.083652985, 10: 10.081436255, 11: 9.079419968, 12: 8.077604084000001, 13: 8.075988562999999, 14: 8.974373365, 15: 8.97257849, 16: 9.870783975, 17: 8.868809818000001, 18: 8.867036056, 19: 7.865262649, 20: 7.863689596, 21: 7.862116858, 22: 7.860544435, 23: 8.758972326, 24: 9.657220532, 25: 9.655289087, 26: 10.55335803, 27: 10.296025136, 28: 10.293965931, 29: 11.191907138, 30: 11.044668756, 31: 11.942459822, 32: 10.94007133, 33: 10.937883316, 34: 11.83569574, 35: 10.8333286, 36: 9.831161935000001, 37: 10.729195702, 38: 9.727049863, 39: 9.725104453, 40: 9.723159431999999, 41: 9.7212148, 42: 8.719270557, 43: 7.717526703, 44: 6.715983198, 45: 7.614640001, 46: 6.613117073, 47: 5.61179445, 48: 6.510672091, 49: 5.640330343, 50: 5.639202277, 51: 5.638074437, 52: 5.636946822, 53: 4.635819433, 54: 5.534892269, 55: 6.43378529, 56: 7.332498533, 57: 8.231032034, 58: 9.129385827, 59: 9.12755995, 60: 10.025734438, 61: 9.024062624000001, 62: 8.022257811999999, 63: 7.02065336, 64: 7.91924923, 65: 7.91766538, 66: 8.816081847, 67: 8.814318630000001, 68: 9.712555767, 69: 8.710613255, 70: 8.708871133000001, 71: 9.607129359, 72: 9.605207933000001, 73: 9.603286891, 74: 9.601366234, 75: 9.599445961000001, 76: 10.497526071, 77: 9.495426566000001, 78: 10.393527481, 79: 10.391448775, 80: 10.389370486, 81: 11.287292611, 82: 10.285035153, 83: 11.182978146, 84: 12.08074155, 85: 12.978325402, 86: 13.875729737, 87: 14.772954591, 88: 15.67, 89: 14.666866, 90: 14.385377071, 91: 13.382499996, 92: 13.379823496, 93: 14.277147531, 94: 15.174292102, 95: 14.171257243];
cost = [0: 0.938433595, 1: 0.18528597, 2: 0.9329354949999999, 3: 0.908194045, 4: 0.0, 5: 0.917724085, 6: 0.915280485, 7: 0.911431815, 8: 0.908988215, 9: 0.18357545, 10: 0.0, 11: 0.0, 12: 0.0, 13: 0.18113185, 14: 0.912836885, 15: 0.18907355, 16: 0.918273895, 17: 0.0, 18: 0.55756843, 19: 0.0, 20: 0.21289865, 21: 0.22224542, 22: 0.21858002, 23: 0.915097215, 24: 1.619453365, 25: 0.3116752, 26: 1.619691285, 27: 0.0, 28: 0.0761344, 29: 1.355719045, 30: 0.0, 31: 1.460641765, 32: 0.0, 33: 0.0, 34: 0.772696085, 35: 0.0, 36: 0.0, 37: 1.462426165, 38: 0.0, 39: 0.0, 40: 0.0, 41: 0.157622, 42: 0.0, 43: 0.0, 44: 0.0, 45: 0.118178165, 46: 0.0, 47: 0.0, 48: 1.518575285, 49: 0.0, 50: 0.0, 51: 0.0, 52: 0.0, 53: 0.0, 54: 0.837940545, 55: 0.118178165, 56: 0.805013035, 57: 0.805013035, 58: 0.800248015, 59: 0.0720862, 60: 0.118178165, 61: 0.0, 62: 0.0, 63: 0.0, 64: 0.118178165, 65: 0.0, 66: 0.290075365, 67: 0.15797888, 68: 0.917113525, 69: 0.0, 70: 0.0, 71: 1.459690085, 72: 0.1540532, 73: 0.0, 74: 0.0, 75: 0.0231972, 76: 1.411630245, 77: 0.0, 78: 1.436254965, 79: 0.1326404, 80: 0.12930952, 81: 1.449340565, 82: 0.0, 83: 1.658472245, 84: 1.724376085, 85: 1.735439365, 86: 1.744361365, 87: 1.746740565, 88: 0.896770215, 89: 0.0, 90: 0.0, 91: 0.0, 92: 0.1496705, 93: 0.808189715, 94: 0.808983885, 95: 0.0];
earn = [0: 0.0, 1: 0.0, 2: 0.0, 3: 0.0, 4: 0.37679805, 5: 0.0, 6: 0.0, 7: 0.0, 8: 0.0, 9: 0.0, 10: 0.35688595, 11: 0.35064142, 12: 0.3469643, 13: 0.0, 14: 0.0, 15: 0.0, 16: 0.0, 17: 0.3416789, 18: 0.0, 19: 0.37027544, 20: 0.0, 21: 0.0, 22: 0.0, 23: 0.0, 24: 0.0, 25: 0.0, 26: 0.0, 27: 0.0, 28: 0.0, 29: 0.0, 30: 0.0, 31: 0.0, 32: 0.71532909, 33: 0.15561184, 34: 0.0, 35: 0.50286358, 36: 0.96267146, 37: 0.0, 38: 0.3987864, 39: 0.5347917, 40: 0.5317568, 41: 0.0, 42: 0.2699384, 43: 0.66772064, 44: 0.64364904, 45: 0.1488382, 46: 0.5001138000000001, 47: 0.36787592, 48: 0.0, 49: 0.071742298, 50: 0.0, 51: 0.20583752, 52: 0.09122679, 53: 0.03551256, 54: 0.0, 55: 0.0382725, 56: 0.0, 57: 0.0, 58: 0.0, 59: 0.0, 60: 0.0121264, 61: 0.0, 62: 0.5320275800000001, 63: 0.27532953, 64: 0.024365, 65: 0.0, 66: 0.0, 67: 0.0, 68: 0.0, 69: 0.45136, 70: 0.0, 71: 0.0, 72: 0.0, 73: 0.05530024, 74: 0.0046494, 75: 0.0, 76: 0.0, 77: 0.67558836, 78: 0.0, 79: 0.0, 80: 0.0, 81: 0.0, 82: 0.6617768000000001, 83: 0.0, 84: 0.0, 85: 0.0, 86: 0.0, 87: 0.0, 88: 0.0, 89: 0.46137422, 90: 0.0, 91: 0.43779064, 92: 0.0, 93: 0.0, 94: 0.0, 95: 0.29032025];
total_cost = 44.111491061;
total_earn = 12.867791018;
