production = [0: 0.0, 1: 0.0, 2: 0.0, 3: 0.0, 4: 0.0, 5: 0.0, 6: 0.0, 7: 0.0, 8: 0.0, 9: 0.0, 10: 0.0, 11: 0.0, 12: 0.0, 13: 0.0, 14: 0.0, 15: 0.0, 16: 0.0, 17: 0.0, 18: 0.0, 19: 0.0, 20: 0.0, 21: 0.0, 22: 0.0, 23: 0.0, 24: 0.0, 25: 0.0, 26: 0.008800000000000001, 27: 0.0325, 28: 0.057, 29: 0.08450000000000001, 30: 0.118, 31: 0.0, 32: 0.0, 33: 0.3347, 34: 0.0, 35: 0.8383, 36: 0.9507, 37: 1.0655, 38: 0.0, 39: 0.1233, 40: 1.338, 41: 1.4732, 42: 1.5545, 43: 0.0, 44: 0.0, 45: 1.7745, 46: 0.0, 47: 0.0, 48: 1.9403, 49: 1.9652, 50: 0.0, 51: 0.0, 52: 1.9623, 53: 0.0, 54: 1.9552, 55: 1.9115, 56: 1.8902, 57: 1.856, 58: 0.0, 59: 0.0, 60: 0.0, 61: 0.8997000000000001, 62: 1.4155, 63: 0.0, 64: 1.2275, 65: 1.185, 66: 0.0, 67: 0.8117, 68: 0.0, 69: 0.0, 70: 0.0, 71: 0.3782, 72: 0.0, 73: 0.0, 74: 0.1293, 75: 0.0, 76: 0.0, 77: 0.0, 78: 0.0025, 79: 0.0, 80: 0.0, 81: 0.0, 82: 0.0, 83: 0.0, 84: 0.0, 85: 0.0, 86: 0.0, 87: 0.0, 88: 0.0, 89: 0.0, 90: 0.0, 91: 0.0, 92: 0.0, 93: 0.0, 94: 0.0, 95: 0.0];
buy = [0: 1.3427, 1: 0.0, 2: 0.0, 3: 1.2932, 4: 0.3095, 5: 0.0, 6: 1.3048, 7: 1.2985, 8: 1.2945, 9: 1.3005, 10: 1.3035, 11: 0.0, 12: 0.0, 13: 1.2965, 14: 1.3008, 15: 0.0, 16: 1.3097, 17: 0.0, 18: 1.9127, 19: 0.2758, 20: 1.3485, 21: 1.3638, 22: 1.3578, 23: 0.0, 24: 0.0, 25: 0.0, 26: 1.2534, 27: 1.2297, 28: 1.064, 29: 0.0403, 30: 0.0, 31: 1.1285, 32: 0.0, 33: 0.7896, 34: 0.0, 35: 0.2915, 36: 0.0, 37: 0.0, 38: 0.0, 39: 0.0, 40: 0.0, 41: 0.0, 42: 0.0, 43: 0.0, 44: 0.2695, 45: 0.0, 46: 0.1957, 47: 0.1855, 48: 0.0, 49: 0.0, 50: 0.0, 51: 1.1815, 52: 0.0, 53: 0.0, 54: 0.0, 55: 0.0, 56: 0.0, 57: 0.0, 58: 1.1165, 59: 0.118, 60: 1.621, 61: 0.0, 62: 0.0, 63: 0.0, 64: 0.0, 65: 0.0, 66: 1.1323, 67: 0.0, 68: 0.0, 69: 1.125, 70: 1.1248, 71: 0.0, 72: 0.0, 73: 0.0, 74: 0.9937, 75: 0.1225, 76: 0.0, 77: 1.1308, 78: 0.0, 79: 0.1115, 80: 1.109, 81: 1.119, 82: 0.0, 83: 0.0, 84: 1.3502, 85: 0.0, 86: 1.367, 87: 0.601920765, 88: 0.0, 89: 1.2438, 90: 1.2507, 91: 1.2458, 92: 1.245, 93: 1.1295, 94: 1.1308, 95: 0.4175];
sell = [0: 0.0, 1: 0.5967, 2: 0.5663, 3: 0.0, 4: 0.0, 5: 0.5911999999999999, 6: 0.0, 7: 0.0, 8: 0.0, 9: 0.0, 10: 0.0, 11: 0.5917, 12: 0.526771967, 13: 0.0, 14: 0.0, 15: 0.5905, 16: 0.0, 17: 0.589, 18: 0.0, 19: 0.0, 20: 0.0, 21: 0.0, 22: 0.0, 23: 0.5955, 24: 0.638, 25: 0.638, 26: 0.0, 27: 0.0, 28: 0.0, 29: 0.0, 30: 0.8875, 31: 0.0, 32: 0.0, 33: 0.0, 34: 0.7775, 35: 0.0, 36: 1.7209, 37: 1.8355, 38: 0.776, 39: 0.0, 40: 2.116, 41: 2.2407, 42: 2.3205, 43: 0.2823, 44: 0.0, 45: 1.574, 46: 0.0, 47: 0.0, 48: 2.6631, 49: 1.7952, 50: 0.716, 51: 0.0, 52: 1.412365735, 53: 0.7218, 54: 1.777, 55: 0.7875, 56: 0.7659, 57: 1.7317, 58: 0.0, 59: 0.0, 60: 0.0, 61: 0.0, 62: 0.5422, 63: 0.6937, 64: 1.95, 65: 1.963, 66: 0.0, 67: 0.6788999999999999, 68: 0.7776999999999999, 69: 0.0, 70: 0.0, 71: 0.2505, 72: 0.7705, 73: 0.7783, 74: 0.0, 75: 0.0, 76: 0.7682, 77: 0.0, 78: 0.792, 79: 0.0, 80: 0.0, 81: 0.0, 82: 0.764, 83: 0.6052, 84: 0.0, 85: 0.5405, 86: 0.0, 87: 0.0, 88: 0.6254999999999999, 89: 0.0, 90: 0.0, 91: 0.0, 92: 0.0, 93: 0.0, 94: 0.0, 95: 0.0];
charge = [0: 1.0, 1: 0.0, 2: 0.0, 3: 1.0, 4: 0.0, 5: 0.0, 6: 1.0, 7: 1.0, 8: 1.0, 9: 1.0, 10: 1.0, 11: 0.0, 12: 0.0, 13: 1.0, 14: 1.0, 15: 0.0, 16: 1.0, 17: 0.0, 18: 1.0, 19: 0.0, 20: 1.0, 21: 1.0, 22: 1.0, 23: 0.0, 24: 0.0, 25: 0.0, 26: 1.0, 27: 1.0, 28: 1.0, 29: 0.0, 30: 0.0, 31: 1.0, 32: 0.0, 33: 1.0, 34: 0.0, 35: 1.0, 36: 0.0, 37: 0.0, 38: 0.0, 39: 0.0, 40: 0.0, 41: 0.0, 42: 0.0, 43: 0.0, 44: 0.0, 45: 0.0, 46: 0.0, 47: 0.0, 48: 0.0, 49: 0.0, 50: 0.0, 51: 1.0, 52: 0.365934265, 53: 0.0, 54: 0.0, 55: 1.0, 56: 1.0, 57: 0.0, 58: 1.0, 59: 0.0, 60: 1.0, 61: 0.0, 62: 0.0, 63: 0.0, 64: 0.0, 65: 0.0, 66: 1.0, 67: 0.0, 68: 0.0, 69: 1.0, 70: 1.0, 71: 0.0, 72: 0.0, 73: 0.0, 74: 1.0, 75: 0.0, 76: 0.0, 77: 1.0, 78: 0.0, 79: 0.0, 80: 1.0, 81: 1.0, 82: 0.0, 83: 0.0, 84: 1.0, 85: 0.0, 86: 1.0, 87: 0.232920765, 88: 0.0, 89: 1.0, 90: 1.0, 91: 1.0, 92: 1.0, 93: 1.0, 94: 1.0, 95: 0.0];
discharge = [0: 0.0, 1: 1.0, 2: 1.0, 3: 0.0, 4: 0.0, 5: 1.0, 6: 0.0, 7: 0.0, 8: 0.0, 9: 0.0, 10: 0.0, 11: 1.0, 12: 0.926413297, 13: 0.0, 14: 0.0, 15: 1.0, 16: 0.0, 17: 1.0, 18: 0.0, 19: 0.0, 20: 0.0, 21: 0.0, 22: 0.0, 23: 1.0, 24: 1.0, 25: 1.0, 26: 0.0, 27: 0.0, 28: 0.0, 29: 0.0, 30: 1.0, 31: 0.0, 32: 0.142444444, 33: 0.0, 34: 1.0, 35: 0.0, 36: 1.0, 37: 1.0, 38: 1.0, 39: 0.0, 40: 1.0, 41: 1.0, 42: 1.0, 43: 1.0, 44: 0.0, 45: 0.0, 46: 0.0, 47: 0.0, 48: 1.0, 49: 0.0, 50: 1.0, 51: 0.0, 52: 0.0, 53: 1.0, 54: 0.0, 55: 0.0, 56: 0.0, 57: 0.0, 58: 0.0, 59: 0.0, 60: 0.0, 61: 0.0, 62: 0.0, 63: 1.0, 64: 1.0, 65: 1.0, 66: 0.0, 67: 0.0, 68: 1.0, 69: 0.0, 70: 0.0, 71: 0.0, 72: 1.0, 73: 1.0, 74: 0.0, 75: 0.0, 76: 1.0, 77: 0.0, 78: 1.0, 79: 0.0, 80: 0.0, 81: 0.0, 82: 1.0, 83: 1.0, 84: 0.0, 85: 1.0, 86: 0.0, 87: 0.0, 88: 1.0, 89: 0.0, 90: 0.0, 91: 0.0, 92: 0.0, 93: 0.0, 94: 0.0, 95: 0.0];
soc = [0: 6.69884, 1: 5.697500232, 2: 4.696360732, 3: 5.59542146, 4: 5.594302376, 5: 4.593183515, 6: 5.492264878, 7: 6.391166425, 8: 7.289888192, 9: 8.188430214, 10: 9.086792528, 11: 8.08497517, 12: 7.156944878, 13: 8.055513489000001, 14: 8.953902386999999, 15: 7.952111606, 16: 8.850521184, 17: 7.84875108, 18: 8.747181329, 19: 8.745431892999999, 20: 9.643682806999999, 21: 10.54175407, 22: 11.439645719, 23: 10.43735779, 24: 9.435270319000001, 25: 8.433383265, 26: 9.331696588, 27: 10.229830249, 28: 11.127784283, 29: 11.125558726, 30: 10.123333614, 31: 11.021308947, 32: 10.876660241, 33: 11.774484909, 34: 10.772130012, 35: 11.669975586, 36: 10.667641591, 37: 9.665508063000001, 38: 8.663574961, 39: 8.661842246000001, 40: 7.660109878, 41: 6.658577856, 42: 5.65724614, 43: 4.656114691, 44: 4.655183468, 45: 4.654252431, 46: 4.653321581, 47: 4.652390916, 48: 3.651460438, 49: 3.650730146, 50: 2.65, 51: 3.54947, 52: 3.878100945, 53: 2.877325324, 54: 2.876749859, 55: 3.776174509, 56: 4.675419275, 57: 4.674484191, 58: 5.573549294, 59: 5.572434584, 60: 6.471320097, 61: 6.470025833, 62: 6.468731828, 63: 5.467438082, 64: 4.466344594, 65: 3.465451325, 66: 4.364758235, 67: 4.363885283, 68: 3.363012506, 69: 4.262339904, 70: 5.161487436, 71: 5.160455138, 72: 4.159423047, 73: 3.158591162, 74: 4.057959444, 75: 4.057147852, 76: 3.056336423, 77: 3.955725155, 78: 2.95493401, 79: 2.954343024, 80: 3.853752155, 81: 4.752981405, 82: 3.752030808, 83: 2.751280402, 84: 3.650730146, 85: 2.65, 86: 3.54947, 87: 3.758388794, 88: 2.757637117, 89: 3.657085589, 90: 4.556354172, 91: 5.455442901, 92: 6.354351813, 93: 7.253080942, 94: 8.151630325999999, 95: 8.15];
cost = [0: 0.938433595, 1: 0.0, 2: 0.0, 3: 0.908194045, 4: 0.18907355, 5: 0.0, 6: 0.915280485, 7: 0.911431815, 8: 0.908988215, 9: 0.912653615, 10: 0.914486315, 11: 0.0, 12: 0.0, 13: 0.910210015, 14: 0.912836885, 15: 0.0, 16: 0.918273895, 17: 0.0, 18: 1.286646595, 19: 0.16848622, 20: 0.941976815, 21: 0.951323585, 22: 0.947658185, 23: 0.0, 24: 0.0, 25: 0.0, 26: 1.609222805, 27: 1.581029285, 28: 1.383912565, 29: 0.04794088, 30: 0.0, 31: 1.460641765, 32: 0.0, 33: 1.057486325, 34: 0.0, 35: 0.464946565, 36: 0.0, 37: 0.0, 38: 0.0, 39: 0.0, 40: 0.0, 41: 0.0, 42: 0.0, 43: 0.0, 44: 0.3205972, 45: 0.0, 46: 0.23280472, 47: 0.2206708, 48: 0.0, 49: 0.0, 50: 0.0, 51: 1.523690565, 52: 0.04324544, 53: 0.0, 54: 0.0, 55: 0.118178165, 56: 0.118178165, 57: 0.0, 58: 0.800248015, 59: 0.0720862, 60: 2.046519765, 61: 0.0, 62: 0.0, 63: 0.0, 64: 0.0, 65: 0.0, 66: 1.465162245, 67: 0.0, 68: 0.0, 69: 1.456478165, 70: 1.456240245, 71: 0.0, 72: 0.0, 73: 0.0, 74: 1.300283685, 75: 0.145726, 76: 0.0, 77: 1.463377845, 78: 0.0, 79: 0.1326404, 80: 1.437444565, 81: 1.449340565, 82: 0.0, 83: 0.0, 84: 1.724376085, 85: 0.0, 86: 1.744361365, 87: 0.74357109, 88: 0.0, 89: 0.878015585, 90: 0.882230795, 91: 0.879237385, 92: 0.878748665, 93: 0.808189715, 94: 0.808983885, 95: 0.25505075];
earn = [0: 0.0, 1: 0.39662649, 2: 0.36532013, 3: 0.0, 4: 0.0, 5: 0.36766728, 6: 0.0, 7: 0.0, 8: 0.0, 9: 0.0, 10: 0.0, 11: 0.35064142, 12: 0.308214278, 13: 0.0, 14: 0.0, 15: 0.3467416, 16: 0.0, 17: 0.3416789, 18: 0.0, 19: 0.0, 20: 0.0, 21: 0.0, 22: 0.0, 23: 0.40499955, 24: 0.4741616, 25: 0.5021060000000001, 26: 0.0, 27: 0.0, 28: 0.0, 29: 0.0, 30: 0.76191875, 31: 0.0, 32: 0.0, 33: 0.0, 34: 0.57573875, 35: 0.0, 36: 0.96267146, 37: 0.9592323, 38: 0.3987864, 39: 0.0, 40: 0.9253268, 41: 0.82771458, 42: 0.8177442, 43: 0.09778872, 44: 0.0, 45: 0.4081382, 46: 0.0, 47: 0.0, 48: 0.48601575, 49: 0.21039744, 50: 0.08413, 51: 0.0, 52: 0.07245436199999999, 53: 0.03551256, 54: 0.0874284, 55: 0.0382725, 56: 0.08669987999999999, 57: 0.31378404, 58: 0.0, 59: 0.0, 60: 0.0, 61: 0.0, 62: 0.20001758, 63: 0.27532953, 64: 0.9502350000000001, 65: 1.0015226, 66: 0.0, 67: 0.35533626, 68: 0.45044384, 69: 0.0, 70: 0.0, 71: 0.1539573, 72: 0.5353434, 73: 0.55321564, 74: 0.0, 75: 0.0, 76: 0.65773284, 77: 0.0, 78: 0.7142256, 79: 0.0, 80: 0.0, 81: 0.0, 82: 0.6617768000000001, 83: 0.51133348, 84: 0.0, 85: 0.41623905, 86: 0.0, 87: 0.0, 88: 0.4514859, 89: 0.0, 90: 0.0, 91: 0.0, 92: 0.0, 93: 0.0, 94: 0.0, 95: 0.0];
total_cost = 46.646812107;
total_earn = 19.89610716;
