production = [0: 0.0, 1: 0.0, 2: 0.0, 3: 0.0, 4: 0.0, 5: 0.0, 6: 0.0, 7: 0.0, 8: 0.0, 9: 0.0, 10: 0.0, 11: 0.0, 12: 0.0, 13: 0.0, 14: 0.0, 15: 0.0, 16: 0.0, 17: 0.0, 18: 0.0, 19: 0.0, 20: 0.0, 21: 0.0003, 22: 0.0003, 23: 0.0018, 24: 0.0, 25: 0.0, 26: 0.0955, 27: 0.0, 28: 0.0, 29: 0.2597, 30: 0.3967, 31: 0.0, 32: 0.0, 33: 0.0, 34: 0.8263, 35: 0.0, 36: 0.707, 37: 0.6318, 38: 0.0, 39: 0.0, 40: 0.0, 41: 0.7815, 42: 0.9543, 43: 0.0, 44: 0.8732, 45: 0.0, 46: 0.8257, 47: 0.8147, 48: 0.0, 49: 0.0, 50: 0.854, 51: 0.8185, 52: 0.7133, 53: 0.8672, 54: 1.08, 55: 1.044, 56: 1.0917, 57: 0.972, 58: 0.8698, 59: 0.0, 60: 0.8582, 61: 0.7592, 62: 0.7448, 63: 0.5004999999999999, 64: 0.5383, 65: 0.4325, 66: 0.294, 67: 0.1953, 68: 0.1762, 69: 0.0, 70: 0.0, 71: 0.0357, 72: 0.0, 73: 0.0003, 74: 0.0, 75: 0.0, 76: 0.0, 77: 0.0, 78: 0.0, 79: 0.0, 80: 0.0, 81: 0.0, 82: 0.0, 83: 0.0, 84: 0.0, 85: 0.0, 86: 0.0, 87: 0.0, 88: 0.0, 89: 0.0, 90: 0.0, 91: 0.0, 92: 0.0, 93: 0.0, 94: 0.0, 95: 0.0];
buy = [0: 1.229375, 1: 0.229075, 2: 1.217375, 3: 1.216875, 4: 0.0, 5: 1.227575, 6: 0.219875, 7: 0.219875, 8: 0.220075, 9: 1.226075, 10: 1.226375, 11: 0.220375, 12: 1.220375, 13: 0.220075, 14: 0.0, 15: 0.229875, 16: 1.220875, 17: 0.0, 18: 1.228375, 19: 0.229875, 20: 1.224875, 21: 1.221075, 22: 1.221075, 23: 0.0, 24: 1.103875, 25: 0.099675, 26: 0.0, 27: 1.088075, 28: 0.0, 29: 0.8386749999999999, 30: 0.699975, 31: 0.0, 32: 0.0, 33: 1.096075, 34: 0.270075, 35: 0.0, 36: 0.0, 37: 0.0, 38: 0.096375, 39: 1.096875, 40: 0.087575, 41: 0.305875, 42: 0.135075, 43: 0.095875, 44: 0.222675, 45: 1.095375, 46: 0.261875, 47: 0.0, 48: 0.095875, 49: 0.0, 50: 0.233375, 51: 0.0, 52: 0.0, 53: 0.0, 54: 0.474375, 55: 0.0, 56: 0.0, 57: 0.0, 58: 0.530075, 59: 1.372875, 60: 0.234175, 61: 0.0, 62: 0.347575, 63: 0.0, 64: 0.0, 65: 0.0, 66: 0.793875, 67: 0.0, 68: 0.922175, 69: 1.099175, 70: 1.094075, 71: 0.0, 72: 0.0, 73: 0.0, 74: 0.0, 75: 1.096075, 76: 1.095375, 77: 1.103575, 78: 0.0, 79: 0.102575, 80: 0.095375, 81: 0.095375, 82: 1.102375, 83: 1.104875, 84: 0.0, 85: 1.096375, 86: 0.0, 87: 0.104075, 88: 0.0, 89: 1.096075, 90: 0.096375, 91: 1.095875, 92: 0.0, 93: 0.104875, 94: 1.103875, 95: 0.0];
sell = [0: 0.0, 1: 0.0, 2: 0.0, 3: 0.0, 4: 0.674125, 5: 0.0, 6: 0.0, 7: 0.0, 8: 0.0, 9: 0.0, 10: 0.0, 11: 0.0, 12: 0.0, 13: 0.0, 14: 0.669625, 15: 0.0, 16: 0.0, 17: 0.678625, 18: 0.0, 19: 0.0, 20: 0.0, 21: 0.0, 22: 0.0, 23: 0.6734250000000001, 24: 0.0, 25: 0.0, 26: 0.907625, 27: 0.0, 28: 0.801325, 29: 0.0, 30: 0.0, 31: 0.810125, 32: 0.114781295, 33: 0.0, 34: 0.0, 35: 0.802625, 36: 0.0, 37: 1.442925, 38: 0.0, 39: 0.0, 40: 0.0, 41: 0.0, 42: 0.0, 43: 0.0, 44: 0.0, 45: 0.0, 46: 0.0, 47: 0.728125, 48: 0.0, 49: 0.742771674, 50: 0.0, 51: 0.7268250000000001, 52: 1.522625, 53: 1.186825, 54: 0.0, 55: 1.117425, 56: 1.897625, 57: 1.486925, 58: 0.0, 59: 0.0, 60: 0.0, 61: 1.566825, 62: 0.0, 63: 1.300825, 64: 0.438425, 65: 0.343625, 66: 0.0, 67: 0.998625, 68: 0.0, 69: 0.0, 70: 0.0, 71: 0.844325, 72: 0.802325, 73: 0.796225, 74: 0.796425, 75: 0.0, 76: 0.0, 77: 0.0, 78: 0.796425, 79: 0.0, 80: 0.0, 81: 0.0, 82: 0.0, 83: 0.0, 84: 0.219308229, 85: 0.0, 86: 0.804125, 87: 0.0, 88: 0.795925, 89: 0.0, 90: 0.0, 91: 0.0, 92: 0.796125, 93: 0.0, 94: 0.0, 95: 0.803625];
charge = [0: 1.0, 1: 0.0, 2: 1.0, 3: 1.0, 4: 0.0, 5: 1.0, 6: 0.0, 7: 0.0, 8: 0.0, 9: 1.0, 10: 1.0, 11: 0.0, 12: 1.0, 13: 0.0, 14: 0.0, 15: 0.0, 16: 1.0, 17: 0.0, 18: 1.0, 19: 0.0, 20: 1.0, 21: 1.0, 22: 1.0, 23: 0.0, 24: 1.0, 25: 0.0, 26: 0.0, 27: 1.0, 28: 0.0, 29: 1.0, 30: 1.0, 31: 0.0, 32: 0.0, 33: 1.0, 34: 1.0, 35: 0.0, 36: 0.619425, 37: 0.0, 38: 0.0, 39: 1.0, 40: 0.0, 41: 1.0, 42: 1.0, 43: 0.0, 44: 1.0, 45: 1.0, 46: 1.0, 47: 0.0, 48: 0.0, 49: 0.0, 50: 1.0, 51: 0.0, 52: 0.0, 53: 0.0, 54: 1.0, 55: 0.0, 56: 0.0, 57: 0.0, 58: 1.0, 59: 1.0, 60: 1.0, 61: 0.0, 62: 1.0, 63: 0.0, 64: 0.0, 65: 0.0, 66: 1.0, 67: 0.0, 68: 1.0, 69: 1.0, 70: 1.0, 71: 0.0, 72: 0.0, 73: 0.0, 74: 0.0, 75: 1.0, 76: 1.0, 77: 1.0, 78: 0.0, 79: 0.0, 80: 0.0, 81: 0.0, 82: 1.0, 83: 1.0, 84: 0.0, 85: 1.0, 86: 0.0, 87: 0.0, 88: 0.0, 89: 1.0, 90: 0.0, 91: 1.0, 92: 0.0, 93: 0.0, 94: 1.0, 95: 0.0];
discharge = [0: 0.0, 1: 0.0, 2: 0.0, 3: 0.0, 4: 1.0, 5: 0.0, 6: 0.0, 7: 0.0, 8: 0.0, 9: 0.0, 10: 0.0, 11: 0.0, 12: 0.0, 13: 0.0, 14: 1.0, 15: 0.0, 16: 0.0, 17: 1.0, 18: 0.0, 19: 0.0, 20: 0.0, 21: 0.0, 22: 0.0, 23: 1.0, 24: 0.0, 25: 0.0, 26: 1.0, 27: 0.0, 28: 1.0, 29: 0.0, 30: 0.0, 31: 1.0, 32: 0.224840328, 33: 0.0, 34: 0.0, 35: 1.0, 36: 0.0, 37: 1.0, 38: 0.0, 39: 0.0, 40: 0.0, 41: 0.0, 42: 0.0, 43: 0.0, 44: 0.0, 45: 0.0, 46: 0.0, 47: 0.0, 48: 0.0, 49: 0.932940749, 50: 0.0, 51: 0.0, 52: 1.0, 53: 1.0, 54: 0.0, 55: 1.0, 56: 1.0, 57: 1.0, 58: 0.0, 59: 0.0, 60: 0.0, 61: 1.0, 62: 0.0, 63: 1.0, 64: 0.0, 65: 0.0, 66: 0.0, 67: 1.0, 68: 0.0, 69: 0.0, 70: 0.0, 71: 1.0, 72: 1.0, 73: 1.0, 74: 1.0, 75: 0.0, 76: 0.0, 77: 0.0, 78: 1.0, 79: 0.0, 80: 0.0, 81: 0.0, 82: 0.0, 83: 0.0, 84: 0.358759144, 85: 0.0, 86: 1.0, 87: 0.0, 88: 1.0, 89: 0.0, 90: 0.0, 91: 0.0, 92: 1.0, 93: 0.0, 94: 0.0, 95: 1.0];
soc = [0: 3.719436, 1: 3.718692113, 2: 4.617948374, 3: 5.517024785, 4: 4.51592138, 5: 5.415018195, 6: 5.413935192, 7: 5.412852405, 8: 5.411769834, 9: 6.31068748, 10: 7.209425343, 11: 7.207983458, 12: 8.106541861, 13: 8.104920552999999, 14: 7.103299569, 15: 7.101878909, 16: 8.000458533, 17: 6.998858441, 18: 7.89745867, 19: 7.895879178, 20: 8.794300002, 21: 9.692541142, 22: 10.590602634, 23: 9.588484512999999, 24: 10.486566816, 25: 10.484469503, 26: 9.482372609, 27: 10.380476135, 28: 9.378400039000001, 29: 10.276524359, 30: 11.174469054, 31: 10.172234161, 32: 9.945359386, 33: 10.843370314, 34: 11.74120164, 35: 10.7388534, 36: 11.294188129, 37: 10.291929292, 38: 10.289870906, 39: 11.187812932, 40: 11.185575369, 41: 12.083338254, 42: 12.980921586, 43: 12.978325402, 44: 13.875729737, 45: 14.772954591, 46: 15.67, 47: 15.666866, 48: 15.663732627, 49: 14.727659131, 50: 15.624713599, 51: 15.621588657, 52: 14.618464339, 53: 13.615540646, 54: 14.512817538, 55: 13.509914974, 56: 12.507212991, 57: 11.504711549, 58: 12.402410606, 59: 13.299930124, 60: 14.197270138, 61: 13.194430684, 62: 14.091791798, 63: 13.08897344, 64: 13.086355645, 65: 13.083738374, 66: 13.981121626, 67: 12.978325402, 68: 13.875729737, 69: 14.772954591, 70: 15.67, 71: 14.666866, 72: 13.663932627, 73: 12.66119984, 74: 11.6586676, 75: 12.556335867, 76: 13.4538246, 77: 14.351133835, 78: 13.348263608, 79: 13.345593955, 80: 13.342924836, 81: 13.340256251, 82: 14.2375882, 83: 15.134740683, 84: 14.772954591, 85: 15.67, 86: 14.666866, 87: 14.663932627, 88: 13.66099984, 89: 14.55826764, 90: 14.555355987, 91: 15.452444916, 92: 14.449354427, 93: 14.446464556, 94: 15.343575263, 95: 14.340506548];
cost = [0: 0.869203353, 1: 0.139941918, 2: 0.861872553, 3: 0.8615671029999999, 4: 0.0, 5: 0.868103733, 6: 0.134321637, 7: 0.134321637, 8: 0.134443818, 9: 0.867187383, 10: 0.867370653, 11: 0.134627088, 12: 0.863705253, 13: 0.134443818, 14: 0.0, 15: 0.140430638, 16: 0.864010703, 17: 0.0, 18: 0.868592453, 19: 0.140430638, 20: 0.866454303, 21: 0.864132883, 22: 0.864132883, 23: 0.0, 24: 1.431347865, 25: 0.11857338, 26: 0.0, 27: 1.412552185, 28: 0.0, 29: 1.115865945, 30: 0.950868425, 31: 0.0, 32: 0.0, 33: 1.422068985, 34: 0.439459385, 35: 0.0, 36: 0.07320251, 37: 0.0, 38: 0.1146477, 39: 1.423020665, 40: 0.10417922, 41: 0.482047065, 42: 0.278863385, 43: 0.1140529, 44: 0.383072345, 45: 1.421236265, 46: 0.429704665, 47: 0.0, 48: 0.1140529, 49: 0.0, 50: 0.395801065, 51: 0.0, 52: 0.0, 53: 0.0, 54: 0.407973853, 55: 0.0, 56: 0.0, 57: 0.0, 58: 0.442000983, 59: 0.956867503, 60: 0.396752745, 61: 0.0, 62: 0.531653385, 63: 0.0, 64: 0.0, 65: 0.0, 66: 1.062571865, 67: 0.0, 68: 1.215197545, 69: 1.425756745, 70: 1.419689785, 71: 0.0, 72: 0.0, 73: 0.0, 74: 0.0, 75: 1.422068985, 76: 1.421236265, 77: 1.430990985, 78: 0.0, 79: 0.12202322, 80: 0.1134581, 81: 0.1134581, 82: 1.429563465, 83: 1.432537465, 84: 0.0, 85: 1.422425865, 86: 0.0, 87: 0.12380762, 88: 0.0, 89: 0.787770383, 90: 0.058875488, 91: 0.787648203, 92: 0.0, 93: 0.064068138, 94: 0.792535403, 95: 0.0];
earn = [0: 0.0, 1: 0.0, 2: 0.0, 3: 0.0, 4: 0.4319793, 5: 0.0, 6: 0.0, 7: 0.0, 8: 0.0, 9: 0.0, 10: 0.0, 11: 0.0, 12: 0.0, 13: 0.0, 14: 0.368628563, 15: 0.0, 16: 0.0, 17: 0.37595825, 18: 0.0, 19: 0.0, 20: 0.0, 21: 0.0, 22: 0.0, 23: 0.41860098, 24: 0.0, 25: 0.0, 26: 0.661930912, 27: 0.0, 28: 0.513969855, 29: 0.0, 30: 0.0, 31: 0.46825225, 32: 0.06318710299999999, 33: 0.0, 34: 0.0, 35: 0.3448077, 36: 0.0, 37: 0.529120598, 38: 0.0, 39: 0.0, 40: 0.0, 41: 0.0, 42: 0.0, 43: 0.0, 44: -0.0, 45: 0.0, 46: 0.0, 47: -0.047255313, 48: 0.0, 49: -0.000891326, 50: -0.0, 51: 0.0058146, 52: 0.015987563, 53: 0.020294708, 54: 0.0, 55: 0.0536364, 56: 0.368518775, 57: 0.291883378, 58: 0.0, 59: 0.0, 60: 0.0, 61: 0.72512661, 62: 0.0, 63: 0.682542878, 64: 0.253146595, 65: 0.204010162, 66: 0.0, 67: 0.620146125, 68: 0.0, 69: 0.0, 70: 0.0, 71: 0.6722515650000001, 72: 0.60495305, 73: 0.599796293, 74: 0.613406535, 75: 0.0, 76: 0.0, 77: 0.0, 78: 0.580992038, 79: 0.0, 80: 0.0, 81: 0.0, 82: 0.0, 83: 0.0, 84: 0.112220021, 85: 0.0, 86: 0.387186188, 87: 0.0, 88: 0.388490992, 89: 0.0, 90: 0.0, 91: 0.0, 92: 0.32641125, 93: 0.0, 94: 0.0, 95: 0.23176545];
total_cost = 43.084843402;
total_earn = 11.886870045;
% _objective = 31.197973357;