production = [0: 0.0, 1: 0.0, 2: 0.0, 3: 0.0, 4: 0.0, 5: 0.0, 6: 0.0, 7: 0.0, 8: 0.0, 9: 0.0, 10: 0.0, 11: 0.0, 12: 0.0, 13: 0.0, 14: 0.0, 15: 0.0, 16: 0.0, 17: 0.0, 18: 0.0, 19: 0.0, 20: 0.0, 21: 0.0, 22: 0.0003, 23: 0.0018, 24: 0.0177, 25: 0.0, 26: 0.0955, 27: 0.0, 28: 0.0, 29: 0.2597, 30: 0.0, 31: 0.5978, 32: 0.6693, 33: 0.6215000000000001, 34: 0.8263, 35: 0.8095, 36: 0.707, 37: 0.6318, 38: 0.0, 39: 0.6825, 40: 0.6558, 41: 0.7815, 42: 0.9543, 43: 0.76, 44: 0.0, 45: 0.0, 46: 0.8257, 47: 0.0, 48: 0.8263, 49: 0.7558, 50: 0.854, 51: 0.0, 52: 0.7133, 53: 0.0, 54: 1.08, 55: 1.044, 56: 0.0, 57: 0.972, 58: 0.0, 59: 0.0, 60: 0.0, 61: 0.0, 62: 0.7448, 63: 0.5004999999999999, 64: 0.0, 65: 0.0, 66: 0.0, 67: 0.1953, 68: 0.1762, 69: 0.0, 70: 0.0725, 71: 0.0357, 72: 0.0037, 73: 0.0003, 74: 0.0003, 75: 0.0, 76: 0.0, 77: 0.0, 78: 0.0, 79: 0.0, 80: 0.0, 81: 0.0, 82: 0.0, 83: 0.0, 84: 0.0, 85: 0.0, 86: 0.0, 87: 0.0, 88: 0.0, 89: 0.0, 90: 0.0, 91: 0.0, 92: 0.0, 93: 0.0, 94: 0.0, 95: 0.0];
buy = [0: 1.229375, 1: 1.229075, 2: 1.217375, 3: 1.216875, 4: 0.0, 5: 0.0, 6: 0.0, 7: 1.219875, 8: 1.220075, 9: 0.226075, 10: 1.226375, 11: 0.220375, 12: 0.0, 13: 1.220075, 14: 0.0, 15: 0.229875, 16: 0.220875, 17: 0.0, 18: 0.228375, 19: 0.02696783, 20: 1.224875, 21: 0.221375, 22: 1.221075, 23: 1.226575, 24: 1.086175, 25: 0.099675, 26: 0.0, 27: 1.088075, 28: 1.098675, 29: 0.8386749999999999, 30: 0.096675, 31: 0.0, 32: 0.418275, 33: 0.0, 34: 0.0, 35: 0.287875, 36: 0.0, 37: 0.457075, 38: 0.096375, 39: 0.0, 40: 0.0, 41: 0.305875, 42: 0.0, 43: 0.335875, 44: 0.0, 45: 0.0, 46: 0.261875, 47: 0.086575, 48: 0.269575, 49: 0.341075, 50: 0.233375, 51: 1.091675, 52: 0.0, 53: 0.0, 54: 0.474375, 55: 0.0, 56: 1.094075, 57: 0.0, 58: 1.399875, 59: 0.0, 60: 1.092375, 61: 0.0, 62: 0.0, 63: 0.0, 64: 0.0, 65: 0.088875, 66: 1.087875, 67: 0.0, 68: 0.922175, 69: 1.099175, 70: 1.021575, 71: 0.0, 72: 1.093975, 73: 0.103775, 74: 1.103275, 75: 1.096075, 76: 1.095375, 77: 1.103575, 78: 0.0, 79: 1.102575, 80: 0.0, 81: 0.0, 82: 0.102375, 83: 1.104875, 84: 0.0, 85: 0.0, 86: 1.095875, 87: 1.104075, 88: 1.104075, 89: 0.689552504, 90: 0.096375, 91: 0.0, 92: 0.0, 93: 0.0, 94: 1.103875, 95: 0.096375];
sell = [0: 0.0, 1: 0.0, 2: 0.0, 3: 0.0, 4: 0.674125, 5: 0.6724250000000001, 6: 0.680125, 7: 0.0, 8: 0.0, 9: 0.0, 10: 0.0, 11: 0.0, 12: 0.679625, 13: 0.0, 14: 0.669625, 15: 0.0, 16: 0.0, 17: 0.678625, 18: 0.0, 19: 0.0, 20: 0.0, 21: 0.0, 22: 0.0, 23: 0.0, 24: 0.0, 25: 0.0, 26: 0.907625, 27: 0.0, 28: 0.0, 29: 0.0, 30: 0.0, 31: 1.407925, 32: 0.0, 33: 1.425425, 34: 0.729925, 35: 0.0, 36: 1.519425, 37: 0.0, 38: 0.0, 39: 1.485625, 40: 1.468225, 41: 0.0, 42: 0.8649250000000001, 43: 0.0, 44: 0.804125, 45: 0.804625, 46: 0.0, 47: 0.0, 48: 0.0, 49: 0.0, 50: 0.0, 51: 0.0, 52: 1.522625, 53: 0.319625, 54: 0.0, 55: 0.217425, 56: 0.0, 57: 0.586925, 58: 0.0, 59: 0.527125, 60: 0.0, 61: 0.807625, 62: 0.652425, 63: 1.300825, 64: 0.800125, 65: 0.0, 66: 0.0, 67: 0.098625, 68: 0.0, 69: 0.0, 70: 0.0, 71: 0.844325, 72: 0.0, 73: 0.0, 74: 0.0, 75: 0.0, 76: 0.0, 77: 0.0, 78: 0.796425, 79: 0.0, 80: 0.804625, 81: 0.804625, 82: 0.0, 83: 0.0, 84: 0.796425, 85: 0.803625, 86: 0.0, 87: 0.0, 88: 0.0, 89: 0.0, 90: 0.0, 91: 0.804125, 92: 0.796125, 93: 0.581582091, 94: 0.0, 95: 0.0];
charge = [0: 1.0, 1: 1.0, 2: 1.0, 3: 1.0, 4: 0.0, 5: 0.0, 6: 0.0, 7: 1.0, 8: 1.0, 9: 0.0, 10: 1.0, 11: 0.0, 12: 0.0, 13: 1.0, 14: 0.0, 15: 0.0, 16: 0.0, 17: 0.0, 18: 0.0, 19: 0.0, 20: 1.0, 21: 0.0, 22: 1.0, 23: 1.0, 24: 1.0, 25: 0.0, 26: 0.0, 27: 1.0, 28: 1.0, 29: 1.0, 30: 0.0, 31: 0.0, 32: 1.0, 33: 0.0, 34: 0.0, 35: 1.0, 36: 0.0, 37: 1.0, 38: 0.0, 39: 0.0, 40: 0.0, 41: 1.0, 42: 0.0, 43: 1.0, 44: 0.0, 45: 0.0, 46: 1.0, 47: 0.0, 48: 1.0, 49: 1.0, 50: 1.0, 51: 1.0, 52: 0.0, 53: 0.0, 54: 1.0, 55: 0.0, 56: 1.0, 57: 0.0, 58: 1.0, 59: 0.0, 60: 1.0, 61: 0.0, 62: 0.0, 63: 0.0, 64: 0.0, 65: 0.0, 66: 1.0, 67: 0.0, 68: 1.0, 69: 1.0, 70: 1.0, 71: 0.0, 72: 1.0, 73: 0.0, 74: 1.0, 75: 1.0, 76: 1.0, 77: 1.0, 78: 0.0, 79: 1.0, 80: 0.0, 81: 0.0, 82: 0.0, 83: 1.0, 84: 0.0, 85: 0.0, 86: 1.0, 87: 1.0, 88: 1.0, 89: 0.593477504, 90: 0.0, 91: 0.0, 92: 0.0, 93: 0.0, 94: 1.0, 95: 0.0];
discharge = [0: 0.0, 1: 0.0, 2: 0.0, 3: 0.0, 4: 1.0, 5: 1.0, 6: 1.0, 7: 0.0, 8: 0.0, 9: 0.0, 10: 0.0, 11: 0.0, 12: 1.0, 13: 0.0, 14: 1.0, 15: 0.0, 16: 0.0, 17: 1.0, 18: 0.0, 19: 0.225452411, 20: 0.0, 21: 0.0, 22: 0.0, 23: 0.0, 24: 0.0, 25: 0.0, 26: 1.0, 27: 0.0, 28: 0.0, 29: 0.0, 30: 0.0, 31: 1.0, 32: 0.0, 33: 1.0, 34: 0.0, 35: 0.0, 36: 1.0, 37: 0.0, 38: 0.0, 39: 1.0, 40: 1.0, 41: 0.0, 42: 0.0, 43: 0.0, 44: 1.0, 45: 1.0, 46: 0.0, 47: 0.0, 48: 0.0, 49: 0.0, 50: 0.0, 51: 0.0, 52: 1.0, 53: 1.0, 54: 0.0, 55: 0.0, 56: 0.0, 57: 0.0, 58: 0.0, 59: 1.0, 60: 0.0, 61: 1.0, 62: 0.0, 63: 1.0, 64: 1.0, 65: 0.0, 66: 0.0, 67: 0.0, 68: 0.0, 69: 0.0, 70: 0.0, 71: 1.0, 72: 0.0, 73: 0.0, 74: 0.0, 75: 0.0, 76: 0.0, 77: 0.0, 78: 1.0, 79: 0.0, 80: 1.0, 81: 1.0, 82: 0.0, 83: 0.0, 84: 1.0, 85: 1.0, 86: 0.0, 87: 0.0, 88: 0.0, 89: 0.0, 90: 0.0, 91: 1.0, 92: 1.0, 93: 0.762730101, 94: 0.0, 95: 0.0];
soc = [0: 3.719436, 1: 4.618692113, 2: 5.517768374, 3: 6.416664821, 4: 5.415381488, 5: 4.414298411, 6: 3.413415552, 7: 4.312732869, 8: 5.211870322, 9: 5.210827948, 10: 6.109785782, 11: 6.108563825, 12: 5.107342112, 13: 6.006320644, 14: 5.00511938, 15: 5.004118356, 16: 5.003117532, 17: 4.002116909, 18: 4.001316486, 19: 3.775063811, 20: 4.674308798, 21: 4.673373937, 22: 5.572439262, 23: 6.471324774, 24: 7.370030509, 25: 7.368556503, 26: 6.367082792, 27: 7.265809375, 28: 8.164356213, 29: 9.062723342, 30: 9.060910797, 31: 8.059098615, 32: 8.957486794999999, 33: 7.955695298, 34: 7.954104159, 35: 8.852513338, 36: 7.850742836, 37: 8.749172687, 38: 8.747422852, 39: 7.745673368, 40: 6.744124233, 41: 7.642775408, 42: 7.641246853, 43: 8.539718604000001, 44: 7.53801066, 45: 6.536503058, 46: 7.435195757, 47: 7.433708718, 48: 8.332221977, 49: 9.230555532, 50: 10.128709421, 51: 11.026683679, 52: 10.024478342, 53: 9.022473446999999, 54: 9.920668952, 55: 9.918684817999999, 56: 10.816701081, 57: 10.814537741, 58: 11.712374834, 59: 10.710032359, 60: 11.607890352, 61: 10.605568774, 62: 10.60344766, 63: 9.601326971000001, 64: 8.599406705, 65: 8.597686824, 66: 9.495967286999999, 67: 9.494068092999999, 68: 10.39216928, 69: 11.290090846, 70: 12.187832828, 71: 11.185395261, 72: 12.083158182, 73: 12.08074155, 74: 12.978325402, 75: 13.875729737, 76: 14.772954591, 77: 15.67, 78: 14.666866, 79: 15.563932627, 80: 14.56081984, 81: 13.557907676, 82: 13.555196095, 83: 14.452485056, 84: 13.449594559, 85: 12.44690464, 86: 13.344415259, 87: 14.241746376, 88: 15.138898026, 89: 15.67, 90: 15.666866, 91: 14.663732627, 92: 13.66079988, 93: 12.895337619, 94: 13.792758552, 95: 13.79];
cost = [0: 0.869203353, 1: 0.869020083, 2: 0.861872553, 3: 0.8615671029999999, 4: 0.0, 5: 0.0, 6: 0.0, 7: 0.863399803, 8: 0.863521983, 9: 0.138109218, 10: 0.867370653, 11: 0.134627088, 12: 0.0, 13: 0.863521983, 14: 0.0, 15: 0.140430638, 16: 0.134932538, 17: 0.0, 18: 0.139514288, 19: 0.016474647, 20: 0.866454303, 21: 0.135237988, 22: 0.864132883, 23: 0.867492833, 24: 1.410291945, 25: 0.11857338, 26: 0.0, 27: 1.412552185, 28: 1.425161945, 29: 1.115865945, 30: 0.11500458, 31: 0.0, 32: 0.6157581049999999, 33: 0.0, 34: 0.0, 35: 0.460634265, 36: 0.0, 37: 0.661914585, 38: 0.1146477, 39: 0.0, 40: 0.0, 41: 0.482047065, 42: 0.0, 43: 0.517735065, 44: 0.0, 45: 0.0, 46: 0.429704665, 47: 0.10298962, 48: 0.438864585, 49: 0.523920985, 50: 0.395801065, 51: 1.416834745, 52: 0.0, 53: 0.0, 54: 0.407973853, 55: 0.0, 56: 0.786548583, 57: 0.0, 58: 0.973361803, 59: 0.0, 60: 1.417667465, 61: 0.0, 62: 0.0, 63: 0.0, 64: 0.0, 65: 0.1057257, 66: 1.412314265, 67: 0.0, 68: 1.215197545, 69: 1.425756745, 70: 1.333443785, 71: 0.0, 72: 1.419570825, 73: 0.12345074, 74: 1.430634105, 75: 1.422068985, 76: 1.421236265, 77: 1.430990985, 78: 0.0, 79: 1.429801385, 80: 0.0, 81: 0.0, 82: 0.1217853, 83: 1.432537465, 84: 0.0, 85: 0.0, 86: 1.421831065, 87: 1.431585785, 88: 0.792657583, 89: 0.491383707, 90: 0.058875488, 91: 0.0, 92: 0.0, 93: 0.0, 94: 0.792535403, 95: 0.058875488];
earn = [0: 0.0, 1: 0.0, 2: 0.0, 3: 0.0, 4: 0.4319793, 5: 0.425443298, 6: 0.424534025, 7: 0.0, 8: 0.0, 9: 0.0, 10: 0.0, 11: 0.0, 12: 0.377939463, 13: 0.0, 14: 0.368628563, 15: 0.0, 16: 0.0, 17: 0.37595825, 18: 0.0, 19: 0.0, 20: 0.0, 21: 0.0, 22: 0.0, 23: 0.0, 24: 0.0, 25: 0.0, 26: 0.661930912, 27: 0.0, 28: 0.0, 29: 0.0, 30: 0.0, 31: 0.81378065, 32: 0.0, 33: 0.73323862, 34: 0.354305595, 35: 0.0, 36: 0.63390411, 37: 0.0, 38: 0.0, 39: 0.39874175, 40: 0.16091746, 41: 0.0, 42: 0.037105283, 43: 0.0, 44: -0.0, 45: -0.025506613, 46: 0.0, 47: 0.0, 48: 0.0, 49: 0.0, 50: -0.0, 51: 0.0, 52: 0.015987563, 53: 0.005465588, 54: 0.0, 55: 0.0104364, 56: 0.0, 57: 0.115213377, 58: 0.0, 59: 0.137790475, 60: 0.0, 61: 0.37376885, 62: 0.313294485, 63: 0.682542878, 64: 0.461992175, 65: 0.0, 66: 0.0, 67: 0.061246125, 68: 0.0, 69: 0.0, 70: 0.0, 71: 0.6722515650000001, 72: 0.0, 73: 0.0, 74: 0.0, 75: 0.0, 76: 0.0, 77: 0.0, 78: 0.580992038, 79: 0.0, 80: 0.530489263, 81: 0.511661038, 82: 0.0, 83: 0.0, 84: 0.407530673, 85: 0.424072913, 86: 0.0, 87: 0.0, 88: 0.0, 89: 0.0, 90: 0.0, 91: 0.3531717, 92: 0.32641125, 93: 0.223501998, 94: 0.0, 95: 0.0];
total_cost = 46.472996692;
total_earn = 12.380721015;
% _objective = 34.092275677;