production = [0: 0.0, 1: 0.0, 2: 0.0, 3: 0.0, 4: 0.0, 5: 0.0, 6: 0.0, 7: 0.0, 8: 0.0, 9: 0.0, 10: 0.0, 11: 0.0, 12: 0.0, 13: 0.0, 14: 0.0, 15: 0.0, 16: 0.0, 17: 0.0, 18: 0.0, 19: 0.0, 20: 0.0, 21: 0.0, 22: 0.0, 23: 0.0, 24: 0.0, 25: 0.0455, 26: 0.0, 27: 0.1557, 28: 0.0, 29: 0.2597, 30: 0.3967, 31: 0.0, 32: 0.0, 33: 0.0, 34: 0.0, 35: 0.0, 36: 0.0, 37: 0.6318, 38: 0.0, 39: 0.0, 40: 0.6558, 41: 0.0, 42: 0.9543, 43: 0.0, 44: 0.8732, 45: 0.0, 46: 0.8257, 47: 0.0, 48: 0.0, 49: 0.0, 50: 0.0, 51: 0.0, 52: 0.0, 53: 0.0, 54: 1.08, 55: 1.044, 56: 1.0917, 57: 0.972, 58: 0.8698, 59: 0.9419999999999999, 60: 0.0, 61: 0.0, 62: 0.0, 63: 0.5004999999999999, 64: 0.5383, 65: 0.4325, 66: 0.294, 67: 0.0, 68: 0.1762, 69: 0.0, 70: 0.0, 71: 0.0357, 72: 0.0037, 73: 0.0, 74: 0.0, 75: 0.0, 76: 0.0, 77: 0.0, 78: 0.0, 79: 0.0, 80: 0.0, 81: 0.0, 82: 0.0, 83: 0.0, 84: 0.0, 85: 0.0, 86: 0.0, 87: 0.0, 88: 0.0, 89: 0.0, 90: 0.0, 91: 0.0, 92: 0.0, 93: 0.0, 94: 0.0, 95: 0.0];
buy = [0: 1.229375, 1: 0.0, 2: 1.217375, 3: 0.0, 4: 0.225875, 5: 1.227575, 6: 0.0, 7: 1.219875, 8: 0.220075, 9: 1.226075, 10: 1.226375, 11: 1.220375, 12: 0.0, 13: 0.220075, 14: 1.230375, 15: 0.0, 16: 0.220875, 17: 1.221375, 18: 0.228375, 19: 0.229875, 20: 1.224875, 21: 1.221375, 22: 0.221375, 23: 0.228375, 24: 1.103875, 25: 1.054175, 26: 1.087875, 27: 0.0, 28: 0.0, 29: 0.0, 30: 0.0, 31: 0.089875, 32: 0.087575, 33: 0.09607499999999999, 34: 1.096375, 35: 1.097375, 36: 0.0, 37: 0.457075, 38: 1.096375, 39: 1.096875, 40: 0.0, 41: 0.0, 42: 0.135075, 43: 0.0, 44: 0.0, 45: 0.095375, 46: 0.0, 47: 0.0, 48: 0.0, 49: 0.096875, 50: 0.0, 51: 0.0, 52: 1.090675, 53: 0.580375, 54: 0.474375, 55: 0.0, 56: 0.0, 57: 0.413075, 58: 0.530075, 59: 0.430875, 60: 1.092375, 61: 1.092375, 62: 0.092375, 63: 0.0, 64: 0.561575, 65: 0.0, 66: 0.793875, 67: 0.0, 68: 0.0, 69: 0.0, 70: 1.094075, 71: 1.055675, 72: 1.093975, 73: 1.104075, 74: 0.0, 75: 1.096075, 76: 1.095375, 77: 1.103575, 78: 0.103575, 79: 0.102575, 80: 1.095375, 81: 0.0, 82: 0.102375, 83: 1.104875, 84: 1.103575, 85: 1.096375, 86: 1.095875, 87: 0.104075, 88: 0.0, 89: 0.09607499999999999, 90: 0.0, 91: 1.095875, 92: 1.103875, 93: 0.104875, 94: 1.103875, 95: 0.096375];
sell = [0: 0.0, 1: 0.209659952, 2: 0.0, 3: 0.683125, 4: 0.0, 5: 0.0, 6: 0.680125, 7: 0.0, 8: 0.0, 9: 0.0, 10: 0.0, 11: 0.0, 12: 0.679625, 13: 0.0, 14: 0.0, 15: 0.670125, 16: 0.0, 17: 0.0, 18: 0.0, 19: 0.0, 20: 0.0, 21: 0.0, 22: 0.0, 23: 0.0, 24: 0.0, 25: 0.0, 26: 0.0, 27: 0.967625, 28: 0.801325, 29: 1.061325, 30: 1.200025, 31: 0.0, 32: 0.0, 33: 0.0, 34: 0.0, 35: 0.0, 36: 0.812425, 37: 0.0, 38: 0.0, 39: 0.0, 40: 0.568225, 41: 0.812625, 42: 0.0, 43: 0.804125, 44: 1.677325, 45: 0.0, 46: 1.638125, 47: 0.813425, 48: 0.804125, 49: 0.0, 50: 0.812625, 51: 0.808325, 52: 0.0, 53: 0.0, 54: 0.0, 55: 1.117425, 56: 1.897625, 57: 0.0, 58: 0.0, 59: 0.0, 60: 0.0, 61: 0.0, 62: 0.0, 63: 1.300825, 64: 0.0, 65: 1.243625, 66: 0.0, 67: 0.803325, 68: 0.9778250000000001, 69: 0.800825, 70: 0.0, 71: 0.0, 72: 0.0, 73: 0.0, 74: 0.796425, 75: 0.0, 76: 0.0, 77: 0.0, 78: 0.0, 79: 0.0, 80: 0.0, 81: 0.804625, 82: 0.0, 83: 0.0, 84: 0.0, 85: 0.0, 86: 0.0, 87: 0.0, 88: 0.795925, 89: 0.0, 90: 0.803625, 91: 0.0, 92: 0.0, 93: 0.0, 94: 0.0, 95: 0.0];
charge = [0: 1.0, 1: 0.0, 2: 1.0, 3: 0.0, 4: 0.0, 5: 1.0, 6: 0.0, 7: 1.0, 8: 0.0, 9: 1.0, 10: 1.0, 11: 1.0, 12: 0.0, 13: 0.0, 14: 1.0, 15: 0.0, 16: 0.0, 17: 1.0, 18: 0.0, 19: 0.0, 20: 1.0, 21: 1.0, 22: 0.0, 23: 0.0, 24: 1.0, 25: 1.0, 26: 1.0, 27: 0.0, 28: 0.0, 29: 0.0, 30: 0.0, 31: 0.0, 32: 0.0, 33: 0.0, 34: 1.0, 35: 1.0, 36: 0.0, 37: 1.0, 38: 1.0, 39: 1.0, 40: 0.0, 41: 0.0, 42: 1.0, 43: 0.0, 44: 0.0, 45: 0.0, 46: 0.0, 47: 0.0, 48: 0.0, 49: 0.0, 50: 0.0, 51: 0.0, 52: 1.0, 53: 0.0, 54: 1.0, 55: 0.0, 56: 0.0, 57: 1.0, 58: 1.0, 59: 1.0, 60: 1.0, 61: 1.0, 62: 0.0, 63: 0.0, 64: 1.0, 65: 0.0, 66: 1.0, 67: 0.0, 68: 0.0, 69: 0.0, 70: 1.0, 71: 1.0, 72: 1.0, 73: 1.0, 74: 0.0, 75: 1.0, 76: 1.0, 77: 1.0, 78: 0.0, 79: 0.0, 80: 1.0, 81: 0.0, 82: 0.0, 83: 1.0, 84: 1.0, 85: 1.0, 86: 1.0, 87: 0.0, 88: 0.0, 89: 0.0, 90: 0.0, 91: 1.0, 92: 1.0, 93: 0.0, 94: 1.0, 95: 0.0];
discharge = [0: 0.0, 1: 0.487483279, 2: 0.0, 3: 1.0, 4: 0.0, 5: 0.0, 6: 1.0, 7: 0.0, 8: 0.0, 9: 0.0, 10: 0.0, 11: 0.0, 12: 1.0, 13: 0.0, 14: 0.0, 15: 1.0, 16: 0.0, 17: 0.0, 18: 0.0, 19: 0.0, 20: 0.0, 21: 0.0, 22: 0.0, 23: 0.0, 24: 0.0, 25: 0.0, 26: 0.0, 27: 1.0, 28: 1.0, 29: 1.0, 30: 1.0, 31: 0.0, 32: 0.0, 33: 0.0, 34: 0.0, 35: 0.0, 36: 1.0, 37: 0.0, 38: 0.0, 39: 0.0, 40: 0.0, 41: 1.0, 42: 0.0, 43: 1.0, 44: 1.0, 45: 0.0, 46: 1.0, 47: 1.0, 48: 1.0, 49: 0.0, 50: 1.0, 51: 1.0, 52: 0.0, 53: 0.0, 54: 0.0, 55: 1.0, 56: 1.0, 57: 0.0, 58: 0.0, 59: 0.0, 60: 0.0, 61: 0.0, 62: 0.0, 63: 1.0, 64: 0.0, 65: 1.0, 66: 0.0, 67: 1.0, 68: 1.0, 69: 1.0, 70: 0.0, 71: 0.0, 72: 0.0, 73: 0.0, 74: 1.0, 75: 0.0, 76: 0.0, 77: 0.0, 78: 0.0, 79: 0.0, 80: 0.0, 81: 1.0, 82: 0.0, 83: 0.0, 84: 0.0, 85: 0.0, 86: 0.0, 87: 0.0, 88: 1.0, 89: 0.0, 90: 1.0, 91: 0.0, 92: 0.0, 93: 0.0, 94: 0.0, 95: 0.0];
soc = [0: 3.719436, 1: 3.231208833, 2: 4.130562592, 3: 3.129736479, 4: 3.129110532, 5: 4.02848471, 6: 3.027679013, 7: 3.927073477, 8: 3.926288062, 9: 4.825502805, 10: 5.724537704, 11: 6.623392797, 12: 5.622068118, 13: 5.620943704, 14: 6.519819516, 15: 5.518515552, 16: 5.517411849, 17: 6.416308366, 18: 6.415025105, 19: 6.413742099, 20: 7.312459351, 21: 8.210996859, 22: 8.209354660000001, 23: 8.207712789, 24: 9.106071246000001, 25: 10.004250032, 26: 10.902249182, 27: 9.900068731999999, 28: 8.898088719, 29: 7.896309101, 30: 6.894729839, 31: 6.893350893, 32: 6.891972223, 33: 6.890593828, 34: 7.78921571, 35: 8.687657866, 36: 7.685920335, 37: 8.584383151000001, 38: 9.482666274, 39: 10.380769741, 40: 10.378693587, 41: 9.376617848, 42: 10.274742525, 43: 9.272687575999999, 44: 8.270833038999999, 45: 8.269178871999999, 46: 7.267525036, 47: 6.266071531, 48: 5.264818317, 49: 5.263765353, 50: 4.2627126, 51: 3.261860058, 52: 4.161207686, 53: 4.160375444, 54: 5.059543369, 55: 4.05853146, 56: 3.057719754, 57: 3.95710821, 58: 4.856316789, 59: 5.755345525, 60: 6.654194456, 61: 7.552863617, 62: 7.551353044, 63: 6.549842774, 64: 7.448532805, 65: 6.447043099, 66: 7.34575369, 67: 6.344284539, 68: 5.343015682, 69: 4.341947079, 70: 5.24107869, 71: 6.140030474, 72: 7.038802468, 73: 7.937394708, 74: 6.935807229, 75: 7.834420067, 76: 8.732853183, 77: 9.631106613, 78: 9.629180391, 79: 9.627254555, 80: 10.525329104, 81: 9.523224038, 82: 9.521319394000001, 83: 10.41941513, 84: 11.317331247, 85: 12.21506778, 86: 13.112624767, 87: 13.110002242, 88: 12.107380241, 89: 12.104958765, 90: 11.102537774, 91: 12.000317266, 92: 12.897917203, 93: 12.895337619, 94: 13.792758552, 95: 13.79];
cost = [0: 0.869203353, 1: 0.0, 2: 0.861872553, 3: 0.0, 4: 0.137987038, 5: 0.868103733, 6: 0.0, 7: 0.863399803, 8: 0.134443818, 9: 0.867187383, 10: 0.867370653, 11: 0.863705253, 12: 0.0, 13: 0.134443818, 14: 0.869814253, 15: 0.0, 16: 0.134932538, 17: 0.864316153, 18: 0.139514288, 19: 0.140430638, 20: 0.866454303, 21: 0.864316153, 22: 0.135237988, 23: 0.139514288, 24: 1.431347865, 25: 1.372224745, 26: 1.412314265, 27: 0.0, 28: 0.0, 29: 0.0, 30: 0.0, 31: 0.1069153, 32: 0.10417922, 33: 0.11429082, 34: 1.422425865, 35: 1.423615465, 36: 0.0, 37: 0.661914585, 38: 1.422425865, 39: 1.423020665, 40: 0.0, 41: 0.0, 42: 0.278863385, 43: 0.0, 44: 0.0, 45: 0.1134581, 46: 0.0, 47: 0.0, 48: 0.0, 49: 0.1152425, 50: 0.0, 51: 0.0, 52: 0.784471523, 53: 0.354551088, 54: 0.407973853, 55: 0.0, 56: 0.0, 57: 0.370525683, 58: 0.442000983, 59: 0.381399703, 60: 1.417667465, 61: 1.417667465, 62: 0.1098893, 63: 0.0, 64: 0.786227785, 65: 0.0, 66: 1.062571865, 67: 0.0, 68: 0.0, 69: 0.0, 70: 1.419689785, 71: 1.374009145, 72: 1.419570825, 73: 1.431585785, 74: 0.0, 75: 1.422068985, 76: 1.421236265, 77: 1.430990985, 78: 0.12321282, 79: 0.12202322, 80: 1.421236265, 81: 0.0, 82: 0.1217853, 83: 1.432537465, 84: 1.430990985, 85: 1.422425865, 86: 1.421831065, 87: 0.12380762, 88: 0.0, 89: 0.058692218, 90: 0.0, 91: 0.787648203, 92: 0.792535403, 93: 0.064068138, 94: 0.792535403, 95: 0.058875488];
earn = [0: 0.0, 1: 0.15475001, 2: 0.0, 3: 0.485906813, 4: 0.0, 5: 0.0, 6: 0.424534025, 7: 0.0, 8: 0.0, 9: 0.0, 10: 0.0, 11: 0.0, 12: 0.377939463, 13: 0.0, 14: 0.0, 15: 0.367965638, 16: 0.0, 17: 0.0, 18: 0.0, 19: 0.0, 20: 0.0, 21: 0.0, 22: 0.0, 23: 0.0, 24: 0.0, 25: 0.0, 26: 0.0, 27: 0.687110513, 28: 0.513969855, 29: 0.656111115, 30: 0.735255318, 31: 0.0, 32: 0.0, 33: 0.0, 34: 0.0, 35: 0.0, 36: 0.33894371, 37: 0.0, 38: 0.0, 39: 0.0, 40: 0.06227746, 41: 0.064278638, 42: 0.0, 43: 0.026294888, 44: -0.0, 45: 0.0, 46: -0.084691063, 47: -0.052791283, 48: -0.005307225, 49: 0.0, 50: -0.0, 51: 0.0064666, 52: 0.0, 53: 0.0, 54: 0.0, 55: 0.0536364, 56: 0.368518775, 57: 0.0, 58: 0.0, 59: 0.0, 60: 0.0, 61: 0.0, 62: 0.0, 63: 0.682542878, 64: 0.0, 65: 0.738340163, 66: 0.0, 67: 0.498864825, 68: 0.6187676600000001, 69: 0.545762238, 70: 0.0, 71: 0.0, 72: 0.0, 73: 0.0, 74: 0.613406535, 75: 0.0, 76: 0.0, 77: 0.0, 78: 0.0, 79: 0.0, 80: 0.0, 81: 0.511661038, 82: 0.0, 83: 0.0, 84: 0.0, 85: 0.0, 86: 0.0, 87: 0.0, 88: 0.388490993, 89: 0.0, 90: 0.366453, 91: 0.0, 92: 0.0, 93: 0.0, 94: 0.0, 95: 0.0];
total_cost = 49.6527906;
total_earn = 10.145458975;
% _objective = 39.50733162500001;