production = [0: 0.0, 1: 0.0, 2: 0.0, 3: 0.0, 4: 0.0, 5: 0.0, 6: 0.0, 7: 0.0, 8: 0.0, 9: 0.0, 10: 0.0, 11: 0.0, 12: 0.0, 13: 0.0, 14: 0.0, 15: 0.0, 16: 0.0, 17: 0.0, 18: 0.0, 19: 0.0, 20: 0.0, 21: 0.0, 22: 0.0003, 23: 0.0018, 24: 0.0, 25: 0.0, 26: 0.0955, 27: 0.0, 28: 0.0, 29: 0.2597, 30: 0.0, 31: 0.0, 32: 0.0, 33: 0.6215000000000001, 34: 0.0, 35: 0.0, 36: 0.0, 37: 0.0, 38: 0.674, 39: 0.6825, 40: 0.6558, 41: 0.7815, 42: 0.0, 43: 0.76, 44: 0.0, 45: 0.0, 46: 0.8257, 47: 0.0, 48: 0.8263, 49: 0.7558, 50: 0.854, 51: 0.8185, 52: 0.0, 53: 0.8672, 54: 0.0, 55: 0.0, 56: 0.0, 57: 0.0, 58: 0.0, 59: 0.9419999999999999, 60: 0.0, 61: 0.0, 62: 0.0, 63: 0.0, 64: 0.5383, 65: 0.0, 66: 0.0, 67: 0.0, 68: 0.1762, 69: 0.0, 70: 0.0725, 71: 0.0, 72: 0.0, 73: 0.0, 74: 0.0, 75: 0.0, 76: 0.0, 77: 0.0, 78: 0.0, 79: 0.0, 80: 0.0, 81: 0.0, 82: 0.0, 83: 0.0, 84: 0.0, 85: 0.0, 86: 0.0, 87: 0.0, 88: 0.0, 89: 0.0, 90: 0.0, 91: 0.0, 92: 0.0, 93: 0.0, 94: 0.0, 95: 0.0];
buy = [0: 1.229375, 1: 1.229075, 2: 0.217375, 3: 0.0, 4: 0.225875, 5: 1.227575, 6: 0.219875, 7: 1.219875, 8: 1.220075, 9: 0.226075, 10: 1.226375, 11: 0.220375, 12: 1.220375, 13: 0.220075, 14: 0.0, 15: 1.229875, 16: 1.220875, 17: 1.221375, 18: 1.228375, 19: 1.229875, 20: 0.0, 21: 0.0, 22: 0.221075, 23: 1.226575, 24: 1.103875, 25: 1.099675, 26: 0.0, 27: 0.088075, 28: 0.0, 29: 0.0, 30: 1.096675, 31: 1.089875, 32: 0.087575, 33: 0.0, 34: 1.096375, 35: 0.097375, 36: 0.0, 37: 1.088875, 38: 0.0, 39: 0.0, 40: 0.431775, 41: 0.0, 42: 1.089375, 43: 0.0, 44: 0.095875, 45: 0.0, 46: 0.0, 47: 1.086575, 48: 0.269575, 49: 0.0, 50: 0.233375, 51: 0.0, 52: 0.09067500000000001, 53: 0.0, 54: 0.0, 55: 1.826575, 56: 0.0, 57: 0.0, 58: 1.399875, 59: 0.0, 60: 1.092375, 61: 1.092375, 62: 0.0, 63: 0.099675, 64: 0.0, 65: 0.088875, 66: 0.08787499999999999, 67: 1.096675, 68: 0.0, 69: 1.099175, 70: 0.021575, 71: 1.091375, 72: 0.0, 73: 1.104075, 74: 0.103575, 75: 0.0, 76: 0.095375, 77: 0.103575, 78: 1.103575, 79: 1.102575, 80: 1.095375, 81: 0.0, 82: 0.102375, 83: 1.104875, 84: 0.0, 85: 1.096375, 86: 0.095875, 87: 0.104075, 88: 0.104075, 89: 0.0, 90: 0.0, 91: 1.095875, 92: 0.103875, 93: 0.104875, 94: 0.103875, 95: 1.096375];
sell = [0: 0.0, 1: 0.0, 2: 0.0, 3: 0.683125, 4: 0.0, 5: 0.0, 6: 0.0, 7: 0.0, 8: 0.0, 9: 0.0, 10: 0.0, 11: 0.0, 12: 0.0, 13: 0.0, 14: 0.669625, 15: 0.0, 16: 0.0, 17: 0.0, 18: 0.0, 19: 0.0, 20: 0.675125, 21: 0.678625, 22: 0.0, 23: 0.0, 24: 0.0, 25: 0.0, 26: 0.007625, 27: 0.0, 28: 0.801325, 29: 1.061325, 30: 0.0, 31: 0.0, 32: 0.0, 33: 1.264978074, 34: 0.0, 35: 0.0, 36: 0.812425, 37: 0.0, 38: 0.5776250000000001, 39: 1.485625, 40: 0.0, 41: 1.594125, 42: 0.0, 43: 0.664125, 44: 0.0, 45: 0.804625, 46: 1.638125, 47: 0.0, 48: 0.0, 49: 1.558925, 50: 0.0, 51: 1.626825, 52: 0.0, 53: 0.286825, 54: 0.345625, 55: 0.0, 56: 0.805925, 57: 0.514925, 58: 0.0, 59: 0.569125, 60: 0.0, 61: 0.0, 62: 0.807625, 63: 0.0, 64: 0.438425, 65: 0.0, 66: 0.0, 67: 0.0, 68: 0.9778250000000001, 69: 0.0, 70: 0.0, 71: 0.0, 72: 0.0, 73: 0.0, 74: 0.0, 75: 0.803925, 76: 0.0, 77: 0.0, 78: 0.0, 79: 0.0, 80: 0.0, 81: 0.804625, 82: 0.0, 83: 0.0, 84: 0.796425, 85: 0.0, 86: 0.0, 87: 0.0, 88: 0.0, 89: 0.803925, 90: 0.803625, 91: 0.0, 92: 0.0, 93: 0.0, 94: 0.0, 95: 0.0];
charge = [0: 1.0, 1: 1.0, 2: 0.0, 3: 0.0, 4: 0.0, 5: 1.0, 6: 0.0, 7: 1.0, 8: 1.0, 9: 0.0, 10: 1.0, 11: 0.0, 12: 1.0, 13: 0.0, 14: 0.0, 15: 1.0, 16: 1.0, 17: 1.0, 18: 1.0, 19: 1.0, 20: 0.0, 21: 0.0, 22: 0.0, 23: 1.0, 24: 1.0, 25: 1.0, 26: 0.0, 27: 0.0, 28: 0.0, 29: 0.0, 30: 1.0, 31: 1.0, 32: 0.0, 33: 0.0, 34: 1.0, 35: 0.0, 36: 0.0, 37: 1.0, 38: 0.0, 39: 0.0, 40: 1.0, 41: 0.0, 42: 1.0, 43: 0.0, 44: 0.0, 45: 0.0, 46: 0.0, 47: 1.0, 48: 1.0, 49: 0.0, 50: 1.0, 51: 0.0, 52: 0.0, 53: 0.0, 54: 0.0, 55: 1.0, 56: 0.0, 57: 0.0, 58: 1.0, 59: 0.0, 60: 1.0, 61: 1.0, 62: 0.0, 63: 0.0, 64: 0.0, 65: 0.0, 66: 0.0, 67: 1.0, 68: 0.0, 69: 1.0, 70: 0.0, 71: 1.0, 72: 0.0, 73: 1.0, 74: 0.0, 75: 0.0, 76: 0.0, 77: 0.0, 78: 1.0, 79: 1.0, 80: 1.0, 81: 0.0, 82: 0.0, 83: 1.0, 84: 0.0, 85: 1.0, 86: 0.0, 87: 0.0, 88: 0.0, 89: 0.0, 90: 0.0, 91: 1.0, 92: 0.0, 93: 0.0, 94: 0.0, 95: 1.0];
discharge = [0: 0.0, 1: 0.0, 2: 0.0, 3: 1.0, 4: 0.0, 5: 0.0, 6: 0.0, 7: 0.0, 8: 0.0, 9: 0.0, 10: 0.0, 11: 0.0, 12: 0.0, 13: 0.0, 14: 1.0, 15: 0.0, 16: 0.0, 17: 0.0, 18: 0.0, 19: 0.0, 20: 1.0, 21: 1.0, 22: 0.0, 23: 0.0, 24: 0.0, 25: 0.0, 26: 0.0, 27: 0.0, 28: 1.0, 29: 1.0, 30: 0.0, 31: 0.0, 32: 0.0, 33: 0.821725638, 34: 0.0, 35: 0.0, 36: 1.0, 37: 0.0, 38: 0.0, 39: 1.0, 40: 0.0, 41: 1.0, 42: 0.0, 43: 0.0, 44: 0.0, 45: 1.0, 46: 1.0, 47: 0.0, 48: 0.0, 49: 1.0, 50: 0.0, 51: 1.0, 52: 0.0, 53: 0.0, 54: 1.0, 55: 0.0, 56: 1.0, 57: 1.0, 58: 0.0, 59: 0.0, 60: 0.0, 61: 0.0, 62: 1.0, 63: 0.0, 64: 0.0, 65: 0.0, 66: 0.0, 67: 0.0, 68: 1.0, 69: 0.0, 70: 0.0, 71: 0.0, 72: 0.108527778, 73: 0.0, 74: 0.0, 75: 1.0, 76: 0.0, 77: 0.0, 78: 0.0, 79: 0.0, 80: 0.0, 81: 1.0, 82: 0.0, 83: 0.0, 84: 1.0, 85: 0.0, 86: 0.0, 87: 0.0, 88: 0.0, 89: 1.0, 90: 1.0, 91: 0.0, 92: 0.0, 93: 0.0, 94: 0.0, 95: 0.0];
soc = [0: 3.719436, 1: 4.618692113, 2: 4.617768374, 3: 3.616844821, 4: 3.616121452, 5: 4.515398227, 6: 4.514495148, 7: 5.413592249, 8: 6.31250953, 9: 6.311247028, 10: 7.209984779, 11: 7.208542782, 12: 8.107101073000001, 13: 8.105479653, 14: 7.103858557, 15: 8.002437786, 16: 8.900837298000001, 17: 9.799057131, 18: 10.697097319, 19: 11.5949579, 20: 10.592638908, 21: 9.590520379999999, 22: 9.588602276, 23: 10.486684556, 24: 11.384587219, 25: 12.282310301, 26: 12.279853839, 27: 12.277397869, 28: 11.274942389, 29: 10.272687401, 30: 11.170632863, 31: 12.068398737, 32: 12.065985057, 33: 11.241846222, 34: 12.139597853, 35: 12.137169933, 36: 11.134742499, 37: 12.032515551, 38: 12.030109047, 39: 11.027703026, 40: 11.925497485, 41: 10.923112386, 42: 11.820927763, 43: 11.818563578, 44: 11.816199865, 45: 10.813836625, 46: 9.811673858000001, 47: 10.709711523, 48: 11.60756958, 49: 10.605248067, 50: 11.503127017, 51: 10.500826392, 52: 10.498726226, 53: 10.496626481, 54: 9.494527156, 55: 10.39262825, 56: 9.390549725, 57: 8.388671615, 58: 9.286993880000001, 59: 9.285136482, 60: 10.183279454, 61: 11.081242798, 62: 10.07902655, 63: 10.077010745, 64: 10.074995342, 65: 10.072980343, 66: 10.070965747, 67: 10.968951554, 68: 9.966757764, 69: 10.864764412, 70: 10.862591459, 71: 11.760418941, 72: 11.649539079, 73: 12.547209172, 74: 12.54469973, 75: 11.54219079, 76: 11.539882352, 77: 11.537574375, 78: 12.43526686, 79: 13.332779807, 80: 14.230113251, 81: 13.227267228, 82: 13.224621775, 83: 14.121976851, 84: 13.119152455, 85: 14.016528625, 86: 14.013725319, 87: 14.010922574, 88: 14.008120389, 89: 13.005318765, 90: 12.002717702, 91: 12.900317158, 92: 12.897737095, 93: 12.895157547, 94: 12.892578516, 95: 13.79];
cost = [0: 0.869203353, 1: 0.869020083, 2: 0.132794388, 3: 0.0, 4: 0.137987038, 5: 0.868103733, 6: 0.134321637, 7: 0.863399803, 8: 0.863521983, 9: 0.138109218, 10: 0.867370653, 11: 0.134627088, 12: 0.863705253, 13: 0.134443818, 14: 0.0, 15: 0.869508803, 16: 0.864010703, 17: 0.864316153, 18: 0.868592453, 19: 0.869508803, 20: 0.0, 21: 0.0, 22: 0.135054718, 23: 0.867492833, 24: 1.431347865, 25: 1.426351545, 26: 0.0, 27: 0.10477402, 28: 0.0, 29: 0.0, 30: 1.422782745, 31: 1.414693465, 32: 0.10417922, 33: 0.0, 34: 1.422425865, 35: 0.1158373, 36: 0.0, 37: 1.413503865, 38: 0.0, 39: 0.0, 40: 0.631817705, 41: 0.0, 42: 1.414098665, 43: 0.0, 44: 0.1140529, 45: 0.0, 46: 0.0, 47: 1.410767785, 48: 0.438864585, 49: 0.0, 50: 0.395801065, 51: 0.0, 52: 0.055393358, 53: 0.0, 54: 0.0, 55: 1.234032833, 56: 0.0, 57: 0.0, 58: 0.973361803, 59: 0.0, 60: 1.417667465, 61: 1.417667465, 62: 0.0, 63: 0.11857338, 64: 0.0, 65: 0.1057257, 66: 0.1045361, 67: 1.422782745, 68: 0.0, 69: 1.425756745, 70: 0.02566562, 71: 1.416477865, 72: 0.0, 73: 1.431585785, 74: 0.12321282, 75: 0.0, 76: 0.1134581, 77: 0.12321282, 78: 1.430990985, 79: 1.429801385, 80: 1.421236265, 81: 0.0, 82: 0.1217853, 83: 1.432537465, 84: 0.0, 85: 1.422425865, 86: 0.1140529, 87: 0.12380762, 88: 0.063579418, 89: 0.0, 90: 0.0, 91: 0.787648203, 92: 0.063457238, 93: 0.064068138, 94: 0.063457238, 95: 0.787953653];
earn = [0: 0.0, 1: 0.0, 2: 0.0, 3: 0.485906813, 4: 0.0, 5: 0.0, 6: 0.0, 7: 0.0, 8: 0.0, 9: 0.0, 10: 0.0, 11: 0.0, 12: 0.0, 13: 0.0, 14: 0.368628563, 15: 0.0, 16: 0.0, 17: 0.0, 18: 0.0, 19: 0.0, 20: 0.405952662, 21: 0.4136898, 22: 0.0, 23: 0.0, 24: 0.0, 25: 0.0, 26: 0.005560912, 27: 0.0, 28: 0.513969855, 29: 0.656111115, 30: 0.0, 31: 0.0, 32: 0.0, 33: 0.650704721, 34: 0.0, 35: 0.0, 36: 0.33894371, 37: 0.0, 38: 0.18969205, 39: 0.39874175, 40: 0.0, 41: 0.126095288, 42: 0.0, 43: 0.021716888, 44: -0.0, 45: -0.025506613, 46: -0.084691063, 47: 0.0, 48: 0.0, 49: -0.00187071, 50: -0.0, 51: 0.0130146, 52: 0.0, 53: 0.004904707, 54: 0.009539250000000001, 55: 0.0, 56: 0.156510635, 57: 0.101079778, 58: 0.0, 59: 0.148769275, 60: 0.0, 61: 0.0, 62: 0.387821525, 63: 0.0, 64: 0.253146595, 65: 0.0, 66: 0.0, 67: 0.0, 68: 0.6187676600000001, 69: 0.0, 70: 0.0, 71: 0.0, 72: 0.0, 73: 0.0, 74: 0.0, 75: 0.623041875, 76: 0.0, 77: 0.0, 78: 0.0, 79: 0.0, 80: 0.0, 81: 0.511661038, 82: 0.0, 83: 0.0, 84: 0.407530673, 85: 0.0, 86: 0.0, 87: 0.0, 88: 0.0, 89: 0.372780023, 90: 0.366453, 91: 0.0, 92: 0.0, 93: 0.0, 94: 0.0, 95: 0.0];
total_cost = 46.312303388;
total_earn = 8.438666374;
% _objective = 37.873637014;