production = [0: 0.0, 1: 0.0, 2: 0.0, 3: 0.0, 4: 0.0, 5: 0.0, 6: 0.0, 7: 0.0, 8: 0.0, 9: 0.0, 10: 0.0, 11: 0.0, 12: 0.0, 13: 0.0, 14: 0.0, 15: 0.0, 16: 0.0, 17: 0.0, 18: 0.0, 19: 0.0, 20: 0.0, 21: 0.0, 22: 0.0, 23: 0.0, 24: 0.0, 25: 0.0283, 26: 0.0, 27: 0.0843, 28: 0.11, 29: 0.0, 30: 0.218, 31: 0.0, 32: 0.631, 33: 0.7712, 34: 0.0, 35: 0.0, 36: 0.0, 37: 0.0, 38: 0.0, 39: 1.362, 40: 1.09039375, 41: 0.0, 42: 1.094, 43: 0.0, 44: 1.1018, 45: 0.0, 46: 0.0, 47: 0.0575, 48: 0.0602, 49: 0.0, 50: 0.0525, 51: 0.0473, 52: 0.0638, 53: 0.0, 54: 0.0, 55: 0.0, 56: 0.0, 57: 0.0, 58: 1.221, 59: 0.0, 60: 1.0217, 61: 0.957, 62: 0.7562, 63: 0.712, 64: 0.5952, 65: 0.4165, 66: 0.3402, 67: 0.1988, 68: 0.0, 69: 0.0825, 70: 0.0435, 71: 0.0, 72: 0.0, 73: 0.0, 74: 0.0, 75: 0.0, 76: 0.0, 77: 0.0, 78: 0.0, 79: 0.0, 80: 0.0, 81: 0.0, 82: 0.0, 83: 0.0, 84: 0.0, 85: 0.0, 86: 0.0, 87: 0.0, 88: 0.0, 89: 0.0, 90: 0.0, 91: 0.0, 92: 0.0, 93: 0.0, 94: 0.0, 95: 0.0, 96: 0.0, 97: 0.0, 98: 0.0, 99: 0.0, 100: 0.0, 101: 0.0, 102: 0.0, 103: 0.0, 104: 0.0, 105: 0.0, 106: 0.0, 107: 0.0, 108: 0.0, 109: 0.0, 110: 0.0, 111: 0.0, 112: 0.0, 113: 0.0, 114: 0.0, 115: 0.0, 116: 0.0, 117: 0.0, 118: 0.0, 119: 0.0, 120: 0.0, 121: 0.0, 122: 0.0625, 123: 0.103, 124: 0.1525, 125: 0.0, 126: 0.0, 127: 0.0, 128: 0.4485, 129: 0.0, 130: 0.0, 131: 1.093, 132: 0.0, 133: 0.0, 134: 1.3702, 135: 1.3702, 136: 0.0, 137: 1.3017, 138: 1.486, 139: 1.5023, 140: 0.0, 141: 1.7532, 142: 0.09339375, 143: 0.0, 144: 1.8507, 145: 1.8308, 146: 1.8587, 147: 0.0, 148: 0.0, 149: 1.6482, 150: 0.0, 151: 1.489, 152: 1.437, 153: 1.3275, 154: 0.0, 155: 0.0, 156: 0.0, 157: 0.9038, 158: 0.6735, 159: 0.7117, 160: 0.0, 161: 0.5158, 162: 0.0, 163: 0.0, 164: 0.1035, 165: 0.0, 166: 0.0432, 167: 0.024, 168: 0.0047, 169: 0.0003, 170: 0.0, 171: 0.0, 172: 0.0, 173: 0.0, 174: 0.0, 175: 0.0, 176: 0.0, 177: 0.0, 178: 0.0, 179: 0.0, 180: 0.0, 181: 0.0, 182: 0.0, 183: 0.0, 184: 0.0, 185: 0.0, 186: 0.0, 187: 0.0, 188: 0.0, 189: 0.0, 190: 0.0, 191: 0.0];
buy = [0: 0.915255583, 1: 0.0, 2: 0.0, 3: 0.0, 4: 0.31509375, 5: 0.8433937500000001, 6: 1.34259375, 7: 0.0, 8: 1.26729375, 9: 0.0, 10: 1.27609375, 11: 0.27889375, 12: 0.0, 13: 1.28109375, 14: 1.27939375, 15: 1.47239375, 16: 0.0, 17: 1.24889375, 18: 1.23959375, 19: 0.0, 20: 1.23059375, 21: 0.0, 22: 0.23029375, 23: 0.262684644, 24: 1.09089375, 25: 0.0, 26: 0.09809374999999999, 27: 1.00979375, 28: 0.0, 29: 0.09479375, 30: 0.0, 31: 0.09189375, 32: 0.0, 33: 0.0, 34: 0.0, 35: 0.09389375, 36: 1.09479375, 37: 0.09259375, 38: 0.0, 39: 0.0, 40: 0.0, 41: 0.0, 42: 0.0, 43: 1.09579375, 44: 0.0, 45: 0.09139375, 46: 0.09709375000000001, 47: 1.03439375, 48: 0.03789375, 49: 0.09709375000000001, 50: 1.03789375, 51: 1.04459375, 52: 1.03049375, 53: 0.0, 54: 0.868371943, 55: 0.0, 56: 0.41739375, 57: 0.0, 58: 0.16959375, 59: 0.0, 60: 0.0, 61: 0.18429375, 62: 0.0, 63: 0.0, 64: 0.54559375, 65: 0.0, 66: 0.79569375, 67: 0.93879375, 68: 1.13929375, 69: 0.05529375, 70: 1.08279375, 71: 0.0, 72: 0.0, 73: 0.0, 74: 1.12809375, 75: 1.08359375, 76: 1.08009375, 77: 0.0, 78: 1.08229375, 79: 0.0, 80: 0.0, 81: 0.0, 82: 0.10089375, 83: 0.0, 84: 0.0, 85: 1.10009375, 86: 0.0, 87: 1.09909375, 88: 1.10009375, 89: 1.26529375, 90: 0.32279375, 91: 1.32109375, 92: 0.0, 93: 0.28359375, 94: 0.27959375, 95: 0.28089375, 96: 1.27009375, 97: 0.23109375, 98: 1.22729375, 99: 0.0, 100: 1.24289375, 101: 1.23509375, 102: 1.21959375, 103: 1.23659375, 104: 1.22059375, 105: 0.22089375, 106: 0.0, 107: 1.22009375, 108: 0.0, 109: 0.0, 110: 1.22189375, 111: 1.22289375, 112: 0.51129375, 113: 0.54259375, 114: 1.57829375, 115: 0.0, 116: 1.10059375, 117: 0.0, 118: 1.09609375, 119: 0.10039375, 120: 1.09809375, 121: 0.0, 122: 1.01959375, 123: 0.97779375, 124: 0.0, 125: 0.08109375000000001, 126: 1.09409375, 127: 0.09429375, 128: 0.0, 129: 1.09259375, 130: 0.09239375, 131: 0.0, 132: 1.09259375, 133: 0.09729375, 134: 0.0, 135: 0.0, 136: 1.09189375, 137: 0.0, 138: 0.0, 139: 0.0, 140: 0.09509375, 141: 0.0, 142: 0.0, 143: 0.0, 144: 0.0, 145: 0.0, 146: 0.0, 147: 1.08829375, 148: 1.08829375, 149: 0.0, 150: 1.38629375, 151: 0.0, 152: 0.0, 153: 0.04209375, 154: 0.37059375, 155: 0.0, 156: 1.09559375, 157: 0.0, 158: 0.0, 159: 0.38389375, 160: 0.09389375, 161: 0.0, 162: 0.09039374999999999, 163: 1.09209375, 164: 0.0, 165: 0.0, 166: 0.0, 167: 0.0, 168: 0.0, 169: 0.08229375, 170: 1.08309375, 171: 0.08229375, 172: 0.08179375, 173: 0.0, 174: 1.08179375, 175: 1.08209375, 176: 0.0, 177: 1.08129375, 178: 1.08559375, 179: 1.08459375, 180: 1.10059375, 181: 0.0, 182: 0.0, 183: 1.10059375, 184: 0.0, 185: 0.0, 186: 0.32829375, 187: 1.32809375, 188: 0.0, 189: 0.0, 190: 0.28829375, 191: 0.28609375];
sell = [0: 0.0, 1: 0.53640625, 2: 0.53690625, 3: 0.0, 4: 0.0, 5: 0.0, 6: 0.0, 7: 0.62710625, 8: 0.0, 9: 0.62240625, 10: 0.0, 11: 0.0, 12: 0.62060625, 13: 0.0, 14: 0.0, 15: 0.0, 16: 0.64940625, 17: 0.0, 18: 0.0, 19: 0.66840625, 20: 0.0, 21: 0.66890625, 22: 0.0, 23: 0.0, 24: 0.0, 25: 0.83350625, 26: 0.0, 27: 0.0, 28: 0.9147062500000001, 29: 0.0, 30: 0.12290625, 31: 0.0, 32: 0.53520625, 33: 0.67830625, 34: 0.80540625, 35: 0.0, 36: 0.0, 37: 0.0, 38: 0.80940625, 39: 2.17240625, 40: 0.0, 41: 0.80490625, 42: 1.00340625, 43: 0.0, 44: 1.820136059, 45: 0.0, 46: 0.0, 47: 0.0, 48: 0.0, 49: 0.0, 50: 0.0, 51: 0.0, 52: 0.0, 53: 0.55590625, 54: 0.0, 55: 0.49410625, 56: 0.0, 57: 0.51340625, 58: 0.0, 59: 0.53590625, 60: 0.8814062499999999, 61: 0.0, 62: 0.61440625, 63: 0.57020625, 64: 0.0, 65: 0.28010625, 66: 0.0, 67: 0.0, 68: 0.0, 69: 0.0, 70: 0.0, 71: 0.77320625, 72: 0.77220625, 73: 0.77270625, 74: 0.0, 75: 0.0, 76: 0.0, 77: 0.81740625, 78: 0.0, 79: 0.81740625, 80: 0.81770625, 81: 0.80090625, 82: 0.0, 83: 0.79860625, 84: 0.0, 85: 0.0, 86: 0.79990625, 87: 0.0, 88: 0.0, 89: 0.0, 90: 0.0, 91: 0.0, 92: 0.57840625, 93: 0.0, 94: 0.0, 95: 0.0, 96: 0.0, 97: 0.0, 98: 0.0, 99: 0.67290625, 100: 0.0, 101: 0.0, 102: 0.0, 103: 0.0, 104: 0.0, 105: 0.0, 106: 0.68060625, 107: 0.0, 108: 0.0, 109: 0.67740625, 110: 0.0, 111: 0.0, 112: 0.0, 113: 0.0, 114: 0.0, 115: 0.79810625, 116: 0.0, 117: 0.80370625, 118: 0.0, 119: 0.0, 120: 0.0, 121: 0.80270625, 122: 0.0, 123: 0.0, 124: 0.97070625, 125: 0.0, 126: 0.0, 127: 0.0, 128: 1.25540625, 129: 0.0, 130: 0.0, 131: 0.9994062500000001, 132: 0.0, 133: 0.0, 134: 2.17960625, 135: 2.17960625, 136: 0.0, 137: 1.404523004, 138: 0.39540625, 139: 1.41040625, 140: 0.0, 141: 2.55840625, 142: 0.0, 143: 0.81320625, 144: 2.66410625, 145: 2.64470625, 146: 2.67160625, 147: 0.0, 148: 0.0, 149: 2.25390625, 150: 0.0, 151: 1.99520625, 152: 1.93840625, 153: 0.0, 154: 0.0, 155: 0.55740625, 156: 0.0, 157: 1.70920625, 158: 0.57720625, 159: 0.0, 160: 0.0, 161: 0.42320625, 162: 0.0, 163: 0.0, 164: 0.91040625, 165: 0.0, 166: 0.85130625, 167: 0.83060625, 168: 0.82310625, 169: 0.0, 170: 0.0, 171: 0.0, 172: 0.0, 173: 0.81660625, 174: 0.0, 175: 0.0, 176: 0.81870625, 177: 0.0, 178: 0.0, 179: 0.0, 180: 0.0, 181: 0.80160625, 182: 0.0, 183: 0.0, 184: 0.80110625, 185: 0.64070625, 186: 0.0, 187: 0.0, 188: 0.57370625, 189: 0.5709062499999999, 190: 0.0, 191: 0.0];
charge = [0: 0.505661833, 1: 0.0, 2: 0.0, 3: 0.0, 4: 0.0, 5: 0.0, 6: 1.0, 7: 0.0, 8: 1.0, 9: 0.0, 10: 1.0, 11: 0.0, 12: 0.0, 13: 1.0, 14: 1.0, 15: 1.0, 16: 0.0, 17: 1.0, 18: 1.0, 19: 0.0, 20: 1.0, 21: 0.0, 22: 0.0, 23: 0.030890894, 24: 1.0, 25: 0.0, 26: 0.0, 27: 1.0, 28: 0.0, 29: 0.0, 30: 0.0, 31: 0.0, 32: 0.0, 33: 0.0, 34: 0.0, 35: 0.0, 36: 1.0, 37: 0.0, 38: 0.0, 39: 0.0, 40: 1.0, 41: 0.0, 42: 0.0, 43: 1.0, 44: 0.0, 45: 0.0, 46: 0.0, 47: 1.0, 48: 0.0, 49: 0.0, 50: 1.0, 51: 1.0, 52: 1.0, 53: 0.0, 54: 0.470978193, 55: 0.0, 56: 0.0, 57: 0.0, 58: 1.0, 59: 0.0, 60: 0.0, 61: 1.0, 62: 0.0, 63: 0.0, 64: 1.0, 65: 0.0, 66: 1.0, 67: 1.0, 68: 1.0, 69: 0.0, 70: 1.0, 71: 0.0, 72: 0.0, 73: 0.0, 74: 1.0, 75: 1.0, 76: 1.0, 77: 0.0, 78: 1.0, 79: 0.0, 80: 0.0, 81: 0.0, 82: 0.0, 83: 0.0, 84: 0.0, 85: 1.0, 86: 0.0, 87: 1.0, 88: 1.0, 89: 1.0, 90: 0.0, 91: 1.0, 92: 0.0, 93: 0.0, 94: 0.0, 95: 0.0, 96: 1.0, 97: 0.0, 98: 1.0, 99: 0.0, 100: 1.0, 101: 1.0, 102: 1.0, 103: 1.0, 104: 1.0, 105: 0.0, 106: 0.0, 107: 1.0, 108: 0.0, 109: 0.0, 110: 1.0, 111: 1.0, 112: 0.0, 113: 0.0, 114: 1.0, 115: 0.0, 116: 1.0, 117: 0.0, 118: 1.0, 119: 0.0, 120: 1.0, 121: 0.0, 122: 1.0, 123: 1.0, 124: 0.0, 125: 0.0, 126: 1.0, 127: 0.0, 128: 0.0, 129: 1.0, 130: 0.0, 131: 0.0, 132: 1.0, 133: 0.0, 134: 0.0, 135: 0.0, 136: 1.0, 137: 0.0, 138: 1.0, 139: 0.0, 140: 0.0, 141: 0.0, 142: 0.0, 143: 0.0, 144: 0.0, 145: 0.0, 146: 0.0, 147: 1.0, 148: 1.0, 149: 0.0, 150: 1.0, 151: 0.0, 152: 0.0, 153: 1.0, 154: 0.0, 155: 0.0, 156: 1.0, 157: 0.0, 158: 0.0, 159: 1.0, 160: 0.0, 161: 0.0, 162: 0.0, 163: 1.0, 164: 0.0, 165: 0.0, 166: 0.0, 167: 0.0, 168: 0.0, 169: 0.0, 170: 1.0, 171: 0.0, 172: 0.0, 173: 0.0, 174: 1.0, 175: 1.0, 176: 0.0, 177: 1.0, 178: 1.0, 179: 1.0, 180: 1.0, 181: 0.0, 182: 0.0, 183: 1.0, 184: 0.0, 185: 0.0, 186: 0.0, 187: 1.0, 188: 0.0, 189: 0.0, 190: 0.0, 191: 0.0];
discharge = [0: 0.0, 1: 1.0, 2: 1.0, 3: 0.355659722, 4: 0.0, 5: 0.0, 6: 0.0, 7: 1.0, 8: 0.0, 9: 1.0, 10: 0.0, 11: 0.0, 12: 1.0, 13: 0.0, 14: 0.0, 15: 0.0, 16: 1.0, 17: 0.0, 18: 0.0, 19: 1.0, 20: 0.0, 21: 1.0, 22: 0.0, 23: 0.0, 24: 0.0, 25: 1.0, 26: 0.0, 27: 0.0, 28: 1.0, 29: 0.0, 30: 0.0, 31: 0.0, 32: 0.0, 33: 0.0, 34: 1.0, 35: 0.0, 36: 0.0, 37: 0.0, 38: 1.0, 39: 1.0, 40: 0.0, 41: 1.0, 42: 0.0, 43: 0.0, 44: 0.8976997880000001, 45: 0.0, 46: 0.0, 47: 0.0, 48: 0.0, 49: 0.0, 50: 0.0, 51: 0.0, 52: 0.0, 53: 1.0, 54: 0.0, 55: 1.0, 56: 0.0, 57: 1.0, 58: 0.0, 59: 1.0, 60: 0.0, 61: 0.0, 62: 0.0, 63: 0.0, 64: 0.0, 65: 0.0, 66: 0.0, 67: 0.0, 68: 0.0, 69: 0.0, 70: 0.0, 71: 1.0, 72: 1.0, 73: 1.0, 74: 0.0, 75: 0.0, 76: 0.0, 77: 1.0, 78: 0.0, 79: 1.0, 80: 1.0, 81: 1.0, 82: 0.0, 83: 1.0, 84: 0.110659722, 85: 0.0, 86: 1.0, 87: 0.0, 88: 0.0, 89: 0.0, 90: 0.0, 91: 0.0, 92: 1.0, 93: 0.0, 94: 0.0, 95: 0.0, 96: 0.0, 97: 0.0, 98: 0.0, 99: 1.0, 100: 0.0, 101: 0.0, 102: 0.0, 103: 0.0, 104: 0.0, 105: 0.0, 106: 1.0, 107: 0.0, 108: 0.246215278, 109: 1.0, 110: 0.0, 111: 0.0, 112: 0.0, 113: 0.0, 114: 0.0, 115: 1.0, 116: 0.0, 117: 1.0, 118: 0.0, 119: 0.0, 120: 0.0, 121: 1.0, 122: 0.0, 123: 0.0, 124: 1.0, 125: 0.0, 126: 0.0, 127: 0.0, 128: 1.0, 129: 0.0, 130: 0.0, 131: 0.0, 132: 0.0, 133: 0.0, 134: 1.0, 135: 1.0, 136: 0.0, 137: 0.214685282, 138: 0.0, 139: 0.0, 140: 0.0, 141: 1.0, 142: 0.0, 143: 1.0, 144: 1.0, 145: 1.0, 146: 1.0, 147: 0.0, 148: 0.0, 149: 1.0, 150: 0.0, 151: 1.0, 152: 1.0, 153: 0.0, 154: 0.0, 155: 1.0, 156: 0.0, 157: 1.0, 158: 0.0, 159: 0.0, 160: 0.0, 161: 0.0, 162: 0.0, 163: 0.0, 164: 1.0, 165: 0.104326389, 166: 1.0, 167: 1.0, 168: 1.0, 169: 0.0, 170: 0.0, 171: 0.0, 172: 0.0, 173: 1.0, 174: 0.0, 175: 0.0, 176: 1.0, 177: 0.0, 178: 0.0, 179: 0.0, 180: 0.0, 181: 1.0, 182: 0.112659722, 183: 0.0, 184: 1.0, 185: 1.0, 186: 0.0, 187: 0.0, 188: 1.0, 189: 1.0, 190: 0.0, 191: 0.0];
soc = [0: 5.314123649, 1: 4.313060825, 2: 3.312198212, 3: 2.95587605, 4: 2.955284875, 5: 2.954693818, 6: 3.85410288, 7: 2.853332059, 8: 3.752761393, 9: 2.75201084, 10: 3.651460438, 11: 3.650730146, 12: 2.65, 13: 3.54947, 14: 4.448760106, 15: 5.347870354, 16: 4.34680078, 17: 5.24593142, 18: 6.144882233, 19: 5.143653257, 20: 6.042624526, 21: 5.041416001, 22: 5.040407718, 23: 5.067201442, 24: 5.966188001, 25: 4.964994764, 26: 4.964001765, 27: 5.863008964, 28: 4.861836363, 29: 4.860863995, 30: 4.859891822, 31: 4.858919844, 32: 4.85794806, 33: 4.856976471, 34: 3.856005075, 35: 3.855233874, 36: 4.754462827, 37: 4.753511935, 38: 3.752561232, 39: 2.75181072, 40: 3.651260358, 41: 2.650530106, 42: 2.65, 43: 3.54947, 44: 2.651060318, 45: 2.650530106, 46: 2.65, 47: 3.54947, 48: 3.548760106, 49: 3.548050354, 50: 4.447340744, 51: 5.346451276, 52: 6.245381986, 53: 5.244132909, 54: 5.666964457, 55: 4.665831064, 56: 4.664897897, 57: 3.663964918, 58: 4.563232125, 59: 3.562319478, 60: 3.561607015, 61: 4.460894693, 62: 4.460002514, 63: 4.459110514, 64: 5.358218692, 65: 5.357147048, 66: 6.256075618, 67: 7.154824403, 68: 8.053393438000001, 69: 8.05178276, 70: 8.950172403, 71: 7.948382369, 72: 6.946792692, 73: 5.945403334, 74: 6.844214253, 75: 7.74284541, 76: 8.641296841000001, 77: 7.639568582, 78: 8.538040668000001, 79: 7.53633306, 80: 6.534825793, 81: 5.533518828, 82: 5.532412124, 83: 4.531305642, 84: 4.419739659, 85: 5.318855711, 86: 4.31779194, 87: 5.216928381, 88: 6.115884995, 89: 7.014661818, 90: 7.013258886, 91: 7.911856234, 92: 6.910273863, 93: 6.908891808, 94: 6.90751003, 95: 6.906128528, 96: 7.804747302, 97: 7.803186353, 98: 8.701625716000001, 99: 7.69988539, 100: 8.598345413000001, 101: 9.496625743999999, 102: 10.394726419, 103: 11.292647474, 104: 12.190388944, 105: 12.187950866, 106: 11.185513276, 107: 12.083276174, 108: 11.834644241, 109: 10.832277312, 110: 11.730110856, 111: 12.627764834, 112: 12.625239281, 113: 12.622714233, 114: 13.52018969, 115: 12.517485653, 116: 13.414982155, 117: 12.412299159, 118: 13.309816699, 119: 13.307154736, 120: 14.204493305, 121: 13.201652406, 122: 14.099012076, 123: 14.996192273, 124: 13.993193035, 125: 13.990394396, 126: 14.887596317, 127: 14.884618798, 128: 13.881641874, 129: 14.778865546, 130: 14.775909773, 131: 14.772954591, 132: 15.67, 133: 15.666866, 134: 14.663732627, 135: 13.66079988, 136: 14.55806772, 137: 14.340470825, 138: 15.237602731, 139: 15.23455521, 140: 15.231508299, 141: 14.228461997, 142: 14.225616305, 143: 13.222771182, 144: 12.220126628, 145: 11.217682602, 146: 10.215439066, 147: 11.113395978, 148: 12.011173299, 149: 11.008771064, 150: 11.90656931, 151: 10.904187996, 152: 9.902007158, 153: 10.800026757, 154: 10.797866752, 155: 9.795707178000001, 156: 10.693748037, 157: 9.691609287, 158: 9.689670964999999, 159: 10.587733031, 160: 10.585615485, 161: 10.583498361, 162: 10.581381662, 163: 11.479265385, 164: 10.476969532, 165: 10.37054775, 166: 9.368473639999999, 167: 8.366599945000001, 168: 7.364926625, 169: 7.36345364, 170: 8.261980949, 171: 8.260328553000001, 172: 8.258676487000001, 173: 7.257024752, 174: 8.155573347000001, 175: 9.053942232000001, 176: 8.052131444, 177: 8.950521018, 178: 9.848730914000001, 179: 10.746761167, 180: 11.644611815, 181: 10.642282893, 182: 10.527494714, 183: 11.425389215, 184: 10.423104137, 185: 9.421019515999999, 186: 9.419135312, 187: 10.317251485, 188: 9.315188035, 189: 8.313324997, 190: 8.311662331999999, 191: 8.31];
cost = [0: 0.618887823, 1: 0.0, 2: 0.0, 3: 0.0, 4: 0.192490772, 5: 0.515229242, 6: 0.938368687, 7: 0.0, 8: 0.892367917, 9: 0.0, 10: 0.897743837, 11: 0.170376192, 12: 0.0, 13: 0.900798337, 14: 0.899759807, 15: 1.017663507, 16: 0.0, 17: 0.881127357, 18: 0.875445987, 19: 0.0, 20: 0.869947887, 21: 0.0, 22: 0.140686452, 23: 0.164124678, 24: 1.41590537, 25: 0.0, 26: 0.116692325, 27: 1.31942881, 28: 0.0, 29: 0.112766645, 30: 0.0, 31: 0.109316805, 32: 0.0, 33: 0.0, 34: 0.0, 35: 0.111696005, 36: 1.42054481, 37: 0.110149525, 38: 0.0, 39: 0.0, 40: 0.118178165, 41: 0.0, 42: 0.0, 43: 1.42173441, 44: 0.0, 45: 0.108722005, 46: 0.115502725, 47: 1.34869297, 48: 0.045078405, 49: 0.115502725, 50: 1.35285657, 51: 1.36082689, 52: 0.747706797, 53: 0.0, 54: 0.586147759, 55: 0.0, 56: 0.254985842, 57: 0.0, 58: 0.221782987, 59: 0.0, 60: 0.0, 61: 0.33741401, 62: 0.0, 63: 0.0, 64: 0.76721649, 65: 0.0, 66: 1.06473545, 67: 1.23496721, 68: 1.47348201, 69: 0.065777445, 70: 1.40626961, 71: 0.0, 72: 0.0, 73: 0.0, 74: 1.46015849, 75: 1.40722129, 76: 1.40305769, 77: 0.0, 78: 1.40567481, 79: 0.0, 80: 0.0, 81: 0.0, 82: 0.120023205, 83: 0.0, 84: 0.0, 85: 1.42684969, 86: 0.0, 87: 1.42566009, 88: 0.790225437, 89: 0.891146117, 90: 0.197194702, 91: 0.925234337, 92: 0.0, 93: 0.173247422, 94: 0.170803822, 95: 0.171597992, 96: 0.894078437, 97: 0.141175172, 98: 0.8679319170000001, 99: 0.0, 100: 0.877461957, 101: 0.872696937, 102: 0.863227987, 103: 0.873613287, 104: 0.863838887, 105: 0.134943992, 106: 0.0, 107: 0.863533437, 108: 0.0, 109: 0.0, 110: 0.864633057, 111: 0.865243957, 112: 0.312349352, 113: 0.331470522, 114: 1.082357817, 115: 0.0, 116: 0.790530887, 117: 0.0, 118: 0.787781837, 119: 0.061330542, 120: 1.42447049, 121: 0.0, 122: 1.33108689, 123: 1.28136161, 124: 0.0, 125: 0.096469125, 126: 1.41971209, 127: 0.112171845, 128: 0.0, 129: 1.41792769, 130: 0.109911605, 131: 0.0, 132: 1.41792769, 133: 0.115740645, 134: 0.0, 135: 0.0, 136: 1.41709497, 137: 0.0, 138: 0.118178165, 139: 0.0, 140: 0.113123525, 141: 0.0, 142: 0.0, 143: 0.0, 144: 0.0, 145: 0.0, 146: 0.0, 147: 1.41281241, 148: 0.783016817, 149: 0.0, 150: 0.965065017, 151: 0.0, 152: 0.0, 153: 0.143893237, 154: 0.226395722, 155: 0.0, 156: 1.42149649, 157: 0.0, 158: 0.0, 159: 0.5748581699999999, 160: 0.111696005, 161: 0.0, 162: 0.107532405, 163: 1.41733289, 164: 0.0, 165: 0.0, 166: 0.0, 167: 0.0, 168: 0.0, 169: 0.097896645, 170: 1.40662649, 171: 0.097896645, 172: 0.097301845, 173: 0.0, 174: 1.40508001, 175: 1.40543689, 176: 0.0, 177: 1.40448521, 178: 1.40960049, 179: 1.40841089, 180: 1.42744449, 181: 0.0, 182: 0.0, 183: 1.42744449, 184: 0.0, 185: 0.0, 186: 0.200554652, 187: 0.929510637, 188: 0.0, 189: 0.0, 190: 0.176118652, 191: 0.174774672];
earn = [0: 0.0, 1: 0.28579725, 2: 0.286171031, 3: 0.0, 4: 0.0, 5: 0.0, 6: 0.0, 7: 0.326847778, 8: 0.0, 9: 0.325145025, 10: 0.0, 11: 0.0, 12: 0.327307736, 13: 0.0, 14: 0.0, 15: 0.0, 16: 0.343860609, 17: 0.0, 18: 0.0, 19: 0.357797866, 20: 0.0, 21: 0.387898734, 22: 0.0, 23: 0.0, 24: 0.0, 25: 0.6262132459999999, 26: 0.0, 27: 0.0, 28: 0.696914692, 29: 0.0, 30: 0.089217647, 31: 0.0, 32: 0.334932071, 33: 0.377613089, 34: 0.405763669, 35: 0.0, 36: 0.0, 37: 0.0, 38: 0.209393397, 39: 0.2711163, 40: 0.0, 41: -0.013602916, 42: -0.105357656, 43: 0.0, 44: -0.04695951, 45: 0.0, 46: 0.0, 47: 0.0, 48: 0.0, 49: 0.0, 50: 0.0, 51: 0.0, 52: 0.0, 53: -0.007893869, 54: 0.0, 55: -0.000247053, 56: 0.0, 57: 0.007495731, 58: 0.0, 59: 0.025294775, 60: 0.278612516, 61: 0.0, 62: 0.304253975, 63: 0.321425263, 64: 0.0, 65: 0.165850911, 66: 0.0, 67: 0.0, 68: 0.0, 69: 0.0, 70: 0.0, 71: 0.718231286, 72: 0.74502459, 73: 0.770619943, 74: 0.0, 75: 0.0, 76: 0.0, 77: 0.789614437, 78: 0.0, 79: 0.720134906, 80: 0.685401379, 81: 0.649054425, 82: 0.0, 83: 0.620676778, 84: 0.0, 85: 0.0, 86: 0.561134234, 87: 0.0, 88: 0.0, 89: 0.0, 90: 0.0, 91: 0.0, 92: 0.3664782, 93: 0.0, 94: 0.0, 95: 0.0, 96: 0.0, 97: 0.0, 98: 0.0, 99: 0.39297725, 100: 0.0, 101: 0.0, 102: 0.0, 103: 0.0, 104: 0.0, 105: 0.0, 106: 0.404484294, 107: 0.0, 108: 0.0, 109: 0.404750234, 110: 0.0, 111: 0.0, 112: 0.0, 113: 0.0, 114: 0.0, 115: 0.518050767, 116: 0.0, 117: 0.551101376, 118: 0.0, 119: 0.0, 120: 0.0, 121: 0.68968521, 122: 0.0, 123: 0.0, 124: 0.887807936, 125: 0.0, 126: 0.0, 127: 0.0, 128: 1.006459191, 129: 0.0, 130: 0.0, 131: 0.540378959, 132: 0.0, 133: 0.0, 134: 1.012209143, 135: 0.839148406, 136: 0.0, 137: 0.36938955, 138: 0.081770013, 139: 0.220164416, 140: 0.0, 141: 0.105150497, 142: 0.0, 143: 0.010246399, 144: 0.022644903, 145: 0.035439064, 146: 0.040074094, 147: 0.0, 148: 0.0, 149: 0.118330078, 150: 0.0, 151: 0.273343256, 152: 0.580552672, 153: 0.0, 154: 0.0, 155: 0.242861903, 156: 0.0, 157: 0.871011505, 158: 0.310190639, 159: 0.0, 160: 0.0, 161: 0.273433558, 162: 0.0, 163: 0.0, 164: 0.68899545, 165: 0.0, 166: 0.752214203, 167: 0.807681518, 168: 0.87578505, 169: 0.0, 170: 0.0, 171: 0.0, 172: 0.0, 173: 0.915415606, 174: 0.0, 175: 0.0, 176: 0.770402581, 177: 0.0, 178: 0.0, 179: 0.0, 180: 0.0, 181: 0.618118579, 182: 0.0, 183: 0.0, 184: 0.59345951, 185: 0.469189187, 186: 0.0, 187: 0.0, 188: 0.401938599, 189: 0.391127872, 190: 0.0, 191: 0.0];
total_cost = 83.763252561;
total_earn = 31.293215951;
