production = [0.0, 0.0, 0.0, 0.0, 0.0, 0.0, 0.0, 0.0, 0.0, 0.0, 0.0, 0.0, 0.0, 0.0, 0.0, 0.0, 0.0, 0.0, 0.0, 0.0, 0.0, 0.000208, 8.2e-05, 0.002202, 0.010648, 0.013127, 0.030418, 0.057487, 0.068685, 0.062356, 0.208071, 0.006888, 0.14749, 0.056245, 0.507347, 0.338564, 0.546664, 1.104344, 0.337532, 0.829335, 1.053252, 0.730666, 0.48074, 0.323354, 0.022314, 0.443132, 0.6864209999999999, 0.047069, 0.066772, 0.020775, 0.025045, 0.013227, 0.078058, 0.224401, 0.157328, 0.357959, 0.06905799999999999, 0.161895, 0.12059, 0.014327, 0.118229, 0.334672, 0.21443, 0.355638, 0.614389, 0.015483, 0.017429, 0.020292, 0.099717, 0.048158, 0.044181, 0.005547, 0.007572, 0.000418, 1.3e-05, 0.0, 0.0, 0.0, 0.0, 0.0, 0.0, 0.0, 0.0, 0.0, 0.0, 0.0, 0.0, 0.0, 0.0, 0.0, 0.0, 0.0, 0.0, 0.0, 0.0, 0.0, 0.0, 0.0, 0.0, 0.0, 0.0, 0.0, 0.0, 0.0, 0.0, 0.0, 0.0, 0.0, 0.0, 0.0, 0.0, 0.0, 0.0, 0.0, 0.0, 0.0, 0.0, 0.0, 1.4e-05, 0.001395, 0.007239, 0.008090999999999999, 0.002063, 0.084103, 0.044227, 0.126087, 0.004389, 0.01892, 0.407113, 0.406099, 0.241108, 0.367445, 0.117556, 0.901709, 0.162101, 0.5011640000000001, 0.746656, 0.135365, 0.580913, 0.260463, 0.242602, 1.710758, 0.911861, 0.5414600000000001, 0.538889, 0.64301, 0.017962, 0.108074, 0.434037, 0.719058, 0.827635, 0.915081, 0.262528, 0.21908, 0.346379, 0.289299, 0.218649, 0.227748, 0.118124, 0.003414, 0.195938, 0.17213, 0.148259, 0.182154, 0.093143, 0.053134, 0.009173000000000001, 0.015415, 0.011203, 0.000287, 0.0, 0.000225, 0.0, 0.0, 0.0, 0.0, 0.0, 0.0, 0.0, 0.0, 0.0, 0.0, 0.0, 0.0, 0.0, 0.0, 0.0, 0.0, 0.0, 0.0, 0.0, 0.0];
buy = [745.5928730000001, 929.737679, 481.946545, 848.967283, 370.826995, 698.895315, 795.054482, 177.436304, 451.60126, 828.535986, 928.0722940000001, 174.720432, 3.507255, 290.677044, 562.622791, 643.3970870000001, 256.070106, 582.51813, 843.020327, 997.363687, 33.524606, 493.977018, 937.429535, 892.991972, 328.793868, 641.43894, 797.31164, 809.478789, 685.760391, 125.999731, 923.770213, 847.208492, 906.442638, 532.3765100000001, 82.196932, 922.732817, 734.569515, 83.813534, 952.667786, 372.742077, 143.123595, 6.02344, 626.8338680000001, 882.0446009999999, 776.602316, 963.088886, 816.170486, 618.815242, 272.742193, 437.91415, 221.195483, 541.428661, 648.656647, 599.829955, 962.023176, 994.1907200000001, 837.981856, 858.6304, 502.971737, 911.818033, 583.801607, 517.72294, 497.642201, 152.28187, 181.096625, 534.716198, 26.268642, 22.336548, 691.766088, 691.2484490000001, 549.10786, 904.442243, 519.82057, 226.312778, 281.067236, 67.91087400000001, 554.19645, 101.454497, 100.655691, 975.808526, 855.892571, 268.229091, 230.630914, 464.693269, 83.862331, 220.331114, 863.909355, 161.919595, 234.75408, 174.341341, 340.324931, 852.015181, 465.231541, 173.430996, 793.009205, 849.802756, 961.021846, 27.492318, 519.120193, 905.427899, 449.407842, 914.713517, 338.418979, 819.586424, 102.192651, 996.260265, 554.275128, 925.60435, 402.335275, 526.046935, 653.835133, 405.156283, 859.527253, 83.830403, 201.265062, 16.551408, 461.47052, 984.167998, 882.072621, 194.607003, 471.767454, 968.877336, 950.973822, 379.987444, 853.785068, 354.767292, 941.879195, 626.6529849999999, 220.760474, 974.7708260000001, 310.665851, 559.0300549999999, 120.768096, 642.787942, 519.009214, 709.253189, 220.36014, 789.852996, 9.479259000000001, 557.395451, 477.036039, 700.03919, 143.702032, 389.125053, 153.149457, 525.362292, 845.613818, 691.785905, 989.809547, 933.852411, 914.491395, 887.95336, 556.251047, 981.697575, 660.052637, 567.184078, 301.321804, 130.434549, 122.716978, 36.319576, 160.379594, 792.427567, 944.999157, 500.6778, 69.009202, 946.972729, 182.400933, 372.801782, 852.1939599999999, 210.858443, 694.013686, 449.497242, 980.137298, 908.815591, 461.398289, 215.950474, 587.79148, 27.494081, 473.476638, 468.501654, 240.098417, 898.9985359999999, 451.772471, 654.6699139999999, 644.43325, 598.168445, 530.7257509999999, 346.711141, 518.42147, 872.944823, 373.14198, 101.341449];
sell = [1.575725, 3.509262, 0.492389, 2.586758, 1.629463, 3.103967, 1.493826, 2.596675, 0.466717, 2.310245, 2.252557, 0.105235, 3.513736, 3.455973, 1.613312, 1.759094, 2.274522, 0.106161, 3.668933, 0.7848000000000001, 3.574088, 3.690535, 2.902066, 1.339574, 3.845969, 0.7398130000000001, 2.487042, 0.433709, 1.705532, 3.437252, 0.396708, 2.733514, 2.999652, 3.226717, 3.474023, 1.739438, 0.316148, 3.583391, 3.361255, 3.325444, 3.897532, 1.608878, 0.364792, 0.161952, 1.323347, 1.611532, 1.051545, 1.156635, 3.852175, 2.970506, 0.856668, 3.88467, 1.039647, 1.03482, 3.944694, 1.007661, 3.660098, 3.295835, 0.267108, 2.131019, 0.880833, 3.220256, 0.119728, 2.414932, 2.786446, 0.370878, 3.846623, 2.953494, 3.812625, 1.211299, 1.501902, 1.737563, 0.106027, 0.702723, 1.359521, 2.788597, 0.00959, 0.827481, 2.354905, 0.14672, 1.237972, 1.120626, 3.576876, 3.58422, 3.478502, 2.868457, 1.724787, 2.072522, 2.152844, 1.95483, 0.158064, 1.822721, 1.019016, 3.287603, 2.748247, 2.815573, 1.226035, 0.477793, 3.958896, 0.979395, 2.111776, 3.554855, 3.361498, 3.853411, 3.310256, 0.292164, 3.739768, 1.660924, 2.012415, 3.598356, 2.073741, 1.341588, 1.250197, 3.02591, 1.690535, 3.287188, 2.650341, 2.228602, 1.830719, 1.8528, 0.615113, 2.542825, 0.5016080000000001, 2.453122, 0.276723, 0.141996, 1.410824, 3.661322, 2.155526, 0.739483, 2.863139, 0.522483, 1.930624, 2.855368, 0.850052, 3.413904, 2.347771, 2.483903, 2.763799, 3.352949, 2.778956, 3.85561, 0.972933, 1.754655, 3.265088, 0.929554, 0.249895, 0.286707, 2.520543, 2.212141, 3.865031, 3.987393, 1.033213, 0.220915, 2.496342, 1.664907, 2.161035, 1.11601, 2.457858, 2.540082, 1.927083, 3.084955, 0.10082, 2.155261, 3.274959, 1.018951, 0.386394, 2.789522, 1.700183, 0.5441510000000001, 0.277026, 2.773621, 2.78765, 2.226946, 1.605533, 0.126625, 0.322605, 0.07674599999999999, 0.419322, 0.6694909999999999, 2.327869, 2.595869, 3.17667, 3.268829, 1.271135, 0.976421, 1.904346, 0.748382, 0.648824, 2.31135, 2.149652, 0.902683];
charge = [0.222368, 0.642414, 0.525182, 0.620349, 0.59722, 0.198012, 0.088767, 0.741409, 0.456507, 0.268566, 0.973479, 0.146553, 0.093914, 0.398857, 0.365832, 0.505687, 0.678643, 0.207515, 0.786653, 0.306185, 0.440615, 0.606023, 0.775861, 0.766799, 0.675107, 0.6156239999999999, 0.7303460000000001, 0.693173, 0.985707, 0.868154, 0.938537, 0.205038, 0.984034, 0.790729, 0.767842, 0.910745, 0.551252, 0.75657, 0.400046, 0.953717, 0.08286, 0.389719, 0.80098, 0.508972, 0.269509, 0.881596, 0.163466, 0.655106, 0.141498, 0.995261, 0.497468, 0.259889, 0.539745, 0.243476, 0.823673, 0.092294, 0.8360109999999999, 0.088854, 0.511922, 0.959476, 0.44182, 0.873779, 0.988013, 0.311214, 0.307836, 0.228761, 0.217658, 0.734804, 0.247379, 0.545729, 0.159897, 0.794428, 0.854683, 0.847142, 0.458597, 0.031126, 0.266025, 0.967853, 0.60342, 0.332292, 0.36745, 0.001119, 0.161396, 0.135036, 0.339308, 0.222792, 0.502069, 0.361558, 0.664929, 0.391922, 0.021283, 0.8575469999999999, 0.827016, 0.61651, 0.584195, 0.181146, 0.9347800000000001, 0.833105, 0.639994, 0.202827, 0.461233, 0.56916, 8.3e-05, 0.136105, 0.264674, 0.782702, 0.38271, 0.558108, 0.960013, 0.064249, 0.5709959999999999, 0.956448, 0.8051160000000001, 0.391874, 0.467059, 0.041001, 0.643043, 0.807895, 0.057871, 0.426202, 0.419459, 0.614922, 0.294795, 0.915959, 0.115755, 0.7864370000000001, 0.636336, 0.554271, 0.430983, 0.221481, 0.355211, 0.3203, 0.061873, 0.225505, 0.431493, 0.116673, 0.078846, 0.320979, 0.361133, 0.114599, 0.756514, 0.521981, 0.6729810000000001, 0.668438, 0.650679, 0.449753, 0.264928, 0.246455, 0.6403219999999999, 0.5545870000000001, 0.052031, 0.171628, 0.981753, 0.673292, 0.835656, 0.144065, 0.347383, 0.427258, 0.38308, 0.330345, 0.65935, 0.8194900000000001, 0.697087, 0.296815, 0.330753, 0.04577, 0.321134, 0.860814, 0.80655, 0.974392, 0.022597, 0.542756, 0.010195, 0.247123, 0.67785, 0.192291, 0.5931999999999999, 0.950501, 0.995678, 0.468567, 0.306979, 0.36417, 0.887106, 0.933766, 0.2333, 0.782876, 0.255368, 0.366824, 0.9111359999999999, 0.415431, 0.530954, 0.637298];
discharge = [0.646272, 0.8752, 0.691042, 0.596521, 0.966314, 0.940248, 0.579229, 0.894049, 0.552493, 0.145251, 0.490529, 0.973519, 0.918746, 0.142507, 0.9233170000000001, 0.068076, 0.819227, 0.372633, 0.97202, 0.718083, 0.194977, 0.126042, 0.269628, 0.929792, 0.666336, 0.715525, 0.259098, 0.268936, 0.6590510000000001, 0.628599, 0.08266900000000001, 0.510054, 0.481145, 0.532308, 0.855981, 0.260132, 0.261993, 0.406667, 0.964043, 0.636948, 0.637096, 0.464104, 0.515808, 0.765246, 0.37941, 0.330759, 0.673756, 0.697819, 0.925892, 0.179818, 0.354431, 0.252834, 0.179493, 0.339086, 0.298739, 0.421567, 0.539573, 0.571289, 0.804238, 0.601312, 0.043018, 0.958212, 0.923827, 0.001134, 0.435657, 0.263364, 0.14612, 0.606545, 0.952551, 0.99648, 0.593259, 0.835127, 0.793896, 0.046579, 0.255915, 0.646385, 0.355004, 0.744937, 0.824122, 0.755041, 0.4501, 0.889314, 0.085761, 0.145069, 0.171368, 0.987497, 0.673624, 0.52877, 0.474969, 0.552878, 0.780096, 0.180729, 0.262259, 0.993941, 0.320756, 0.154796, 0.153017, 0.761966, 0.123245, 0.400175, 0.712421, 0.955232, 0.594843, 0.66649, 0.426189, 0.081389, 0.242434, 0.467154, 0.144187, 0.321876, 0.277624, 0.044993, 0.6512019999999999, 0.264481, 0.540436, 0.463406, 0.62077, 0.601135, 0.268722, 0.10648, 0.914535, 0.506536, 0.557137, 0.583969, 0.666713, 0.810242, 0.434418, 0.661062, 0.543956, 0.03589, 0.68901, 0.149363, 0.294273, 0.971231, 0.461573, 0.496332, 0.182425, 0.52788, 0.532838, 0.83915, 0.273329, 0.78316, 0.850077, 0.261418, 0.367882, 0.675675, 0.004501, 0.328249, 0.537408, 0.761829, 0.472218, 0.07396, 0.360185, 0.989581, 0.487139, 0.543898, 0.8656, 0.659686, 0.320583, 0.883869, 0.768822, 0.566031, 0.593954, 0.442964, 0.656644, 0.400558, 0.707829, 0.616849, 0.606836, 0.757184, 0.619431, 0.725752, 0.317109, 0.050135, 0.410687, 0.611135, 0.987703, 0.840538, 0.747436, 0.040245, 0.901132, 0.571807, 0.716511, 0.570744, 0.17249, 0.508495, 0.166693, 0.9540149999999999, 0.680609, 0.883699, 0.748005, 0.30988];
soc = [3.634284, 4.958413, 6.086383, 6.679251, 6.185728, 5.963271, 8.651384, 7.955822, 2.730044, 6.531376, 9.520877, 8.141063000000001, 8.735148000000001, 9.767331, 4.993145, 6.962701, 12.397236, 10.455547, 6.344036, 6.138383, 9.224195, 13.599123, 3.131436, 5.557912, 14.918646, 8.352354, 5.988703, 5.979361, 4.741571, 7.50724, 15.256856, 6.726109, 15.515188, 11.893901, 11.46495, 3.266165, 6.01064, 15.089175, 9.683964, 8.428677, 14.586857, 15.63325, 6.929706, 11.428643, 2.888641, 8.57288, 12.173926, 12.754666, 11.40646, 14.411707, 9.917214, 11.630388, 6.244358, 11.99978, 6.99572, 8.473654, 4.449572, 3.041591, 11.922251, 4.462324, 4.787785, 8.111997000000001, 8.905208, 7.365974, 14.982774, 12.805264, 8.269129, 3.793224, 7.747627, 9.976760000000001, 4.180254, 15.448261, 5.070866, 4.931133, 12.884751, 9.046103, 13.069124, 12.530007, 13.552035, 3.156606, 12.674421, 13.468238, 5.646299, 6.385016, 14.443796, 8.101610000000001, 14.183896, 3.726542, 6.590751, 3.151253, 6.722733, 7.094233, 10.275388, 13.113926, 2.738252, 9.670215000000001, 3.533728, 13.045024, 14.598545, 13.671011, 13.628744, 12.074716, 4.183339, 9.443645999999999, 6.505027, 13.05492, 8.028323, 6.659295, 12.880371, 12.373509, 14.092684, 6.282618, 14.795506, 13.603123, 13.075421, 4.893308, 14.632863, 4.615056, 3.864267, 3.100867, 5.360042, 10.860653, 7.098054, 14.67539, 7.256692, 10.757972, 4.31021, 11.158708, 14.764753, 14.789817, 6.408408, 11.191331, 9.016088, 11.654137, 4.595853, 3.146507, 10.953236, 8.550731000000001, 12.270662, 6.100741, 9.076758, 8.719116, 13.216631, 3.675889, 12.627601, 4.665787, 11.14114, 15.236995, 5.437961, 6.690966, 3.070531, 11.838711, 6.924453, 9.568070000000001, 11.239963, 6.275088, 5.724479, 6.630572, 9.041211000000001, 6.451025, 6.388259, 6.606412, 14.889316, 4.57734, 7.215355, 6.967085, 5.655574, 11.614157, 4.305143, 11.508695, 3.865943, 10.23721, 15.007989, 4.864644, 3.742818, 13.935541, 7.232386, 6.652599, 11.111839, 7.680127, 5.35682, 14.596815, 6.479824, 14.629109, 14.094873, 5.276694, 12.809078, 15.320986, 3.201445, 5.76968, 5.443546, 7.599182];
cost = [108.149076, 412.663744, 311.806564, 131.808812, 113.666323, 71.17157400000001, 593.393539, 524.349329, 465.532706, 156.891542, 544.605233, 567.350724, 487.11361, 380.012608, 526.650772, 380.054679, 406.968034, 286.27864, 559.75224, 13.054312, 113.359827, 548.626351, 96.618032, 151.804057, 771.845857, 45.831954, 423.655795, 556.723291, 1039.705258, 1140.500916, 1045.713506, 1129.602188, 350.275369, 309.649037, 156.518345, 537.734908, 977.852765, 553.2679879999999, 566.305384, 270.434609, 474.509457, 1172.962575, 474.104866, 293.466279, 147.518689, 157.638178, 69.67429300000001, 1110.337409, 221.718624, 374.724231, 986.231356, 1133.696988, 574.199302, 110.628393, 359.574002, 419.317276, 454.818545, 231.835033, 288.300433, 376.183432, 977.06427, 229.30211, 8.473749, 62.262154, 370.762397, 62.325357, 416.5657, 556.523851, 103.88651, 64.912738, 1166.303773, 435.183777, 968.676411, 624.683197, 1016.266378, 534.9663880000001, 1160.019698, 1165.077757, 1078.735763, 167.821779, 1133.744122, 196.190951, 1140.051426, 1162.513237, 27.637511, 173.196405, 614.391464, 113.751907, 3.407963, 133.872514, 314.2129, 159.041716, 26.529253, 477.907228, 324.9511, 399.021091, 113.35455, 440.521596, 487.678326, 546.005322, 273.276378, 429.158105, 10.016176, 322.404349, 523.7366500000001, 605.231764, 387.027359, 107.075874, 13.998722, 433.195513, 398.4315, 146.379164, 519.458473, 193.183351, 441.321352, 369.200726, 280.998948, 242.268801, 336.604278, 11.048258, 762.545625, 480.390283, 140.181906, 445.363235, 662.073038, 939.5155590000001, 877.178581, 22.074871, 315.803744, 348.994748, 923.935129, 352.270119, 618.521486, 122.21675, 322.610684, 964.47573, 1180.485575, 229.989363, 441.425055, 1052.08754, 113.215581, 751.747877, 1095.04347, 18.298771, 756.176431, 147.349282, 1045.127977, 1168.578674, 249.770055, 606.239932, 43.909972, 492.407318, 239.770578, 5.68952, 472.990811, 243.888136, 972.011412, 1160.417679, 255.207102, 783.517552, 259.607418, 813.980919, 465.977685, 489.725087, 81.901274, 181.20246, 876.355502, 1024.607478, 279.644053, 444.13209, 721.2376870000001, 967.2637109999999, 636.4602630000001, 934.400898, 586.608988, 10.845002, 948.5039410000001, 142.112705, 1093.062316, 721.345678, 80.178135, 1103.657218, 458.8304, 198.421502, 60.553081, 11.713805, 442.017034, 71.634227, 388.095175, 508.804501, 540.3103, 492.691066];
earn = [2.038063, 1.217163, 0.252838, 1.738519, 1.208911, 0.754781, 1.09014, 0.263781, 0.880534, 0.600116, 0.466368, 1.581539, 1.073359, 0.213911, 1.345815, 0.788788, 0.821082, 1.729744, 0.921159, 1.316744, 0.195211, 0.81916, 1.677729, 1.767018, 1.210567, 1.496759, 0.32308, 1.941211, 0.396378, 1.611091, 1.254911, 0.876868, 0.812816, 0.719967, 0.190857, 0.382188, 0.086633, 0.019707, -0.041659, -0.002553, -0.007385, -0.000902, -0.014363, -0.061196, -0.185016, -0.130737, -0.069091, -0.177691, -0.024707, -0.193081, -0.126547, -0.105417, -0.055488, -0.051973, -0.055898, -0.031634, -0.025509, -0.009592, -0.002883, -0.0001, 0.082732, 0.262652, 0.171272, 0.802708, 1.502723, 1.80113, 1.592654, 2.165316, 2.252761, 2.451025, 2.225743, 2.652499, 1.031366, 3.474292, 0.111558, 2.755142, 2.056608, 1.295232, 0.166251, 1.637296, 1.793012, 2.295768, 0.029493, 1.183402, 1.566516, 0.681667, 2.419136, 0.662259, 1.643228, 0.138224, 1.176297, 2.673863, 2.447889, 0.295049, 1.338646, 2.278555, 0.842364, 0.872824, 2.507316, 0.295127, 2.098634, 2.362286, 0.829418, 0.543419, 2.431001, 2.244859, 2.23941, 2.120518, 0.146521, 0.92398, 0.237029, 1.061834, 1.571047, 1.285897, 0.389568, 2.55125, 2.927357, 1.373405, 1.715949, 1.749978, 2.60323, 1.433758, 2.776763, 3.200426, 2.627886, 0.9480420000000001, 3.136865, 0.048536, 0.297746, 1.793052, 2.288618, 2.195887, 0.194202, 1.862124, 1.913628, 1.017662, 1.200684, 0.096317, 0.134588, 0.417379, 0.696622, 0.528771, 0.04258, 0.337672, 0.479883, 0.178246, 0.524848, 0.5717680000000001, 0.06486699999999999, 1.13548, 0.223054, 1.253089, 1.139113, 1.822615, 1.20123, 1.117925, 2.208114, 1.959713, 0.69619, 0.876009, 2.389038, 1.197147, 2.322662, 1.030027, 0.259312, 0.3989, 0.707769, 2.720264, 1.475617, 5.12511, 0.786689, 2.624374, 3.202491, 2.130392, 0.154842, 2.164511, 1.708042, 3.781686, 3.731924, 1.979149, 0.745866, 2.112644, 1.119744, 1.325672, 3.129341, 3.034429, 2.549305, 2.563383, 0.063869, 0.205963, 1.534775, 2.23655];
total_cost = 89.95576728290958;
total_earn = 34.18149620846754;
