production = [0: 0.0, 1: 0.0, 2: 0.0, 3: 0.0, 4: 0.0, 5: 0.0, 6: 0.0, 7: 0.0, 8: 0.0, 9: 0.0, 10: 0.0, 11: 0.0, 12: 0.0, 13: 0.0, 14: 0.0, 15: 0.0, 16: 0.0, 17: 0.0, 18: 0.0, 19: 0.0, 20: 0.0, 21: 0.000211, 22: 2.5e-05, 23: 0.000379, 24: 0.011243, 25: 0.011012, 26: 0.029187, 27: 0.07944900000000001, 28: 0.08375100000000001, 29: 0.112082, 30: 0.075581, 31: 0.401705, 32: 0.019611, 33: 0.668277, 34: 0.926172, 35: 0.277144, 36: 0.420944, 37: 0.07839, 38: 0.331446, 39: 0.450799, 40: 1.017489, 41: 0.320662, 42: 0.836181, 43: 0.260906, 44: 0.208629, 45: 0.661541, 46: 0.036705, 47: 0.044128, 48: 0.008397999999999999, 49: 0.013277, 50: 0.010045, 51: 0.025608, 52: 0.051112, 53: 0.142057, 54: 0.314505, 55: 0.39516, 56: 0.094656, 57: 0.172607, 58: 0.003814, 59: 0.139644, 60: 0.000873, 61: 0.258547, 62: 0.005845, 63: 0.340586, 64: 0.119832, 65: 0.006422, 66: 0.107889, 67: 0.06727, 68: 0.029801, 69: 0.026491, 70: 0.056664, 71: 0.020861, 72: 0.00547, 73: 0.000449, 74: 0.000176, 75: 0.0, 76: 0.0, 77: 0.0, 78: 0.0, 79: 0.0, 80: 0.0, 81: 0.0, 82: 0.0, 83: 0.0, 84: 0.0, 85: 0.0, 86: 0.0, 87: 0.0, 88: 0.0, 89: 0.0, 90: 0.0, 91: 0.0, 92: 0.0, 93: 0.0, 94: 0.0, 95: 0.0, 96: 0.0, 97: 0.0, 98: 0.0, 99: 0.0, 100: 0.0, 101: 0.0, 102: 0.0, 103: 0.0, 104: 0.0, 105: 0.0, 106: 0.0, 107: 0.0, 108: 0.0, 109: 0.0, 110: 0.0, 111: 0.0, 112: 0.0, 113: 0.0, 114: 0.0, 115: 0.0, 116: 0.0, 117: 0.0, 118: 0.000629, 119: 0.000575, 120: 0.011661, 121: 0.035305, 122: 0.08462, 123: 0.093185, 124: 0.100267, 125: 0.122082, 126: 0.309403, 127: 0.451992, 128: 0.486645, 129: 0.309483, 130: 0.104788, 131: 0.011913, 132: 0.46147, 133: 0.088209, 134: 1.158272, 135: 1.231733, 136: 0.379401, 137: 0.151275, 138: 0.048546, 139: 0.354387, 140: 0.354588, 141: 1.211465, 142: 0.607693, 143: 0.985201, 144: 0.989049, 145: 0.151695, 146: 1.045954, 147: 0.473643, 148: 0.745051, 149: 0.143542, 150: 0.261126, 151: 1.186459, 152: 0.01048, 153: 0.140661, 154: 0.209885, 155: 0.226938, 156: 0.152382, 157: 0.196812, 158: 0.098014, 159: 0.191552, 160: 0.120311, 161: 0.198732, 162: 0.227192, 163: 0.179063, 164: 0.154621, 165: 0.07104100000000001, 166: 0.00283, 167: 0.015617, 168: 0.001589, 169: 0.000227, 170: 0.0, 171: 0.00016, 172: 0.0, 173: 0.0, 174: 0.0, 175: 0.0, 176: 0.0, 177: 0.0, 178: 0.0, 179: 0.0, 180: 0.0, 181: 0.0, 182: 0.0, 183: 0.0, 184: 0.0, 185: 0.0, 186: 0.0, 187: 0.0, 188: 0.0, 189: 0.0, 190: 0.0, 191: 0.0];
buy = [0: 101.699148, 1: 229.983732, 2: 869.188561, 3: 183.959884, 4: 826.133546, 5: 943.896551, 6: 128.167022, 7: 143.506115, 8: 186.817178, 9: 464.382543, 10: 533.879916, 11: 418.800638, 12: 91.86429099999999, 13: 29.776002, 14: 585.648117, 15: 956.602661, 16: 391.827792, 17: 11.331456, 18: 623.113241, 19: 434.340599, 20: 216.272219, 21: 616.837509, 22: 101.591967, 23: 385.863794, 24: 794.2029209999999, 25: 957.772712, 26: 790.081462, 27: 479.580552, 28: 293.70882, 29: 412.735199, 30: 415.013529, 31: 268.312681, 32: 246.499432, 33: 239.854767, 34: 628.929662, 35: 648.959805, 36: 77.823089, 37: 308.810372, 38: 4.918272, 39: 290.304667, 40: 944.870914, 41: 328.940791, 42: 312.458462, 43: 733.9939890000001, 44: 500.811228, 45: 20.698221, 46: 880.7365590000001, 47: 564.706919, 48: 117.396788, 49: 851.12221, 50: 653.6605499999999, 51: 90.175898, 52: 891.2879809999999, 53: 526.056364, 54: 541.893732, 55: 279.102816, 56: 739.348864, 57: 334.309222, 58: 262.2987, 59: 131.06589, 60: 98.626092, 61: 676.17524, 62: 272.546956, 63: 4.010008, 64: 281.537348, 65: 28.54614, 66: 253.497357, 67: 231.412966, 68: 701.7891530000001, 69: 644.763299, 70: 83.30125200000001, 71: 745.969372, 72: 171.163848, 73: 929.851359, 74: 400.330901, 75: 436.245747, 76: 506.414653, 77: 176.164093, 78: 628.821306, 79: 444.750075, 80: 511.205697, 81: 749.903537, 82: 231.129958, 83: 229.322952, 84: 140.737299, 85: 957.014695, 86: 273.325688, 87: 447.129969, 88: 494.725137, 89: 955.631273, 90: 606.1714940000001, 91: 620.236267, 92: 326.032714, 93: 437.097929, 94: 665.9041, 95: 459.48405, 96: 85.736833, 97: 885.364381, 98: 704.724598, 99: 876.546319, 100: 701.915065, 101: 220.996363, 102: 145.860643, 103: 674.8983030000001, 104: 250.416905, 105: 314.511674, 106: 835.304793, 107: 873.1215999999999, 108: 969.322735, 109: 869.865512, 110: 235.778791, 111: 514.696962, 112: 387.258397, 113: 225.394143, 114: 582.714688, 115: 554.582, 116: 427.888339, 117: 27.964489, 118: 344.610306, 119: 19.256722, 120: 592.653828, 121: 862.2720839999999, 122: 990.680088, 123: 121.36407, 124: 544.1104309999999, 125: 924.441813, 126: 933.521115, 127: 406.990754, 128: 765.013903, 129: 573.424128, 130: 23.110761, 131: 788.287412, 132: 857.76837, 133: 481.578522, 134: 783.1626690000001, 135: 466.657532, 136: 617.361506, 137: 92.988908, 138: 923.20172, 139: 204.777566, 140: 510.099772, 141: 416.344176, 142: 485.720114, 143: 620.030174, 144: 784.559216, 145: 512.260993, 146: 167.91443, 147: 757.963032, 148: 335.858312, 149: 949.789391, 150: 336.212846, 151: 367.769038, 152: 334.900863, 153: 840.229509, 154: 955.457356, 155: 649.957314, 156: 396.20557, 157: 912.2757319999999, 158: 548.800026, 159: 608.974395, 160: 641.825184, 161: 869.0860699999999, 162: 802.503001, 163: 783.193438, 164: 867.215473, 165: 346.657559, 166: 377.307741, 167: 496.4009, 168: 770.33084, 169: 146.0053, 170: 50.040841, 171: 165.368337, 172: 492.039037, 173: 446.038672, 174: 660.198459, 175: 535.2956840000001, 176: 422.937884, 177: 978.056321, 178: 906.706215, 179: 356.328816, 180: 403.430291, 181: 917.415451, 182: 568.9955629999999, 183: 517.576472, 184: 328.576239, 185: 903.072082, 186: 912.283606, 187: 33.584461, 188: 319.113583, 189: 645.2613689999999, 190: 436.677844, 191: 186.39033];
sell = [0: 0.168319, 1: 0.875112, 2: 2.849906, 3: 0.6881080000000001, 4: 2.578116, 5: 3.025581, 6: 3.837644, 7: 3.012477, 8: 2.92885, 9: 0.561933, 10: 3.206496, 11: 3.672989, 12: 2.038563, 13: 0.723442, 14: 3.79014, 15: 3.554027, 16: 1.30617, 17: 3.888787, 18: 3.286603, 19: 0.232707, 20: 3.042474, 21: 3.903454, 22: 2.211565, 23: 0.809858, 24: 1.777531, 25: 2.532052, 26: 2.398482, 27: 0.604125, 28: 2.352501, 29: 3.987881, 30: 3.497543, 31: 1.110512, 32: 2.700019, 33: 0.726063, 34: 2.630861, 35: 0.054296, 36: 0.132584, 37: 2.13306, 38: 3.979596, 39: 0.788405, 40: 3.573981, 41: 3.193192, 42: 1.293625, 43: 2.489825, 44: 1.632673, 45: 3.373848, 46: 1.030441, 47: 1.349566, 48: 2.733034, 49: 0.5421049999999999, 50: 2.923231, 51: 2.374151, 52: 2.842569, 53: 1.684479, 54: 1.961581, 55: 0.83275, 56: 3.786129, 57: 1.91688, 58: 3.421608, 59: 0.080606, 60: 0.797419, 61: 2.112574, 62: 0.308461, 63: 2.565304, 64: 2.083477, 65: 1.752093, 66: 1.663832, 67: 0.237445, 68: 0.073167, 69: 0.09399200000000001, 70: 0.365684, 71: 1.353918, 72: 3.228744, 73: 1.939858, 74: 0.531297, 75: 1.551658, 76: 0.599891, 77: 2.418987, 78: 1.978214, 79: 0.184203, 80: 2.17519, 81: 0.585306, 82: 1.708607, 83: 3.509694, 84: 0.924924, 85: 3.272853, 86: 3.598332, 87: 2.595331, 88: 1.386277, 89: 3.655108, 90: 1.095655, 91: 3.664362, 92: 2.635851, 93: 1.176676, 94: 1.648532, 95: 1.874857, 96: 3.023598, 97: 2.477368, 98: 0.228466, 99: 1.759058, 100: 0.8148069999999999, 101: 3.274254, 102: 3.227105, 103: 1.352825, 104: 2.32946, 105: 1.552547, 106: 3.330477, 107: 2.297369, 108: 3.456784, 109: 3.206952, 110: 0.476102, 111: 3.568313, 112: 2.989264, 113: 0.370654, 114: 3.247056, 115: 0.413817, 116: 2.725254, 117: 2.170916, 118: 0.716109, 119: 0.324499, 120: 1.64797, 121: 0.344378, 122: 3.318798, 123: 3.745587, 124: 2.321908, 125: 1.583367, 126: 0.087521, 127: 0.063348, 128: 2.462908, 129: 2.989507, 130: 0.505372, 131: 1.897319, 132: 1.990732, 133: 2.964253, 134: 2.655005, 135: 1.922294, 136: 1.822432, 137: 1.623089, 138: 0.207455, 139: 1.759088, 140: 1.565668, 141: 2.457653, 142: 2.826066, 143: 1.899121, 144: 3.742773, 145: 3.281029, 146: 1.154065, 147: 1.159859, 148: 1.040023, 149: 0.20266, 150: 1.808729, 151: 2.807312, 152: 3.860767, 153: 0.489593, 154: 0.415947, 155: 2.684572, 156: 3.769848, 157: 1.435583, 158: 3.467733, 159: 1.733997, 160: 0.356007, 161: 1.865768, 162: 0.202186, 163: 0.339651, 164: 3.769981, 165: 3.126617, 166: 2.981057, 167: 0.430565, 168: 3.529452, 169: 0.82187, 170: 0.213587, 171: 0.188608, 172: 3.772553, 173: 3.325675, 174: 1.766448, 175: 1.946014, 176: 1.128584, 177: 3.183551, 178: 3.63215, 179: 1.708344, 180: 0.546675, 181: 1.415868, 182: 1.372538, 183: 0.595052, 184: 3.093434, 185: 3.185292, 186: 1.376823, 187: 0.298354, 188: 0.869776, 189: 0.141321, 190: 3.525481, 191: 1.293062];
charge = [0: 0.960468, 1: 0.316288, 2: 0.6686530000000001, 3: 0.24074, 4: 0.018251, 5: 0.937133, 6: 0.139528, 7: 0.357737, 8: 0.075409, 9: 0.694024, 10: 0.887984, 11: 0.414702, 12: 0.834461, 13: 0.211086, 14: 0.677957, 15: 0.938724, 16: 0.776705, 17: 0.946635, 18: 0.771209, 19: 0.867406, 20: 0.234119, 21: 0.008758, 22: 0.2303, 23: 0.474989, 24: 0.245114, 25: 0.008791, 26: 0.069512, 27: 0.106992, 28: 0.759554, 29: 0.016055, 30: 0.143665, 31: 0.942604, 32: 0.58836, 33: 0.387324, 34: 0.952492, 35: 0.955049, 36: 0.673091, 37: 0.159008, 38: 0.7047639999999999, 39: 0.179448, 40: 0.227035, 41: 0.935943, 42: 0.832109, 43: 0.323725, 44: 0.9434399999999999, 45: 0.248086, 46: 0.870909, 47: 0.83597, 48: 0.771852, 49: 0.058486, 50: 0.414785, 51: 0.884833, 52: 0.003944, 53: 0.487949, 54: 0.104119, 55: 0.7243540000000001, 56: 0.34572, 57: 0.717878, 58: 0.9952260000000001, 59: 0.9361390000000001, 60: 0.170263, 61: 0.118811, 62: 0.223252, 63: 0.20693, 64: 0.392571, 65: 0.390546, 66: 0.008784999999999999, 67: 0.138514, 68: 0.870913, 69: 0.078115, 70: 0.380741, 71: 0.411207, 72: 0.368579, 73: 0.10059, 74: 0.443123, 75: 0.086462, 76: 0.935055, 77: 0.668745, 78: 0.930867, 79: 0.047885, 80: 0.153846, 81: 0.410956, 82: 0.265683, 83: 0.93253, 84: 0.417696, 85: 0.538776, 86: 0.551683, 87: 0.8379799999999999, 88: 0.656969, 89: 0.016631, 90: 0.948613, 91: 0.166463, 92: 0.609509, 93: 0.08945400000000001, 94: 0.455563, 95: 0.862194, 96: 0.15589, 97: 0.699469, 98: 0.809999, 99: 0.781007, 100: 0.433022, 101: 0.25382, 102: 0.438422, 103: 0.047404, 104: 0.9205179999999999, 105: 0.626373, 106: 0.177453, 107: 0.550704, 108: 0.106895, 109: 0.9353939999999999, 110: 0.21242, 111: 0.8393969999999999, 112: 0.174744, 113: 0.897012, 114: 0.32124, 115: 0.349752, 116: 0.037927, 117: 0.518937, 118: 0.115474, 119: 0.574613, 120: 0.699058, 121: 0.513725, 122: 0.488397, 123: 0.526189, 124: 0.795745, 125: 0.460914, 126: 0.738655, 127: 0.559948, 128: 0.273775, 129: 0.733765, 130: 0.380123, 131: 0.167462, 132: 0.452991, 133: 0.658813, 134: 0.43398, 135: 0.492569, 136: 0.133852, 137: 0.477207, 138: 0.715058, 139: 0.867177, 140: 0.114937, 141: 0.524552, 142: 0.519714, 143: 0.240442, 144: 0.106997, 145: 0.167062, 146: 0.513053, 147: 0.250278, 148: 0.677084, 149: 0.843713, 150: 0.718568, 151: 0.841989, 152: 0.792203, 153: 0.253931, 154: 0.007877, 155: 0.054842, 156: 0.379413, 157: 0.454117, 158: 0.226854, 159: 0.331176, 160: 0.795033, 161: 0.07029100000000001, 162: 0.500978, 163: 0.81254, 164: 0.785385, 165: 0.633335, 166: 0.741358, 167: 0.60782, 168: 0.174327, 169: 0.237473, 170: 0.412655, 171: 0.212893, 172: 0.342984, 173: 0.154133, 174: 0.662952, 175: 0.767585, 176: 0.719034, 177: 0.69291, 178: 0.7768929999999999, 179: 0.114854, 180: 0.135818, 181: 0.565462, 182: 0.713643, 183: 0.673782, 184: 0.489789, 185: 0.861893, 186: 0.707887, 187: 0.187877, 188: 0.139547, 189: 0.482225, 190: 0.937853, 191: 0.323621];
discharge = [0: 0.234946, 1: 0.261212, 2: 0.090299, 3: 0.214148, 4: 0.436701, 5: 0.164941, 6: 0.416666, 7: 0.562338, 8: 0.57396, 9: 0.562296, 10: 0.43436, 11: 0.046472, 12: 0.514885, 13: 0.708533, 14: 0.422899, 15: 0.560455, 16: 0.323388, 17: 0.734482, 18: 0.233577, 19: 0.138323, 20: 0.475153, 21: 0.85677, 22: 0.699118, 23: 0.777311, 24: 0.679961, 25: 0.292406, 26: 0.75587, 27: 0.947837, 28: 0.599722, 29: 0.168012, 30: 0.428436, 31: 0.190898, 32: 0.359634, 33: 0.546849, 34: 0.915058, 35: 0.407789, 36: 0.296431, 37: 0.791197, 38: 0.561119, 39: 0.781851, 40: 0.48355, 41: 0.924837, 42: 0.055781, 43: 0.322095, 44: 0.624824, 45: 0.991233, 46: 0.91999, 47: 0.392536, 48: 0.315171, 49: 0.767587, 50: 0.583022, 51: 0.935254, 52: 0.636086, 53: 0.5638840000000001, 54: 0.473789, 55: 0.343941, 56: 0.64154, 57: 0.303511, 58: 0.800393, 59: 0.57317, 60: 0.50169, 61: 0.889275, 62: 0.400757, 63: 0.58782, 64: 0.568267, 65: 0.729356, 66: 0.369424, 67: 0.924102, 68: 0.567891, 69: 0.253604, 70: 0.62623, 71: 0.6042999999999999, 72: 0.27817, 73: 0.363828, 74: 0.537095, 75: 0.798754, 76: 0.218793, 77: 0.52823, 78: 0.7881629999999999, 79: 0.840631, 80: 0.2224, 81: 0.590684, 82: 0.619017, 83: 0.364299, 84: 0.210414, 85: 0.095789, 86: 0.189982, 87: 0.267191, 88: 0.5378500000000001, 89: 0.22919, 90: 0.755287, 91: 0.514564, 92: 0.467884, 93: 0.869254, 94: 0.200199, 95: 0.949995, 96: 0.311273, 97: 0.38187, 98: 0.988719, 99: 0.862908, 100: 0.816696, 101: 0.341221, 102: 0.436139, 103: 0.7400870000000001, 104: 0.055402, 105: 0.94396, 106: 0.211747, 107: 0.6611320000000001, 108: 0.81763, 109: 0.250707, 110: 0.321286, 111: 0.5983889999999999, 112: 0.280005, 113: 0.571882, 114: 0.924946, 115: 0.521884, 116: 0.202982, 117: 0.905235, 118: 0.664293, 119: 0.053602, 120: 0.087475, 121: 0.014209, 122: 0.623768, 123: 0.430773, 124: 0.596067, 125: 0.500743, 126: 0.563042, 127: 0.907524, 128: 0.945989, 129: 0.9050010000000001, 130: 0.349293, 131: 0.224297, 132: 0.268115, 133: 0.288043, 134: 0.196065, 135: 0.284681, 136: 0.237951, 137: 0.776438, 138: 0.610366, 139: 0.296891, 140: 0.042631, 141: 0.605978, 142: 0.949639, 143: 0.160868, 144: 0.315311, 145: 0.59101, 146: 0.680898, 147: 0.874131, 148: 0.544285, 149: 0.980907, 150: 0.111508, 151: 0.06629, 152: 0.059815, 153: 0.203163, 154: 0.811296, 155: 0.315248, 156: 0.10638, 157: 0.296452, 158: 0.173519, 159: 0.710093, 160: 0.412448, 161: 0.042324, 162: 0.5551160000000001, 163: 0.0796, 164: 0.7617429999999999, 165: 0.25823, 166: 0.062927, 167: 0.660385, 168: 0.368937, 169: 0.187715, 170: 0.601677, 171: 0.176092, 172: 0.916187, 173: 0.247627, 174: 0.774214, 175: 0.366159, 176: 0.331848, 177: 0.500925, 178: 0.144187, 179: 0.726928, 180: 0.8449179999999999, 181: 0.271866, 182: 0.63689, 183: 0.153269, 184: 0.740195, 185: 0.175173, 186: 0.61224, 187: 0.587276, 188: 0.511029, 189: 0.397228, 190: 0.791062, 191: 0.877061];
soc = [0: 3.782339, 1: 3.474497, 2: 6.232143, 3: 5.816587, 4: 4.863938, 5: 7.924362, 6: 10.251853, 7: 10.205261, 8: 6.940966, 9: 6.832477, 10: 4.944954, 11: 3.682497, 12: 3.4707, 13: 9.573278999999999, 14: 7.78654, 15: 3.635104, 16: 7.822997, 17: 4.424777, 18: 6.447302, 19: 12.801794, 20: 5.13165, 21: 5.048945, 22: 15.082921, 23: 8.085520000000001, 24: 6.064058, 25: 10.114627, 26: 13.336647, 27: 9.156971, 28: 3.926517, 29: 10.245272, 30: 5.60468, 31: 7.293342, 32: 11.453101, 33: 3.891342, 34: 3.492611, 35: 13.16381, 36: 4.835343, 37: 2.86926, 38: 14.984155, 39: 9.116816999999999, 40: 3.069005, 41: 4.369098, 42: 3.960018, 43: 11.91309, 44: 4.0299, 45: 7.856387, 46: 8.591526999999999, 47: 4.29825, 48: 14.345744, 49: 3.90276, 50: 14.173018, 51: 4.536207, 52: 4.728644, 53: 12.62177, 54: 4.552505, 55: 5.21166, 56: 7.658732, 57: 8.886492000000001, 58: 13.779498, 59: 10.936139, 60: 8.878475999999999, 61: 6.448209, 62: 12.070643, 63: 6.399969, 64: 13.796904, 65: 9.378195, 66: 4.48427, 67: 6.821723, 68: 6.776888, 69: 5.595576, 70: 3.223255, 71: 3.702678, 72: 13.605308, 73: 4.903737, 74: 5.960959, 75: 12.499888, 76: 10.509204, 77: 7.73451, 78: 8.261488999999999, 79: 14.129832, 80: 7.31977, 81: 4.7007, 82: 10.130023, 83: 12.616442, 84: 13.288072, 85: 12.682564, 86: 11.611137, 87: 4.285655, 88: 5.954786, 89: 8.532692000000001, 90: 12.202305, 91: 10.713415, 92: 5.348653, 93: 13.802474, 94: 3.226321, 95: 8.323983999999999, 96: 2.75436, 97: 8.790546000000001, 98: 13.217727, 99: 4.630131, 100: 10.22379, 101: 4.640943, 102: 7.135137, 103: 11.919985, 104: 8.47791, 105: 10.503433, 106: 4.985914, 107: 3.820502, 108: 6.32386, 109: 3.607844, 110: 14.636978, 111: 11.57196, 112: 11.028654, 113: 14.245037, 114: 10.149221, 115: 4.01267, 116: 10.926873, 117: 11.161288, 118: 6.612597, 119: 14.281614, 120: 6.04806, 121: 8.008447, 122: 5.582413, 123: 7.119561, 124: 2.677386, 125: 6.771666, 126: 3.941455, 127: 7.065197, 128: 11.682169, 129: 12.633952, 130: 7.08386, 131: 11.069279, 132: 14.129205, 133: 13.192695, 134: 15.413233, 135: 4.109674, 136: 5.36092, 137: 7.134876, 138: 5.668016, 139: 13.785035, 140: 10.379875, 141: 13.95092, 142: 4.645547, 143: 3.642437, 144: 13.607328, 145: 13.94698, 146: 10.533978, 147: 3.248266, 148: 5.116742, 149: 12.471986, 150: 14.717348, 151: 5.198259, 152: 8.707203, 153: 14.011951, 154: 13.232373, 155: 11.601797, 156: 6.277142, 157: 10.871249, 158: 4.789192, 159: 7.115862, 160: 5.720751, 161: 3.163961, 162: 4.113774, 163: 10.391536, 164: 5.948605, 165: 15.663406, 166: 4.154519, 167: 6.971289, 168: 10.329642, 169: 5.711589, 170: 15.250398, 171: 5.822707, 172: 10.181009, 173: 7.187681, 174: 9.773595, 175: 15.667815, 176: 10.311618, 177: 5.978172, 178: 12.548819, 179: 7.032738, 180: 11.627951, 181: 6.980162, 182: 5.220304, 183: 3.761836, 184: 5.469657, 185: 5.016753, 186: 7.253243, 187: 7.939649, 188: 3.596089, 189: 12.164556, 190: 9.666855999999999, 191: 7.736223];
cost = [0: 11.27687, 1: 491.259062, 2: 229.285894, 3: 174.80069, 4: 216.216967, 5: 249.013768, 6: 514.133517, 7: 197.556655, 8: 451.192295, 9: 44.334479, 10: 557.062584, 11: 59.172775, 12: 82.673885, 13: 348.436139, 14: 220.692183, 15: 127.365252, 16: 444.275564, 17: 230.909803, 18: 245.278184, 19: 565.549127, 20: 201.434075, 21: 598.567047, 22: 68.69646, 23: 242.352236, 24: 591.881348, 25: 124.475066, 26: 617.98541, 27: 1121.320843, 28: 330.589619, 29: 483.655237, 30: 816.4749420000001, 31: 1095.564258, 32: 771.287111, 33: 426.779294, 34: 400.286382, 35: 1141.219451, 36: 1107.378209, 37: 11.116561, 38: 776.384534, 39: 528.372444, 40: 1083.654045, 41: 929.424583, 42: 536.565639, 43: 484.701281, 44: 736.852054, 45: 298.730169, 46: 1151.251684, 47: 39.243229, 48: 6.101894, 49: 439.095325, 50: 287.981741, 51: 278.489581, 52: 116.662148, 53: 21.134345, 54: 40.739344, 55: 349.698605, 56: 49.436664, 57: 224.462049, 58: 126.818626, 59: 251.664154, 60: 21.12066, 61: 37.486062, 62: 1125.040422, 63: 1154.594756, 64: 720.985818, 65: 512.5310909999999, 66: 1076.392795, 67: 899.963475, 68: 1135.723833, 69: 818.92007, 70: 852.041772, 71: 738.67119, 72: 847.982029, 73: 929.921819, 74: 54.194918, 75: 814.408557, 76: 85.003709, 77: 745.410083, 78: 939.263137, 79: 254.618746, 80: 890.906236, 81: 881.363016, 82: 922.5841380000001, 83: 25.704137, 84: 310.87725, 85: 70.164275, 86: 133.73991, 87: 388.521231, 88: 539.14094, 89: 521.096593, 90: 505.977751, 91: 168.661415, 92: 79.589045, 93: 518.968419, 94: 462.464518, 95: 96.414866, 96: 123.036308, 97: 115.2212, 98: 354.056322, 99: 146.226466, 100: 5.017121, 101: 149.702906, 102: 342.077497, 103: 198.339198, 104: 11.353867, 105: 295.629344, 106: 208.384773, 107: 84.149039, 108: 382.010555, 109: 542.463308, 110: 523.711061, 111: 129.031267, 112: 489.504012, 113: 290.360544, 114: 458.90879, 115: 316.753206, 116: 411.467952, 117: 194.93635, 118: 475.320603, 119: 529.112521, 120: 926.378553, 121: 804.132073, 122: 558.774808, 123: 567.1447429999999, 124: 832.046959, 125: 932.899646, 126: 899.17896, 127: 416.847731, 128: 416.576515, 129: 1059.098992, 130: 1026.60193, 131: 15.542457, 132: 1049.841553, 133: 825.421225, 134: 394.068441, 135: 448.857781, 136: 361.177412, 137: 475.14458, 138: 63.700042, 139: 864.9404950000001, 140: 910.3628179999999, 141: 285.98681, 142: 286.003703, 143: 1023.783256, 144: 1067.153638, 145: 662.091854, 146: 537.0271760000001, 147: 668.394761, 148: 523.303507, 149: 282.433765, 150: 390.024866, 151: 8.489833000000001, 152: 481.661052, 153: 184.889887, 154: 501.097651, 155: 540.605611, 156: 138.373079, 157: 77.504034, 158: 252.53461, 159: 515.992971, 160: 436.128892, 161: 953.687941, 162: 152.360356, 163: 653.664644, 164: 1083.650892, 165: 237.555268, 166: 115.153195, 167: 425.08291, 168: 1162.716219, 169: 104.69129, 170: 744.380223, 171: 825.793887, 172: 971.963851, 173: 81.79782299999999, 174: 731.681795, 175: 108.07698, 176: 708.9625590000001, 177: 952.176134, 178: 734.727533, 179: 652.46946, 180: 360.126518, 181: 546.4533269999999, 182: 576.135442, 183: 267.236366, 184: 547.740863, 185: 75.18244900000001, 186: 276.81291, 187: 164.196884, 188: 500.479147, 189: 428.114474, 190: 407.230901, 191: 110.834965];
earn = [0: 0.378661, 1: 1.532767, 2: 2.190749, 3: 1.246968, 4: 1.312219, 5: 0.126939, 6: 1.066945, 7: 1.838495, 8: 1.493571, 9: 0.549079, 10: 1.309122, 11: 1.147551, 12: 0.563068, 13: 0.7883, 14: 1.779793, 15: 1.056874, 16: 0.35136, 17: 0.303127, 18: 1.900292, 19: 1.875425, 20: 0.106645, 21: 1.651696, 22: 0.500424, 23: 1.356083, 24: 0.33957, 25: 0.9816550000000001, 26: 0.230171, 27: 0.136506, 28: 2.069424, 29: 0.835107, 30: 0.953305, 31: 0.6822780000000001, 32: 0.618622, 33: 0.7440290000000001, 34: 0.200643, 35: 0.343915, 36: 0.16937, 37: 0.074295, 38: -0.026041, 39: -0.004836, 40: -0.014758, 41: -0.003225, 42: -0.019094, 43: -0.039413, 44: -0.183916, 45: -0.185564, 46: -0.278712, 47: -0.336132, 48: -0.337887, 49: -0.116207, 50: -0.07249899999999999, 51: -0.037964, 52: -0.059297, 53: -0.025024, 54: -0.016644, 55: -0.039896, 56: -0.005722, 57: -0.016812, 58: -0.006026, 59: -0.000175, 60: 0.027256, 61: 0.1923, 62: 0.777353, 63: 1.010506, 64: 1.350123, 65: 1.032552, 66: 0.569395, 67: 1.996989, 68: 0.728776, 69: 1.655397, 70: 2.742405, 71: 2.52801, 72: 2.397266, 73: 2.961752, 74: 2.696931, 75: 1.577616, 76: 0.750692, 77: 0.254041, 78: 1.738706, 79: 0.633555, 80: 3.112302, 81: 2.989354, 82: 2.87586, 83: 1.767691, 84: 0.434267, 85: 0.504322, 86: 1.858547, 87: 2.656093, 88: 1.479799, 89: 0.896791, 90: 0.7743989999999999, 91: 1.777207, 92: 0.291879, 93: 2.17502, 94: 2.452016, 95: 1.160027, 96: 0.104305, 97: 1.308277, 98: 1.494083, 99: 0.836686, 100: 1.542771, 101: 0.868166, 102: 0.14001, 103: 0.229321, 104: 0.974456, 105: 1.167728, 106: 1.993566, 107: 0.301984, 108: 0.664888, 109: 1.933599, 110: 0.480133, 111: 1.354787, 112: 1.080275, 113: 0.108977, 114: 0.568387, 115: 1.058042, 116: 2.12378, 117: 1.689068, 118: 1.252329, 119: 2.261757, 120: 1.807282, 121: 2.110345, 122: 0.197684, 123: 2.08674, 124: 1.080626, 125: 0.942774, 126: 2.833915, 127: 0.059409, 128: 0.332559, 129: 0.286725, 130: 1.699906, 131: 0.840365, 132: 1.897649, 133: 0.501534, 134: 1.489381, 135: 1.085665, 136: 0.726283, 137: 1.29984, 138: 0.449328, 139: 1.217781, 140: 0.118143, 141: 0.554172, 142: 0.237188, 143: 0.649912, 144: 0.320358, 145: 0.256426, 146: 0.023104, 147: 0.247429, 148: 0.246744, 149: 0.27635, 150: 0.097797, 151: 1.159438, 152: 0.138446, 153: 1.437238, 154: 0.615333, 155: 1.062331, 156: 1.60105, 157: 0.359397, 158: 2.564316, 159: 0.71362, 160: 1.359153, 161: 0.154903, 162: 0.900962, 163: 2.137294, 164: 3.209672, 165: 3.196499, 166: 3.09516, 167: 3.562896, 168: 3.731754, 169: 0.732384, 170: 3.487258, 171: 2.325701, 172: 2.585573, 173: 4.500396, 174: 0.224227, 175: 2.680271, 176: 2.684021, 177: 3.714756, 178: 1.001825, 179: 1.456357, 180: 2.17701, 181: 2.189625, 182: 0.357093, 183: 1.042171, 184: 1.259027, 185: 0.548, 186: 2.304101, 187: 2.931102, 188: 0.100543, 189: 0.028391, 190: 0.171678, 191: 0.07921400000000001];
total_cost = 95.98731030191692;
total_earn = 33.11587267398446;
