production = [0: 0.0, 1: 0.0, 2: 0.0, 3: 0.0, 4: 0.0, 5: 0.0, 6: 0.0, 7: 0.0, 8: 0.0, 9: 0.0, 10: 0.0, 11: 0.0, 12: 0.0, 13: 0.0, 14: 0.0, 15: 0.0, 16: 0.0, 17: 0.0, 18: 0.0, 19: 0.0, 20: 0.0, 21: 0.000487, 22: 5e-05, 23: 0.000337, 24: 0.011265, 25: 0.02912, 26: 0.022532, 27: 0.080875, 28: 0.025349, 29: 0.073612, 30: 0.045135, 31: 0.004999, 32: 0.044864, 33: 0.11653, 34: 0.209927, 35: 0.671029, 36: 0.403396, 37: 0.652788, 38: 0.209245, 39: 0.934253, 40: 0.698041, 41: 0.524892, 42: 0.237997, 43: 0.7030729999999999, 44: 0.616225, 45: 0.094962, 46: 0.244573, 47: 0.061685, 48: 0.031849, 49: 0.009671000000000001, 50: 0.022213, 51: 0.045902, 52: 0.07751, 53: 0.520593, 54: 0.484052, 55: 0.221026, 56: 0.002812, 57: 0.269181, 58: 0.130381, 59: 0.028107, 60: 0.111928, 61: 0.420051, 62: 0.378101, 63: 0.278185, 64: 0.039041, 65: 0.07460700000000001, 66: 0.103392, 67: 0.038248, 68: 0.06399299999999999, 69: 0.012909, 70: 0.027654, 71: 0.00886, 72: 0.002081, 73: 0.000616, 74: 7.6e-05, 75: 0.0, 76: 0.0, 77: 0.0, 78: 0.0, 79: 0.0, 80: 0.0, 81: 0.0, 82: 0.0, 83: 0.0, 84: 0.0, 85: 0.0, 86: 0.0, 87: 0.0, 88: 0.0, 89: 0.0, 90: 0.0, 91: 0.0, 92: 0.0, 93: 0.0, 94: 0.0, 95: 0.0, 96: 0.0, 97: 0.0, 98: 0.0, 99: 0.0, 100: 0.0, 101: 0.0, 102: 0.0, 103: 0.0, 104: 0.0, 105: 0.0, 106: 0.0, 107: 0.0, 108: 0.0, 109: 0.0, 110: 0.0, 111: 0.0, 112: 0.0, 113: 0.0, 114: 0.0, 115: 0.0, 116: 0.0, 117: 0.0, 118: 0.000962, 119: 0.0024, 120: 0.005896, 121: 0.034518, 122: 0.046977, 123: 0.145431, 124: 0.041534, 125: 0.147254, 126: 0.194366, 127: 0.00069, 128: 0.385018, 129: 0.153804, 130: 0.431298, 131: 0.25194, 132: 0.056719, 133: 0.37292, 134: 0.86021, 135: 0.324742, 136: 0.785962, 137: 0.146608, 138: 0.01767, 139: 1.040997, 140: 1.412515, 141: 0.375445, 142: 0.564752, 143: 0.717693, 144: 0.888215, 145: 0.900396, 146: 0.978095, 147: 0.239653, 148: 0.136546, 149: 0.545617, 150: 0.838712, 151: 0.54125, 152: 0.332022, 153: 0.173763, 154: 0.312703, 155: 0.284345, 156: 0.265365, 157: 0.012373, 158: 0.255803, 159: 0.004532, 160: 0.268757, 161: 0.151659, 162: 0.069768, 163: 0.032278, 164: 0.137689, 165: 0.008031999999999999, 166: 0.055176, 167: 0.045664, 168: 0.004138, 169: 0.000549, 170: 0.0, 171: 0.000229, 172: 0.0, 173: 0.0, 174: 0.0, 175: 0.0, 176: 0.0, 177: 0.0, 178: 0.0, 179: 0.0, 180: 0.0, 181: 0.0, 182: 0.0, 183: 0.0, 184: 0.0, 185: 0.0, 186: 0.0, 187: 0.0, 188: 0.0, 189: 0.0, 190: 0.0, 191: 0.0];
buy = [0: 818.436553, 1: 357.186356, 2: 31.446253, 3: 656.368732, 4: 78.252259, 5: 344.328631, 6: 977.961217, 7: 684.476765, 8: 377.417916, 9: 449.193217, 10: 929.685374, 11: 877.542835, 12: 285.83262, 13: 22.097444, 14: 239.662394, 15: 790.079912, 16: 832.083078, 17: 925.2008520000001, 18: 914.937826, 19: 424.331421, 20: 84.23626, 21: 699.410814, 22: 985.410438, 23: 231.248397, 24: 422.593029, 25: 257.003167, 26: 189.691567, 27: 840.015071, 28: 103.683537, 29: 124.244343, 30: 483.834125, 31: 749.962298, 32: 270.252925, 33: 699.011489, 34: 823.3620969999999, 35: 846.890351, 36: 391.090496, 37: 850.383569, 38: 841.876903, 39: 261.941335, 40: 634.605378, 41: 738.734926, 42: 485.276232, 43: 204.859176, 44: 232.883489, 45: 814.5332100000001, 46: 986.130033, 47: 930.454368, 48: 856.34559, 49: 505.66292, 50: 249.5213, 51: 890.442959, 52: 831.1689260000001, 53: 839.2996460000001, 54: 5.724321, 55: 970.999506, 56: 195.443877, 57: 281.784715, 58: 937.702557, 59: 6.589157, 60: 979.583195, 61: 510.574068, 62: 125.471993, 63: 604.354699, 64: 955.682627, 65: 514.8189170000001, 66: 309.858966, 67: 517.875801, 68: 205.279052, 69: 655.385719, 70: 381.50327, 71: 382.387699, 72: 135.141699, 73: 985.6123260000001, 74: 575.976694, 75: 986.802939, 76: 85.391926, 77: 258.678758, 78: 239.282922, 79: 533.094722, 80: 457.891977, 81: 914.9063599999999, 82: 422.015588, 83: 207.430876, 84: 27.071835, 85: 94.45061099999999, 86: 347.077121, 87: 58.290382, 88: 813.1597420000001, 89: 16.444531, 90: 94.308436, 91: 54.796303, 92: 698.854419, 93: 990.39459, 94: 205.931329, 95: 851.642771, 96: 389.392319, 97: 546.5848120000001, 98: 34.549318, 99: 982.145629, 100: 179.942558, 101: 105.88289, 102: 321.422722, 103: 432.601959, 104: 376.421023, 105: 156.318448, 106: 515.547901, 107: 711.73959, 108: 186.055813, 109: 290.807376, 110: 752.889492, 111: 256.150357, 112: 28.480941, 113: 694.801392, 114: 853.5876469999999, 115: 219.980283, 116: 66.479327, 117: 235.175699, 118: 690.519445, 119: 963.508168, 120: 638.3374, 121: 97.797652, 122: 426.480541, 123: 650.544096, 124: 763.901261, 125: 2.535521, 126: 54.018964, 127: 300.974085, 128: 22.301292, 129: 931.656372, 130: 848.642686, 131: 364.678778, 132: 104.790913, 133: 209.501694, 134: 354.891362, 135: 609.535715, 136: 902.815507, 137: 531.960551, 138: 526.46713, 139: 50.317972, 140: 933.896763, 141: 198.802707, 142: 14.681192, 143: 954.000093, 144: 426.544678, 145: 424.926439, 146: 191.627816, 147: 339.039594, 148: 652.044988, 149: 94.28369600000001, 150: 497.559571, 151: 855.292433, 152: 32.363905, 153: 153.580128, 154: 366.697701, 155: 158.217627, 156: 995.392396, 157: 2.300776, 158: 263.134232, 159: 761.41703, 160: 720.074425, 161: 324.866139, 162: 863.2523619999999, 163: 329.703166, 164: 332.229167, 165: 635.99811, 166: 494.573317, 167: 998.058032, 168: 226.21575, 169: 591.650494, 170: 599.25474, 171: 263.538635, 172: 559.883655, 173: 908.79799, 174: 613.490009, 175: 841.36569, 176: 584.15165, 177: 185.818923, 178: 403.415287, 179: 498.941902, 180: 544.049236, 181: 802.176184, 182: 99.57068200000001, 183: 259.479894, 184: 211.640235, 185: 362.25692, 186: 227.210862, 187: 372.502606, 188: 543.905068, 189: 687.1653669999999, 190: 928.325012, 191: 442.562092];
sell = [0: 0.525842, 1: 3.593753, 2: 2.091049, 3: 2.43958, 4: 0.577152, 5: 3.39913, 6: 3.077921, 7: 3.247955, 8: 0.5300820000000001, 9: 1.942536, 10: 2.039203, 11: 3.76793, 12: 1.35116, 13: 2.411751, 14: 1.062381, 15: 0.28309, 16: 1.476422, 17: 0.73678, 18: 3.473337, 19: 2.864744, 20: 1.684808, 21: 1.617003, 22: 2.118092, 23: 2.261291, 24: 3.370477, 25: 1.332936, 26: 1.417078, 27: 1.051029, 28: 3.231819, 29: 1.692148, 30: 1.707197, 31: 1.081714, 32: 3.990409, 33: 3.886363, 34: 2.300853, 35: 2.034135, 36: 3.730526, 37: 0.46905, 38: 0.19076, 39: 1.960215, 40: 1.197742, 41: 1.697569, 42: 1.836697, 43: 2.112107, 44: 1.700012, 45: 0.8068959999999999, 46: 3.996092, 47: 3.011566, 48: 2.269346, 49: 3.501181, 50: 1.751492, 51: 3.439878, 52: 1.578486, 53: 2.580018, 54: 0.457521, 55: 1.591354, 56: 2.843392, 57: 1.131143, 58: 0.388735, 59: 3.578714, 60: 0.848584, 61: 3.11271, 62: 2.656429, 63: 1.594782, 64: 3.650014, 65: 0.05126, 66: 3.981174, 67: 2.187639, 68: 3.436349, 69: 1.810033, 70: 1.287237, 71: 3.022124, 72: 3.550636, 73: 0.23425, 74: 3.557887, 75: 3.885973, 76: 3.207311, 77: 3.676256, 78: 0.053459, 79: 0.134399, 80: 2.495115, 81: 3.361884, 82: 1.208452, 83: 0.521772, 84: 0.523327, 85: 3.065253, 86: 0.364151, 87: 3.588689, 88: 0.550865, 89: 2.458666, 90: 2.750213, 91: 1.149495, 92: 3.893378, 93: 0.979267, 94: 3.156497, 95: 2.11713, 96: 0.46745, 97: 1.815197, 98: 0.860726, 99: 0.675693, 100: 1.953967, 101: 0.561607, 102: 1.041816, 103: 3.606903, 104: 2.481964, 105: 0.06665, 106: 2.250877, 107: 0.634583, 108: 0.292213, 109: 2.592278, 110: 0.84105, 111: 3.103049, 112: 0.8539949999999999, 113: 3.219138, 114: 1.573261, 115: 1.772533, 116: 0.745528, 117: 3.827358, 118: 0.172932, 119: 1.366861, 120: 0.376706, 121: 2.791659, 122: 2.269799, 123: 2.467983, 124: 1.678083, 125: 3.075672, 126: 1.839773, 127: 1.073153, 128: 0.074502, 129: 0.884466, 130: 1.248348, 131: 2.828592, 132: 3.467334, 133: 0.605873, 134: 0.039503, 135: 3.323286, 136: 1.33084, 137: 2.535896, 138: 0.113417, 139: 1.121309, 140: 0.965722, 141: 3.570982, 142: 3.886537, 143: 1.103207, 144: 1.879462, 145: 2.331787, 146: 2.686675, 147: 3.77191, 148: 1.849772, 149: 3.700375, 150: 2.624823, 151: 2.526649, 152: 0.711085, 153: 1.724862, 154: 3.252965, 155: 0.138899, 156: 2.413808, 157: 3.733901, 158: 2.321091, 159: 0.501819, 160: 1.863963, 161: 2.742882, 162: 1.162323, 163: 2.360225, 164: 3.839768, 165: 3.697898, 166: 2.141701, 167: 1.857497, 168: 3.332236, 169: 0.58087, 170: 1.199089, 171: 1.897589, 172: 1.404224, 173: 0.961153, 174: 2.525569, 175: 2.110273, 176: 0.996572, 177: 3.517591, 178: 0.779921, 179: 3.70537, 180: 3.962012, 181: 0.608165, 182: 3.394004, 183: 2.050974, 184: 0.754744, 185: 3.833942, 186: 2.146691, 187: 0.839928, 188: 2.830684, 189: 0.662349, 190: 3.242243, 191: 3.409217];
charge = [0: 0.750367, 1: 0.574156, 2: 0.765267, 3: 0.554321, 4: 0.505176, 5: 0.830214, 6: 0.140127, 7: 0.476581, 8: 0.485287, 9: 0.5807369999999999, 10: 0.387764, 11: 0.453375, 12: 0.259578, 13: 0.887782, 14: 0.466462, 15: 0.525286, 16: 0.854734, 17: 0.394779, 18: 0.764313, 19: 0.192858, 20: 0.058101, 21: 0.50027, 22: 0.611927, 23: 0.138375, 24: 0.652342, 25: 0.7670670000000001, 26: 0.291775, 27: 0.84862, 28: 0.7699240000000001, 29: 0.85234, 30: 0.667459, 31: 0.691563, 32: 0.6724020000000001, 33: 0.785883, 34: 0.251491, 35: 0.768958, 36: 0.481319, 37: 0.735887, 38: 0.169501, 39: 0.720468, 40: 0.611196, 41: 0.770159, 42: 0.342839, 43: 0.051712, 44: 0.275428, 45: 0.08928999999999999, 46: 0.603561, 47: 0.197751, 48: 0.118305, 49: 0.498197, 50: 0.279105, 51: 0.705084, 52: 0.3504, 53: 0.520819, 54: 0.034165, 55: 0.592522, 56: 0.75766, 57: 0.930662, 58: 0.69579, 59: 0.806492, 60: 0.119982, 61: 0.565238, 62: 0.576063, 63: 0.088973, 64: 0.08550000000000001, 65: 0.904525, 66: 0.968082, 67: 0.702922, 68: 0.09837799999999999, 69: 0.681491, 70: 0.411157, 71: 0.22766, 72: 0.398814, 73: 0.178825, 74: 0.663436, 75: 0.056381, 76: 0.073239, 77: 0.73106, 78: 0.044075, 79: 0.366025, 80: 0.301024, 81: 0.532231, 82: 0.881157, 83: 0.393911, 84: 0.599521, 85: 0.306529, 86: 0.375603, 87: 0.537208, 88: 0.463603, 89: 0.438723, 90: 0.5778990000000001, 91: 0.916243, 92: 0.158748, 93: 0.403619, 94: 0.464302, 95: 0.143263, 96: 0.236532, 97: 0.753759, 98: 0.292995, 99: 0.160276, 100: 0.323419, 101: 0.007187, 102: 0.937823, 103: 0.241872, 104: 0.77261, 105: 0.304808, 106: 0.497689, 107: 0.231666, 108: 0.023758, 109: 0.763062, 110: 0.068786, 111: 0.716653, 112: 0.620499, 113: 0.902707, 114: 0.813129, 115: 0.314147, 116: 0.294422, 117: 0.612156, 118: 0.90856, 119: 0.725202, 120: 0.586817, 121: 0.403765, 122: 0.7147019999999999, 123: 0.257208, 124: 0.158841, 125: 0.225916, 126: 0.894784, 127: 0.06683799999999999, 128: 0.439756, 129: 0.036058, 130: 0.359799, 131: 0.307287, 132: 0.8241309999999999, 133: 0.024548, 134: 0.990196, 135: 0.7631520000000001, 136: 0.747529, 137: 0.070017, 138: 0.447586, 139: 0.896497, 140: 0.786255, 141: 0.9117420000000001, 142: 0.31973, 143: 0.279805, 144: 0.357762, 145: 0.265197, 146: 0.744407, 147: 0.374672, 148: 0.181364, 149: 0.823253, 150: 0.187053, 151: 0.435385, 152: 0.006025, 153: 0.513877, 154: 0.157374, 155: 0.019917, 156: 0.19042, 157: 0.03651, 158: 0.513984, 159: 0.842271, 160: 0.486222, 161: 0.717064, 162: 0.455001, 163: 0.644111, 164: 0.247896, 165: 0.804705, 166: 0.40236, 167: 0.454148, 168: 0.22831, 169: 0.200805, 170: 0.532007, 171: 0.386193, 172: 0.626583, 173: 0.207584, 174: 0.599089, 175: 0.16763, 176: 0.452421, 177: 0.073175, 178: 0.349322, 179: 0.5680539999999999, 180: 0.252898, 181: 0.710512, 182: 0.352161, 183: 0.582175, 184: 0.105253, 185: 0.523752, 186: 0.46127, 187: 0.439171, 188: 0.423783, 189: 0.217633, 190: 0.002585, 191: 0.09253];
discharge = [0: 0.227284, 1: 0.401266, 2: 0.166772, 3: 0.146515, 4: 0.880481, 5: 0.330711, 6: 0.779703, 7: 0.417301, 8: 0.484753, 9: 0.440432, 10: 0.52159, 11: 0.83534, 12: 0.524461, 13: 0.7319600000000001, 14: 0.509889, 15: 0.110352, 16: 0.8442809999999999, 17: 0.214221, 18: 0.69271, 19: 0.707276, 20: 0.36877, 21: 0.961001, 22: 0.46323, 23: 0.221656, 24: 0.52828, 25: 0.796346, 26: 0.456709, 27: 0.058353, 28: 0.242268, 29: 0.967164, 30: 0.339115, 31: 0.092183, 32: 0.292141, 33: 0.814051, 34: 0.741823, 35: 0.612127, 36: 0.062497, 37: 0.216752, 38: 0.887585, 39: 0.579685, 40: 0.431811, 41: 0.676156, 42: 0.085022, 43: 0.5016929999999999, 44: 0.040173, 45: 0.79375, 46: 0.864027, 47: 0.432045, 48: 0.742629, 49: 0.838404, 50: 0.158831, 51: 0.314899, 52: 0.544225, 53: 0.891674, 54: 0.001276, 55: 0.872471, 56: 0.542087, 57: 0.058174, 58: 0.741654, 59: 0.043396, 60: 0.738231, 61: 0.292396, 62: 0.143184, 63: 0.175242, 64: 0.021353, 65: 0.07106899999999999, 66: 0.923876, 67: 0.892293, 68: 0.469531, 69: 0.860213, 70: 0.038278, 71: 0.073056, 72: 0.456371, 73: 0.156077, 74: 0.025157, 75: 0.055212, 76: 0.232714, 77: 0.281047, 78: 0.309869, 79: 0.8127180000000001, 80: 0.785693, 81: 0.312005, 82: 0.470579, 83: 0.5444909999999999, 84: 0.161631, 85: 0.072338, 86: 0.078929, 87: 0.064488, 88: 0.9061630000000001, 89: 0.06257, 90: 0.188144, 91: 0.500126, 92: 0.838862, 93: 0.34594, 94: 0.177807, 95: 0.219806, 96: 0.492043, 97: 0.727874, 98: 0.959319, 99: 0.8560759999999999, 100: 0.456311, 101: 0.371611, 102: 0.582776, 103: 0.497293, 104: 0.856735, 105: 0.606155, 106: 0.286402, 107: 0.839512, 108: 0.523084, 109: 0.798085, 110: 0.144935, 111: 0.073591, 112: 0.610536, 113: 0.696052, 114: 0.626192, 115: 0.512697, 116: 0.426405, 117: 0.595448, 118: 0.484576, 119: 0.140903, 120: 0.461004, 121: 0.067868, 122: 0.794515, 123: 0.577847, 124: 0.471562, 125: 0.372946, 126: 0.91947, 127: 0.283082, 128: 0.776531, 129: 0.517195, 130: 0.424382, 131: 0.5395450000000001, 132: 0.559155, 133: 0.064442, 134: 0.318087, 135: 0.87856, 136: 0.116111, 137: 0.87719, 138: 0.36851, 139: 0.463492, 140: 0.969101, 141: 0.8068920000000001, 142: 0.858387, 143: 0.232147, 144: 0.493146, 145: 0.114815, 146: 0.136391, 147: 0.079611, 148: 0.64222, 149: 0.040188, 150: 0.844537, 151: 0.554664, 152: 0.716332, 153: 0.878597, 154: 0.993986, 155: 0.257476, 156: 0.665445, 157: 0.906534, 158: 0.533856, 159: 0.475742, 160: 0.478048, 161: 0.70182, 162: 0.566684, 163: 0.821152, 164: 0.246665, 165: 0.193213, 166: 0.453713, 167: 0.643544, 168: 0.974658, 169: 0.413005, 170: 0.127867, 171: 0.375061, 172: 0.923979, 173: 0.20844, 174: 0.69362, 175: 0.128241, 176: 0.8115830000000001, 177: 0.937254, 178: 0.235574, 179: 0.906098, 180: 0.813739, 181: 0.236315, 182: 0.317107, 183: 0.357091, 184: 0.137834, 185: 0.217955, 186: 0.680105, 187: 0.774203, 188: 0.982643, 189: 0.702163, 190: 0.264153, 191: 0.152935];
soc = [0: 3.278615, 1: 3.872486, 2: 3.392647, 3: 3.518763, 4: 5.661627, 5: 3.653739, 6: 8.613065000000001, 7: 11.170523, 8: 7.816424, 9: 3.272038, 10: 9.699458, 11: 11.311309, 12: 3.731869, 13: 5.666827, 14: 5.674954, 15: 9.753647000000001, 16: 11.307942, 17: 9.613768, 18: 13.471581, 19: 11.68381, 20: 6.165708, 21: 5.441576, 22: 10.880092, 23: 5.913326, 24: 11.271769, 25: 13.834858, 26: 6.685353, 27: 3.296167, 28: 13.528616, 29: 7.477176, 30: 13.118465, 31: 6.50312, 32: 5.085842, 33: 15.512827, 34: 8.730116000000001, 35: 10.296813, 36: 10.367299, 37: 10.218389, 38: 3.809736, 39: 5.952552, 40: 10.218322, 41: 6.15916, 42: 6.705399, 43: 10.036187, 44: 5.84464, 45: 7.233073, 46: 3.707692, 47: 6.730178, 48: 9.749159000000001, 49: 7.956973, 50: 7.171604, 51: 4.371229, 52: 13.96272, 53: 5.522771, 54: 13.176958, 55: 7.312591, 56: 5.266496, 57: 10.133364, 58: 8.568647, 59: 7.615467, 60: 6.394343, 61: 8.281281, 62: 13.997959, 63: 4.170293, 64: 9.699621, 65: 3.115362, 66: 10.602267, 67: 12.279137, 68: 7.470557, 69: 4.707485, 70: 10.781177, 71: 9.037019000000001, 72: 12.307656, 73: 4.84515, 74: 11.006452, 75: 11.725552, 76: 13.899394, 77: 15.38372, 78: 5.488801, 79: 3.543134, 80: 14.629608, 81: 10.089206, 82: 10.427709, 83: 15.363712, 84: 7.333077, 85: 3.497968, 86: 11.006003, 87: 14.221589, 88: 4.680793, 89: 5.937114, 90: 11.641066, 91: 3.999968, 92: 15.193826, 93: 2.91799, 94: 10.998077, 95: 15.659186, 96: 8.308958000000001, 97: 10.504702, 98: 6.792184, 99: 4.880943, 100: 3.32672, 101: 11.879439, 102: 7.519307, 103: 10.867081, 104: 14.884214, 105: 9.987304, 106: 6.869301, 107: 5.238846, 108: 3.970796, 109: 7.394295, 110: 14.229088, 111: 2.920796, 112: 4.837026, 113: 8.286473000000001, 114: 7.882504, 115: 13.538304, 116: 14.892044, 117: 12.775426, 118: 5.076128, 119: 4.296813, 120: 5.045008, 121: 9.846085, 122: 3.6519, 123: 12.654996, 124: 7.93395, 125: 3.691935, 126: 7.255638, 127: 2.754391, 128: 3.117732, 129: 8.062269000000001, 130: 3.502888, 131: 13.158041, 132: 12.707981, 133: 5.645743, 134: 7.419585, 135: 3.986498, 136: 8.360191, 137: 11.62866, 138: 9.806744, 139: 5.462864, 140: 7.195439, 141: 15.263982, 142: 6.82443, 143: 4.709511, 144: 6.531326, 145: 9.789956999999999, 146: 6.030829, 147: 13.728471, 148: 10.761569, 149: 7.589732, 150: 5.648979, 151: 10.947336, 152: 11.899285, 153: 14.284517, 154: 12.653704, 155: 13.813517, 156: 8.698477, 157: 4.391178, 158: 8.579846, 159: 13.024022, 160: 4.740163, 161: 3.947665, 162: 7.258618, 163: 6.53334, 164: 9.490373999999999, 165: 2.883798, 166: 9.799064, 167: 3.481491, 168: 13.716897, 169: 12.127517, 170: 10.606057, 171: 3.378383, 172: 3.518311, 173: 8.354839999999999, 174: 5.450114, 175: 12.614402, 176: 11.276361, 177: 10.727621, 178: 14.760446, 179: 8.000793, 180: 8.131914, 181: 13.225304, 182: 8.178402, 183: 14.245386, 184: 14.802815, 185: 9.12872, 186: 7.046881, 187: 9.366498, 188: 3.965609, 189: 8.883077999999999, 190: 15.665223, 191: 10.489167];
cost = [0: 534.712312, 1: 412.526913, 2: 266.994107, 3: 171.995222, 4: 207.365055, 5: 326.043801, 6: 278.785686, 7: 481.805474, 8: 36.517637, 9: 582.4510749999999, 10: 15.191741, 11: 403.904585, 12: 554.874363, 13: 446.939014, 14: 7.365729, 15: 442.275427, 16: 462.409578, 17: 332.236538, 18: 601.466691, 19: 0.663552, 20: 364.89776, 21: 357.616459, 22: 211.976621, 23: 141.831452, 24: 52.059589, 25: 46.866884, 26: 827.641648, 27: 763.0605839999999, 28: 17.33603, 29: 159.608742, 30: 770.555117, 31: 344.135923, 32: 890.236003, 33: 448.178099, 34: 529.824472, 35: 299.431887, 36: 656.443414, 37: 245.864608, 38: 668.874246, 39: 812.646234, 40: 490.54912, 41: 635.216322, 42: 824.148973, 43: 90.14259800000001, 44: 1116.385686, 45: 361.224847, 46: 810.819854, 47: 618.052558, 48: 1059.612955, 49: 473.055703, 50: 1082.435156, 51: 284.038716, 52: 376.012725, 53: 21.551648, 54: 456.048544, 55: 214.539871, 56: 194.653824, 57: 579.15072, 58: 372.476952, 59: 205.636066, 60: 291.067186, 61: 947.682133, 62: 136.202908, 63: 166.024131, 64: 84.15305600000001, 65: 746.297923, 66: 717.7040929999999, 67: 123.449313, 68: 430.362745, 69: 429.085186, 70: 792.762339, 71: 9.020060000000001, 72: 843.287701, 73: 861.264849, 74: 287.613629, 75: 477.010005, 76: 555.201442, 77: 237.922321, 78: 1010.287579, 79: 1108.93817, 80: 650.834713, 81: 79.569078, 82: 863.550158, 83: 900.510146, 84: 174.913272, 85: 799.762703, 86: 193.9181, 87: 958.4320290000001, 88: 377.306083, 89: 369.371633, 90: 495.671879, 91: 262.03756, 92: 189.552066, 93: 228.350389, 94: 362.094347, 95: 374.057409, 96: 14.246229, 97: 81.04349499999999, 98: 174.658181, 99: 554.418958, 100: 507.026111, 101: 42.153652, 102: 473.959665, 103: 352.761504, 104: 400.40098, 105: 299.874446, 106: 597.307753, 107: 52.50579, 108: 22.179959, 109: 552.414248, 110: 585.444792, 111: 603.834231, 112: 275.251837, 113: 517.2666819999999, 114: 103.141571, 115: 247.495044, 116: 412.875267, 117: 520.1606880000001, 118: 422.508526, 119: 508.653831, 120: 1129.606274, 121: 559.560757, 122: 1023.897797, 123: 331.805227, 124: 488.874463, 125: 1047.62535, 126: 454.693694, 127: 734.712233, 128: 302.436196, 129: 236.36938, 130: 880.393365, 131: 1083.77449, 132: 1172.227804, 133: 333.986415, 134: 439.782256, 135: 241.906122, 136: 688.249224, 137: 5.499884, 138: 146.821719, 139: 864.60814, 140: 101.921336, 141: 55.120672, 142: 872.503319, 143: 224.158612, 144: 304.522351, 145: 447.036222, 146: 236.449847, 147: 930.099676, 148: 365.819194, 149: 491.464972, 150: 5.422092, 151: 172.690114, 152: 293.520353, 153: 218.248721, 154: 499.406084, 155: 247.411122, 156: 699.72903, 157: 119.026817, 158: 954.09281, 159: 915.5031279999999, 160: 982.074517, 161: 991.138024, 162: 66.690585, 163: 339.697865, 164: 186.577047, 165: 750.6518129999999, 166: 735.029598, 167: 242.356206, 168: 27.094331, 169: 373.341615, 170: 117.121295, 171: 908.114794, 172: 72.967192, 173: 694.4604859999999, 174: 744.007075, 175: 492.561767, 176: 911.8509790000001, 177: 1139.615797, 178: 37.610998, 179: 300.652109, 180: 648.212795, 181: 977.7959980000001, 182: 10.590228, 183: 169.708761, 184: 47.658714, 185: 239.335759, 186: 555.230756, 187: 503.892103, 188: 59.951763, 189: 593.43729, 190: 154.51048, 191: 31.099379];
earn = [0: 1.635325, 1: 0.788173, 2: 2.099056, 3: 1.165083, 4: 1.292048, 5: 1.402065, 6: 0.996953, 7: 1.926689, 8: 0.696106, 9: 1.918203, 10: 1.118929, 11: 1.049987, 12: 1.721005, 13: 0.880082, 14: 0.9895040000000001, 15: 1.400151, 16: 1.457352, 17: 1.247919, 18: 0.43685, 19: 1.764846, 20: 1.724482, 21: 0.272599, 22: 1.160558, 23: 1.308683, 24: 0.114466, 25: 0.635836, 26: 0.972564, 27: 1.212883, 28: 1.005385, 29: 1.586033, 30: 1.619238, 31: 0.383773, 32: 1.002361, 33: 0.294368, 34: 0.330258, 35: 0.115813, 36: 0.07559100000000001, 37: 0.057198, 38: -0.002261, 39: -0.006556, 40: -0.017845, 41: -0.009808000000000001, 42: -0.012018, 43: -0.064175, 44: -0.042249, 45: -0.182927, 46: -0.303847, 47: -0.036029, 48: -0.298435, 49: -0.082095, 50: -0.026051, 51: -0.055019, 52: -0.029068, 53: -0.021368, 54: -0.021911, 55: -0.048055, 56: -0.022451, 57: -0.01456, 58: -0.004931, 59: -0.000283, 60: 0.255484, 61: 0.025649, 62: 0.058095, 63: 0.315507, 64: 0.204609, 65: 0.359329, 66: 1.050239, 67: 0.030209, 68: 2.282823, 69: 2.362536, 70: 0.194111, 71: 2.415264, 72: 0.917547, 73: 1.691233, 74: 0.350096, 75: 3.31095, 76: 2.701265, 77: 1.848462, 78: 3.404612, 79: 0.490667, 80: 0.384841, 81: 1.209639, 82: 1.485222, 83: 0.454546, 84: 1.699729, 85: 2.542734, 86: 2.442806, 87: 0.0984, 88: 1.985548, 89: 2.498595, 90: 1.257233, 91: 1.74336, 92: 2.512894, 93: 1.384816, 94: 2.341581, 95: 1.454115, 96: 1.03286, 97: 1.012528, 98: 1.276412, 99: 0.521872, 100: 2.040086, 101: 2.443766, 102: 0.185769, 103: 0.243268, 104: 1.734882, 105: 0.598028, 106: 1.845149, 107: 2.223664, 108: 2.392924, 109: 2.467877, 110: 2.02295, 111: 2.492965, 112: 1.424535, 113: 1.133056, 114: 1.936019, 115: 1.505163, 116: 0.6150949999999999, 117: 3.046824, 118: 0.831158, 119: 1.127931, 120: 0.170164, 121: 0.539926, 122: 3.583093, 123: 2.81344, 124: 2.334691, 125: 1.446181, 126: 2.475579, 127: 1.863457, 128: 0.424012, 129: 0.941226, 130: 0.258381, 131: 0.314206, 132: 0.125433, 133: 1.1164, 134: 1.247344, 135: 0.756809, 136: 0.800163, 137: 1.022628, 138: 1.013057, 139: 1.184922, 140: 0.159894, 141: 0.516163, 142: 0.45616, 143: 0.336621, 144: 0.535942, 145: 0.139944, 146: 0.555328, 147: 0.270236, 148: 0.170538, 149: 0.769642, 150: 1.1811, 151: 1.522356, 152: 1.808696, 153: 0.231647, 154: 1.351437, 155: 1.564347, 156: 2.013033, 157: 0.04373, 158: 1.46175, 159: 0.85966, 160: 1.201156, 161: 0.662853, 162: 2.815013, 163: 1.892141, 164: 0.09142599999999999, 165: 2.124797, 166: 3.721875, 167: 1.034703, 168: 0.3878, 169: 3.577759, 170: 0.118798, 171: 4.582324, 172: 3.554783, 173: 3.213986, 174: 3.491175, 175: 1.45845, 176: 3.188976, 177: 2.069039, 178: 3.511541, 179: 0.951588, 180: 1.24284, 181: 1.123959, 182: 0.346502, 183: 0.580067, 184: 2.293292, 185: 2.369086, 186: 0.452994, 187: 1.303121, 188: 0.037269, 189: 1.862271, 190: 1.048402, 191: 1.548217];
total_cost = 99.27836566966322;
total_earn = 35.18564863114677;
