production = [0.0, 0.0, 0.0, 0.0, 0.0, 0.0, 0.0, 0.0, 0.0, 0.0, 0.0, 0.0, 0.0, 0.0, 0.0, 0.0, 0.0, 0.0, 0.0, 0.0, 0.0, 0.000177, 0.000255, 0.001871, 0.011805, 0.024337, 0.02353, 0.08772199999999999, 0.038311, 0.059053, 0.101912, 0.309878, 0.566394, 0.727149, 0.9044410000000001, 0.6638269999999999, 0.955853, 1.006958, 0.253821, 1.040854, 0.91503, 0.775958, 0.329368, 0.376485, 0.278977, 0.914165, 0.263179, 0.050864, 0.026292, 0.037049, 0.039152, 0.001342, 0.04292, 0.563373, 0.265332, 0.412016, 0.264807, 0.249359, 0.018727, 0.07928300000000001, 0.117742, 0.319198, 0.122577, 0.082745, 0.002686, 0.059954, 0.18345, 0.019561, 0.06669700000000001, 0.024686, 0.022473, 0.009025999999999999, 0.001254, 0.000518, 0.00013, 0.0, 0.0, 0.0, 0.0, 0.0, 0.0, 0.0, 0.0, 0.0, 0.0, 0.0, 0.0, 0.0, 0.0, 0.0, 0.0, 0.0, 0.0, 0.0, 0.0, 0.0, 0.0, 0.0, 0.0, 0.0, 0.0, 0.0, 0.0, 0.0, 0.0, 0.0, 0.0, 0.0, 0.0, 0.0, 0.0, 0.0, 0.0, 0.0, 0.0, 0.0, 0.0, 0.0, 0.000357, 0.000835, 0.011295, 0.004086, 0.049094, 0.08914900000000001, 0.058854, 0.179664, 0.224786, 0.023493, 0.403825, 0.136837, 0.221607, 0.5044380000000001, 0.292392, 0.583753, 1.120655, 1.426474, 0.444376, 0.628959, 0.993458, 0.829345, 0.513938, 0.930079, 0.543495, 0.648953, 0.867458, 0.986974, 0.655821, 0.562133, 0.983613, 0.233152, 1.216571, 1.395338, 0.237033, 0.373244, 0.138007, 0.028134, 0.140445, 0.106455, 0.057062, 0.247823, 0.084366, 0.048212, 0.208157, 0.144247, 0.184306, 0.075528, 0.020625, 0.025746, 0.009575, 0.00046, 0.0, 4.1e-05, 0.0, 0.0, 0.0, 0.0, 0.0, 0.0, 0.0, 0.0, 0.0, 0.0, 0.0, 0.0, 0.0, 0.0, 0.0, 0.0, 0.0, 0.0, 0.0, 0.0];
buy = [736.5853990000001, 355.626847, 417.552936, 193.291506, 423.122794, 101.969555, 132.595723, 720.19735, 610.645089, 934.685186, 546.290139, 178.428053, 344.490849, 516.564702, 429.524753, 823.1109750000001, 77.58638999999999, 907.104861, 716.888777, 50.990267, 597.1655029999999, 912.848129, 920.575123, 89.40298799999999, 85.858271, 65.783754, 553.753019, 245.947401, 700.753776, 761.412789, 94.892556, 586.664396, 759.585376, 646.87665, 617.2684389999999, 412.000175, 352.48751, 4.746623, 646.180939, 791.329171, 968.509141, 345.651052, 421.864616, 694.52518, 858.882068, 981.223765, 359.397755, 831.773507, 15.852664, 827.385195, 492.083059, 541.68845, 9.295254, 172.88562, 650.158689, 180.764067, 421.486254, 66.99938400000001, 786.695731, 86.051976, 644.397293, 291.632058, 172.055902, 694.103558, 582.305939, 926.70077, 828.6201600000001, 570.316318, 530.251356, 118.288092, 5.935811, 787.72606, 613.027134, 49.332345, 328.818364, 974.452042, 902.895794, 365.800134, 161.89364, 355.292456, 686.8470150000001, 763.556269, 231.434795, 869.837015, 826.160588, 978.874051, 979.078839, 509.593213, 649.221629, 907.879365, 730.566533, 771.063429, 297.678762, 526.310391, 581.251432, 660.968339, 313.911776, 287.555564, 636.880044, 514.305052, 754.318418, 772.0665739999999, 618.576113, 293.628657, 358.280857, 500.86318, 125.568502, 909.012194, 676.817107, 757.345365, 939.649837, 597.213321, 257.462335, 78.431714, 34.261467, 193.476357, 85.08042500000001, 112.98284, 41.43809, 89.60388500000001, 640.076383, 491.202368, 889.128404, 75.399129, 970.035123, 335.729025, 93.450115, 219.532861, 893.234326, 590.811647, 492.183282, 945.621435, 996.749344, 139.365483, 530.304946, 138.638738, 621.53687, 157.640982, 669.431357, 934.3171170000001, 235.725298, 785.175642, 501.142868, 764.311947, 857.474967, 470.914766, 160.977886, 882.4078960000001, 928.506476, 45.688804, 168.68886, 29.229633, 49.625579, 466.341543, 575.33531, 934.127822, 501.944787, 827.807459, 893.820866, 694.896541, 378.932921, 339.436174, 386.693216, 355.32022, 242.877898, 735.658379, 241.186662, 729.78748, 241.436469, 568.744292, 450.584023, 366.486013, 823.5411790000001, 737.4217599999999, 59.417967, 207.23947, 524.302584, 638.821052, 56.055836, 745.728638, 695.355469, 157.732932, 411.846989, 209.971418, 792.887239, 643.775336, 828.116373, 642.759667, 283.643323, 46.228019, 273.754976, 790.707552];
sell = [2.325463, 0.39369, 3.590222, 0.818941, 2.766607, 0.937617, 2.97919, 3.871928, 1.420216, 3.092885, 2.311572, 2.912919, 2.887826, 0.749373, 2.283889, 0.357545, 3.618698, 1.008747, 2.289726, 0.356937, 2.642813, 2.101481, 3.50007, 2.927406, 1.413781, 3.774518, 2.440688, 0.702295, 1.726044, 2.090065, 0.406999, 2.352755, 3.231798, 1.606139, 1.32017, 2.379604, 1.012827, 3.066224, 3.263223, 1.563819, 3.444351, 0.586969, 1.476591, 2.474788, 1.081439, 0.602139, 3.741247, 3.306213, 2.145049, 2.362991, 0.810163, 3.532129, 0.041791, 2.350406, 3.670638, 1.923061, 1.087291, 3.974997, 3.685229, 1.301463, 0.044338, 1.639702, 0.553472, 0.959268, 3.897398, 2.873412, 0.450884, 1.085936, 0.241613, 3.625173, 2.337318, 3.984817, 0.298921, 0.20414, 3.725269, 0.23773, 1.743207, 1.217828, 3.885091, 1.445508, 2.421371, 2.345592, 2.305659, 3.222421, 0.005386, 2.26178, 0.458301, 1.930448, 1.797106, 0.435602, 0.7033160000000001, 2.048588, 0.630582, 2.93808, 0.88569, 3.516769, 0.418792, 2.841756, 3.052306, 3.830871, 0.579703, 1.662275, 0.025926, 0.379791, 1.347934, 2.199329, 0.123775, 2.992644, 3.445759, 3.316994, 1.619305, 2.981558, 3.366982, 1.732214, 0.599074, 2.891134, 1.525324, 3.281511, 2.499021, 0.624981, 0.01298, 1.90781, 2.309268, 2.377939, 1.949654, 1.197775, 1.740302, 1.376904, 0.6012, 0.143488, 2.211292, 2.690112, 3.729812, 0.91688, 3.954841, 1.034255, 1.074261, 0.028809, 0.978411, 2.604607, 0.334689, 0.089506, 2.993341, 1.695205, 3.072596, 3.049322, 3.243167, 3.022476, 0.620526, 1.293329, 0.717784, 0.7171380000000001, 0.568221, 2.975764, 1.250281, 0.409936, 2.609565, 1.247534, 0.484652, 2.905044, 0.516263, 0.192547, 0.934832, 0.719644, 1.410659, 1.64849, 3.981764, 1.068675, 1.0888, 1.673152, 1.07653, 2.650539, 0.7113699999999999, 1.964269, 1.218518, 2.01413, 1.407614, 0.729401, 3.151931, 2.361739, 0.676641, 1.622014, 3.373669, 1.332354, 1.862047, 3.254557, 0.689865, 2.026138, 1.046736, 0.314484, 3.51957, 0.295075];
charge = [0.649499, 0.605138, 0.828499, 0.242309, 0.503239, 0.929378, 0.61742, 0.384782, 0.150863, 0.268272, 0.586381, 0.6459859999999999, 0.022589, 0.364188, 0.990776, 0.028511, 0.337005, 0.816711, 0.521853, 0.784461, 0.160147, 0.115733, 0.519912, 0.161891, 0.33221, 0.468851, 0.926443, 0.382221, 0.158286, 0.560802, 0.513181, 0.937423, 0.535946, 0.856015, 0.189602, 0.713125, 0.918961, 0.328678, 0.225661, 0.636355, 0.013786, 0.481079, 0.501431, 0.00496, 0.001004, 0.109451, 0.417573, 0.418066, 0.894252, 0.001012, 0.281594, 0.776163, 0.595848, 0.41008, 0.27515, 0.875872, 0.905432, 0.308442, 0.687921, 0.24021, 0.21163, 0.287746, 0.337818, 0.722648, 0.606656, 0.666505, 0.6415999999999999, 0.189679, 0.634213, 0.257006, 0.827646, 0.744157, 0.59201, 0.354488, 0.987715, 0.851334, 0.8196909999999999, 0.003938, 0.297063, 0.471095, 0.891167, 0.720301, 0.908199, 0.5013879999999999, 0.5688800000000001, 0.707378, 0.148145, 0.310945, 0.401378, 0.642416, 0.384148, 0.501065, 0.39921, 0.737803, 0.325361, 0.734105, 0.60868, 0.333206, 0.498547, 0.521655, 0.212283, 0.858054, 0.546407, 0.883185, 0.62027, 0.438164, 0.039604, 0.032928, 0.418416, 0.786035, 0.569503, 0.380697, 0.431462, 0.68027, 0.985802, 0.587102, 0.303446, 0.293456, 0.477796, 0.797746, 0.455268, 0.07857500000000001, 0.153827, 0.28567, 0.604862, 0.16542, 0.092964, 0.110766, 0.547158, 0.003901, 0.5169049999999999, 0.406491, 0.205231, 0.401154, 0.731109, 0.555508, 0.922894, 0.06855700000000001, 0.441203, 0.570121, 0.914814, 0.540724, 0.283157, 0.146731, 0.133766, 0.855179, 0.057762, 0.879076, 0.51436, 0.987812, 0.135386, 0.369706, 0.031194, 0.007289, 0.67674, 0.643641, 0.583908, 0.5440199999999999, 0.490536, 0.5802, 0.030279, 0.650183, 0.8991170000000001, 0.831952, 0.523879, 0.011407, 0.619752, 0.780324, 0.245344, 0.446959, 0.539003, 0.17379, 0.230511, 0.788286, 0.817319, 0.528706, 0.893158, 0.20109, 0.218991, 0.447572, 0.273255, 0.021061, 0.985857, 0.790566, 0.783655, 0.334216, 0.8510760000000001, 0.955546, 0.924593, 0.950322, 0.894164, 0.35334];
discharge = [0.7669, 0.987541, 0.400869, 0.31872, 0.492773, 0.183147, 0.154307, 0.786003, 0.112599, 0.014415, 0.171019, 0.179163, 0.475529, 0.863989, 0.413446, 0.648419, 0.016109, 0.977451, 0.061786, 0.578856, 0.86252, 0.831781, 0.921625, 0.647082, 0.631084, 0.437495, 0.507694, 0.94885, 0.62421, 0.62362, 0.385207, 0.669442, 0.700526, 0.566449, 0.029396, 0.125939, 0.883621, 0.794075, 0.928621, 0.220888, 0.264318, 0.406886, 0.401399, 0.240606, 0.6278, 0.682543, 0.912757, 0.572407, 0.145714, 0.3106, 0.366237, 0.8527169999999999, 0.351758, 0.832492, 0.755889, 0.06279800000000001, 0.9648949999999999, 0.494826, 0.074077, 0.093237, 0.694791, 0.840747, 0.110026, 0.102144, 0.488123, 0.568618, 0.477171, 0.405997, 0.715428, 0.310518, 0.6224, 0.484363, 0.025489, 0.084969, 0.307499, 0.325752, 0.147462, 0.997932, 0.317781, 0.433305, 0.278268, 0.9655319999999999, 0.414783, 0.076839, 0.420297, 0.450925, 0.629397, 0.111139, 0.292221, 0.957506, 0.785061, 0.321433, 0.333161, 0.239185, 0.573947, 0.510612, 0.754657, 0.546008, 0.583215, 0.325756, 0.334409, 0.698626, 0.18356, 0.131033, 0.450277, 0.219578, 0.042495, 0.349296, 0.485138, 0.353191, 0.999055, 0.34598, 0.131691, 0.432242, 0.605129, 0.813936, 0.562511, 0.845239, 0.867279, 0.334572, 0.08479299999999999, 0.692804, 0.223556, 0.56099, 0.507698, 0.628861, 0.8868549999999999, 0.896778, 0.564852, 0.06358, 0.38886, 0.8328719999999999, 0.101306, 0.178618, 0.590689, 0.545065, 0.306676, 0.583636, 0.9765470000000001, 0.630677, 0.231094, 0.349812, 0.747492, 0.396139, 0.327319, 0.5124610000000001, 0.338789, 0.576201, 0.100473, 0.5371939999999999, 0.792838, 0.223114, 0.932026, 0.936724, 0.750239, 0.6245579999999999, 0.59689, 0.966109, 0.578503, 0.207533, 0.24107, 0.424032, 0.185298, 0.562832, 0.487097, 0.981239, 0.426451, 0.267049, 0.511397, 0.693276, 0.168553, 0.501704, 0.752043, 0.233311, 0.96716, 0.491888, 0.7585730000000001, 0.812192, 0.379788, 0.555389, 0.932514, 0.144629, 0.275921, 0.396615, 0.558768, 0.675903, 0.06328300000000001, 0.664385, 0.442123, 0.5626679999999999, 0.703014, 0.053669];
soc = [3.441105, 3.234104, 4.162904, 7.129188, 4.662728, 7.385717, 8.951533, 3.756657, 3.052379, 12.572443, 13.423242, 11.162093, 4.873532, 14.252417, 10.989443, 11.693234, 9.467238999999999, 5.818977, 5.096545, 11.790715, 2.920303, 9.315732000000001, 12.077741, 9.068866999999999, 8.374269, 7.982805, 13.331062, 10.784074, 8.313351000000001, 5.994982, 7.844593, 8.827821, 12.763372, 12.35312, 8.936700999999999, 7.428767, 12.870224, 15.171964, 13.088175, 5.608893, 7.944909, 10.111147, 7.313721, 6.432663, 14.143836, 4.996227, 14.651781, 12.819174, 3.473341, 3.158951, 13.848238, 14.839511, 15.118942, 14.79868, 9.697094999999999, 10.059938, 5.842296, 4.112049, 3.999001, 4.58942, 13.33022, 3.451785, 11.86377, 12.344566, 3.217849, 9.822520000000001, 12.08924, 8.545426000000001, 4.86322, 10.251574, 15.1213, 8.371067999999999, 15.460483, 15.643237, 11.030909, 12.465314, 6.74513, 12.196, 10.606868, 14.728143, 13.741865, 8.689475, 3.257776, 10.209889, 12.515426, 3.129582, 6.099011, 4.42511, 4.737875, 7.984236, 8.569855, 11.056456, 4.274017, 7.293302, 14.399269, 9.433339, 6.208549, 9.497733, 6.695629, 15.500308, 9.110791000000001, 14.229286, 2.903053, 11.559627, 14.31178, 10.47881, 14.4255, 9.913734, 3.005293, 9.309922, 4.595292, 2.864218, 11.812443, 4.563452, 6.055018, 7.247276, 8.813399, 10.573265, 14.907192, 11.249563, 4.545178, 8.902168, 4.545727, 10.413613, 14.061132, 15.440111, 7.416059, 5.856193, 6.790811, 6.17539, 14.213048, 2.678441, 13.071182, 3.69173, 8.247078, 3.565753, 13.58596, 3.048533, 6.320719, 8.969073, 13.316354, 13.294627, 13.988251, 8.128683000000001, 12.576575, 4.596626, 4.659446, 7.242143, 3.471891, 13.453684, 15.377601, 14.111792, 6.623032, 7.705473, 11.859367, 5.619268, 3.574793, 6.32638, 9.266275, 4.87278, 10.924881, 5.905363, 12.941938, 12.747582, 6.255852, 4.232418, 14.16881, 6.545318, 6.050084, 5.635008, 8.059161, 13.546534, 7.224843, 8.735423000000001, 7.067527, 5.566008, 4.311362, 7.708469, 14.235786, 15.068604, 4.274076, 2.928305, 7.466118, 6.537413, 13.650611, 9.358593000000001, 9.795541, 9.674968, 3.375908, 6.737487, 8.437626, 5.96859];
cost = [38.814182, 542.87287, 510.737003, 431.901435, 478.871209, 89.053714, 510.542396, 493.126047, 209.426434, 192.254899, 412.557525, 372.985108, 133.015636, 275.632427, 562.948349, 331.899862, 363.420653, 407.75768, 226.927568, 544.463573, 265.241496, 372.797398, 141.493494, 318.03093, 175.985538, 870.869085, 279.108328, 741.188398, 124.250324, 921.065246, 691.369898, 1038.950635, 715.5979139999999, 275.670983, 720.800877, 799.340524, 823.71426, 108.585536, 28.032509, 1040.642999, 337.276783, 809.320867, 132.07739, 220.05621, 327.913276, 950.197037, 811.101132, 894.7703770000001, 414.05108, 1074.496501, 1003.422111, 751.051719, 483.684795, 126.042945, 344.790413, 416.789603, 489.565186, 253.731765, 184.865077, 213.116374, 587.901503, 928.864864, 678.039716, 722.067948, 774.122696, 1174.586722, 973.102755, 638.0368539999999, 343.809876, 147.174828, 579.078841, 456.652274, 916.962578, 541.096826, 675.398025, 217.763361, 908.154242, 117.609804, 963.251929, 817.888393, 573.499579, 185.511157, 212.576694, 173.623594, 849.62628, 226.783147, 603.5856669999999, 674.752375, 221.893442, 309.67609, 3.513194, 595.838048, 579.832691, 345.641908, 319.380408, 170.72403, 117.584855, 170.35865, 47.016449, 391.069623, 535.565098, 77.178133, 77.048027, 149.385285, 151.975588, 154.085651, 574.943174, 484.367394, 71.388426, 186.543623, 143.001121, 271.853551, 372.716749, 390.485078, 233.535104, 474.026621, 19.717246, 423.776144, 489.251733, 546.609516, 824.924343, 1093.427619, 605.839692, 1004.877857, 864.303304, 791.236895, 596.609965, 626.241517, 735.296669, 819.512648, 264.285735, 494.922979, 629.714831, 1014.653958, 428.066622, 620.583419, 635.909166, 63.180111, 888.541006, 808.839544, 652.060221, 92.338965, 1030.498331, 690.4902070000001, 140.066549, 759.194136, 988.561542, 1074.328687, 184.359289, 144.519149, 192.149672, 131.179026, 138.991985, 3.914932, 65.48444499999999, 12.88267, 1070.428078, 532.093677, 20.968913, 634.455111, 779.264632, 291.360167, 1134.387993, 463.030962, 616.788513, 1018.805572, 288.406146, 9.902067000000001, 914.276208, 231.424231, 887.61188, 511.375359, 501.565582, 952.105714, 1105.009945, 420.308448, 280.942042, 1105.952953, 1084.96177, 307.60632, 820.0857099999999, 510.672435, 793.9971880000001, 658.234641, 141.720226, 351.637544, 98.286354, 574.111157, 205.28558, 311.380446, 441.457032, 83.14252];
earn = [0.811574, 1.200057, 2.01235, 1.366827, 1.592086, 0.273949, 1.856076, 1.817968, 0.14154, 1.701804, 0.81248, 0.381288, 0.282371, 0.023928, 1.684004, 0.872235, 0.821341, 0.736826, 1.930081, 0.72138, 1.86682, 1.068758, 0.83291, 0.096036, 2.125232, 1.642864, 0.799938, 0.5119860000000001, 2.048178, 0.3656, 0.555279, 0.213549, 0.779423, 0.755651, 0.196793, 0.204976, 0.085732, 0.06099, -0.027895, -0.003314, -0.00873, -0.002582, -0.019883, -0.055534, -0.004113, -0.204716, -0.244487, -0.288891, -0.016681, -0.244782, -0.127087, -0.050618, -0.05148, -0.015226, -0.055816, -0.053673, -0.017211, -0.023737, -0.002299, -0.000348, 0.364767, 0.295099, 0.626413, 0.527761, 0.6246699999999999, 1.050493, 1.190646, 2.452992, 1.206609, 0.706714, 2.475257, 0.173263, 2.862577, 3.527447, 0.244777, 1.666254, 3.364772, 3.538701, 2.141008, 1.315254, 0.892761, 2.556045, 0.715056, 1.253884, 0.051184, 1.153042, 2.270829, 0.378033, 2.17, 1.283616, 2.527541, 0.063497, 2.038359, 1.255977, 1.404653, 1.558764, 1.296461, 2.133649, 2.011255, 1.499125, 2.013947, 0.166545, 0.918728, 0.071349, 2.073727, 1.945149, 0.911156, 2.034687, 1.18735, 1.962488, 1.737333, 0.548394, 0.874563, 2.107852, 1.692457, 0.765404, 1.518997, 2.747215, 0.822995, 2.942066, 3.451372, 1.933625, 1.35496, 2.718175, 2.310969, 3.47967, 0.844379, 1.594918, 0.470663, 1.53857, 2.273743, 1.03491, 1.582457, 0.359493, 0.54077, 1.614929, 0.336425, 1.308757, 1.214858, 0.282986, 0.284503, 0.296569, 0.083922, 0.321923, 0.51563, 0.310997, 0.353314, 0.071871, 0.341679, 0.948788, 0.173388, 1.094551, 0.638943, 1.723423, 1.557444, 0.715041, 1.01022, 0.057658, 0.534536, 0.256387, 0.155394, 2.76887, 0.5612200000000001, 2.008992, 1.289706, 2.063364, 1.952803, 3.366581, 4.444885, 3.734309, 1.624756, 0.101512, 3.85593, 3.812312, 1.944038, 4.418321, 2.42685, 2.69316, 1.011934, 2.55373, 1.425183, 1.49781, 2.877067, 0.773284, 0.180206, 0.552355, 1.589544, 0.47454, 0.771956, 1.351634, 2.094521, 1.827373];
total_cost = 87.84285957606401;
total_earn = 33.23064832776257;
