open = [1, 1, 1, 1, 1, 1, 1, 1, 1, 1];
satisfied = 
[|    0.0,    0.0,         0.0,         0.0,    0.0,    1.0, 0.0,         0.0,    0.0, 1.0,    0.0, 0.0,         0.0,      0.0,    0.0, 0.499693333,      0.0, 0.300182, 0.0,    0.0,    0.0,    0.0, 1.0,         0.0,    0.0, 1.0,    0.0,    0.0, 0.0,    0.0
 |    1.0,    0.0,         0.0,         0.0,    0.0,    0.0, 0.0,         0.0,    0.0, 0.0,    0.0, 1.0,         0.0,      0.0,    0.0,         0.0,      0.0,      0.0, 0.0,    0.0,    0.0,    0.0, 1.0, 0.666664444,    0.0, 0.0,    0.0,    0.0, 0.0,    0.0
 |    0.0, 0.0001,         1.0, 0.332066667,    1.0,    0.0, 1.0, 0.667331111,    0.0, 0.0,    1.0, 1.0,         0.0,      0.0, 0.0001,         0.0,      0.0,      0.0, 0.0,    0.0,    0.0,    1.0, 0.0,         0.0,    0.0, 0.0,    0.0,    0.0, 0.0,    0.0
 |    0.0,    0.0, 0.662793333, 0.668033333, 0.0001, 0.0001, 1.0,         0.0,    0.0, 0.0, 0.0001, 1.0,         0.0,      1.0,    0.0,         0.0,      1.0,      0.0, 0.0,    0.0,    1.0, 0.0001, 0.0,         0.0,    0.0, 0.0,    0.0,    0.0, 0.0, 0.0001
 |    0.0,    1.0,         0.0,         0.0,    0.0,    0.0, 0.0,         0.0,    0.0, 0.0,    0.0, 0.0,         0.0,      0.0,    0.0, 0.500406667, 0.599388,      0.0, 0.0,    0.0,    0.0,    0.0, 0.0,         0.0, 0.0001, 0.0,    0.0,    0.0, 0.0,    0.0
 |    0.0,    0.0,         0.0,         0.0,    0.0,    0.0, 0.0,         0.0,    0.0, 0.0,    0.0, 0.0,         0.0,      0.0,    0.0,         0.0,      0.0, 0.699918, 1.0,    1.0,    0.0,    0.0, 1.0,         0.0,    1.0, 0.0,    0.0, 0.0001, 1.0,    0.0
 |    0.0,    0.0,         1.0,         0.0,    0.0,    0.0, 0.0,         0.0,    0.0, 0.0,    0.0, 0.0,         0.0, 0.999995,    0.0,         0.0,      0.0,      0.0, 1.0,    0.0,    0.0,    0.0, 0.0,         0.0,    0.0, 0.0,    0.0,    0.0, 0.0,    0.0
 |    0.0,    0.0,         0.0,         0.0,    0.0,    0.0, 0.0, 0.110682222, 0.0001, 1.0,    0.0, 1.0, 0.416851667,      1.0,    0.0,         0.0,      0.0,      0.0, 1.0,    0.0,    0.0,    0.0, 0.0, 0.333435556,    0.0, 1.0,    1.0,    1.0, 1.0,    1.0
 | 0.0001,    0.0,         0.0,         0.0,    0.0,    0.0, 0.0,         0.0,    0.0, 0.0,    0.0, 1.0, 0.583248333,      0.0,    1.0,         0.0,      0.0,      0.0, 0.0,    0.0,    0.0,    0.0, 0.0,         0.0,    0.0, 0.0, 0.0001,    0.0, 0.0,    0.0
 |    0.0,    0.0,         1.0,         0.0,    0.0,    0.0, 0.0, 0.222086667,    1.0, 0.0,    0.0, 1.0,         0.0,      1.0,    0.0,         0.0,      0.0,      0.0, 1.0, 0.0001, 0.0001,    0.0, 0.0,         0.0,    0.0, 0.0,    0.0,    0.0, 0.0,    0.0
 |];
