open = [1, 1, 1, 1, 1, 1, 1, 1, 1, 1];
satisfied = 
[| 0.0,    0.0,         0.0,    0.0,    0.0,    0.0, 0.0,         0.0,    0.0,    0.0,    1.0, 0.0,         0.0,    0.0,    0.0,         0.0,      0.0,           0.300162, 0.0,    0.0,     0.0,    0.0, 0.0, 0.333151111, 0.0, 1.0,    1.0,     0.0, 0.0,         0.0
 | 0.0,    0.0,         0.0,    0.0,    0.0,    0.0, 1.0,         0.0,    0.0,    0.0, 0.0001, 1.0,         0.0,    0.0,    0.0,         0.0,      0.0, 0.6999379999999999, 0.0,    0.0,     1.0,    0.0, 0.0,         0.0, 0.0, 0.0,    0.0,     0.0, 0.0,         0.0
 | 1.0, 0.0001,         0.0,    0.0,    0.0,    0.0, 0.0,         0.0,    0.0, 0.0001,    0.0, 0.0, 0.249838333,    1.0,    0.0, 0.833436667,      0.0,                0.0, 0.0,    1.0,     0.0,    0.0, 0.0,         0.0, 1.0, 1.0,    0.0,     0.0, 0.0,         1.0
 | 0.0,    0.0, 0.663833333,    0.0,    0.0,    0.0, 0.0, 0.444613333,    0.0,    0.0,    0.0, 0.0,         0.0,    0.0, 0.0001,         0.0,      0.0,                0.0, 1.0,    0.0,     0.0,    1.0, 0.0,         0.0, 0.0, 1.0,    0.0, 0.62577, 0.0,         0.0
 | 0.0,    0.0,         0.0,    0.0,    0.0,    1.0, 1.0,         0.0,    0.0,    0.0,    0.0, 0.0,         0.0,    0.0,    0.0, 0.166663333,      0.0,                0.0, 0.0,    0.0,     0.0,    0.0, 0.0,         0.0, 0.0, 1.0,    0.0,     0.0, 1.0,         0.0
 | 1.0,    1.0,         1.0,    0.0,    0.0,    0.0, 0.0,         0.0,    0.0,    0.0,    0.0, 0.0,         0.0,    0.0,    0.0,         0.0,      0.0,                0.0, 0.0,    0.0,     0.0,    0.0, 0.0,         0.0, 1.0, 1.0,    0.0,     0.0, 1.0, 0.166663333
 | 0.0,    0.0,         0.0, 0.0001,    0.0,    0.0, 1.0, 0.555486667,    0.0,    0.0,    0.0, 1.0,         0.0,    0.0,    0.0,         0.0,      0.0,                0.0, 0.0,    0.0,     0.0,    0.0, 0.0,         0.0, 0.0, 0.0,    0.0,     0.0, 0.0,         0.0
 | 0.0,    0.0,         0.0,    0.0,    1.0,    0.0, 1.0,         0.0,    1.0,    1.0,    0.0, 1.0, 0.750261667,    0.0,    0.0,         0.0, 0.000464,                0.0, 0.0,    0.0, 0.49863,    0.0, 1.0,         0.0, 0.0, 1.0,    0.0,     0.0, 0.0,         1.0
 | 0.0,    0.0,         1.0,    1.0,    0.0, 0.0001, 1.0,         0.0, 0.0001,    0.0,    0.0, 0.0,         0.0,    0.0,    0.0,         0.0, 0.999636,                0.0, 0.0,    0.0,     0.0, 0.0001, 1.0,         0.0, 0.0, 0.0,    0.0,     0.0, 0.0,         0.0
 | 0.0,    0.0,         0.0,    0.0, 0.0001,    0.0, 1.0,         0.0,    0.0,    0.0,    0.0, 0.0,         0.0, 0.0001,    1.0,         0.0,      0.0,                0.0, 1.0, 0.0001,     0.0,    0.0, 0.0, 0.666948889, 0.0, 0.0, 0.0001, 0.37433, 0.0,         0.0
 |];
% _objective = 47277.201030065;