buy = 
[|  44.283714286, 64.650372093, 158.697304348,          0.0
 | 157.144857143,          0.0,   71.73726087, 19.566826087
 |  61.130033223,          0.0,  19.565434783, 32.608043478
 |         150.0,  2.791023256,           0.0,          0.0
 |];
amount = 
[| 54.283714286, 64.650372093, 8.697304347999999, 47.825130435
 | 17.144857143,          0.0,       71.73726087, 19.566826087
 | 28.571428571, 32.558604651,      19.565434783, 32.608043478
 |          0.0,  2.791023256,               0.0,          0.0
 |];
stock = 
[|          0.0,   0.0, 150.0, 102.174869565
 |        150.0, 150.0, 150.0,         150.0
 | 32.558604651,   0.0,   0.0,           0.0
 |        150.0, 150.0, 150.0,         150.0
 |];
% _objective = 17909.6594057092;