buy = 
[|       0.0, 214.650372093,               0.0,          0.0
 | 211.24875,           0.0,               0.0,          0.0
 | 168.75125,           0.0, 65.20598700399999, 32.558604651
 |       0.0, 152.791023256,               0.0,          0.0
 |];
amount = 
[|     10.0, 64.650372093, 64.117705882, 64.650372093
 | 71.24875,          0.0,          0.0,          0.0
 | 18.75125, 32.558604651, 32.647382353, 32.558604651
 |      0.0,  2.791023256,  3.234911765,  2.791023256
 |];
stock = 
[|   0.0,         150.0,  85.882294118,  21.231922025
 | 150.0,         150.0,         150.0,         150.0
 | 150.0, 117.441395349,         150.0,         150.0
 |   0.0,         150.0, 146.765088235, 143.974064979
 |];
% _objective = 22627.3433157972;