production = [0: 0.0, 1: 0.0, 2: 0.0, 3: 0.0, 4: 0.0, 5: 0.0, 6: 0.0, 7: 0.0, 8: 0.0, 9: 0.0, 10: 0.0, 11: 0.0, 12: 0.0, 13: 0.0, 14: 0.0, 15: 0.0, 16: 0.0, 17: 0.0, 18: 0.0, 19: 0.0, 20: 0.0, 21: 0.0, 22: 0.0, 23: 0.0005, 24: 0.0, 25: 0.0, 26: 0.0065, 27: 0.0362, 28: 0.0, 29: 0.0302, 30: 0.0, 31: 0.0922, 32: 0.093, 33: 0.0, 34: 0.1447, 35: 0.1467, 36: 0.0, 37: 0.169, 38: 0.1062, 39: 0.0, 40: 0.0, 41: 0.516, 42: 0.0, 43: 0.0, 44: 0.0, 45: 0.5245, 46: 0.6635, 47: 0.0, 48: 0.0, 49: 0.9237, 50: 0.0, 51: 0.0, 52: 0.677, 53: 0.0, 54: 1.1498, 55: 0.0, 56: 0.0, 57: 1.74, 58: 0.0, 59: 0.0, 60: 1.3117, 61: 0.5172, 62: 0.0, 63: 0.4358, 64: 0.9948, 65: 0.0, 66: 0.0, 67: 0.0, 68: 0.0, 69: 0.0, 70: 0.6165, 71: 0.5004999999999999, 72: 0.0, 73: 0.2455, 74: 0.0, 75: 0.0592, 76: 0.0, 77: 0.0, 78: 0.005, 79: 0.0008, 80: 0.0005, 81: 0.0, 82: 0.0, 83: 0.0, 84: 0.0, 85: 0.0, 86: 0.0, 87: 0.0, 88: 0.0, 89: 0.0, 90: 0.0, 91: 0.0, 92: 0.0, 93: 0.0, 94: 0.0, 95: 0.0];
buy = [0: 1.233783333, 1: 0.240383333, 2: 0.0, 3: 0.242083333, 4: 1.243583333, 5: 1.244383333, 6: 1.247083333, 7: 1.248883333, 8: 1.240883333, 9: 0.0, 10: 0.0, 11: 0.0, 12: 0.0, 13: 0.0, 14: 0.70253641, 15: 1.243383333, 16: 1.235783333, 17: 0.0, 18: 1.242883333, 19: 0.0, 20: 0.244883333, 21: 0.115583333, 22: 1.116883333, 23: 1.124583333, 24: 1.123083333, 25: 0.0, 26: 0.112583333, 27: 0.0, 28: 0.0, 29: 0.0, 30: 1.117583333, 31: 0.0, 32: 0.0, 33: 0.0, 34: 0.963183333, 35: 0.960683333, 36: 1.144083333, 37: 0.0, 38: 0.0, 39: 0.035083333, 40: 1.134583333, 41: 0.0, 42: 0.0, 43: 0.0, 44: 0.0, 45: 0.0, 46: 0.451383333, 47: 0.105283333, 48: 1.110783333, 49: 0.0, 50: 0.119883333, 51: 1.258083333, 52: 0.433783333, 53: 1.110083333, 54: 0.0, 55: 1.150883333, 56: 0.0, 57: 0.0, 58: 2.137583333, 59: 2.397083333, 60: 0.0, 61: 1.031883333, 62: 0.003083333, 63: 0.0, 64: 0.858783333, 65: 0.119883333, 66: 0.101583333, 67: 0.0, 68: 0.0, 69: 1.123283333, 70: 0.0, 71: 0.0, 72: 1.383583333, 73: 0.0, 74: 0.0, 75: 1.065883333, 76: 1.124583333, 77: 0.125783333, 78: 1.223583333, 79: 1.180783333, 80: 1.189383333, 81: 0.185883333, 82: 0.171283333, 83: 0.179883333, 84: 0.179883333, 85: 0.171283333, 86: 1.172083333, 87: 1.170583333, 88: 0.158783333, 89: 0.0, 90: 1.325583333, 91: 1.322083333, 92: 1.318583333, 93: 1.319083333, 94: 0.305583333, 95: 0.0];
sell = [0: 0.0, 1: 0.0, 2: 0.656916667, 3: 0.0, 4: 0.0, 5: 0.0, 6: 0.0, 7: 0.0, 8: 0.0, 9: 0.665716667, 10: 0.665716667, 11: 0.657416667, 12: 0.656116667, 13: 0.658616667, 14: 0.0, 15: 0.0, 16: 0.0, 17: 0.657416667, 18: 0.0, 19: 0.656616667, 20: 0.0, 21: 0.0, 22: 0.0, 23: 0.0, 24: 0.0, 25: 0.775716667, 26: 0.0, 27: 0.819816667, 28: 0.788216667, 29: 0.8203166670000001, 30: 0.0, 31: 0.873316667, 32: 0.875416667, 33: 0.781916667, 34: 0.0, 35: 0.0, 36: 0.0, 37: 0.473416667, 38: 0.244616667, 39: 0.0, 40: 0.0, 41: 1.285416667, 42: 0.769416667, 43: 0.758916667, 44: 0.770716667, 45: 1.303616667, 46: 0.0, 47: 0.0, 48: 0.0, 49: 1.710616667, 50: 0.0, 51: 0.0, 52: 0.0, 53: 0.0, 54: 0.034216667, 55: 0.0, 56: 0.249716667, 57: 0.079416667, 58: 0.0, 59: 0.0, 60: 0.888616667, 61: 0.0, 62: 0.0, 63: 0.930716667, 64: 0.0, 65: 0.0, 66: 0.0, 67: 0.791416667, 68: 0.269216667, 69: 0.0, 70: 1.398916667, 71: 1.286916667, 72: 0.0, 73: 0.120716667, 74: 0.763416667, 75: 0.0, 76: 0.0, 77: 0.0, 78: 0.0, 79: 0.0, 80: 0.0, 81: 0.0, 82: 0.0, 83: 0.0, 84: 0.0, 85: 0.0, 86: 0.0, 87: 0.0, 88: 0.0, 89: 0.767616667, 90: 0.0, 91: 0.0, 92: 0.0, 93: 0.0, 94: 0.0, 95: 0.592916667];
charge = [0: 1.0, 1: 0.0, 2: 0.0, 3: 0.0, 4: 1.0, 5: 1.0, 6: 1.0, 7: 1.0, 8: 1.0, 9: 0.0, 10: 0.0, 11: 0.0, 12: 0.0, 13: 0.0, 14: 0.458153077, 15: 1.0, 16: 1.0, 17: 0.0, 18: 1.0, 19: 0.0, 20: 0.0, 21: 0.0, 22: 1.0, 23: 1.0, 24: 1.0, 25: 0.0, 26: 0.0, 27: 0.0, 28: 0.0, 29: 0.0, 30: 1.0, 31: 0.0, 32: 0.0, 33: 0.0, 34: 1.0, 35: 1.0, 36: 1.0, 37: 0.0, 38: 0.0, 39: 0.0, 40: 1.0, 41: 0.0, 42: 0.0, 43: 0.0, 44: 0.0, 45: 0.0, 46: 1.0, 47: 0.0, 48: 1.0, 49: 0.0, 50: 0.0, 51: 1.0, 52: 1.0, 53: 1.0, 54: 1.0, 55: 1.0, 56: 0.0, 57: 1.0, 58: 1.0, 59: 1.0, 60: 0.0, 61: 1.0, 62: 0.0, 63: 0.0, 64: 1.0, 65: 0.0, 66: 0.0, 67: 0.0, 68: 0.0, 69: 1.0, 70: 0.0, 71: 0.0, 72: 1.0, 73: 0.0, 74: 0.0, 75: 1.0, 76: 1.0, 77: 0.0, 78: 1.0, 79: 1.0, 80: 1.0, 81: 0.0, 82: 0.0, 83: 0.0, 84: 0.0, 85: 0.0, 86: 1.0, 87: 1.0, 88: 0.0, 89: 0.0, 90: 1.0, 91: 1.0, 92: 1.0, 93: 1.0, 94: 0.0, 95: 0.0];
discharge = [0: 0.0, 1: 0.0, 2: 1.0, 3: 0.0, 4: 0.0, 5: 0.0, 6: 0.0, 7: 0.0, 8: 0.0, 9: 1.0, 10: 1.0, 11: 1.0, 12: 1.0, 13: 1.0, 14: 0.0, 15: 0.0, 16: 0.0, 17: 1.0, 18: 0.0, 19: 1.0, 20: 0.0, 21: 0.0, 22: 0.0, 23: 0.0, 24: 0.0, 25: 1.0, 26: 0.0, 27: 1.0, 28: 1.0, 29: 1.0, 30: 0.0, 31: 1.0, 32: 1.0, 33: 1.0, 34: 0.0, 35: 0.0, 36: 0.0, 37: 1.0, 38: 1.0, 39: 1.0, 40: 0.0, 41: 1.0, 42: 1.0, 43: 1.0, 44: 1.0, 45: 1.0, 46: 0.0, 47: 0.0, 48: 0.0, 49: 1.0, 50: 0.0, 51: 0.0, 52: 0.0, 53: 0.0, 54: 0.0, 55: 0.0, 56: 1.0, 57: 0.0, 58: 0.0, 59: 0.0, 60: 1.0, 61: 0.0, 62: 1.0, 63: 1.0, 64: 0.0, 65: 0.0, 66: 0.0, 67: 1.0, 68: 1.0, 69: 0.0, 70: 1.0, 71: 1.0, 72: 0.0, 73: 0.0, 74: 1.0, 75: 0.0, 76: 0.0, 77: 0.0, 78: 0.0, 79: 0.0, 80: 0.0, 81: 0.0, 82: 0.0, 83: 0.0, 84: 0.0, 85: 0.0, 86: 0.0, 87: 0.0, 88: 0.0, 89: 1.0, 90: 0.0, 91: 0.0, 92: 0.0, 93: 0.0, 94: 0.0, 95: 1.0];
soc = [0: 10.927994, 1: 10.925808401, 2: 9.92362324, 3: 9.921638515, 4: 10.819654187, 5: 11.717490256, 6: 12.615146758, 7: 13.512623729, 8: 14.409921204, 9: 13.40703922, 10: 12.404357812, 11: 11.401876941, 12: 10.399596565, 13: 9.397516646, 14: 9.807974912000001, 15: 10.706013317, 16: 11.603872114, 17: 10.60155134, 18: 11.499431029, 19: 10.497131143, 20: 10.495031717, 21: 10.492932711, 22: 11.390834124, 23: 12.288555957, 24: 13.186098246, 25: 12.183461027, 26: 12.181024334, 27: 11.178588129, 28: 10.176352412, 29: 9.174317141, 30: 10.072482278, 31: 9.070467781, 32: 8.068653687999999, 33: 7.067039957, 34: 7.965626549, 35: 8.864033424, 36: 9.762260617000001, 37: 8.760308165, 38: 7.758556103, 39: 6.757004392, 40: 7.655652991, 41: 6.654121861, 42: 5.652791036, 43: 4.651660478, 44: 3.650730146, 45: 2.65, 46: 3.54947, 47: 3.548760106, 48: 4.448050354, 49: 3.447160744, 50: 3.446471312, 51: 4.345782017, 52: 5.244912861, 53: 6.143863879, 54: 7.042635106, 55: 7.941226579, 56: 6.939638333, 57: 7.838250406, 58: 8.736682756, 59: 9.634935419, 60: 8.633008432, 61: 9.531281829999999, 62: 8.529375573999999, 63: 7.527669699, 64: 8.426164164999999, 65: 8.424478932, 66: 8.422794036000001, 67: 7.421109477, 68: 6.419625256, 69: 7.318341331, 70: 6.316877662, 71: 5.315614287, 72: 6.214551164, 73: 6.213308254, 74: 5.212065592, 75: 6.111023179, 76: 7.009800974, 77: 7.008399014, 78: 7.906997334, 79: 8.805415934999999, 80: 9.703654852, 81: 9.701714121, 82: 9.699773778000001, 83: 9.697833823, 84: 9.695894256000001, 85: 9.693955077, 86: 10.592016286, 87: 11.489897883, 88: 11.487599904, 89: 10.485302384, 90: 11.383205323, 91: 12.280928682, 92: 13.178472496, 93: 14.075836802, 94: 14.073021634, 95: 13.07020703];
cost = [0: 0.871896404, 1: 0.146850178, 2: 0.0, 3: 0.147888708, 4: 0.877883224, 5: 0.878371944, 6: 0.880021374, 7: 0.881120994, 8: 0.876233794, 9: 0.0, 10: 0.0, 11: 0.0, 12: 0.0, 13: 0.0, 14: 0.483323183, 15: 0.877761044, 16: 0.873118204, 17: 0.0, 18: 0.8774555939999999, 19: 0.0, 20: 0.149599228, 21: 0.070609858, 22: 0.800482194, 23: 0.805186124, 24: 1.454198099, 25: 0.0, 26: 0.133929133, 27: 0.0, 28: 0.0, 29: 0.0, 30: 1.447655299, 31: 0.0, 32: 0.0, 33: 0.0, 34: 1.263981059, 35: 1.261007059, 36: 1.479179699, 37: 0.0, 38: 0.0, 39: 0.041735133, 40: 1.467878499, 41: 0.0, 42: 0.0, 43: 0.0, 44: 0.0, 45: 0.0, 46: 0.655143779, 47: 0.125245053, 48: 1.439566019, 49: 0.0, 50: 0.142613213, 51: 1.614794099, 52: 0.383176404, 53: 0.7963280740000001, 54: 0.118178165, 55: 0.821252794, 56: 0.0, 57: 0.118178165, 58: 1.424027824, 59: 1.582556374, 60: 0.0, 61: 1.345706579, 62: 0.003667933, 63: 0.0, 64: 1.139786819, 65: 0.142613213, 66: 0.120843533, 67: 0.0, 68: 0.0, 69: 1.454436019, 70: 0.0, 71: 0.0, 72: 1.764088899, 73: 0.0, 74: 0.0, 75: 1.386152979, 76: 1.455982499, 77: 0.149631853, 78: 1.573752899, 79: 1.522838019, 80: 1.533068579, 81: 0.221126813, 82: 0.203758653, 83: 0.213989213, 84: 0.213989213, 85: 0.203758653, 86: 1.512488499, 87: 1.510704099, 88: 0.097000738, 89: 0.0, 90: 0.927977024, 91: 0.925838874, 92: 0.923700724, 93: 0.924006174, 94: 0.186680858, 95: 0.0];
earn = [0: 0.0, 1: 0.0, 2: 0.3373924, 3: 0.0, 4: 0.0, 5: 0.0, 6: 0.0, 7: 0.0, 8: 0.0, 9: 0.269482107, 10: 0.276538703, 11: 0.275852033, 12: 0.26690826, 13: 0.25607016, 14: 0.0, 15: 0.0, 16: 0.0, 17: 0.225428175, 18: 0.0, 19: 0.205521017, 20: 0.0, 21: 0.0, 22: 0.0, 23: 0.0, 24: 0.0, 25: 0.202384478, 26: 0.0, 27: 0.238976558, 28: 0.233942707, 29: 0.246095, 30: 0.0, 31: 0.244092008, 32: 0.193992333, 33: 0.170926983, 34: 0.0, 35: 0.0, 36: 0.0, 37: 0.042986233, 38: 0.01658501, 39: 0.0, 40: 0.0, 41: 0.020181042, 42: 0.008078874999999999, 43: 0.005691875, 44: 0.004855515, 45: 0.006909168, 46: 0.0, 47: 0.0, 48: 0.0, 49: -0.001881678, 50: 0.0, 51: 0.0, 52: 0.0, 53: 0.0, 54: -7.5277e-05, 55: 0.0, 56: -0.00134847, 57: -0.00042885, 58: 0.0, 59: 0.0, 60: -0.000888617, 61: 0.0, 62: 0.0, 63: -0.00055843, 64: 0.0, 65: 0.0, 66: 0.0, 67: 0.065291875, 68: 0.045093792, 69: 0.0, 70: 0.48598365, 71: 0.4725558, 72: 0.0, 73: 0.059984112, 74: 0.436445308, 75: 0.0, 76: 0.0, 77: 0.0, 78: 0.0, 79: 0.0, 80: 0.0, 81: 0.0, 82: 0.0, 83: 0.0, 84: 0.0, 85: 0.0, 86: 0.0, 87: 0.0, 88: 0.0, 89: 0.399007143, 90: 0.0, 91: 0.0, 92: 0.0, 93: 0.0, 94: 0.0, 95: 0.2653895];
total_cost = 49.926015347;
total_earn = 5.9734605;
