production = [0: 0.0, 1: 0.0, 2: 0.0, 3: 0.0, 4: 0.0, 5: 0.0, 6: 0.0, 7: 0.0, 8: 0.0, 9: 0.0, 10: 0.0, 11: 0.0, 12: 0.0, 13: 0.0, 14: 0.0, 15: 0.0, 16: 0.0, 17: 0.0, 18: 0.0, 19: 0.0, 20: 0.0, 21: 0.0, 22: 0.0, 23: 0.0, 24: 0.0, 25: 0.0013, 26: 0.0065, 27: 0.0, 28: 0.0872, 29: 0.0, 30: 0.0, 31: 0.0, 32: 0.0, 33: 0.0, 34: 0.0, 35: 0.1467, 36: 0.0, 37: 0.0, 38: 0.1062, 39: 0.2288, 40: 0.5867, 41: 0.516, 42: 0.6412, 43: 0.0, 44: 0.0, 45: 0.0, 46: 0.6635, 47: 0.0, 48: 0.0, 49: 0.0, 50: 0.0, 51: 1.2067, 52: 0.0, 53: 0.0, 54: 0.0, 55: 0.0, 56: 0.0, 57: 1.74, 58: 1.0637, 59: 1.4543, 60: 0.0, 61: 0.0, 62: 0.0, 63: 0.4358, 64: 0.9948, 65: 1.1338, 66: 1.2325, 67: 0.7565, 68: 0.0, 69: 0.5118, 70: 0.0, 71: 0.5004999999999999, 72: 0.2318, 73: 0.2455, 74: 0.0867, 75: 0.0592, 76: 0.043, 77: 0.022, 78: 0.0, 79: 0.0, 80: 0.0005, 81: 0.0, 82: 0.0, 83: 0.0, 84: 0.0, 85: 0.0, 86: 0.0, 87: 0.0, 88: 0.0, 89: 0.0, 90: 0.0, 91: 0.0, 92: 0.0, 93: 0.0, 94: 0.0, 95: 0.0];
buy = [0: 1.233783333, 1: 0.240383333, 2: 0.243083333, 3: 0.242083333, 4: 0.243583333, 5: 1.244383333, 6: 0.247083333, 7: 0.0, 8: 1.240883333, 9: 1.234283333, 10: 0.0, 11: 0.0, 12: 0.243883333, 13: 0.0, 14: 0.0, 15: 0.0, 16: 0.0, 17: 1.242583333, 18: 1.242883333, 19: 0.243383333, 20: 0.0, 21: 0.0, 22: 0.116883333, 23: 0.0, 24: 0.0, 25: 0.122983333, 26: 0.0, 27: 0.0, 28: 1.024583333, 29: 1.109883333, 30: 1.117583333, 31: 1.118883333, 32: 0.0, 33: 1.118083333, 34: 1.107883333, 35: 0.0, 36: 1.144083333, 37: 1.595583333, 38: 0.0, 39: 0.0, 40: 0.547883333, 41: 0.0, 42: 0.0, 43: 0.0, 44: 0.0, 45: 1.120883333, 46: 0.0, 47: 0.0, 48: 1.110783333, 49: 1.113083333, 50: 0.0, 51: 0.0, 52: 1.110783333, 53: 1.110083333, 54: 0.0, 55: 1.150883333, 56: 0.650283333, 57: 0.0, 58: 0.073883333, 59: 0.9427833329999999, 60: 2.323083333, 61: 1.549083333, 62: 1.903083333, 63: 0.969283333, 64: 0.0, 65: 0.0, 66: 0.0, 67: 0.352083333, 68: 0.0, 69: 0.611483333, 70: 0.0, 71: 0.613083333, 72: 0.151783333, 73: 0.8792833329999999, 74: 0.049883333, 75: 0.065883333, 76: 0.0, 77: 1.103783333, 78: 0.0, 79: 0.0, 80: 1.189383333, 81: 0.185883333, 82: 1.171283333, 83: 0.0, 84: 0.0, 85: 0.171283333, 86: 1.172083333, 87: 0.0, 88: 1.158783333, 89: 1.132383333, 90: 1.325583333, 91: 0.322083333, 92: 1.318583333, 93: 1.319083333, 94: 1.305583333, 95: 1.307083333];
sell = [0: 0.0, 1: 0.0, 2: 0.0, 3: 0.0, 4: 0.0, 5: 0.0, 6: 0.0, 7: 0.651116667, 8: 0.0, 9: 0.0, 10: 0.665716667, 11: 0.657416667, 12: 0.0, 13: 0.658616667, 14: 0.655616667, 15: 0.656616667, 16: 0.664216667, 17: 0.0, 18: 0.0, 19: 0.0, 20: 0.655116667, 21: 0.784416667, 22: 0.0, 23: 0.7749166669999999, 24: 0.7769166669999999, 25: 0.0, 26: 0.787416667, 27: 0.0, 28: 0.0, 29: 0.0, 30: 0.0, 31: 0.0, 32: 0.782416667, 33: 0.0, 34: 0.0, 35: 0.374900382, 36: 0.0, 37: 0.0, 38: 0.244616667, 39: 0.193716667, 40: 0.0, 41: 1.285416667, 42: 1.410616667, 43: 0.758916667, 44: 0.770716667, 45: 0.0, 46: 1.448616667, 47: 0.794716667, 48: 0.0, 49: 0.0, 50: 0.780116667, 51: 1.848616667, 52: 0.0, 53: 0.0, 54: 0.082412957, 55: 0.0, 56: 0.0, 57: 1.979416667, 58: 0.0, 59: 0.0, 60: 0.0, 61: 0.0, 62: 0.0, 63: 0.0, 64: 1.041216667, 65: 1.013916667, 66: 2.030916667, 67: 0.0, 68: 0.269216667, 69: 0.0, 70: 0.782416667, 71: 0.0, 72: 0.0, 73: 0.0, 74: 0.0, 75: 0.0, 76: 0.818416667, 77: 0.0, 78: 0.671416667, 79: 0.718416667, 80: 0.0, 81: 0.0, 82: 0.0, 83: 0.720116667, 84: 0.720116667, 85: 0.0, 86: 0.0, 87: 0.729416667, 88: 0.0, 89: 0.0, 90: 0.0, 91: 0.0, 92: 0.0, 93: 0.0, 94: 0.0, 95: 0.0];
charge = [0: 1.0, 1: 0.0, 2: 0.0, 3: 0.0, 4: 0.0, 5: 1.0, 6: 0.0, 7: 0.0, 8: 1.0, 9: 1.0, 10: 0.0, 11: 0.0, 12: 0.0, 13: 0.0, 14: 0.0, 15: 0.0, 16: 0.0, 17: 1.0, 18: 1.0, 19: 0.0, 20: 0.0, 21: 0.0, 22: 0.0, 23: 0.0, 24: 0.0, 25: 0.0, 26: 0.0, 27: 0.0, 28: 1.0, 29: 1.0, 30: 1.0, 31: 1.0, 32: 0.0, 33: 1.0, 34: 1.0, 35: 0.0, 36: 1.0, 37: 1.0, 38: 0.0, 39: 0.0, 40: 1.0, 41: 0.0, 42: 0.0, 43: 0.0, 44: 0.0, 45: 1.0, 46: 0.0, 47: 0.0, 48: 1.0, 49: 1.0, 50: 0.0, 51: 0.0, 52: 1.0, 53: 1.0, 54: 0.0, 55: 1.0, 56: 0.0, 57: 0.0, 58: 0.0, 59: 1.0, 60: 1.0, 61: 1.0, 62: 1.0, 63: 1.0, 64: 0.0, 65: 0.0, 66: 0.0, 67: 1.0, 68: 0.0, 69: 1.0, 70: 0.0, 71: 1.0, 72: 0.0, 73: 1.0, 74: 0.0, 75: 0.0, 76: 0.0, 77: 1.0, 78: 0.0, 79: 0.0, 80: 1.0, 81: 0.0, 82: 1.0, 83: 0.0, 84: 0.0, 85: 0.0, 86: 1.0, 87: 0.0, 88: 1.0, 89: 1.0, 90: 1.0, 91: 0.0, 92: 1.0, 93: 1.0, 94: 1.0, 95: 1.0];
discharge = [0: 0.0, 1: 0.0, 2: 0.0, 3: 0.0, 4: 0.0, 5: 0.0, 6: 0.0, 7: 1.0, 8: 0.0, 9: 0.0, 10: 1.0, 11: 1.0, 12: 0.0, 13: 1.0, 14: 1.0, 15: 1.0, 16: 1.0, 17: 0.0, 18: 0.0, 19: 0.0, 20: 1.0, 21: 1.0, 22: 0.0, 23: 1.0, 24: 1.0, 25: 0.0, 26: 1.0, 27: 0.129314815, 28: 0.0, 29: 0.0, 30: 0.0, 31: 0.0, 32: 1.0, 33: 0.0, 34: 0.0, 35: 0.372870795, 36: 0.0, 37: 0.0, 38: 1.0, 39: 1.0, 40: 0.0, 41: 1.0, 42: 1.0, 43: 1.0, 44: 1.0, 45: 0.0, 46: 1.0, 47: 1.0, 48: 0.0, 49: 0.0, 50: 1.0, 51: 1.0, 52: 0.0, 53: 0.0, 54: 0.219995878, 55: 0.0, 56: 0.0, 57: 1.0, 58: 0.0, 59: 0.0, 60: 0.0, 61: 0.0, 62: 0.0, 63: 0.0, 64: 1.0, 65: 0.0, 66: 1.0, 67: 0.0, 68: 1.0, 69: 0.0, 70: 1.0, 71: 0.0, 72: 0.0, 73: 0.0, 74: 0.0, 75: 0.0, 76: 1.0, 77: 0.0, 78: 1.0, 79: 1.0, 80: 0.0, 81: 0.0, 82: 0.0, 83: 1.0, 84: 1.0, 85: 0.0, 86: 0.0, 87: 1.0, 88: 0.0, 89: 0.0, 90: 0.0, 91: 0.0, 92: 0.0, 93: 0.0, 94: 0.0, 95: 0.0];
soc = [0: 10.927994, 1: 10.925808401, 2: 10.92362324, 3: 10.921438515, 4: 10.919254227, 5: 11.817070376, 6: 11.814706962, 7: 10.812344021, 8: 11.710181552, 9: 12.607839516, 10: 11.605317948, 11: 10.602996884, 12: 10.600876285, 13: 9.59875611, 14: 8.596836357999999, 15: 7.595116991, 16: 6.593597968, 17: 7.492279248, 18: 8.390780791999999, 19: 8.389102636000001, 20: 7.387424816, 21: 6.385947331, 22: 6.384670141, 23: 5.383393207, 24: 4.382316528, 25: 4.381440065, 26: 3.380563777, 27: 3.25057285, 28: 4.149922735, 29: 5.04909275, 30: 5.948082932, 31: 6.846893315, 32: 5.845523937, 33: 6.744354832, 34: 7.643005961, 35: 7.268606565, 36: 8.167152844, 37: 9.065519413000001, 38: 8.063706309000001, 39: 7.062093568, 40: 7.960681149, 41: 6.959089013, 42: 5.957697195, 43: 4.956505656, 44: 3.955514355, 45: 4.854723252, 46: 3.853752307, 47: 2.852981557, 48: 3.75241096, 49: 4.651660478, 50: 3.650730146, 51: 2.65, 52: 3.54947, 53: 4.448760106, 54: 4.227874476, 55: 5.127028901, 56: 5.126003496, 57: 4.124978295, 58: 4.124153299, 59: 5.023328469, 60: 5.922323803, 61: 6.821139338, 62: 7.71977511, 63: 8.618231155, 64: 7.616507509, 65: 7.614984208, 66: 6.613461211, 67: 7.512138518, 68: 6.510636091, 69: 7.409333964, 70: 6.407852097, 71: 7.306570526, 72: 7.305109212, 73: 8.203648189999999, 74: 8.202007461000001, 75: 8.200367059, 76: 7.198726986, 77: 8.09728724, 78: 7.095667783, 79: 6.094248649, 80: 6.9930298, 81: 6.991631194, 82: 7.890232868, 83: 6.888654821, 84: 5.88727709, 85: 5.886099635, 86: 6.784922415, 87: 5.78356543, 88: 6.682408717, 89: 7.581072235, 90: 8.479556021, 91: 8.47786011, 92: 9.376164537999999, 93: 10.274289305, 94: 11.172234447, 95: 12.07];
cost = [0: 0.871896404, 1: 0.146850178, 2: 0.148499608, 3: 0.147888708, 4: 0.148805058, 5: 0.878371944, 6: 0.150943208, 7: 0.0, 8: 0.876233794, 9: 0.8722018540000001, 10: 0.0, 11: 0.0, 12: 0.148988328, 13: 0.0, 14: 0.0, 15: 0.0, 16: 0.0, 17: 0.877272324, 18: 0.8774555939999999, 19: 0.148682878, 20: 0.0, 21: 0.0, 22: 0.07140402799999999, 23: 0.0, 24: 0.0, 25: 0.146300973, 26: 0.0, 27: 0.0, 28: 1.337022499, 29: 1.438495379, 30: 1.447655299, 31: 1.449201779, 32: 0.0, 33: 1.448250099, 34: 1.436116179, 35: 0.0, 36: 1.479179699, 37: 2.016284099, 38: 0.0, 39: 0.0, 40: 0.769940179, 41: 0.0, 42: 0.0, 43: 0.0, 44: 0.0, 45: 1.451580979, 46: 0.0, 47: 0.0, 48: 1.439566019, 49: 1.442302099, 50: 0.0, 51: 0.0, 52: 0.796755704, 53: 0.7963280740000001, 54: 0.0, 55: 0.821252794, 56: 0.397258088, 57: 0.0, 58: 0.045135328, 59: 0.694124504, 60: 2.881718099, 61: 1.960967699, 62: 2.382086099, 63: 1.271237619, 64: 0.0, 65: 0.0, 66: 0.0, 67: 0.537016499, 68: 0.0, 69: 0.845598739, 70: 0.0, 71: 0.847502099, 72: 0.180561453, 73: 1.164173619, 74: 0.059341213, 75: 0.078374813, 76: 0.0, 77: 1.431238819, 78: 0.0, 79: 0.0, 80: 1.533068579, 81: 0.221126813, 82: 1.511536819, 83: 0.0, 84: 0.0, 85: 0.203758653, 86: 1.512488499, 87: 0.0, 88: 0.8260789039999999, 89: 0.809951144, 90: 0.927977024, 91: 0.196760708, 92: 0.923700724, 93: 0.924006174, 94: 0.915759024, 95: 0.916675374];
earn = [0: 0.0, 1: 0.0, 2: 0.0, 3: 0.0, 4: 0.0, 5: 0.0, 6: 0.0, 7: 0.31058265, 8: 0.0, 9: 0.0, 10: 0.276538703, 11: 0.275852033, 12: 0.0, 13: 0.25607016, 14: 0.255034883, 15: 0.24977698, 16: 0.239051578, 17: 0.0, 18: 0.0, 19: 0.0, 20: 0.19024588, 21: 0.222774333, 22: 0.0, 23: 0.213334558, 24: 0.184517708, 25: 0.0, 26: 0.206618133, 27: 0.0, 28: 0.0, 29: 0.0, 30: 0.0, 31: 0.0, 32: 0.173383533, 33: 0.0, 34: 0.0, 35: 0.072355774, 36: 0.0, 37: 0.0, 38: 0.01658501, 39: 0.012940273, 40: 0.0, 41: 0.020181042, 42: 0.014811475, 43: 0.005691875, 44: 0.004855515, 45: 0.0, 46: 0.004780435, 47: 0.000715245, 48: 0.0, 49: 0.0, 50: -0.001170175, 51: -0.00221834, 52: 0.0, 53: 0.0, 54: -0.000181309, 55: 0.0, 56: 0.0, 57: -0.01068885, 58: 0.0, 59: 0.0, 60: 0.0, 61: 0.0, 62: 0.0, 63: 0.0, 64: 0.000416487, 65: 0.006894633, 66: 0.03290085, 67: 0.0, 68: 0.045093792, 69: 0.0, 70: 0.27181155, 71: 0.0, 72: 0.0, 73: 0.0, 74: 0.0, 75: 0.0, 76: 0.534998975, 77: 0.0, 78: 0.489261325, 79: 0.527964408, 80: 0.0, 81: 0.0, 82: 0.0, 83: 0.455329768, 84: 0.418171748, 85: 0.0, 86: 0.0, 87: 0.354715325, 88: 0.0, 89: 0.0, 90: 0.0, 91: 0.0, 92: 0.0, 93: 0.0, 94: 0.0, 95: 0.0];
total_cost = 52.280948885;
total_earn = 6.329997967;
% _objective = 45.950950918;