production = [0: 0.0, 1: 0.0, 2: 0.0, 3: 0.0, 4: 0.0, 5: 0.0, 6: 0.0, 7: 0.0, 8: 0.0, 9: 0.0, 10: 0.0, 11: 0.0, 12: 0.0, 13: 0.0, 14: 0.0, 15: 0.0, 16: 0.0, 17: 0.0, 18: 0.0, 19: 0.0, 20: 0.0, 21: 0.0, 22: 0.0, 23: 0.0, 24: 0.0, 25: 0.0013, 26: 0.0065, 27: 0.0362, 28: 0.0, 29: 0.0302, 30: 0.0675, 31: 0.0, 32: 0.0, 33: 0.1187, 34: 0.1447, 35: 0.0, 36: 0.0, 37: 0.169, 38: 0.0, 39: 0.0, 40: 0.5867, 41: 0.0, 42: 0.0, 43: 0.0, 44: 0.9235, 45: 0.5245, 46: 0.6635, 47: 0.6465, 48: 0.6502, 49: 0.9237, 50: 0.0, 51: 0.0, 52: 0.0, 53: 0.614, 54: 1.1498, 55: 1.6623, 56: 0.0, 57: 1.74, 58: 1.0637, 59: 0.0, 60: 1.3117, 61: 0.5172, 62: 0.0, 63: 0.4358, 64: 0.9948, 65: 1.1338, 66: 1.2325, 67: 0.7565, 68: 0.0, 69: 0.0, 70: 0.6165, 71: 0.5004999999999999, 72: 0.2318, 73: 0.0, 74: 0.0, 75: 0.0592, 76: 0.043, 77: 0.0, 78: 0.005, 79: 0.0008, 80: 0.0, 81: 0.0, 82: 0.0, 83: 0.0, 84: 0.0, 85: 0.0, 86: 0.0, 87: 0.0, 88: 0.0, 89: 0.0, 90: 0.0, 91: 0.0, 92: 0.0, 93: 0.0, 94: 0.0, 95: 0.0];
buy = [0: 0.0, 1: 1.240383333, 2: 0.243083333, 3: 0.242083333, 4: 0.0, 5: 0.0, 6: 0.247083333, 7: 0.0, 8: 1.240883333, 9: 0.0, 10: 0.234283333, 11: 0.0, 12: 0.243883333, 13: 1.241383333, 14: 1.244383333, 15: 0.243383333, 16: 0.235783333, 17: 0.0, 18: 0.893598207, 19: 0.0, 20: 0.244883333, 21: 0.0, 22: 1.116883333, 23: 0.0, 24: 1.123083333, 25: 1.122983333, 26: 0.0, 27: 0.0, 28: 0.0, 29: 0.0, 30: 1.050083333, 31: 1.118883333, 32: 1.117583333, 33: 0.0, 34: 0.0, 35: 0.0, 36: 1.144083333, 37: 1.426583333, 38: 0.0, 39: 1.935083333, 40: 0.547883333, 41: 0.0, 42: 0.0, 43: 0.141083333, 44: 0.205783333, 45: 0.0, 46: 0.0, 47: 0.0, 48: 0.460583333, 49: 0.189383333, 50: 0.0, 51: 0.0, 52: 1.110783333, 53: 0.496083333, 54: 0.0, 55: 0.0, 56: 0.0, 57: 0.0, 58: 1.073883333, 59: 1.397083333, 60: 0.011383333, 61: 0.031883333, 62: 0.903083333, 63: 0.969283333, 64: 0.0, 65: 0.0, 66: 0.0, 67: 0.352083333, 68: 0.630783333, 69: 0.0, 70: 0.501083333, 71: 0.613083333, 72: 1.151783333, 73: 1.124783333, 74: 1.136583333, 75: 1.065883333, 76: 1.081583333, 77: 0.0, 78: 0.0, 79: 1.180783333, 80: 1.189883333, 81: 1.185883333, 82: 1.171283333, 83: 1.179883333, 84: 1.179883333, 85: 0.0, 86: 0.0, 87: 0.170583333, 88: 1.158783333, 89: 0.132383333, 90: 0.0, 91: 0.0, 92: 0.0, 93: 0.319083333, 94: 1.305583333, 95: 0.307083333];
sell = [0: 0.666216667, 1: 0.0, 2: 0.0, 3: 0.0, 4: 0.656416667, 5: 0.655616667, 6: 0.0, 7: 0.651116667, 8: 0.0, 9: 0.665716667, 10: 0.0, 11: 0.657416667, 12: 0.0, 13: 0.0, 14: 0.0, 15: 0.0, 16: 0.0, 17: 0.657416667, 18: 0.0, 19: 0.656616667, 20: 0.0, 21: 0.784416667, 22: 0.0, 23: 0.7749166669999999, 24: 0.0, 25: 0.0, 26: 0.787416667, 27: 0.819816667, 28: 0.788216667, 29: 0.8203166670000001, 30: 0.0, 31: 0.0, 32: 0.0, 33: 0.900616667, 34: 0.036816667, 35: 0.792616667, 36: 0.0, 37: 0.0, 38: 0.138416667, 39: 0.0, 40: 0.0, 41: 0.769416667, 42: 0.769416667, 43: 0.0, 44: 0.0, 45: 1.303616667, 46: 1.448616667, 47: 0.541216667, 48: 0.0, 49: 0.0, 50: 0.780116667, 51: 0.6419166670000001, 52: 0.0, 53: 0.0, 54: 1.934216667, 55: 1.511416667, 56: 0.249716667, 57: 1.078827778, 58: 0.0, 59: 0.0, 60: 0.0, 61: 0.0, 62: 0.0, 63: 0.0, 64: 0.141216667, 65: 0.580248462, 66: 0.130916667, 67: 0.0, 68: 0.0, 69: 0.776716667, 70: 0.0, 71: 0.0, 72: 0.0, 73: 0.0, 74: 0.0, 75: 0.0, 76: 0.0, 77: 0.774216667, 78: 0.676416667, 79: 0.0, 80: 0.0, 81: 0.0, 82: 0.0, 83: 0.0, 84: 0.0, 85: 0.728716667, 86: 0.727916667, 87: 0.0, 88: 0.0, 89: 0.0, 90: 0.574416667, 91: 0.577916667, 92: 0.5814166670000001, 93: 0.0, 94: 0.0, 95: 0.0];
charge = [0: 0.0, 1: 1.0, 2: 0.0, 3: 0.0, 4: 0.0, 5: 0.0, 6: 0.0, 7: 0.0, 8: 1.0, 9: 0.0, 10: 0.0, 11: 0.0, 12: 0.0, 13: 1.0, 14: 1.0, 15: 0.0, 16: 0.0, 17: 0.0, 18: 0.6507148740000001, 19: 0.0, 20: 0.0, 21: 0.0, 22: 1.0, 23: 0.0, 24: 1.0, 25: 1.0, 26: 0.0, 27: 0.0, 28: 0.0, 29: 0.0, 30: 1.0, 31: 1.0, 32: 1.0, 33: 0.0, 34: 0.0, 35: 0.0, 36: 1.0, 37: 1.0, 38: 0.0, 39: 1.0, 40: 1.0, 41: 0.0, 42: 0.0, 43: 0.0, 44: 1.0, 45: 0.0, 46: 0.0, 47: 0.0, 48: 1.0, 49: 1.0, 50: 0.0, 51: 0.0, 52: 1.0, 53: 1.0, 54: 0.0, 55: 0.0, 56: 0.0, 57: 0.000588889, 58: 1.0, 59: 0.0, 60: 0.0, 61: 0.0, 62: 0.0, 63: 1.0, 64: 0.0, 65: 0.433668204, 66: 1.0, 67: 1.0, 68: 0.0, 69: 0.0, 70: 1.0, 71: 1.0, 72: 1.0, 73: 1.0, 74: 1.0, 75: 1.0, 76: 1.0, 77: 0.0, 78: 0.0, 79: 1.0, 80: 1.0, 81: 1.0, 82: 1.0, 83: 1.0, 84: 1.0, 85: 0.0, 86: 0.0, 87: 0.0, 88: 1.0, 89: 0.0, 90: 0.0, 91: 0.0, 92: 0.0, 93: 0.0, 94: 1.0, 95: 0.0];
discharge = [0: 1.0, 1: 0.0, 2: 0.0, 3: 0.0, 4: 1.0, 5: 1.0, 6: 0.0, 7: 1.0, 8: 0.0, 9: 1.0, 10: 0.0, 11: 1.0, 12: 0.0, 13: 0.0, 14: 0.0, 15: 0.0, 16: 0.0, 17: 1.0, 18: 0.0, 19: 1.0, 20: 0.0, 21: 1.0, 22: 0.0, 23: 1.0, 24: 0.0, 25: 0.0, 26: 1.0, 27: 1.0, 28: 1.0, 29: 1.0, 30: 0.0, 31: 0.0, 32: 0.0, 33: 1.0, 34: 0.0, 35: 1.0, 36: 0.0, 37: 0.0, 38: 1.0, 39: 0.0, 40: 0.0, 41: 1.0, 42: 1.0, 43: 0.0, 44: 0.0, 45: 1.0, 46: 1.0, 47: 0.0, 48: 0.0, 49: 0.0, 50: 1.0, 51: 1.0, 52: 0.0, 53: 0.0, 54: 1.0, 55: 0.0, 56: 1.0, 57: 0.0, 58: 0.0, 59: 0.0, 60: 0.0, 61: 0.0, 62: 0.0, 63: 0.0, 64: 0.0, 65: 0.0, 66: 0.0, 67: 0.0, 68: 0.0, 69: 1.0, 70: 0.0, 71: 0.0, 72: 0.0, 73: 0.0, 74: 0.0, 75: 0.0, 76: 0.0, 77: 1.0, 78: 1.0, 79: 0.0, 80: 0.0, 81: 0.0, 82: 0.0, 83: 0.0, 84: 0.0, 85: 1.0, 86: 1.0, 87: 0.0, 88: 0.0, 89: 0.0, 90: 1.0, 91: 1.0, 92: 1.0, 93: 0.0, 94: 0.0, 95: 0.0];
soc = [0: 9.027994, 1: 9.926188400999999, 2: 9.924203164, 3: 9.922218322999999, 4: 8.920233879, 5: 7.918449832, 6: 7.916866142, 7: 6.915282769, 8: 7.813899713, 9: 6.812336933, 10: 6.810974465, 11: 5.80961227, 12: 5.808450348, 13: 6.707288658, 14: 7.6059472, 15: 7.604426011, 16: 7.602905126, 17: 6.601384545, 18: 7.185707654, 19: 6.184270512, 20: 6.183033658, 21: 5.181797052, 22: 6.080760692, 23: 5.07954454, 24: 5.978528631, 25: 6.877332925, 26: 5.875957459, 27: 4.874782267, 28: 3.873807311, 29: 2.873032549, 30: 3.772457943, 31: 4.671703451, 32: 5.570769111, 33: 4.569654957, 34: 4.568741026, 35: 3.567827278, 36: 4.467113712, 37: 5.366220289, 38: 4.365147045, 39: 5.264274016, 40: 6.163221161, 41: 5.161988517, 42: 4.160956119, 43: 4.160123928, 44: 5.059291903, 45: 4.058280045, 46: 3.057468389, 47: 3.056856895, 48: 3.956245524, 49: 4.855454275, 50: 3.854483184, 51: 2.853712287, 52: 3.753141545, 53: 4.652390916, 54: 3.651460438, 55: 3.650730146, 56: 2.65, 57: 2.65, 58: 3.54947, 59: 3.548760106, 60: 3.548050354, 61: 3.547340744, 62: 3.546631276, 63: 4.44592195, 64: 4.445032765, 65: 4.834445142, 66: 5.733478253, 67: 6.632331558, 68: 6.631005091, 69: 5.62967889, 70: 6.528552955, 71: 7.427247244, 72: 8.325761794, 73: 9.224096641999999, 74: 10.122251823, 75: 11.020227372, 76: 11.918023327, 77: 10.915639722, 78: 9.913456593999999, 79: 10.811473903, 80: 11.709311608, 81: 12.606969746, 82: 13.504448352, 83: 14.401747462, 84: 15.298867113, 85: 14.295807339, 86: 13.292948178, 87: 13.290289588, 88: 14.18763153, 89: 14.184794004, 90: 13.181957045, 91: 12.179320654, 92: 11.17688479, 93: 11.174649413, 94: 12.072414483, 95: 12.07];
cost = [0: 0.0, 1: 0.875928344, 2: 0.148499608, 3: 0.147888708, 4: 0.0, 5: 0.0, 6: 0.150943208, 7: 0.0, 8: 0.876233794, 9: 0.0, 10: 0.143123688, 11: 0.0, 12: 0.148988328, 13: 0.8765392440000001, 14: 0.878371944, 15: 0.148682878, 16: 0.144040038, 17: 0.0, 18: 0.622799435, 19: 0.0, 20: 0.149599228, 21: 0.0, 22: 0.800482194, 23: 0.0, 24: 1.454198099, 25: 1.454079139, 26: 0.0, 27: 0.0, 28: 0.0, 29: 0.0, 30: 1.367357299, 31: 1.449201779, 32: 1.447655299, 33: 0.0, 34: 0.0, 35: 0.0, 36: 1.479179699, 37: 1.815241699, 38: 0.0, 39: 2.420153299, 40: 0.769940179, 41: 0.0, 42: 0.0, 43: 0.167832733, 44: 0.362978019, 45: 0.0, 46: 0.0, 47: 0.0, 48: 0.666088099, 49: 0.343468579, 50: 0.0, 51: 0.0, 52: 0.796755704, 53: 0.421235474, 54: 0.0, 55: 0.0, 56: 0.0, 57: 6.9594e-05, 58: 0.7742134939999999, 59: 0.853478208, 60: 0.013541613, 61: 0.037928413, 62: 1.074307933, 63: 1.271237619, 64: 0.0, 65: 0.051250113, 66: 0.118178165, 67: 0.537016499, 68: 0.750379853, 69: 0.0, 70: 0.714266899, 71: 0.847502099, 72: 1.488339619, 73: 1.456220419, 74: 1.470257699, 75: 1.386152979, 76: 1.404829699, 77: 0.0, 78: 0.0, 79: 1.522838019, 80: 1.533663379, 81: 1.528904979, 82: 1.511536819, 83: 1.521767379, 84: 1.521767379, 85: 0.0, 86: 0.0, 87: 0.202925933, 88: 0.8260789039999999, 89: 0.080872978, 90: 0.0, 91: 0.0, 92: 0.0, 93: 0.194928008, 94: 0.915759024, 95: 0.187597208];
earn = [0: 0.349297398, 1: 0.0, 2: 0.0, 3: 0.0, 4: 0.330637075, 5: 0.325644798, 6: 0.0, 7: 0.31058265, 8: 0.0, 9: 0.269482107, 10: 0.0, 11: 0.275852033, 12: 0.0, 13: 0.0, 14: 0.0, 15: 0.0, 16: 0.0, 17: 0.225428175, 18: 0.0, 19: 0.205521017, 20: 0.0, 21: 0.222774333, 22: 0.0, 23: 0.213334558, 24: 0.0, 25: 0.0, 26: 0.206618133, 27: 0.238976558, 28: 0.233942707, 29: 0.246095, 30: 0.0, 31: 0.0, 32: 0.0, 33: 0.196874803, 34: 0.00744433, 35: 0.152975017, 36: 0.0, 37: 0.0, 38: 0.00938465, 39: 0.0, 40: 0.0, 41: 0.012079842, 42: 0.008078874999999999, 43: 0.0, 44: 0.0, 45: 0.006909168, 46: 0.004780435, 47: 0.000487095, 48: 0.0, 49: 0.0, 50: -0.001170175, 51: -0.0007703, 52: 0.0, 53: 0.0, 54: -0.004255277, 55: -0.003325117, 56: -0.00134847, 57: -0.00582567, 58: 0.0, 59: 0.0, 60: 0.0, 61: 0.0, 62: 0.0, 63: 0.0, 64: 5.6487e-05, 65: 0.00394569, 66: 0.00212085, 67: 0.0, 68: 0.0, 69: 0.191227643, 70: 0.0, 71: 0.0, 72: 0.0, 73: 0.0, 74: 0.0, 75: 0.0, 76: 0.0, 77: 0.520815552, 78: 0.492904825, 79: 0.0, 80: 0.0, 81: 0.0, 82: 0.0, 83: 0.0, 84: 0.0, 85: 0.385928347, 86: 0.368544208, 87: 0.0, 88: 0.0, 89: 0.0, 90: 0.288414608, 91: 0.289998583, 92: 0.272916983, 93: 0.0, 94: 0.0, 95: 0.0];
total_cost = 48.32529666;
total_earn = 6.853379526;
% _objective = 41.471917134;