production = [0: 0.0, 1: 0.0, 2: 0.0, 3: 0.0, 4: 0.0, 5: 0.0, 6: 0.0, 7: 0.0, 8: 0.0, 9: 0.0, 10: 0.0, 11: 0.0, 12: 0.0, 13: 0.0, 14: 0.0, 15: 0.0, 16: 0.0, 17: 0.0, 18: 0.0, 19: 0.0, 20: 0.0, 21: 0.0005, 22: 0.0003, 23: 0.0, 24: 0.0, 25: 0.0442, 26: 0.0683, 27: 0.1022, 28: 0.0, 29: 0.0, 30: 0.277, 31: 0.0, 32: 0.6098, 33: 0.0, 34: 0.9437, 35: 0.0, 36: 1.093, 37: 1.2185, 38: 1.080508333, 39: 1.1025, 40: 0.088708333, 41: 1.0973, 42: 0.0, 43: 1.1022, 44: 0.0, 45: 0.0, 46: 1.1122, 47: 0.0, 48: 0.06850000000000001, 49: 0.0, 50: 0.061, 51: 0.0508, 52: 0.0788, 53: 0.5643, 54: 0.5122, 55: 0.0, 56: 0.0, 57: 0.0, 58: 0.2968, 59: 0.0, 60: 0.304, 61: 0.0, 62: 0.4178, 63: 0.5433, 64: 0.0, 65: 0.255, 66: 0.2243, 67: 0.0, 68: 0.161, 69: 0.0, 70: 0.07000000000000001, 71: 0.0, 72: 0.0083, 73: 0.0, 74: 0.0, 75: 0.0, 76: 0.0, 77: 0.0, 78: 0.0, 79: 0.0, 80: 0.0, 81: 0.0, 82: 0.0, 83: 0.0, 84: 0.0, 85: 0.0, 86: 0.0, 87: 0.0, 88: 0.0, 89: 0.0, 90: 0.0, 91: 0.0, 92: 0.0, 93: 0.0, 94: 0.0, 95: 0.0];
buy = [0: 1.288908333, 1: 1.289408333, 2: 1.269708333, 3: 0.252208333, 4: 1.242708333, 5: 0.246408333, 6: 0.253208333, 7: 0.218708333, 8: 0.0, 9: 0.214208333, 10: 0.0, 11: 0.219708333, 12: 1.221908333, 13: 0.213408333, 14: 0.0, 15: 1.217708333, 16: 0.0, 17: 0.883208333, 18: 0.210408333, 19: 0.266208333, 20: 0.0, 21: 0.0, 22: 0.0, 23: 1.290208333, 24: 0.210208333, 25: 1.171708333, 26: 0.146608333, 27: 0.980508333, 28: 0.083908333, 29: 0.0, 30: 0.816008333, 31: 0.0, 32: 0.0, 33: 1.081908333, 34: 0.0, 35: 1.090408333, 36: 0.0, 37: 0.0, 38: 0.0, 39: 0.0, 40: 0.0, 41: 0.0, 42: 0.0, 43: 0.0, 44: 1.087008333, 45: 0.0, 46: 0.0, 47: 0.07970833300000001, 48: 0.0, 49: 1.086208333, 50: 0.0, 51: 1.030408333, 52: 0.015708333, 53: 1.022908333, 54: 1.029708333, 55: 0.9737185269999999, 56: 1.355208333, 57: 1.373908333, 58: 1.044908333, 59: 1.309408333, 60: 0.0, 61: 0.0, 62: 0.667908333, 63: 0.0, 64: 0.0, 65: 0.823008333, 66: 0.862708333, 67: 0.08890833300000001, 68: 0.0, 69: 0.0, 70: 0.0, 71: 0.0, 72: 0.06760833300000001, 73: 0.0, 74: 1.069508333, 75: 1.079508333, 76: 1.078208333, 77: 1.076408333, 78: 0.068408333, 79: 0.068708333, 80: 0.077708333, 81: 1.076708333, 82: 0.085708333, 83: 0.0, 84: 1.088208333, 85: 0.0, 86: 0.0, 87: 1.087208333, 88: 1.105008333, 89: 0.0, 90: 0.113208333, 91: 0.111908333, 92: 0.0, 93: 0.0, 94: 1.113208333, 95: 0.0];
sell = [0: 0.0, 1: 0.0, 2: 0.0, 3: 0.0, 4: 0.0, 5: 0.0, 6: 0.0, 7: 0.0, 8: 0.0, 9: 0.0, 10: 0.687091667, 11: 0.0, 12: 0.0, 13: 0.0, 14: 0.6867916670000001, 15: 0.0, 16: 0.673791667, 17: 0.0, 18: 0.0, 19: 0.0, 20: 0.592091667, 21: 0.596091667, 22: 0.604391667, 23: 0.0, 24: 0.0, 25: 0.0, 26: 0.0, 27: 0.0, 28: 0.0, 29: 0.808591667, 30: 0.0, 31: 0.8127916670000001, 32: 0.527591667, 33: 0.0, 34: 1.753991667, 35: 0.0, 36: 1.905791667, 37: 0.138791667, 38: 0.0, 39: 0.015491667, 40: 0.0, 41: 1.914091667, 42: 0.819291667, 43: 1.915691667, 44: 0.0, 45: 0.8217916669999999, 46: 1.034191667, 47: 0.0, 48: 0.879991667, 49: 0.0, 50: 0.8832916669999999, 51: 0.0, 52: 0.0, 53: 0.0, 54: 0.0, 55: 0.0, 56: 0.0, 57: 0.0, 58: 0.0, 59: 0.0, 60: 1.126291667, 61: 0.0, 62: 0.0, 63: 0.455591667, 64: 0.818591667, 65: 0.0, 66: 0.0, 67: 0.0, 68: 0.081991667, 69: 0.819491667, 70: 0.885791667, 71: 0.822991667, 72: 0.0, 73: 0.0, 74: 0.0, 75: 0.0, 76: 0.0, 77: 0.0, 78: 0.0, 79: 0.0, 80: 0.0, 81: 0.0, 82: 0.0, 83: 0.811491667, 84: 0.0, 85: 0.803991667, 86: 0.805991667, 87: 0.0, 88: 0.0, 89: 0.787291667, 90: 0.0, 91: 0.0, 92: 0.795291667, 93: 0.794991667, 94: 0.0, 95: 0.0];
charge = [0: 1.0, 1: 1.0, 2: 1.0, 3: 0.0, 4: 1.0, 5: 0.0, 6: 0.0, 7: 0.0, 8: 0.0, 9: 0.0, 10: 0.0, 11: 0.0, 12: 1.0, 13: 0.0, 14: 0.0, 15: 1.0, 16: 0.0, 17: 0.0, 18: 0.0, 19: 0.0, 20: 0.0, 21: 0.0, 22: 0.0, 23: 1.0, 24: 0.0, 25: 1.0, 26: 0.0, 27: 1.0, 28: 0.0, 29: 0.0, 30: 1.0, 31: 0.0, 32: 0.0, 33: 1.0, 34: 0.0, 35: 1.0, 36: 0.0, 37: 1.0, 38: 1.0, 39: 1.0, 40: 0.0, 41: 0.0, 42: 0.0, 43: 0.0, 44: 1.0, 45: 0.0, 46: 0.0, 47: 0.0, 48: 0.0, 49: 1.0, 50: 0.0, 51: 1.0, 52: 0.0, 53: 1.0, 54: 1.0, 55: 0.145010194, 56: 1.0, 57: 1.0, 58: 1.0, 59: 1.0, 60: 0.0, 61: 0.0, 62: 1.0, 63: 0.0, 64: 0.0, 65: 1.0, 66: 1.0, 67: 0.0, 68: 0.0, 69: 0.0, 70: 0.0, 71: 0.0, 72: 0.0, 73: 0.0, 74: 1.0, 75: 1.0, 76: 1.0, 77: 1.0, 78: 0.0, 79: 0.0, 80: 0.0, 81: 1.0, 82: 0.0, 83: 0.0, 84: 1.0, 85: 0.0, 86: 0.0, 87: 1.0, 88: 1.0, 89: 0.0, 90: 0.0, 91: 0.0, 92: 0.0, 93: 0.0, 94: 1.0, 95: 0.0];
discharge = [0: 0.0, 1: 0.0, 2: 0.0, 3: 0.0, 4: 0.0, 5: 0.0, 6: 0.0, 7: 0.0, 8: 0.243009259, 9: 0.0, 10: 1.0, 11: 0.0, 12: 0.0, 13: 0.0, 14: 1.0, 15: 0.0, 16: 1.0, 17: 0.0, 18: 0.0, 19: 0.0, 20: 1.0, 21: 1.0, 22: 1.0, 23: 0.0, 24: 0.0, 25: 0.0, 26: 0.0, 27: 0.0, 28: 0.0, 29: 1.0, 30: 0.0, 31: 1.0, 32: 0.0, 33: 0.0, 34: 1.0, 35: 0.0, 36: 1.0, 37: 0.0, 38: 0.0, 39: 0.0, 40: 0.0, 41: 1.0, 42: 1.0, 43: 1.0, 44: 0.0, 45: 1.0, 46: 0.0, 47: 0.0, 48: 1.0, 49: 0.0, 50: 1.0, 51: 0.0, 52: 0.0, 53: 0.0, 54: 0.0, 55: 0.0, 56: 0.0, 57: 0.0, 58: 0.0, 59: 0.0, 60: 1.0, 61: 0.088342593, 62: 0.0, 63: 0.0, 64: 1.0, 65: 0.0, 66: 0.0, 67: 0.0, 68: 0.0, 69: 1.0, 70: 1.0, 71: 1.0, 72: 0.0, 73: 0.077231481, 74: 0.0, 75: 0.0, 76: 0.0, 77: 0.0, 78: 0.0, 79: 0.0, 80: 0.0, 81: 0.0, 82: 0.0, 83: 1.0, 84: 0.0, 85: 1.0, 86: 1.0, 87: 0.0, 88: 0.0, 89: 1.0, 90: 0.0, 91: 0.0, 92: 1.0, 93: 1.0, 94: 0.0, 95: 0.125231481];
soc = [0: 4.969186, 1: 5.868192163, 2: 6.767018524, 3: 6.765665121, 4: 7.664311988, 5: 7.662779125, 6: 7.661246569, 7: 7.65971432, 8: 7.415173118, 9: 7.413690083, 10: 6.412207345, 11: 6.410924904, 12: 7.309642719, 13: 7.30818079, 14: 6.306719154, 15: 7.20545781, 16: 6.204016719, 17: 6.202775915, 18: 6.20153536, 19: 6.200295053, 20: 5.199054994, 21: 4.198015183, 22: 3.19717558, 23: 4.096536145, 24: 4.095716838, 25: 4.994897694, 26: 4.993898715, 27: 5.892899935, 28: 5.891721355, 29: 4.890543011, 30: 5.789564902, 31: 4.788406989, 32: 4.787449308, 33: 5.686491818, 34: 4.68535452, 35: 5.584417449, 36: 4.583300565, 37: 5.482383905, 38: 6.381287428, 39: 7.280011171, 40: 7.278555169, 41: 6.277099458, 42: 5.275844038, 43: 4.274788869, 44: 5.173933911, 45: 4.172899124, 46: 4.172064545, 47: 4.171230132, 48: 3.170395886, 49: 4.069761806, 50: 3.068947854, 51: 3.968334065, 52: 3.967540398, 53: 4.86674689, 54: 5.76577354, 55: 5.89512956, 56: 6.793950534, 57: 7.692591744, 58: 8.591053226, 59: 9.489335015, 60: 8.487437148, 61: 8.397397068, 62: 9.295717589000001, 63: 9.293858445, 64: 8.291999672999999, 65: 9.190341273, 66: 10.088503205, 67: 10.086485504, 68: 10.084468207, 69: 9.082451314, 70: 8.080634823, 71: 7.079018697, 72: 7.077602893, 73: 6.998955891, 74: 7.8975561, 75: 8.795976588, 76: 9.694217393000001, 77: 10.59227855, 78: 10.590160094, 79: 10.588042062, 80: 10.585924453, 81: 11.483807268, 82: 11.481510507, 83: 10.479214205, 84: 11.377118362, 85: 10.374842938, 86: 9.37276797, 87: 10.270893416, 88: 11.168839238, 89: 10.16660547, 90: 10.164572149, 91: 10.162539234, 92: 9.160506725999999, 93: 8.158674625, 94: 9.05704289, 95: 8.93];
cost = [0: 0.905572266, 1: 0.905877716, 2: 0.893842986, 3: 0.154074071, 4: 0.877348686, 5: 0.150530851, 6: 0.154684971, 7: 0.133608921, 8: 0.0, 9: 0.130859871, 10: 0.0, 11: 0.134219821, 12: 0.864641966, 13: 0.130371151, 14: 0.0, 15: 0.862076186, 16: 0.0, 17: 0.539551971, 18: 0.128538451, 19: 0.162626671, 20: 0.0, 21: 0.0, 22: 0.0, 23: 0.906366436, 24: 0.250063833, 25: 1.512042399, 26: 0.174405273, 27: 1.284590879, 28: 0.099817353, 29: 0.0, 30: 1.088901679, 31: 0.0, 32: 0.0, 33: 1.405216319, 34: 0.0, 35: 1.415327919, 36: 0.0, 37: 0.118178165, 38: 0.118178165, 39: 0.118178165, 40: 0.0, 41: 0.0, 42: 0.0, 43: 0.0, 44: 1.411283279, 45: 0.0, 46: 0.0, 47: 0.094821033, 48: 0.0, 49: 1.410331599, 50: 0.0, 51: 1.343951919, 52: 0.009596221, 53: 0.743072866, 54: 0.747226986, 55: 0.611981687, 56: 0.946074936, 57: 0.9574987659999999, 58: 0.756512666, 59: 0.918095716, 60: 0.0, 61: 0.0, 62: 0.912721919, 63: 0.0, 64: 0.0, 65: 1.097228879, 66: 1.144455999, 67: 0.105765353, 68: 0.0, 69: 0.0, 70: 0.0, 71: 0.0, 72: 0.080426873, 73: 0.0, 74: 1.390465279, 75: 1.402361279, 76: 1.400814799, 77: 1.398673519, 78: 0.08137855300000001, 79: 0.081735433, 80: 0.092441833, 81: 1.399030399, 82: 0.101958633, 83: 0.0, 84: 1.412710799, 85: 0.0, 86: 0.0, 87: 1.411521199, 88: 0.793227756, 89: 0.0, 90: 0.069158971, 91: 0.068364801, 92: 0.0, 93: 0.0, 94: 0.798237136, 95: 0.0];
earn = [0: 0.0, 1: 0.0, 2: 0.0, 3: 0.0, 4: 0.0, 5: 0.0, 6: 0.0, 7: 0.0, 8: 0.0, 9: 0.0, 10: 0.36113538, 11: 0.0, 12: 0.0, 13: 0.0, 14: 0.363999583, 15: 0.0, 16: 0.362769433, 17: 0.0, 18: 0.0, 19: 0.0, 20: 0.328433248, 21: 0.333632506, 22: 0.340091191, 23: 0.0, 24: 0.0, 25: 0.0, 26: 0.0, 27: 0.0, 28: 0.0, 29: 0.386506817, 30: 0.0, 31: 0.294149304, 32: 0.158541296, 33: 0.0, 34: 0.243980241, 35: 0.0, 36: 0.118349663, 37: 0.002886867, 38: 0.0, 39: -6.351600000000001e-05, 40: 0.0, 41: -0.008996231, 42: -0.008684492, 43: -0.035057158, 44: 0.0, 45: -0.057607596, 46: -0.079839597, 47: 0.0, 48: -0.07435929600000001, 49: 0.0, 50: -0.031975158, 51: 0.0, 52: 0.0, 53: 0.0, 54: 0.0, 55: 0.0, 56: 0.0, 57: 0.0, 58: 0.0, 59: 0.0, 60: 0.134929742, 61: 0.0, 62: 0.0, 63: 0.118453833, 64: 0.383428337, 65: 0.0, 66: 0.0, 67: 0.0, 68: 0.055516558, 69: 0.6292876509999999, 70: 0.715896825, 71: 0.716414246, 72: 0.0, 73: 0.0, 74: 0.0, 75: 0.0, 76: 0.0, 77: 0.0, 78: 0.0, 79: 0.0, 80: 0.0, 81: 0.0, 82: 0.0, 83: 0.612270463, 84: 0.0, 85: 0.60974728, 86: 0.580636397, 87: 0.0, 88: 0.0, 89: 0.564173208, 90: 0.0, 91: 0.0, 92: 0.5668839, 93: 0.54759026, 94: 0.0, 95: 0.0];
total_cost = 40.812820228;
total_earn = 9.233121183;
% _objective = 31.579699045;