production = [0: 0.0, 1: 0.0, 2: 0.0, 3: 0.0, 4: 0.0, 5: 0.0, 6: 0.0, 7: 0.0, 8: 0.0, 9: 0.0, 10: 0.0, 11: 0.0, 12: 0.0, 13: 0.0, 14: 0.0, 15: 0.0, 16: 0.0, 17: 0.0, 18: 0.0, 19: 0.0, 20: 0.0, 21: 0.0005, 22: 0.0, 23: 0.0, 24: 0.0, 25: 0.0442, 26: 0.0, 27: 0.0, 28: 0.1172, 29: 0.1725, 30: 0.277, 31: 0.0, 32: 0.6098, 33: 0.8425, 34: 0.089708333, 35: 1.022, 36: 0.0, 37: 1.2185, 38: 0.0, 39: 0.0, 40: 0.0, 41: 0.0, 42: 0.0, 43: 1.1022, 44: 1.1155, 45: 0.0, 46: 1.1122, 47: 0.0655, 48: 0.0, 49: 0.0, 50: 0.061, 51: 0.0, 52: 0.0, 53: 0.0, 54: 0.5122, 55: 0.0, 56: 0.3825, 57: 0.0, 58: 0.2968, 59: 0.259, 60: 0.304, 61: 0.0, 62: 0.4178, 63: 0.5433, 64: 0.6747, 65: 0.255, 66: 0.2243, 67: 0.1273, 68: 0.0, 69: 0.0905, 70: 0.07000000000000001, 71: 0.0, 72: 0.0, 73: 0.0008, 74: 0.0, 75: 0.0, 76: 0.0, 77: 0.0, 78: 0.0, 79: 0.0, 80: 0.0, 81: 0.0, 82: 0.0, 83: 0.0, 84: 0.0, 85: 0.0, 86: 0.0, 87: 0.0, 88: 0.0, 89: 0.0, 90: 0.0, 91: 0.0, 92: 0.0, 93: 0.0, 94: 0.0, 95: 0.0];
buy = [0: 0.0, 1: 1.289408333, 2: 1.269708333, 3: 1.252208333, 4: 1.242708333, 5: 1.246408333, 6: 1.253208333, 7: 0.218708333, 8: 0.218708333, 9: 0.0, 10: 0.0, 11: 1.219708333, 12: 1.221908333, 13: 0.0, 14: 0.213208333, 15: 1.217708333, 16: 1.226208333, 17: 0.0, 18: 0.210408333, 19: 1.266208333, 20: 0.307908333, 21: 0.0, 22: 1.295908333, 23: 0.0, 24: 0.0, 25: 1.171708333, 26: 0.0, 27: 0.0, 28: 0.0, 29: 0.0, 30: 0.0, 31: 1.087208333, 32: 0.472408333, 33: 0.0, 34: 0.0, 35: 0.0, 36: 1.087208333, 37: 0.0, 38: 1.080508333, 39: 1.087008333, 40: 1.088708333, 41: 1.083208333, 42: 1.080708333, 43: 0.0, 44: 0.0, 45: 0.0, 46: 0.0, 47: 1.014208333, 48: 0.0, 49: 0.0, 50: 1.016708333, 51: 0.0, 52: 1.094508333, 53: 0.0, 54: 1.029708333, 55: 0.0, 56: 0.972708333, 57: 0.0, 58: 0.0, 59: 0.0, 60: 0.773708333, 61: 1.079508333, 62: 0.667908333, 63: 0.0, 64: 0.406708333, 65: 0.0, 66: 0.862708333, 67: 0.0, 68: 1.079008333, 69: 0.0, 70: 1.014208333, 71: 0.0, 72: 0.07590833299999999, 73: 1.068708333, 74: 0.06950833300000001, 75: 0.079508333, 76: 0.078208333, 77: 1.076408333, 78: 1.068408333, 79: 1.068708333, 80: 1.077708333, 81: 0.0, 82: 0.0, 83: 0.0, 84: 0.0, 85: 0.0, 86: 0.094008333, 87: 1.087208333, 88: 1.105008333, 89: 0.0, 90: 0.0, 91: 0.0, 92: 0.0, 93: 1.105008333, 94: 1.113208333, 95: 0.0];
sell = [0: 0.6110916669999999, 1: 0.0, 2: 0.0, 3: 0.0, 4: 0.0, 5: 0.0, 6: 0.0, 7: 0.0, 8: 0.0, 9: 0.0, 10: 0.687091667, 11: 0.0, 12: 0.0, 13: 0.686591667, 14: 0.0, 15: 0.0, 16: 0.0, 17: 0.016791667, 18: 0.0, 19: 0.0, 20: 0.0, 21: 0.596091667, 22: 0.0, 23: 0.609791667, 24: 0.6897916670000001, 25: 0.0, 26: 0.685091667, 27: 0.817291667, 28: 0.933291667, 29: 0.9810916669999999, 30: 0.183991667, 31: 0.0, 32: 0.0, 33: 0.760591667, 34: 0.0, 35: 1.831591667, 36: 0.0, 37: 2.038791667, 38: 0.0, 39: 0.0, 40: 0.0, 41: 0.0, 42: 0.0, 43: 1.015691667, 44: 1.928491667, 45: 0.8217916669999999, 46: 1.282618517, 47: 0.0, 48: 0.811491667, 49: 0.8137916670000001, 50: 0.0, 51: 0.8187916669999999, 52: 0.0, 53: 0.312791667, 54: 0.0, 55: 0.071291667, 56: 0.0, 57: 0.526091667, 58: 0.0, 59: 0.849591667, 60: 0.0, 61: 0.0, 62: 0.0, 63: 0.455591667, 64: 0.0, 65: 0.176991667, 66: 0.0, 67: 0.938391667, 68: 0.0, 69: 0.009991666999999999, 70: 0.0, 71: 0.822991667, 72: 0.0, 73: 0.0, 74: 0.0, 75: 0.0, 76: 0.0, 77: 0.0, 78: 0.0, 79: 0.0, 80: 0.0, 81: 0.823291667, 82: 0.0, 83: 0.811491667, 84: 0.8117916670000001, 85: 0.803991667, 86: 0.0, 87: 0.0, 88: 0.0, 89: 0.0, 90: 0.786791667, 91: 0.788091667, 92: 0.795291667, 93: 0.0, 94: 0.0, 95: 0.787291667];
charge = [0: 0.0, 1: 1.0, 2: 1.0, 3: 1.0, 4: 1.0, 5: 1.0, 6: 1.0, 7: 0.0, 8: 0.0, 9: 0.0, 10: 0.0, 11: 1.0, 12: 1.0, 13: 0.0, 14: 0.0, 15: 1.0, 16: 1.0, 17: 0.0, 18: 0.0, 19: 1.0, 20: 0.0, 21: 0.0, 22: 1.0, 23: 0.0, 24: 0.0, 25: 1.0, 26: 0.0, 27: 0.0, 28: 0.0, 29: 0.0, 30: 0.0, 31: 1.0, 32: 1.0, 33: 0.0, 34: 0.0, 35: 0.0, 36: 1.0, 37: 0.0, 38: 1.0, 39: 1.0, 40: 1.0, 41: 1.0, 42: 1.0, 43: 0.0, 44: 0.0, 45: 0.0, 46: 0.0, 47: 1.0, 48: 0.0, 49: 0.0, 50: 1.0, 51: 0.0, 52: 1.0, 53: 0.0, 54: 1.0, 55: 0.0, 56: 1.0, 57: 0.0, 58: 0.0, 59: 0.0, 60: 1.0, 61: 1.0, 62: 1.0, 63: 0.0, 64: 1.0, 65: 0.0, 66: 1.0, 67: 0.0, 68: 1.0, 69: 0.0, 70: 1.0, 71: 0.0, 72: 0.0, 73: 1.0, 74: 0.0, 75: 0.0, 76: 0.0, 77: 1.0, 78: 1.0, 79: 1.0, 80: 1.0, 81: 0.0, 82: 0.0, 83: 0.0, 84: 0.0, 85: 0.0, 86: 0.0, 87: 1.0, 88: 1.0, 89: 0.0, 90: 0.0, 91: 0.0, 92: 0.0, 93: 1.0, 94: 1.0, 95: 0.0];
discharge = [0: 1.0, 1: 0.0, 2: 0.0, 3: 0.0, 4: 0.0, 5: 0.0, 6: 0.0, 7: 0.0, 8: 0.0, 9: 0.238009259, 10: 1.0, 11: 0.0, 12: 0.0, 13: 1.0, 14: 0.0, 15: 0.0, 16: 0.0, 17: 1.0, 18: 0.0, 19: 0.0, 20: 0.0, 21: 1.0, 22: 0.0, 23: 1.0, 24: 1.0, 25: 0.0, 26: 1.0, 27: 1.0, 28: 1.0, 29: 1.0, 30: 0.0, 31: 0.0, 32: 0.0, 33: 0.0, 34: 0.0, 35: 1.0, 36: 0.0, 37: 1.0, 38: 0.0, 39: 0.0, 40: 0.0, 41: 0.0, 42: 0.0, 43: 0.0, 44: 1.0, 45: 1.0, 46: 0.276029833, 47: 0.0, 48: 1.0, 49: 1.0, 50: 0.0, 51: 1.0, 52: 0.0, 53: 1.0, 54: 0.0, 55: 1.0, 56: 0.0, 57: 1.0, 58: 0.049898148, 59: 1.0, 60: 0.0, 61: 0.0, 62: 0.0, 63: 0.0, 64: 0.0, 65: 0.0, 66: 0.0, 67: 1.0, 68: 0.0, 69: 0.0, 70: 0.0, 71: 1.0, 72: 0.0, 73: 0.0, 74: 0.0, 75: 0.0, 76: 0.0, 77: 0.0, 78: 0.0, 79: 0.0, 80: 0.0, 81: 1.0, 82: 0.09523148100000001, 83: 1.0, 84: 1.0, 85: 1.0, 86: 0.0, 87: 0.0, 88: 0.0, 89: 0.125231481, 90: 1.0, 91: 1.0, 92: 1.0, 93: 0.0, 94: 0.0, 95: 1.0];
soc = [0: 3.069186, 1: 3.968572163, 2: 4.867778448, 3: 5.766804893, 4: 6.665651532, 5: 7.564318401, 6: 8.462805538, 7: 8.461112977000001, 8: 8.459420754, 9: 8.219719611, 10: 7.218075667, 11: 8.116632052, 12: 9.015008725, 13: 8.013205723, 14: 8.011603082000001, 15: 8.910000761999999, 16: 9.808218760999999, 17: 8.806257118, 18: 8.804495866, 19: 9.702734967, 20: 9.700793651, 21: 8.698854260999999, 22: 9.597114489999999, 23: 8.595195067000001, 24: 7.593476028, 25: 8.491957333, 26: 7.490258942, 27: 6.48876089, 28: 5.487463138, 29: 4.486365645, 30: 4.485468372, 31: 5.384571278, 32: 6.283494364, 33: 6.282237665, 34: 6.280981218, 35: 5.279725022, 36: 6.178669077, 37: 5.177433343, 38: 6.076397856, 39: 6.975182576, 40: 7.87378754, 41: 8.772212782, 42: 9.67045834, 43: 9.668524248000001, 44: 8.666590543, 45: 7.664857225, 46: 7.38729442, 47: 8.285816962, 48: 7.284159798, 49: 6.282702966, 50: 7.181446426, 51: 6.180010136, 52: 7.078774134, 53: 6.077358379, 54: 6.976142908, 55: 5.974747679, 56: 6.87355273, 57: 5.872178019, 58: 5.821105435, 59: 4.819941214, 60: 5.718977226, 61: 6.617833431, 62: 7.516509864, 63: 7.515006562, 64: 8.413503561000001, 65: 8.411820860000001, 66: 9.310138496, 67: 8.308276468000001, 68: 9.206614813, 69: 9.204773489999999, 70: 10.102932535, 71: 9.100911949, 72: 9.099091766000001, 73: 9.997271948, 74: 9.995272493, 75: 9.993273438999999, 76: 9.991274784, 77: 10.889276529, 78: 11.787098674, 79: 12.684741254, 80: 13.582204306, 81: 12.579487865, 82: 12.481740486, 83: 11.479244138, 84: 10.476948289, 85: 9.4748529, 86: 9.472957929, 87: 10.371063337, 88: 11.268989125, 89: 11.141503845, 90: 10.139275545, 91: 9.137247689000001, 92: 8.13542024, 93: 9.033793156, 94: 9.931986396999999, 95: 8.93];
cost = [0: 0.0, 1: 0.905877716, 2: 0.893842986, 3: 0.883152236, 4: 0.877348686, 5: 0.879609016, 6: 0.883763136, 7: 0.133608921, 8: 0.133608921, 9: 0.0, 10: 0.0, 11: 0.863297986, 12: 0.864641966, 13: 0.0, 14: 0.130248971, 15: 0.862076186, 16: 0.867268836, 17: 0.0, 18: 0.128538451, 19: 0.8917048359999999, 20: 0.188101201, 21: 0.0, 22: 0.909848566, 23: 0.0, 24: 0.0, 25: 1.512042399, 26: 0.0, 27: 0.0, 28: 0.0, 29: 0.0, 30: 0.0, 31: 1.411521199, 32: 0.680155119, 33: 0.0, 34: 0.0, 35: 0.0, 36: 1.411521199, 37: 0.0, 38: 1.403550879, 39: 1.411283279, 40: 1.413305599, 41: 1.406762799, 42: 1.403788799, 43: 0.0, 44: 0.0, 45: 0.0, 46: 0.0, 47: 1.324680399, 48: 0.0, 49: 0.0, 50: 1.327654399, 51: 0.0, 52: 0.786813306, 53: 0.0, 54: 0.747226986, 55: 0.0, 56: 0.712405686, 57: 0.0, 58: 0.0, 59: 0.0, 60: 1.038581599, 61: 1.402361279, 62: 0.912721919, 63: 0.0, 64: 0.601998399, 65: 0.0, 66: 1.144455999, 67: 0.0, 68: 1.401766479, 69: 0.0, 70: 1.324680399, 71: 0.0, 72: 0.09030055300000001, 73: 1.389513599, 74: 0.08268711300000001, 75: 0.094583113, 76: 0.09303663299999999, 77: 1.398673519, 78: 1.389156719, 79: 1.389513599, 80: 1.400219999, 81: 0.0, 82: 0.0, 83: 0.0, 84: 0.0, 85: 0.0, 86: 0.111832313, 87: 1.411521199, 88: 0.793227756, 89: 0.0, 90: 0.0, 91: 0.0, 92: 0.0, 93: 0.793227756, 94: 0.798237136, 95: 0.0];
earn = [0: 0.342700207, 1: 0.0, 2: 0.0, 3: 0.0, 4: 0.0, 5: 0.0, 6: 0.0, 7: 0.0, 8: 0.0, 9: 0.0, 10: 0.36113538, 11: 0.0, 12: 0.0, 13: 0.363001014, 14: 0.0, 15: 0.0, 16: 0.0, 17: 0.009069179, 18: 0.0, 19: 0.0, 20: 0.0, 21: 0.333632506, 22: 0.0, 23: 0.3409955, 24: 0.380833979, 25: 0.0, 26: 0.378033582, 27: 0.426871438, 28: 0.504070829, 29: 0.468961817, 30: 0.08108512700000001, 31: 0.0, 32: 0.0, 33: 0.149228085, 34: 0.0, 35: 0.178946506, 36: 0.0, 37: 0.042406867, 38: 0.0, 39: 0.0, 40: 0.0, 41: 0.0, 42: 0.0, 43: -0.018587158, 44: -0.10645274, 45: -0.057607596, 46: -0.099018149, 47: 0.0, 48: -0.068571046, 49: -0.053384733, 50: 0.0, 51: -0.030540929, 52: 0.0, 53: -0.005473854, 54: 0.0, 55: -0.001055117, 56: 0.0, 57: -0.006207882, 58: 0.0, 59: -8.4959e-05, 60: 0.0, 61: 0.0, 62: 0.0, 63: 0.118453833, 64: 0.0, 65: 0.08877902, 66: 0.0, 67: 0.653777474, 68: 0.0, 69: 0.007672601, 70: 0.0, 71: 0.716414246, 72: 0.0, 73: 0.0, 74: 0.0, 75: 0.0, 76: 0.0, 77: 0.0, 78: 0.0, 79: 0.0, 80: 0.0, 81: 0.660773892, 82: 0.0, 83: 0.612270463, 84: 0.6235371790000001, 85: 0.60974728, 86: 0.0, 87: 0.0, 88: 0.0, 89: 0.0, 90: 0.546426813, 91: 0.536926852, 92: 0.5668839, 93: 0.0, 94: 0.0, 95: 0.501898438];
total_cost = 47.311547743;
total_earn = 10.157549842;
% _objective = 37.153997901;