production = [0: 0.0, 1: 0.0, 2: 0.0, 3: 0.0, 4: 0.0, 5: 0.0, 6: 0.0, 7: 0.0, 8: 0.0, 9: 0.0, 10: 0.0, 11: 0.0, 12: 0.0, 13: 0.0, 14: 0.0, 15: 0.0, 16: 0.0, 17: 0.0, 18: 0.0, 19: 0.0, 20: 0.0, 21: 0.0, 22: 0.0, 23: 0.0032, 24: 0.0143, 25: 0.0442, 26: 0.0683, 27: 0.0, 28: 0.0, 29: 0.1725, 30: 0.0, 31: 0.4938, 32: 0.0, 33: 0.0, 34: 0.9437, 35: 0.0, 36: 0.0, 37: 1.2185, 38: 0.0, 39: 0.0, 40: 0.0, 41: 1.0973, 42: 1.0973, 43: 0.0, 44: 1.1155, 45: 1.097, 46: 0.0, 47: 0.0, 48: 0.0, 49: 0.0673, 50: 0.061, 51: 0.0, 52: 0.0788, 53: 0.0, 54: 0.0, 55: 0.721, 56: 0.0, 57: 0.3468, 58: 0.2968, 59: 0.259, 60: 0.0, 61: 0.0, 62: 0.4178, 63: 0.5433, 64: 0.0, 65: 0.0, 66: 0.2243, 67: 0.1273, 68: 0.0, 69: 0.0, 70: 0.0, 71: 0.0333, 72: 0.0083, 73: 0.0, 74: 0.0, 75: 0.0, 76: 0.0, 77: 0.0, 78: 0.0, 79: 0.0, 80: 0.0, 81: 0.0, 82: 0.0, 83: 0.0, 84: 0.0, 85: 0.0, 86: 0.0, 87: 0.0, 88: 0.0, 89: 0.0, 90: 0.0, 91: 0.0, 92: 0.0, 93: 0.0, 94: 0.0, 95: 0.0];
buy = [0: 0.0, 1: 0.289408333, 2: 0.0, 3: 1.252208333, 4: 0.0, 5: 1.246408333, 6: 1.253208333, 7: 0.0, 8: 0.446052663, 9: 0.0, 10: 0.212908333, 11: 0.219708333, 12: 1.221908333, 13: 0.0, 14: 1.213208333, 15: 0.217708333, 16: 0.226208333, 17: 0.883208333, 18: 0.0, 19: 1.266208333, 20: 1.307908333, 21: 0.304408333, 22: 1.295908333, 23: 1.287008333, 24: 0.0, 25: 0.171708333, 26: 0.0, 27: 1.082708333, 28: 1.083908333, 29: 0.918908333, 30: 1.093008333, 31: 0.0, 32: 0.08220833299999999, 33: 1.081908333, 34: 0.146008333, 35: 1.090408333, 36: 0.0, 37: 0.0, 38: 1.080508333, 39: 0.0, 40: 0.0, 41: 0.0, 42: 0.0, 43: 1.086507937, 44: 0.0, 45: 0.0, 46: 1.078008333, 47: 1.079708333, 48: 0.0, 49: 0.018908333, 50: 0.0, 51: 0.08120833299999999, 52: 0.0, 53: 1.587208333, 54: 1.541908333, 55: 1.107708333, 56: 0.0, 57: 1.027108333, 58: 0.0, 59: 0.0, 60: 1.077708333, 61: 0.079508333, 62: 0.0, 63: 0.544408333, 64: 1.081408333, 65: 0.078008333, 66: 0.0, 67: 0.0, 68: 0.0, 69: 1.080508333, 70: 1.084208333, 71: 0.0, 72: 1.067608333, 73: 0.06950833300000001, 74: 0.0, 75: 0.0, 76: 0.0, 77: 1.076408333, 78: 0.0, 79: 0.0, 80: 0.0, 81: 1.076708333, 82: 0.0, 83: 0.0, 84: 0.0, 85: 0.0, 86: 0.0, 87: 0.0, 88: 1.105008333, 89: 1.112708333, 90: 0.113208333, 91: 1.111908333, 92: 0.0, 93: 0.105008333, 94: 0.113208333, 95: 1.112708333];
sell = [0: 0.0, 1: 0.0, 2: 0.626149163, 3: 0.0, 4: 0.657291667, 5: 0.0, 6: 0.0, 7: 0.681291667, 8: 0.0, 9: 0.685791667, 10: 0.0, 11: 0.0, 12: 0.0, 13: 0.502350823, 14: 0.0, 15: 0.0, 16: 0.0, 17: 0.0, 18: 0.689591667, 19: 0.0, 20: 0.0, 21: 0.0, 22: 0.0, 23: 0.0, 24: 0.704091667, 25: 0.0, 26: 0.753391667, 27: 0.0, 28: 0.0, 29: 0.0, 30: 0.0, 31: 0.406591667, 32: 0.0, 33: 0.0, 34: 0.0, 35: 0.0, 36: 0.8127916670000001, 37: 1.138791667, 38: 0.0, 39: 0.812991667, 40: 0.811291667, 41: 0.014091667, 42: 0.016591667, 43: 0.0, 44: 0.028491667, 45: 0.018791667, 46: 0.0, 47: 0.0, 48: 0.811491667, 49: 0.0, 50: 0.787033795, 51: 0.0, 52: 0.8842916669999999, 53: 0.0, 54: 0.0, 55: 0.0, 56: 0.0, 57: 0.0, 58: 0.8550916670000001, 59: 0.849591667, 60: 0.0, 61: 0.0, 62: 0.332091667, 63: 0.0, 64: 0.0, 65: 0.0, 66: 0.137291667, 67: 0.938391667, 68: 0.820991667, 69: 0.0, 70: 0.0, 71: 0.856291667, 72: 0.0, 73: 0.0, 74: 0.830491667, 75: 0.0, 76: 0.8217916669999999, 77: 0.0, 78: 0.831591667, 79: 0.831291667, 80: 0.822291667, 81: 0.0, 82: 0.814291667, 83: 0.811491667, 84: 0.8117916670000001, 85: 0.803991667, 86: 0.51708202, 87: 0.8127916670000001, 88: 0.0, 89: 0.0, 90: 0.0, 91: 0.0, 92: 0.795291667, 93: 0.0, 94: 0.0, 95: 0.0];
charge = [0: 0.0, 1: 0.0, 2: 0.0, 3: 1.0, 4: 0.0, 5: 1.0, 6: 1.0, 7: 0.0, 8: 0.227344329, 9: 0.0, 10: 0.0, 11: 0.0, 12: 1.0, 13: 0.0, 14: 1.0, 15: 0.0, 16: 0.0, 17: 0.0, 18: 0.0, 19: 1.0, 20: 1.0, 21: 0.0, 22: 1.0, 23: 1.0, 24: 0.0, 25: 0.0, 26: 0.0, 27: 1.0, 28: 1.0, 29: 1.0, 30: 1.0, 31: 0.0, 32: 0.0, 33: 1.0, 34: 1.0, 35: 1.0, 36: 0.0, 37: 0.0, 38: 1.0, 39: 0.0, 40: 0.0, 41: 1.0, 42: 1.0, 43: 1.0, 44: 1.0, 45: 1.0, 46: 1.0, 47: 1.0, 48: 0.0, 49: 0.0, 50: 0.0, 51: 0.0, 52: 0.0, 53: 1.0, 54: 1.0, 55: 1.0, 56: 0.0, 57: 1.0, 58: 0.0, 59: 0.0, 60: 1.0, 61: 0.0, 62: 0.0, 63: 1.0, 64: 1.0, 65: 0.0, 66: 0.0, 67: 0.0, 68: 0.0, 69: 1.0, 70: 1.0, 71: 0.0, 72: 1.0, 73: 0.0, 74: 0.0, 75: 0.0, 76: 0.0, 77: 1.0, 78: 0.0, 79: 0.0, 80: 0.0, 81: 1.0, 82: 0.0, 83: 0.0, 84: 0.0, 85: 0.0, 86: 0.0, 87: 0.0, 88: 1.0, 89: 1.0, 90: 0.0, 91: 1.0, 92: 0.0, 93: 0.0, 94: 0.0, 95: 1.0];
discharge = [0: 0.321009259, 1: 0.0, 2: 0.995397218, 3: 0.0, 4: 1.0, 5: 0.0, 6: 0.0, 7: 1.0, 8: 0.0, 9: 1.0, 10: 0.0, 11: 0.0, 12: 0.0, 13: 0.795287951, 14: 0.0, 15: 0.0, 16: 0.0, 17: 0.0, 18: 1.0, 19: 0.0, 20: 0.0, 21: 0.0, 22: 0.0, 23: 0.0, 24: 1.0, 25: 0.0, 26: 1.0, 27: 0.0, 28: 0.0, 29: 0.0, 30: 0.0, 31: 0.0, 32: 0.0, 33: 0.0, 34: 0.0, 35: 0.0, 36: 1.0, 37: 0.0, 38: 0.0, 39: 1.0, 40: 1.0, 41: 0.0, 42: 0.0, 43: 0.0, 44: 0.0, 45: 0.0, 46: 0.0, 47: 0.0, 48: 1.0, 49: 0.0, 50: 0.893046809, 51: 0.0, 52: 1.0, 53: 0.0, 54: 0.0, 55: 0.0, 56: 0.394675926, 57: 0.0, 58: 1.0, 59: 1.0, 60: 0.0, 61: 0.0, 62: 0.0, 63: 0.0, 64: 0.0, 65: 0.0, 66: 0.0, 67: 1.0, 68: 1.0, 69: 0.0, 70: 0.0, 71: 1.0, 72: 0.0, 73: 0.0, 74: 1.0, 75: 0.088342593, 76: 1.0, 77: 0.0, 78: 1.0, 79: 1.0, 80: 1.0, 81: 0.0, 82: 1.0, 83: 1.0, 84: 1.0, 85: 1.0, 86: 0.678989281, 87: 1.0, 88: 0.0, 89: 0.0, 90: 0.0, 91: 0.0, 92: 1.0, 93: 0.0, 94: 0.0, 95: 0.0];
soc = [0: 3.748176741, 1: 3.747427105, 2: 2.751280402, 3: 3.650730146, 4: 2.65, 5: 3.54947, 6: 4.448760106, 7: 3.447870354, 8: 3.651790676, 9: 2.651060318, 10: 2.650530106, 11: 2.65, 12: 3.54947, 13: 2.753472155, 14: 3.652921461, 15: 3.652190876, 16: 3.651460438, 17: 3.650730146, 18: 2.65, 19: 3.54947, 20: 4.448760106, 21: 4.447870354, 22: 5.34698078, 23: 6.245911384, 24: 5.244662201, 25: 5.243613269, 26: 4.242564546, 27: 5.141716033, 28: 6.04068769, 29: 6.939479553, 30: 7.838091657, 31: 7.836524038, 32: 7.834956734, 33: 8.733389742, 34: 9.631643064, 35: 10.529716736, 36: 9.527610792000001, 37: 9.52570527, 38: 10.423800129, 39: 9.421715368999999, 40: 8.419831026000001, 41: 9.318147059999999, 42: 10.21628343, 43: 11.114240174, 44: 12.012017326, 45: 12.909614922, 46: 13.807032999, 47: 14.704271593, 48: 13.701330738, 49: 13.698590472, 50: 12.802803945, 51: 12.800243385, 52: 11.797683336, 53: 12.695323799, 54: 13.592784734, 55: 14.490066178, 56: 14.092492238, 57: 14.98967374, 58: 13.986675805, 59: 12.98387847, 60: 13.881281694, 61: 13.878505438, 62: 13.875729737, 63: 14.772954591, 64: 15.67, 65: 15.666866, 66: 15.663732627, 67: 14.66059988, 68: 13.65766776, 69: 14.554936227, 70: 15.45202524, 71: 14.448934834, 72: 15.346045047, 73: 15.342975838, 74: 14.339907243, 75: 14.248696669, 76: 13.24584693, 77: 14.143197761, 78: 13.140369121, 79: 12.137741047, 80: 11.135313499, 81: 12.033086436, 82: 11.030679819, 83: 10.028473683, 84: 9.026467988, 85: 8.024662695, 86: 7.344068481, 87: 6.342599667, 88: 7.241331147, 89: 8.139882881, 90: 8.138254904, 91: 9.036627253000001, 92: 8.034819927999999, 93: 8.033212964000001, 94: 8.031606321, 95: 8.93];
cost = [0: 0.0, 1: 0.176799551, 2: 0.0, 3: 0.883152236, 4: 0.0, 5: 0.879609016, 6: 0.883763136, 7: 0.0, 8: 0.299360707, 9: 0.0, 10: 0.130065701, 11: 0.134219821, 12: 0.864641966, 13: 0.0, 14: 0.859327136, 15: 0.132998021, 16: 0.138190671, 17: 0.539551971, 18: 0.0, 19: 0.8917048359999999, 20: 0.9171793660000001, 21: 0.185963051, 22: 0.909848566, 23: 0.904411556, 24: 0.0, 25: 0.204264233, 26: 0.0, 27: 1.406167999, 28: 1.407595519, 29: 1.211311519, 30: 1.418420879, 31: 0.0, 32: 0.097795033, 33: 1.405216319, 34: 0.291869679, 35: 1.415327919, 36: 0.0, 37: 0.0, 38: 1.403550879, 39: 0.0, 40: 0.0, 41: 0.118178165, 42: 0.118178165, 43: 1.410688479, 44: 0.118178165, 45: 0.118178165, 46: 1.400576879, 47: 1.402599199, 48: 0.0, 49: 0.022493353, 50: 0.0, 51: 0.096605433, 52: 0.0, 53: 1.087803736, 54: 1.060129966, 55: 0.794877186, 56: 0.0, 57: 0.745638646, 58: 0.0, 59: 0.0, 60: 1.400219999, 61: 0.094583113, 62: 0.0, 63: 0.765806319, 64: 1.404621519, 65: 0.092798713, 66: 0.0, 67: 0.0, 68: 0.0, 69: 1.403550879, 70: 1.407952399, 71: 0.0, 72: 1.388205039, 73: 0.08268711300000001, 74: 0.0, 75: 0.0, 76: 0.0, 77: 1.398673519, 78: 0.0, 79: 0.0, 80: 0.0, 81: 1.399030399, 82: 0.0, 83: 0.0, 84: 0.0, 85: 0.0, 86: 0.0, 87: 0.0, 88: 0.793227756, 89: 0.797931686, 90: 0.069158971, 91: 0.797442966, 92: 0.0, 93: 0.06414959100000001, 94: 0.069158971, 95: 0.797931686];
earn = [0: 0.0, 1: 0.0, 2: 0.345696953, 3: 0.0, 4: 0.352702708, 5: 0.0, 6: 0.0, 7: 0.357746254, 8: 0.0, 9: 0.360383521, 10: 0.0, 11: 0.0, 12: 0.0, 13: 0.26559288, 14: 0.0, 15: 0.0, 16: 0.0, 17: 0.0, 18: 0.374999948, 19: 0.0, 20: 0.0, 21: 0.0, 22: 0.0, 23: 0.0, 24: 0.388729009, 25: 0.0, 26: 0.415721522, 27: 0.0, 28: 0.0, 29: 0.0, 30: 0.0, 31: 0.147145524, 32: 0.0, 33: 0.0, 34: 0.0, 35: 0.0, 36: 0.050474362, 37: 0.023686867, 38: 0.0, 39: -0.003333266, 40: -0.003813071, 41: -6.6231e-05, 42: -0.000175872, 43: 0.0, 44: -0.00157274, 45: -0.001317296, 46: 0.0, 47: 0.0, 48: -0.068571046, 49: 0.0, 50: -0.028490623, 51: 0.0, 52: -0.016359396, 53: 0.0, 54: 0.0, 55: 0.0, 56: 0.0, 57: 0.0, 58: -0.001453656, 59: -8.4959e-05, 60: 0.0, 61: 0.0, 62: 0.06601982300000001, 63: 0.0, 64: 0.0, 65: 0.0, 66: 0.07792675, 67: 0.653777474, 68: 0.555893458, 69: 0.0, 70: 0.0, 71: 0.745401896, 72: 0.0, 73: 0.0, 74: 0.7554152200000001, 75: 0.0, 76: 0.746844267, 77: 0.0, 78: 0.728307982, 79: 0.715326479, 80: 0.668111979, 81: 0.0, 82: 0.629854604, 83: 0.612270463, 84: 0.6235371790000001, 85: 0.60974728, 86: 0.372505887, 87: 0.593175358, 88: 0.0, 89: 0.0, 90: 0.0, 91: 0.0, 92: 0.5668839, 93: 0.0, 94: 0.0, 95: 0.0];
total_cost = 42.713563463;
total_earn = 12.678641392;
% _objective = 30.034922071;