production = [0: 0.0, 1: 0.0, 2: 0.0, 3: 0.0, 4: 0.0, 5: 0.0, 6: 0.0, 7: 0.0, 8: 0.0, 9: 0.0, 10: 0.0, 11: 0.0, 12: 0.0, 13: 0.0, 14: 0.0, 15: 0.0, 16: 0.0, 17: 0.0, 18: 0.0, 19: 0.0, 20: 0.0, 21: 0.0005, 22: 0.0003, 23: 0.0, 24: 0.0143, 25: 0.0, 26: 0.0, 27: 0.0, 28: 0.0, 29: 0.1725, 30: 0.0, 31: 0.0, 32: 0.0, 33: 0.0, 34: 0.0, 35: 1.022, 36: 0.0, 37: 1.2185, 38: 0.0, 39: 0.0, 40: 0.0, 41: 0.0, 42: 1.0973, 43: 1.1022, 44: 1.1155, 45: 1.097, 46: 0.0, 47: 0.0655, 48: 0.06850000000000001, 49: 0.0, 50: 0.061, 51: 0.0, 52: 0.0, 53: 0.0, 54: 0.5122, 55: 0.721, 56: 0.0, 57: 0.0, 58: 0.0, 59: 0.0, 60: 0.0, 61: 0.0, 62: 0.0, 63: 0.0, 64: 0.6747, 65: 0.255, 66: 0.0, 67: 0.1273, 68: 0.0, 69: 0.0905, 70: 0.0, 71: 0.0, 72: 0.0, 73: 0.0, 74: 0.0003, 75: 0.0, 76: 0.0, 77: 0.0, 78: 0.0, 79: 0.0, 80: 0.0, 81: 0.0, 82: 0.0, 83: 0.0, 84: 0.0, 85: 0.0, 86: 0.0, 87: 0.0, 88: 0.0, 89: 0.0, 90: 0.0, 91: 0.0, 92: 0.0, 93: 0.0, 94: 0.0, 95: 0.0];
buy = [0: 0.0, 1: 1.289408333, 2: 0.269708333, 3: 0.0, 4: 0.0, 5: 1.246408333, 6: 0.0, 7: 1.218708333, 8: 1.218708333, 9: 0.0, 10: 1.212908333, 11: 0.219708333, 12: 1.221908333, 13: 1.213408333, 14: 1.213208333, 15: 0.217708333, 16: 0.0, 17: 1.883208333, 18: 1.210408333, 19: 1.266208333, 20: 0.307908333, 21: 1.303908333, 22: 0.295608333, 23: 1.290208333, 24: 0.0, 25: 1.215908333, 26: 0.0, 27: 0.0, 28: 1.083908333, 29: 0.918908333, 30: 0.0, 31: 0.087208333, 32: 1.082208333, 33: 1.081908333, 34: 0.089708333, 35: 0.0, 36: 1.087208333, 37: 0.0, 38: 0.080508333, 39: 1.087008333, 40: 0.088708333, 41: 0.0, 42: 0.0, 43: 0.0, 44: 0.0, 45: 0.0, 46: 1.078008333, 47: 1.014208333, 48: 1.020008333, 49: 0.0, 50: 1.016708333, 51: 0.0, 52: 0.094508333, 53: 0.587208333, 54: 1.029708333, 55: 0.0, 56: 0.355208333, 57: 0.0, 58: 0.341708333, 59: 1.309408333, 60: 0.0, 61: 1.079508333, 62: 0.085708333, 63: 0.0, 64: 0.0, 65: 0.0, 66: 0.08700833299999999, 67: 0.961608333, 68: 1.079008333, 69: 0.0, 70: 0.0, 71: 1.077008333, 72: 1.075908333, 73: 0.0, 74: 0.0, 75: 1.079508333, 76: 0.0, 77: 1.076408333, 78: 1.068408333, 79: 1.068708333, 80: 0.0, 81: 0.076708333, 82: 0.0, 83: 0.0, 84: 0.0, 85: 0.0, 86: 0.094008333, 87: 0.087208333, 88: 0.0, 89: 1.112708333, 90: 1.113208333, 91: 0.111908333, 92: 0.0, 93: 1.105008333, 94: 1.113208333, 95: 0.0];
sell = [0: 0.6110916669999999, 1: 0.0, 2: 0.0, 3: 0.0, 4: 0.598553759, 5: 0.0, 6: 0.646791667, 7: 0.0, 8: 0.0, 9: 0.0, 10: 0.0, 11: 0.0, 12: 0.0, 13: 0.0, 14: 0.0, 15: 0.0, 16: 0.673791667, 17: 0.0, 18: 0.0, 19: 0.0, 20: 0.0, 21: 0.0, 22: 0.0, 23: 0.0, 24: 0.704091667, 25: 0.0, 26: 0.685091667, 27: 0.817291667, 28: 0.0, 29: 0.0, 30: 0.806991667, 31: 0.0, 32: 0.0, 33: 0.0, 34: 0.0, 35: 0.931591667, 36: 0.0, 37: 2.038791667, 38: 0.0, 39: 0.0, 40: 0.0, 41: 0.8167916670000001, 42: 1.016591667, 43: 0.015691667, 44: 0.028491667, 45: 1.918791667, 46: 0.0, 47: 0.0, 48: 0.0, 49: 0.8137916670000001, 50: 0.0, 51: 0.8187916669999999, 52: 0.0, 53: 0.0, 54: 0.0, 55: 0.792291667, 56: 0.0, 57: 0.526091667, 58: 0.0, 59: 0.0, 60: 0.822291667, 61: 0.0, 62: 0.0, 63: 0.812291667, 64: 1.493291667, 65: 1.076991667, 66: 0.0, 67: 0.0, 68: 0.0, 69: 0.909991667, 70: 0.8157916670000001, 71: 0.0, 72: 0.0, 73: 0.830491667, 74: 0.0, 75: 0.0, 76: 0.8217916669999999, 77: 0.0, 78: 0.0, 79: 0.0, 80: 0.0, 81: 0.0, 82: 0.814291667, 83: 0.811491667, 84: 0.8117916670000001, 85: 0.803991667, 86: 0.0, 87: 0.0, 88: 0.794991667, 89: 0.0, 90: 0.0, 91: 0.0, 92: 0.795291667, 93: 0.0, 94: 0.0, 95: 0.787291667];
charge = [0: 0.0, 1: 1.0, 2: 0.0, 3: 0.0, 4: 0.0, 5: 1.0, 6: 0.0, 7: 1.0, 8: 1.0, 9: 0.0, 10: 1.0, 11: 0.0, 12: 1.0, 13: 1.0, 14: 1.0, 15: 0.0, 16: 0.0, 17: 1.0, 18: 1.0, 19: 1.0, 20: 0.0, 21: 1.0, 22: 0.0, 23: 1.0, 24: 0.0, 25: 1.0, 26: 0.0, 27: 0.0, 28: 1.0, 29: 1.0, 30: 0.0, 31: 0.0, 32: 1.0, 33: 1.0, 34: 0.0, 35: 0.0, 36: 1.0, 37: 0.0, 38: 0.0, 39: 1.0, 40: 0.0, 41: 0.0, 42: 0.0, 43: 1.0, 44: 1.0, 45: 0.0, 46: 1.0, 47: 1.0, 48: 1.0, 49: 0.0, 50: 1.0, 51: 0.0, 52: 0.0, 53: 0.0, 54: 1.0, 55: 0.0, 56: 0.0, 57: 0.0, 58: 0.0, 59: 1.0, 60: 0.0, 61: 1.0, 62: 0.0, 63: 0.0, 64: 0.0, 65: 0.0, 66: 0.0, 67: 1.0, 68: 1.0, 69: 0.0, 70: 0.0, 71: 1.0, 72: 1.0, 73: 0.0, 74: 0.0, 75: 1.0, 76: 0.0, 77: 1.0, 78: 1.0, 79: 1.0, 80: 0.0, 81: 0.0, 82: 0.0, 83: 0.0, 84: 0.0, 85: 0.0, 86: 0.0, 87: 0.0, 88: 0.0, 89: 1.0, 90: 1.0, 91: 0.0, 92: 0.0, 93: 1.0, 94: 1.0, 95: 0.0];
discharge = [0: 1.0, 1: 0.0, 2: 0.0, 3: 0.280231481, 4: 0.934735658, 5: 0.0, 6: 1.0, 7: 0.0, 8: 0.0, 9: 0.238009259, 10: 0.0, 11: 0.0, 12: 0.0, 13: 0.0, 14: 0.0, 15: 0.0, 16: 1.0, 17: 0.0, 18: 0.0, 19: 0.0, 20: 0.0, 21: 0.0, 22: 0.0, 23: 0.0, 24: 1.0, 25: 0.0, 26: 1.0, 27: 1.0, 28: 0.0, 29: 0.0, 30: 1.0, 31: 0.0, 32: 0.0, 33: 0.0, 34: 0.0, 35: 0.0, 36: 0.0, 37: 1.0, 38: 0.0, 39: 0.0, 40: 0.0, 41: 1.0, 42: 0.0, 43: 0.0, 44: 0.0, 45: 1.0, 46: 0.0, 47: 0.0, 48: 0.0, 49: 1.0, 50: 0.0, 51: 1.0, 52: 0.0, 53: 0.0, 54: 0.0, 55: 1.0, 56: 0.0, 57: 1.0, 58: 0.0, 59: 0.0, 60: 1.0, 61: 0.0, 62: 0.0, 63: 1.0, 64: 1.0, 65: 1.0, 66: 0.0, 67: 0.0, 68: 0.0, 69: 1.0, 70: 1.0, 71: 0.0, 72: 0.0, 73: 1.0, 74: 0.076898148, 75: 0.0, 76: 1.0, 77: 0.0, 78: 0.0, 79: 0.0, 80: 0.086342593, 81: 0.0, 82: 1.0, 83: 1.0, 84: 1.0, 85: 1.0, 86: 0.0, 87: 0.0, 88: 1.0, 89: 0.0, 90: 0.0, 91: 0.0, 92: 1.0, 93: 0.0, 94: 0.0, 95: 1.0];
soc = [0: 3.069186, 1: 3.968572163, 2: 3.967778448, 3: 3.686753411, 4: 2.751280402, 5: 3.650730146, 6: 2.65, 7: 3.54947, 8: 4.448760106, 9: 4.209861095, 10: 5.109019123, 11: 5.107997319, 12: 6.006975719, 13: 6.905774324, 14: 7.804393169, 15: 7.802832291, 16: 6.801271724, 17: 7.69991147, 18: 8.598371487, 19: 9.496651813, 20: 9.494752482999999, 21: 10.392853532, 22: 10.390774962, 23: 11.288696807, 24: 10.286439067, 25: 11.184381779, 26: 10.182144903, 27: 9.180108474000001, 28: 10.078272452, 29: 10.976256798, 30: 9.974061547, 31: 9.972066734, 32: 10.870072321, 33: 11.767898306, 34: 11.765544727, 35: 11.763191618, 36: 12.66083898, 37: 11.658306812, 38: 11.65597515, 39: 12.553643955, 40: 12.551133227, 41: 11.548623, 42: 11.546313275, 43: 12.444004013, 44: 13.341515212, 45: 12.338846909, 46: 13.236379139, 47: 14.133731864, 48: 15.030905117, 49: 14.027898936, 50: 14.925093356, 51: 13.922108338, 52: 13.919323916, 53: 13.916540051, 54: 14.813756743, 55: 13.810793992, 56: 13.808031833, 57: 12.805270227, 58: 12.802709173, 59: 13.700148631, 60: 12.697408601, 61: 13.594869119, 62: 13.592150146, 63: 12.589431716, 64: 11.586913829, 65: 10.584596446, 66: 10.582479527, 67: 11.480363031, 68: 12.378066959, 69: 11.375591345, 70: 10.373316227, 71: 11.271241564, 72: 12.168987315, 73: 11.166553518, 74: 11.087422059, 75: 11.985204575, 76: 10.982807534, 77: 11.880610972, 78: 12.77823485, 79: 13.675679203, 80: 13.586601475, 81: 13.583884154, 82: 12.581167378, 83: 11.578651144, 84: 10.576335414, 85: 9.574220147, 86: 9.572305303, 87: 9.570390842, 88: 8.568476764, 89: 9.466763068000001, 90: 10.364869716, 91: 10.362796742, 92: 9.360724182, 93: 10.258852037, 94: 11.156800267, 95: 10.154568907];
cost = [0: 0.0, 1: 0.905877716, 2: 0.164764821, 3: 0.0, 4: 0.0, 5: 0.879609016, 6: 0.0, 7: 0.862687086, 8: 0.862687086, 9: 0.0, 10: 0.859143866, 11: 0.134219821, 12: 0.864641966, 13: 0.859449316, 14: 0.859327136, 15: 0.132998021, 16: 0.0, 17: 1.268630136, 18: 0.8576166160000001, 19: 0.8917048359999999, 20: 0.188101201, 21: 0.914735766, 22: 0.180587131, 23: 0.906366436, 24: 0.0, 25: 1.564622719, 26: 0.0, 27: 0.0, 28: 1.407595519, 29: 1.211311519, 30: 0.0, 31: 0.103743033, 32: 1.405573199, 33: 1.405216319, 34: 0.106717033, 35: 0.0, 36: 1.411521199, 37: 0.0, 38: 0.095772713, 39: 1.411283279, 40: 0.105527433, 41: 0.0, 42: 0.0, 43: 0.118178165, 44: 0.118178165, 45: 0.0, 46: 1.400576879, 47: 1.324680399, 48: 1.331580079, 49: 0.0, 50: 1.327654399, 51: 0.0, 52: 0.057735141, 53: 0.358725571, 54: 0.747226986, 55: 0.0, 56: 0.216996771, 57: 0.0, 58: 0.208749621, 59: 0.918095716, 60: 0.0, 61: 1.402361279, 62: 0.101958633, 63: 0.0, 64: 0.0, 65: 0.0, 66: 0.103505113, 67: 1.262107439, 68: 1.401766479, 69: 0.0, 70: 0.0, 71: 1.399387279, 72: 1.398078719, 73: 0.0, 74: 0.0, 75: 1.402361279, 76: 0.0, 77: 1.398673519, 78: 1.389156719, 79: 1.389513599, 80: 0.0, 81: 0.091252233, 82: 0.0, 83: 0.0, 84: 0.0, 85: 0.0, 86: 0.111832313, 87: 0.103743033, 88: 0.0, 89: 0.797931686, 90: 0.798237136, 91: 0.068364801, 92: 0.0, 93: 0.793227756, 94: 0.798237136, 95: 0.0];
earn = [0: 0.342700207, 1: 0.0, 2: 0.0, 3: 0.0, 4: 0.321183947, 5: 0.0, 6: 0.342864263, 7: 0.0, 8: 0.0, 9: 0.0, 10: 0.0, 11: 0.0, 12: 0.0, 13: 0.0, 14: 0.0, 15: 0.0, 16: 0.362769433, 17: 0.0, 18: 0.0, 19: 0.0, 20: 0.0, 21: 0.0, 22: 0.0, 23: 0.0, 24: 0.388729009, 25: 0.0, 26: 0.378033582, 27: 0.426871438, 28: 0.0, 29: 0.0, 30: 0.355641228, 31: 0.0, 32: 0.0, 33: 0.0, 34: 0.0, 35: 0.091016506, 36: 0.0, 37: 0.042406867, 38: 0.0, 39: 0.0, 40: 0.0, 41: -0.003838921, 42: -0.010775872, 43: -0.000287157, 44: -0.00157274, 45: -0.134507296, 46: 0.0, 47: 0.0, 48: 0.0, 49: -0.053384733, 50: 0.0, 51: -0.030540929, 52: 0.0, 53: 0.0, 54: 0.0, 55: -0.011725917, 56: 0.0, 57: -0.006207882, 58: 0.0, 59: 0.0, 60: 0.09851054200000001, 61: 0.0, 62: 0.0, 63: 0.211195833, 64: 0.699457817, 65: 0.54021902, 66: 0.0, 67: 0.0, 68: 0.0, 69: 0.698782601, 70: 0.6593228249999999, 71: 0.0, 72: 0.0, 73: 0.747857746, 74: 0.0, 75: 0.0, 76: 0.746844267, 77: 0.0, 78: 0.0, 79: 0.0, 80: 0.0, 81: 0.0, 82: 0.629854604, 83: 0.612270463, 84: 0.6235371790000001, 85: 0.60974728, 86: 0.0, 87: 0.0, 88: 0.569691028, 89: 0.0, 90: 0.0, 91: 0.0, 92: 0.5668839, 93: 0.0, 94: 0.0, 95: 0.501898438];
total_cost = 47.162105982;
total_earn = 11.315448573;
% _objective = 35.846657409;