production = [0: 0.0, 1: 0.0, 2: 0.0, 3: 0.0, 4: 0.0, 5: 0.0, 6: 0.0, 7: 0.0, 8: 0.0, 9: 0.0, 10: 0.0, 11: 0.0, 12: 0.0, 13: 0.0, 14: 0.0, 15: 0.0, 16: 0.0, 17: 0.0, 18: 0.0, 19: 0.0, 20: 0.0, 21: 0.0, 22: 0.0, 23: 0.0, 24: 0.0, 25: 0.0, 26: 0.0, 27: 0.1022, 28: 0.0, 29: 0.1725, 30: 0.0, 31: 0.4938, 32: 0.6098, 33: 0.8425, 34: 0.9437, 35: 1.022, 36: 1.093, 37: 1.2185, 38: 1.1558, 39: 1.1025, 40: 0.0, 41: 1.0973, 42: 0.0, 43: 1.1022, 44: 0.0, 45: 1.097, 46: 1.1122, 47: 0.0, 48: 0.06850000000000001, 49: 0.0, 50: 0.0, 51: 0.0508, 52: 0.0788, 53: 0.5643, 54: 0.5122, 55: 0.0, 56: 0.3825, 57: 0.0, 58: 0.2968, 59: 0.259, 60: 0.0, 61: 0.0, 62: 0.4178, 63: 0.0, 64: 0.0, 65: 0.0, 66: 0.0, 67: 0.0, 68: 0.0, 69: 0.0, 70: 0.07000000000000001, 71: 0.0333, 72: 0.0083, 73: 0.0, 74: 0.0, 75: 0.0, 76: 0.0, 77: 0.0, 78: 0.0, 79: 0.0, 80: 0.0, 81: 0.0, 82: 0.0, 83: 0.0, 84: 0.0, 85: 0.0, 86: 0.0, 87: 0.0, 88: 0.0, 89: 0.0, 90: 0.0, 91: 0.0, 92: 0.0, 93: 0.0, 94: 0.0, 95: 0.0, 96: 0.0, 97: 0.0, 98: 0.0, 99: 0.0, 100: 0.0, 101: 0.0, 102: 0.0, 103: 0.0, 104: 0.0, 105: 0.0, 106: 0.0, 107: 0.0, 108: 0.0, 109: 0.0, 110: 0.0, 111: 0.0, 112: 0.0, 113: 0.0, 114: 0.0, 115: 0.0, 116: 0.0, 117: 0.0, 118: 0.0, 119: 0.0025, 120: 0.0, 121: 0.0525, 122: 0.0, 123: 0.0, 124: 0.0, 125: 0.0, 126: 0.3533, 127: 0.0, 128: 0.583, 129: 0.0, 130: 0.0, 131: 0.5948, 132: 0.0, 133: 0.9862, 134: 1.3553, 135: 1.4325, 136: 0.0, 137: 0.0, 138: 1.0175, 139: 0.0, 140: 0.0, 141: 1.8065, 142: 0.9918, 143: 0.0, 144: 0.0, 145: 1.0485, 146: 1.0497, 147: 0.902, 148: 1.1365, 149: 0.0, 150: 1.8873, 151: 1.7323, 152: 0.0, 153: 0.0, 154: 0.0, 155: 0.0, 156: 0.2923, 157: 0.242, 158: 0.0, 159: 0.0, 160: 0.0, 161: 0.1993, 162: 0.2355, 163: 0.2392, 164: 0.2082, 165: 0.1128, 166: 0.0, 167: 0.0, 168: 0.0123, 169: 0.0, 170: 0.0, 171: 0.0003, 172: 0.0, 173: 0.0, 174: 0.0, 175: 0.0, 176: 0.0, 177: 0.0, 178: 0.0, 179: 0.0, 180: 0.0, 181: 0.0, 182: 0.0, 183: 0.0, 184: 0.0, 185: 0.0, 186: 0.0, 187: 0.0, 188: 0.0, 189: 0.0, 190: 0.0, 191: 0.0];
buy = [0: 1.293908333, 1: 1.294408333, 2: 0.0, 3: 0.0, 4: 1.247708333, 5: 0.0, 6: 1.258208333, 7: 0.223708333, 8: 1.223708333, 9: 0.0, 10: 1.217908333, 11: 0.0, 12: 0.0, 13: 0.0, 14: 1.218208333, 15: 1.222708333, 16: 0.0, 17: 1.888208333, 18: 1.215408333, 19: 1.271208333, 20: 1.312908333, 21: 1.309408333, 22: 0.300908333, 23: 0.295208333, 24: 1.215208333, 25: 0.0, 26: 1.219908333, 27: 0.985508333, 28: 0.0, 29: 0.923908333, 30: 1.098008333, 31: 0.598408333, 32: 0.0, 33: 0.244408333, 34: 0.0, 35: 0.0, 36: 0.0, 37: 0.0, 38: 0.0, 39: 0.0, 40: 1.093708333, 41: 0.0, 42: 0.0, 43: 0.0, 44: 0.092008333, 45: 0.0, 46: 0.0, 47: 0.084708333, 48: 1.025008333, 49: 1.091208333, 50: 1.082708333, 51: 1.035408333, 52: 1.020708333, 53: 1.027908333, 54: 0.0, 55: 0.0, 56: 0.977708333, 57: 0.0, 58: 1.049908333, 59: 0.055408333, 60: 0.0, 61: 0.084508333, 62: 0.672908333, 63: 0.0, 64: 1.086408333, 65: 0.083008333, 66: 0.092008333, 67: 0.0, 68: 0.084008333, 69: 0.0, 70: 0.019208333, 71: 1.048708333, 72: 0.0, 73: 0.074508333, 74: 0.0, 75: 0.0, 76: 0.0, 77: 1.081408333, 78: 1.073408333, 79: 1.073708333, 80: 1.082708333, 81: 0.08170833299999999, 82: 1.090708333, 83: 0.093508333, 84: 0.0, 85: 0.101008333, 86: 0.0, 87: 1.092208333, 88: 1.110008333, 89: 1.117708333, 90: 0.0, 91: 0.0, 92: 0.0, 93: 0.110008333, 94: 0.118208333, 95: 1.117708333, 96: 1.109008333, 97: 0.0, 98: 0.0, 99: 1.292908333, 100: 0.0, 101: 0.0, 102: 0.0, 103: 0.0, 104: 0.0, 105: 0.229208333, 106: 0.208708333, 107: 0.0, 108: 0.0, 109: 0.0, 110: 1.214908333, 111: 0.0, 112: 0.0, 113: 0.0, 114: 0.09470833300000001, 115: 0.0, 116: 0.0, 117: 0.102208333, 118: 0.360788753, 119: 1.086408333, 120: 1.072208333, 121: 0.0, 122: 0.0, 123: 1.078408333, 124: 0.0, 125: 1.076208333, 126: 0.0, 127: 0.09620833299999999, 128: 0.0, 129: 0.08790833300000001, 130: 1.096208333, 131: 0.0, 132: 1.096408333, 133: 0.126808333, 134: 0.0, 135: 0.0, 136: 1.143708333, 137: 0.122008333, 138: 0.0, 139: 0.126208333, 140: 1.148708333, 141: 0.0, 142: 0.169908333, 143: 1.168508333, 144: 1.180008333, 145: 0.0, 146: 0.0, 147: 0.0, 148: 0.006508333, 149: 1.502908333, 150: 0.0, 151: 0.0, 152: 1.818908333, 153: 0.0, 154: 0.0, 155: 1.466508333, 156: 0.823908333, 157: 0.887408333, 158: 0.0, 159: 0.929404607, 160: 0.0, 161: 0.0, 162: 0.0, 163: 0.0, 164: 0.0, 165: 0.990608333, 166: 0.0, 167: 0.0, 168: 0.086208333, 169: 0.0, 170: 0.0, 171: 1.093908333, 172: 0.094908333, 173: 1.093908333, 174: 0.0, 175: 1.087708333, 176: 1.094708333, 177: 0.094908333, 178: 0.0, 179: 0.0, 180: 1.096708333, 181: 1.096408333, 182: 1.103708333, 183: 1.107508333, 184: 1.096708333, 185: 1.277008333, 186: 1.317708333, 187: 1.316908333, 188: 1.315408333, 189: 0.0, 190: 1.248908333, 191: 0.0];
sell = [0: 0.0, 1: 0.0, 2: 0.6252916670000001, 3: 0.642791667, 4: 0.0, 5: 0.648591667, 6: 0.0, 7: 0.0, 8: 0.0, 9: 0.506953633, 10: 0.0, 11: 0.675291667, 12: 0.673091667, 13: 0.681591667, 14: 0.0, 15: 0.0, 16: 0.668791667, 17: 0.0, 18: 0.0, 19: 0.0, 20: 0.0, 21: 0.0, 22: 0.0, 23: 0.0, 24: 0.0, 25: 0.679091667, 26: 0.0, 27: 0.0, 28: 0.811091667, 29: 0.0, 30: 0.0, 31: 0.0, 32: 1.422591667, 33: 0.0, 34: 1.748991667, 35: 1.826591667, 36: 1.000791667, 37: 2.033791667, 38: 0.070291667, 39: 1.010491667, 40: 0.0, 41: 1.009091667, 42: 0.814291667, 43: 1.910691667, 44: 0.0, 45: 0.013791667, 46: 0.029191667, 47: 0.0, 48: 0.0, 49: 0.0, 50: 0.0, 51: 0.0, 52: 0.0, 53: 0.0, 54: 0.0, 55: 0.066291667, 56: 0.0, 57: 0.521091667, 58: 0.0, 59: 0.0, 60: 0.817291667, 61: 0.0, 62: 0.0, 63: 0.807291667, 64: 0.0, 65: 0.0, 66: 0.0, 67: 0.806091667, 68: 0.0, 69: 0.0, 70: 0.0, 71: 0.0, 72: 0.827391667, 73: 0.0, 74: 0.825491667, 75: 0.815491667, 76: 0.8167916670000001, 77: 0.0, 78: 0.0, 79: 0.0, 80: 0.0, 81: 0.0, 82: 0.0, 83: 0.0, 84: 0.806791667, 85: 0.0, 86: 0.800991667, 87: 0.0, 88: 0.0, 89: 0.0, 90: 0.781791667, 91: 0.0, 92: 0.790291667, 93: 0.0, 94: 0.0, 95: 0.0, 96: 0.0, 97: 0.598091667, 98: 0.0, 99: 0.0, 100: 0.612591667, 101: 0.615091667, 102: 0.641591667, 103: 0.633791667, 104: 0.6614916669999999, 105: 0.0, 106: 0.0, 107: 0.688291667, 108: 0.678591667, 109: 0.677091667, 110: 0.0, 111: 0.693491667, 112: 0.681291667, 113: 0.797291667, 114: 0.0, 115: 0.812091667, 116: 0.811291667, 117: 0.0, 118: 0.0, 119: 0.0, 120: 0.0, 121: 0.873091667, 122: 0.814291667, 123: 0.0, 124: 0.822991667, 125: 0.0, 126: 0.0, 127: 0.0, 128: 1.394791667, 129: 0.0, 130: 0.0, 131: 1.398391667, 132: 0.0, 133: 0.0, 134: 0.188391667, 135: 1.289291667, 136: 0.0, 137: 0.0, 138: 0.0, 139: 0.0, 140: 0.0, 141: 2.534991667, 142: 0.0, 143: 0.0, 144: 0.0, 145: 1.790291667, 146: 1.797491667, 147: 0.424991667, 148: 0.0, 149: 0.0, 150: 2.185591667, 151: 2.028291667, 152: 0.0, 153: 0.5022916670000001, 154: 0.484491667, 155: 0.0, 156: 0.0, 157: 0.0, 158: 0.772791667, 159: 0.0, 160: 0.743291667, 161: 0.919791667, 162: 0.046791667, 163: 1.014491667, 164: 0.091491667, 165: 0.0, 166: 0.783091667, 167: 0.791291667, 168: 0.0, 169: 0.813091667, 170: 0.813091667, 171: 0.0, 172: 0.0, 173: 0.0, 174: 0.814091667, 175: 0.0, 176: 0.0, 177: 0.0, 178: 0.812291667, 179: 0.821091667, 180: 0.0, 181: 0.0, 182: 0.0, 183: 0.0, 184: 0.0, 185: 0.0, 186: 0.0, 187: 0.0, 188: 0.0, 189: 0.621791667, 190: 0.0, 191: 0.643291667];
charge = [0: 1.0, 1: 1.0, 2: 0.0, 3: 0.0, 4: 1.0, 5: 0.0, 6: 1.0, 7: 0.0, 8: 1.0, 9: 0.0, 10: 1.0, 11: 0.0, 12: 0.0, 13: 0.0, 14: 1.0, 15: 1.0, 16: 0.0, 17: 1.0, 18: 1.0, 19: 1.0, 20: 1.0, 21: 1.0, 22: 0.0, 23: 0.0, 24: 1.0, 25: 0.0, 26: 1.0, 27: 1.0, 28: 0.0, 29: 1.0, 30: 1.0, 31: 1.0, 32: 0.0, 33: 1.0, 34: 0.0, 35: 0.0, 36: 0.0, 37: 0.0, 38: 1.0, 39: 0.0, 40: 1.0, 41: 0.0, 42: 0.0, 43: 0.0, 44: 0.0, 45: 1.0, 46: 1.0, 47: 0.0, 48: 1.0, 49: 1.0, 50: 1.0, 51: 1.0, 52: 1.0, 53: 1.0, 54: 0.0, 55: 0.0, 56: 1.0, 57: 0.0, 58: 1.0, 59: 0.0, 60: 0.0, 61: 0.0, 62: 1.0, 63: 0.0, 64: 1.0, 65: 0.0, 66: 0.0, 67: 0.0, 68: 0.0, 69: 0.0, 70: 0.0, 71: 1.0, 72: 0.0, 73: 0.0, 74: 0.0, 75: 0.0, 76: 0.0, 77: 1.0, 78: 1.0, 79: 1.0, 80: 1.0, 81: 0.0, 82: 1.0, 83: 0.0, 84: 0.0, 85: 0.0, 86: 0.0, 87: 1.0, 88: 1.0, 89: 1.0, 90: 0.0, 91: 0.0, 92: 0.0, 93: 0.0, 94: 0.0, 95: 1.0, 96: 1.0, 97: 0.0, 98: 0.0, 99: 1.0, 100: 0.0, 101: 0.0, 102: 0.0, 103: 0.0, 104: 0.0, 105: 0.0, 106: 0.0, 107: 0.0, 108: 0.0, 109: 0.0, 110: 1.0, 111: 0.0, 112: 0.0, 113: 0.0, 114: 0.0, 115: 0.0, 116: 0.0, 117: 0.0, 118: 0.26208042, 119: 1.0, 120: 1.0, 121: 0.0, 122: 0.0, 123: 1.0, 124: 0.0, 125: 1.0, 126: 0.267791667, 127: 0.0, 128: 0.0, 129: 0.0, 130: 1.0, 131: 0.0, 132: 1.0, 133: 1.0, 134: 1.0, 135: 0.0, 136: 1.0, 137: 0.0, 138: 0.895291667, 139: 0.0, 140: 1.0, 141: 0.0, 142: 1.0, 143: 1.0, 144: 1.0, 145: 0.0, 146: 0.0, 147: 0.0, 148: 1.0, 149: 1.0, 150: 0.0, 151: 0.0, 152: 1.0, 153: 0.0, 154: 0.0, 155: 1.0, 156: 1.0, 157: 1.0, 158: 0.0, 159: 0.790696274, 160: 0.0, 161: 0.0, 162: 0.0, 163: 0.0, 164: 0.0, 165: 1.0, 166: 0.0, 167: 0.0, 168: 0.0, 169: 0.0, 170: 0.0, 171: 1.0, 172: 0.0, 173: 1.0, 174: 0.0, 175: 1.0, 176: 1.0, 177: 0.0, 178: 0.0, 179: 0.0, 180: 1.0, 181: 1.0, 182: 1.0, 183: 1.0, 184: 1.0, 185: 1.0, 186: 1.0, 187: 1.0, 188: 1.0, 189: 0.0, 190: 1.0, 191: 0.0];
discharge = [0: 0.0, 1: 0.0, 2: 1.0, 3: 1.0, 4: 0.0, 5: 1.0, 6: 0.0, 7: 0.0, 8: 0.0, 9: 0.806846629, 10: 0.0, 11: 1.0, 12: 1.0, 13: 1.0, 14: 0.0, 15: 0.0, 16: 1.0, 17: 0.0, 18: 0.0, 19: 0.0, 20: 0.0, 21: 0.0, 22: 0.0, 23: 0.0, 24: 0.0, 25: 1.0, 26: 0.0, 27: 0.0, 28: 1.0, 29: 0.0, 30: 0.0, 31: 0.0, 32: 1.0, 33: 0.0, 34: 1.0, 35: 1.0, 36: 0.0, 37: 1.0, 38: 0.0, 39: 0.0, 40: 0.0, 41: 0.0, 42: 1.0, 43: 1.0, 44: 0.0, 45: 0.0, 46: 0.0, 47: 0.0, 48: 0.0, 49: 0.0, 50: 0.0, 51: 0.0, 52: 0.0, 53: 0.0, 54: 0.038564815, 55: 1.0, 56: 0.0, 57: 1.0, 58: 0.0, 59: 0.0, 60: 1.0, 61: 0.0, 62: 0.0, 63: 1.0, 64: 0.0, 65: 0.0, 66: 0.0, 67: 1.0, 68: 0.0, 69: 0.095009259, 70: 0.0, 71: 0.0, 72: 1.0, 73: 0.0, 74: 1.0, 75: 1.0, 76: 1.0, 77: 0.0, 78: 0.0, 79: 0.0, 80: 0.0, 81: 0.0, 82: 0.0, 83: 0.0, 84: 1.0, 85: 0.0, 86: 1.0, 87: 0.0, 88: 0.0, 89: 0.0, 90: 1.0, 91: 0.129898148, 92: 1.0, 93: 0.0, 94: 0.0, 95: 0.0, 96: 0.0, 97: 1.0, 98: 0.338787037, 99: 0.0, 100: 1.0, 101: 1.0, 102: 1.0, 103: 1.0, 104: 1.0, 105: 0.0, 106: 0.0, 107: 1.0, 108: 1.0, 109: 1.0, 110: 0.0, 111: 1.0, 112: 1.0, 113: 1.0, 114: 0.0, 115: 1.0, 116: 1.0, 117: 0.0, 118: 0.0, 119: 0.0, 120: 0.0, 121: 1.0, 122: 1.0, 123: 0.0, 124: 1.0, 125: 0.0, 126: 0.0, 127: 0.0, 128: 1.0, 129: 0.0, 130: 0.0, 131: 1.0, 132: 0.0, 133: 0.0, 134: 0.0, 135: 0.0, 136: 0.0, 137: 0.0, 138: 0.0, 139: 0.0, 140: 0.0, 141: 1.0, 142: 0.0, 143: 0.0, 144: 0.0, 145: 1.0, 146: 1.0, 147: 0.0, 148: 0.0, 149: 0.0, 150: 1.0, 151: 1.0, 152: 0.0, 153: 1.0, 154: 1.0, 155: 0.0, 156: 0.0, 157: 0.0, 158: 1.0, 159: 0.0, 160: 1.0, 161: 1.0, 162: 0.0, 163: 1.0, 164: 0.0, 165: 0.0, 166: 1.0, 167: 1.0, 168: 0.0, 169: 1.0, 170: 1.0, 171: 0.0, 172: 0.0, 173: 0.0, 174: 1.0, 175: 0.0, 176: 0.0, 177: 0.0, 178: 1.0, 179: 1.0, 180: 0.0, 181: 0.0, 182: 0.0, 183: 0.0, 184: 0.0, 185: 0.0, 186: 0.0, 187: 0.0, 188: 0.0, 189: 1.0, 190: 0.0, 191: 1.0];
soc = [0: 4.969186, 1: 5.868192163, 2: 4.867018524, 3: 3.866045121, 4: 4.765271912, 5: 3.764318857, 6: 4.663565993, 7: 4.66263328, 8: 5.561700754, 9: 4.753741785, 10: 5.652791036, 11: 4.651660478, 12: 3.650730146, 13: 2.65, 14: 3.54947, 15: 4.448760106, 16: 3.447870354, 17: 4.34718078, 18: 5.246311344, 19: 6.145262081, 20: 7.044033029, 21: 7.942624222, 22: 7.941035698, 23: 7.93944749, 24: 8.837859601, 25: 7.836092029, 26: 8.734524811, 27: 9.632777905999999, 28: 8.63085135, 29: 9.529125179999999, 30: 10.427219355, 31: 11.325133911, 32: 10.322868884, 33: 11.22080431, 34: 10.21856015, 35: 9.216516436999999, 36: 9.214673134, 37: 8.212830200000001, 38: 9.111187634, 39: 9.109365395999999, 40: 10.007543523, 41: 10.005542014, 42: 9.003540906, 43: 8.001740198, 44: 8.00013985, 45: 8.898539822, 46: 9.796760114, 47: 9.794800761999999, 48: 10.692841801, 49: 11.590703233, 50: 12.488385092, 51: 13.385887415, 52: 14.283210238, 53: 15.180353596, 54: 15.13875271, 55: 14.13572496, 56: 15.032897815, 57: 14.029891235, 58: 14.927085257, 59: 14.92409984, 60: 13.92111502, 61: 13.918330797, 62: 14.815547131, 63: 13.812584021, 64: 14.709821505, 65: 14.70687954, 66: 14.703938164, 67: 13.700997377, 68: 13.698257177, 69: 13.600508267, 70: 13.597788165, 71: 14.495068607, 72: 13.492169594, 73: 13.48947116, 74: 12.486773265, 75: 11.484275911, 76: 10.481979056, 77: 11.37988266, 78: 12.277606683, 79: 13.175151162, 80: 14.072516132, 81: 14.069701628, 82: 14.966887688, 83: 14.963894311, 84: 13.960901532, 85: 13.958109351, 86: 12.95531773, 87: 13.852726666, 88: 14.749956121, 89: 15.647006129, 90: 14.643876728, 91: 14.511049805, 92: 13.508147595, 93: 13.505445965, 94: 13.502744876, 95: 14.400044327, 96: 15.297164318, 97: 14.294104885, 98: 13.952459027, 99: 14.849668536, 100: 13.846698602, 101: 12.843929262, 102: 11.841360476, 103: 10.838992204, 104: 9.836824406, 105: 9.834857040999999, 106: 9.832890068999999, 107: 8.830923491, 108: 7.829157307, 109: 6.827591475, 110: 7.726225957, 111: 6.724680712, 112: 5.723335776, 113: 4.722191109, 114: 4.72124667, 115: 3.720302421, 116: 2.71955836, 117: 2.719014449, 118: 2.954343024, 119: 3.853752155, 120: 4.752981405, 121: 3.752030808, 122: 2.751280402, 123: 3.650730146, 124: 2.65, 125: 3.54947, 126: 3.789772606, 127: 3.789014651, 128: 2.788256849, 129: 2.787699197, 130: 3.687141657, 131: 2.686404229, 132: 3.585866948, 133: 4.485149775, 134: 5.384252745, 135: 5.383175894, 136: 6.282099259, 137: 6.280842839, 138: 7.085349171, 139: 7.083932101, 140: 7.982515314, 141: 6.980918811, 142: 7.879522628, 143: 8.777946722999999, 144: 9.676191134, 145: 8.674255895, 146: 7.672521044, 147: 7.67098654, 148: 8.569452343, 149: 9.467738452000001, 150: 8.465844905000001, 151: 7.464151736, 152: 8.362658905, 153: 7.360986374, 154: 6.359514176, 155: 7.258242273, 156: 8.156790624999999, 157: 9.055159267000001, 158: 8.053348235, 159: 8.763364212000001, 160: 7.761611539, 161: 6.760059216, 162: 6.758707205, 163: 5.757355463, 164: 5.756203992, 165: 6.655052751, 166: 5.653721741, 167: 4.652590996, 168: 4.651660478, 169: 3.650730146, 170: 2.65, 171: 3.54947, 172: 3.548760106, 173: 4.448050354, 174: 3.447160744, 175: 4.346471312, 176: 5.245602017, 177: 5.244552897, 178: 4.243503987, 179: 3.242655286, 180: 4.142006755, 181: 5.041178353, 182: 5.940170118, 183: 6.838982084, 184: 7.737614287, 185: 8.636066764000001, 186: 9.534339551, 187: 10.432432683, 188: 11.330346197, 189: 10.328080127, 190: 11.226014511, 191: 10.223769308];
cost = [0: 0.908626766, 1: 0.908932216, 2: 0.0, 3: 0.0, 4: 0.880403186, 5: 0.0, 6: 0.886817636, 7: 0.136663421, 8: 0.865741586, 9: 0.0, 10: 0.862198366, 11: 0.0, 12: 0.0, 13: 0.0, 14: 0.862381636, 15: 0.865130686, 16: 0.0, 17: 1.271684636, 18: 0.860671116, 19: 0.894759336, 20: 0.920233866, 21: 0.918095716, 22: 0.183824901, 23: 0.180342771, 24: 1.563789999, 25: 0.0, 26: 1.569381119, 27: 1.290538879, 28: 0.0, 29: 1.217259519, 30: 1.424368879, 31: 0.830044719, 32: 0.0, 33: 0.408926319, 34: 0.0, 35: 0.0, 36: 0.0, 37: 0.0, 38: 0.118178165, 39: 0.0, 40: 1.419253599, 41: 0.0, 42: 0.0, 43: 0.0, 44: 0.109453113, 45: 0.118178165, 46: 0.118178165, 47: 0.100769033, 48: 1.337528079, 49: 1.416279599, 50: 1.406167999, 51: 1.349899919, 52: 0.741728886, 53: 0.746127366, 54: 0.0, 55: 0.0, 56: 0.7154601860000001, 57: 0.0, 58: 0.759567166, 59: 0.033848951, 60: 0.0, 61: 0.100531113, 62: 0.9186699189999999, 63: 0.0, 64: 1.410569519, 65: 0.098746713, 66: 0.109453113, 67: 0.0, 68: 0.099936313, 69: 0.0, 70: 0.022850233, 71: 1.365721599, 72: 0.0, 73: 0.088635113, 74: 0.0, 75: 0.0, 76: 0.0, 77: 1.404621519, 78: 1.395104719, 79: 1.395461599, 80: 1.406167999, 81: 0.097200233, 82: 1.415684799, 83: 0.111237513, 84: 0.0, 85: 0.120159513, 86: 0.0, 87: 1.417469199, 88: 0.796282256, 89: 0.800986186, 90: 0.0, 91: 0.0, 92: 0.0, 93: 0.06720409099999999, 94: 0.072213471, 95: 0.800986186, 96: 0.7956713560000001, 97: 0.0, 98: 0.0, 99: 0.9080158659999999, 100: 0.0, 101: 0.0, 102: 0.0, 103: 0.0, 104: 0.0, 105: 0.140023371, 106: 0.127499921, 107: 0.0, 108: 0.0, 109: 0.0, 110: 0.860365666, 111: 0.0, 112: 0.0, 113: 0.0, 114: 0.057857321, 115: 0.0, 116: 0.0, 117: 0.062439071, 118: 0.251378032, 119: 0.781865016, 120: 1.393677199, 121: 0.0, 122: 0.0, 123: 1.401052719, 124: 0.0, 125: 1.398435599, 126: 0.031647128, 127: 0.114449433, 128: 0.0, 129: 0.104575753, 130: 1.422227599, 131: 0.0, 132: 1.422465519, 133: 0.269029359, 134: 0.118178165, 135: 0.0, 136: 1.478733599, 137: 0.145141113, 138: 0.105803927, 139: 0.150137433, 140: 1.484681599, 141: 0.0, 142: 0.320301119, 143: 1.508235679, 144: 1.521916079, 145: 0.0, 146: 0.0, 147: 0.0, 148: 0.122154106, 149: 1.036304866, 150: 0.0, 151: 0.0, 152: 1.229349266, 153: 0.0, 154: 0.0, 155: 1.014068106, 156: 1.098299519, 157: 1.173839119, 158: 0.0, 159: 1.199062755, 160: 0.0, 161: 0.0, 162: 0.0, 163: 0.0, 164: 0.0, 165: 1.296605839, 166: 0.0, 167: 0.0, 168: 0.102553433, 169: 0.0, 170: 0.0, 171: 1.419491519, 172: 0.112902953, 173: 1.419491519, 174: 0.0, 175: 1.412115999, 176: 1.420443199, 177: 0.112902953, 178: 0.0, 179: 0.0, 180: 1.422822399, 181: 1.422465519, 182: 1.431149599, 183: 1.435670079, 184: 0.788157286, 185: 0.898302556, 186: 0.923166186, 187: 0.922677466, 188: 0.921761116, 189: 0.0, 190: 0.8811362659999999, 191: 0.0];
earn = [0: 0.0, 1: 0.0, 2: 0.345223529, 3: 0.349357271, 4: 0.0, 5: 0.346607387, 6: 0.0, 7: 0.0, 8: 0.0, 9: 0.266404134, 10: 0.0, 11: 0.352839896, 12: 0.357344366, 13: 0.360357514, 14: 0.0, 15: 0.0, 16: 0.360077433, 17: 0.0, 18: 0.0, 19: 0.0, 20: 0.0, 21: 0.0, 22: 0.0, 23: 0.0, 24: 0.0, 25: 0.37730333, 26: 0.0, 27: 0.0, 28: 0.438070609, 29: 0.0, 30: 0.0, 31: 0.0, 32: 0.427488796, 33: 0.0, 34: 0.243284741, 35: 0.178458006, 36: 0.062149163, 37: 0.042302867, 38: -0.000899733, 39: -0.004143016, 40: 0.0, 41: -0.004742731, 42: -0.008631491999999999, 43: -0.034965658, 44: 0.0, 45: -0.000966796, 46: -0.002253597, 47: 0.0, 48: 0.0, 49: 0.0, 50: 0.0, 51: 0.0, 52: 0.0, 53: 0.0, 54: 0.0, 55: -0.0009811170000000001, 56: 0.0, 57: -0.006148882, 58: 0.0, 59: 0.0, 60: 0.097911542, 61: 0.0, 62: 0.0, 63: 0.209895833, 64: 0.0, 65: 0.0, 66: 0.0, 67: 0.561604064, 68: 0.0, 69: 0.0, 70: 0.0, 71: 0.0, 72: 0.725539753, 73: 0.0, 74: 0.7508672199999999, 75: 0.732393066, 76: 0.742300267, 77: 0.0, 78: 0.0, 79: 0.0, 80: 0.0, 81: 0.0, 82: 0.0, 83: 0.0, 84: 0.619696679, 85: 0.0, 86: 0.577034397, 87: 0.0, 88: 0.0, 89: 0.0, 90: 0.542954313, 91: 0.0, 92: 0.5633199, 93: 0.0, 94: 0.0, 95: 0.0, 96: 0.0, 97: 0.390314622, 98: 0.0, 99: 0.0, 100: 0.375334914, 101: 0.379265522, 102: 0.398235948, 103: 0.39320435, 104: 0.405891287, 105: 0.0, 106: 0.0, 107: 0.436514575, 108: 0.437352329, 109: 0.430224045, 110: 0.0, 111: 0.465055512, 112: 0.452990829, 113: 0.558981188, 114: 0.0, 115: 0.596643748, 116: 0.610740367, 117: 0.0, 118: 0.0, 119: 0.0, 120: 0.0, 121: 0.815205689, 122: 0.781638571, 123: 0.0, 124: 0.721352196, 125: 0.0, 126: 0.0, 127: 0.0, 128: 0.967148542, 129: 0.0, 130: 0.0, 131: 0.8346999859999999, 132: 0.0, 133: 0.0, 134: 0.093065483, 135: 0.527191363, 136: 0.0, 137: 0.0, 138: 0.0, 139: 0.0, 140: 0.0, 141: 0.490774387, 142: 0.0, 143: 0.0, 144: 0.0, 145: 0.249566658, 146: 0.261714787, 147: 0.078240966, 148: 0.0, 149: 0.0, 150: 0.881667678, 151: 0.84458065, 152: 0.0, 153: 0.254913021, 154: 0.261141008, 155: 0.0, 156: 0.0, 157: 0.0, 158: 0.496054971, 159: 0.0, 160: 0.516067404, 161: 0.697202083, 162: 0.037517558, 163: 0.859578789, 164: 0.07460230499999999, 165: 0.0, 166: 0.7467562129999999, 167: 0.812656542, 168: 0.0, 169: 1.078972642, 170: 1.116374858, 171: 0.0, 172: 0.0, 173: 0.0, 174: 1.021685042, 175: 0.0, 176: 0.0, 177: 0.0, 178: 0.809204958, 179: 0.758360263, 180: 0.0, 181: 0.0, 182: 0.0, 183: 0.0, 184: 0.0, 185: 0.0, 186: 0.0, 187: 0.0, 188: 0.0, 189: 0.467400796, 190: 0.0, 191: 0.452105383];
total_cost = 90.31002685;
total_earn = 34.905243079;
