production = [0: 0.0, 1: 0.0, 2: 0.0, 3: 0.0, 4: 0.0, 5: 0.0, 6: 0.0, 7: 0.0, 8: 0.0, 9: 0.0, 10: 0.0, 11: 0.0, 12: 0.0, 13: 0.0, 14: 0.0, 15: 0.0, 16: 0.0, 17: 0.0, 18: 0.0, 19: 0.0, 20: 0.0, 21: 0.0005, 22: 0.0, 23: 0.0, 24: 0.0, 25: 0.0, 26: 0.0, 27: 0.1022, 28: 0.0, 29: 0.0, 30: 0.0, 31: 0.0, 32: 0.0, 33: 0.0, 34: 0.0, 35: 1.022, 36: 1.093, 37: 0.0, 38: 0.0, 39: 1.1025, 40: 1.104, 41: 0.0, 42: 1.0973, 43: 1.1022, 44: 1.1155, 45: 1.097, 46: 0.0, 47: 0.0655, 48: 0.06850000000000001, 49: 0.0, 50: 0.0, 51: 0.0508, 52: 0.0, 53: 0.5643, 54: 0.0, 55: 0.0, 56: 0.0, 57: 0.3468, 58: 0.2968, 59: 0.259, 60: 0.0, 61: 0.503, 62: 0.0, 63: 0.5433, 64: 0.0, 65: 0.0, 66: 0.2243, 67: 0.1273, 68: 0.161, 69: 0.0, 70: 0.0, 71: 0.0, 72: 0.0, 73: 0.0, 74: 0.0003, 75: 0.0, 76: 0.0, 77: 0.0, 78: 0.0, 79: 0.0, 80: 0.0, 81: 0.0, 82: 0.0, 83: 0.0, 84: 0.0, 85: 0.0, 86: 0.0, 87: 0.0, 88: 0.0, 89: 0.0, 90: 0.0, 91: 0.0, 92: 0.0, 93: 0.0, 94: 0.0, 95: 0.0, 96: 0.0, 97: 0.0, 98: 0.0, 99: 0.0, 100: 0.0, 101: 0.0, 102: 0.0, 103: 0.0, 104: 0.0, 105: 0.0, 106: 0.0, 107: 0.0, 108: 0.0, 109: 0.0, 110: 0.0, 111: 0.0, 112: 0.0, 113: 0.0, 114: 0.0, 115: 0.0, 116: 0.0, 117: 0.0, 118: 0.0, 119: 0.0, 120: 0.0, 121: 0.0525, 122: 0.0927, 123: 0.1487, 124: 0.0, 125: 0.0, 126: 0.0, 127: 0.0, 128: 0.0, 129: 0.0, 130: 0.0, 131: 0.096408333, 132: 0.0, 133: 0.9862, 134: 1.3553, 135: 1.4325, 136: 0.0, 137: 0.91, 138: 1.0175, 139: 1.0562, 140: 0.0, 141: 1.8065, 142: 0.0, 143: 0.0, 144: 0.0, 145: 0.0, 146: 1.0497, 147: 0.0, 148: 0.0, 149: 0.0, 150: 0.0, 151: 1.7323, 152: 0.0, 153: 0.4923, 154: 0.0, 155: 0.0, 156: 0.0, 157: 0.242, 158: 0.2948, 159: 0.26, 160: 0.0, 161: 0.1993, 162: 0.0, 163: 0.0, 164: 0.2082, 165: 0.1128, 166: 0.068, 167: 0.0462, 168: 0.0, 169: 0.0, 170: 0.0, 171: 0.0003, 172: 0.0, 173: 0.0, 174: 0.0, 175: 0.0, 176: 0.0, 177: 0.0, 178: 0.0, 179: 0.0, 180: 0.0, 181: 0.0, 182: 0.0, 183: 0.0, 184: 0.0, 185: 0.0, 186: 0.0, 187: 0.0, 188: 0.0, 189: 0.0, 190: 0.0, 191: 0.0];
buy = [0: 0.0, 1: 0.294408333, 2: 1.274708333, 3: 1.257208333, 4: 1.247708333, 5: 1.251408333, 6: 0.258208333, 7: 1.223708333, 8: 0.223708333, 9: 0.0, 10: 0.0, 11: 1.224708333, 12: 1.226908333, 13: 1.218408333, 14: 0.218208333, 15: 1.222708333, 16: 1.231208333, 17: 1.888208333, 18: 1.215408333, 19: 0.0, 20: 0.0, 21: 1.308908333, 22: 1.300908333, 23: 0.295208333, 24: 0.0, 25: 0.0, 26: 0.219908333, 27: 0.0, 28: 0.0, 29: 1.096408333, 30: 1.098008333, 31: 1.092208333, 32: 0.087208333, 33: 1.086908333, 34: 0.0, 35: 0.0, 36: 0.0, 37: 1.084708333, 38: 1.085508333, 39: 0.0, 40: 0.0, 41: 0.0, 42: 0.0, 43: 0.0, 44: 0.0, 45: 0.0, 46: 0.083008333, 47: 0.0, 48: 1.025008333, 49: 0.0, 50: 1.082708333, 51: 1.035408333, 52: 1.099508333, 53: 0.027908333, 54: 0.527515625, 55: 0.0, 56: 1.360208333, 57: 1.032108333, 58: 1.049908333, 59: 1.055408333, 60: 0.08270833299999999, 61: 0.0, 62: 0.090708333, 63: 0.0, 64: 0.0, 65: 0.0, 66: 0.0, 67: 0.0, 68: 0.0, 69: 1.085508333, 70: 1.089208333, 71: 0.082008333, 72: 1.080908333, 73: 0.074508333, 74: 0.0, 75: 1.084508333, 76: 1.083208333, 77: 0.0, 78: 1.073408333, 79: 1.073708333, 80: 0.0, 81: 0.0, 82: 1.090708333, 83: 0.0, 84: 0.0, 85: 1.101008333, 86: 0.099008333, 87: 1.092208333, 88: 1.110008333, 89: 0.0, 90: 0.118208333, 91: 0.0, 92: 0.0, 93: 0.0, 94: 0.118208333, 95: 0.0, 96: 1.109008333, 97: 0.301908333, 98: 1.304908333, 99: 0.0, 100: 1.287408333, 101: 1.284908333, 102: 1.258408333, 103: 1.266208333, 104: 0.0, 105: 0.0, 106: 1.208708333, 107: 1.211708333, 108: 0.0, 109: 0.222908333, 110: 0.0, 111: 1.206508333, 112: 1.218708333, 113: 0.0, 114: 0.09470833300000001, 115: 1.087908333, 116: 0.0, 117: 0.102208333, 118: 0.0, 119: 0.08890833300000001, 120: 1.072208333, 121: 0.026908333, 122: 0.0, 123: 0.0, 124: 0.077008333, 125: 0.0, 126: 0.0, 127: 0.09620833299999999, 128: 0.0, 129: 0.0, 130: 1.096208333, 131: 0.0, 132: 0.0, 133: 0.0, 134: 0.0, 135: 0.0, 136: 0.0, 137: 0.0, 138: 0.0, 139: 0.0, 140: 0.0, 141: 0.0, 142: 1.161708333, 143: 1.168508333, 144: 0.0, 145: 1.158208333, 146: 0.0, 147: 1.477008333, 148: 0.0, 149: 1.502908333, 150: 0.0, 151: 0.0, 152: 0.818908333, 153: 0.905408333, 154: 0.415508333, 155: 0.466508333, 156: 1.116208333, 157: 0.887408333, 158: 0.0, 159: 0.878708333, 160: 0.156708333, 161: 0.0, 162: 0.0, 163: 1.124708333, 164: 0.908508333, 165: 0.990608333, 166: 0.0, 167: 0.0, 168: 0.0, 169: 0.0, 170: 0.086908333, 171: 0.093908333, 172: 0.094908333, 173: 0.093908333, 174: 0.085908333, 175: 1.087708333, 176: 0.0, 177: 1.094908333, 178: 0.0, 179: 1.078908333, 180: 0.09670833299999999, 181: 0.096408333, 182: 1.103708333, 183: 1.107508333, 184: 1.096708333, 185: 1.277008333, 186: 0.317708333, 187: 0.316908333, 188: 1.315408333, 189: 1.278208333, 190: 0.0, 191: 0.256708333];
sell = [0: 0.6060916669999999, 1: 0.0, 2: 0.0, 3: 0.0, 4: 0.0, 5: 0.0, 6: 0.0, 7: 0.0, 8: 0.0, 9: 0.680791667, 10: 0.0, 11: 0.0, 12: 0.0, 13: 0.0, 14: 0.0, 15: 0.0, 16: 0.0, 17: 0.0, 18: 0.0, 19: 0.628791667, 20: 0.587091667, 21: 0.0, 22: 0.0, 23: 0.0, 24: 0.684791667, 25: 0.679091667, 26: 0.0, 27: 0.0, 28: 0.811091667, 29: 0.0, 30: 0.0, 31: 0.0, 32: 0.0, 33: 0.0, 34: 0.805291667, 35: 0.926591667, 36: 1.900791667, 37: 0.0, 38: 0.0, 39: 1.910491667, 40: 1.910291667, 41: 0.8117916670000001, 42: 0.011591667, 43: 0.010691667, 44: 1.923491667, 45: 0.013791667, 46: 0.0, 47: 0.880791667, 48: 0.0, 49: 0.808791667, 50: 0.0, 51: 0.0, 52: 0.0, 53: 0.0, 54: 0.0, 55: 0.066291667, 56: 0.0, 57: 0.0, 58: 0.0, 59: 0.0, 60: 0.0, 61: 1.318491667, 62: 0.0, 63: 1.350591667, 64: 0.813591667, 65: 0.0, 66: 1.032291667, 67: 0.933391667, 68: 0.076991667, 69: 0.0, 70: 0.0, 71: 0.0, 72: 0.0, 73: 0.0, 74: 0.0, 75: 0.0, 76: 0.0, 77: 0.818591667, 78: 0.0, 79: 0.0, 80: 0.817291667, 81: 0.818291667, 82: 0.0, 83: 0.806491667, 84: 0.806791667, 85: 0.0, 86: 0.0, 87: 0.0, 88: 0.0, 89: 0.782291667, 90: 0.0, 91: 0.0, 92: 0.790291667, 93: 0.789991667, 94: 0.0, 95: 0.782291667, 96: 0.0, 97: 0.0, 98: 0.0, 99: 0.6070916669999999, 100: 0.0, 101: 0.0, 102: 0.0, 103: 0.0, 104: 0.6614916669999999, 105: 0.305382901, 106: 0.0, 107: 0.0, 108: 0.678591667, 109: 0.0, 110: 0.685091667, 111: 0.0, 112: 0.0, 113: 0.797291667, 114: 0.0, 115: 0.0, 116: 0.811291667, 117: 0.0, 118: 0.801291667, 119: 0.0, 120: 0.0, 121: 0.0, 122: 0.006991667, 123: 0.970291667, 124: 0.0, 125: 0.8237916669999999, 126: 0.814491667, 127: 0.0, 128: 0.8117916670000001, 129: 0.812091667, 130: 0.0, 131: 0.0, 132: 0.803591667, 133: 1.773191667, 134: 1.188391667, 135: 2.189291667, 136: 0.7562916669999999, 137: 0.787991667, 138: 0.895291667, 139: 1.829991667, 140: 0.0, 141: 1.634991667, 142: 0.0, 143: 0.0, 144: 0.7199916669999999, 145: 0.0, 146: 0.897491667, 147: 0.0, 148: 0.756991667, 149: 0.0, 150: 0.298291667, 151: 2.028291667, 152: 0.0, 153: 0.0, 154: 0.0, 155: 0.0, 156: 0.0, 157: 0.0, 158: 1.067591667, 159: 0.0, 160: 0.0, 161: 0.019791667, 162: 0.711291667, 163: 0.0, 164: 0.0, 165: 0.0, 166: 0.8510916670000001, 167: 0.837491667, 168: 0.801491667, 169: 0.813091667, 170: 0.0, 171: 0.0, 172: 0.0, 173: 0.0, 174: 0.0, 175: 0.0, 176: 0.805291667, 177: 0.0, 178: 0.0, 179: 0.0, 180: 0.0, 181: 0.0, 182: 0.0, 183: 0.0, 184: 0.0, 185: 0.0, 186: 0.0, 187: 0.0, 188: 0.0, 189: 0.0, 190: 0.651091667, 191: 0.0];
charge = [0: 0.0, 1: 0.0, 2: 1.0, 3: 1.0, 4: 1.0, 5: 1.0, 6: 0.0, 7: 1.0, 8: 0.0, 9: 0.0, 10: 0.0, 11: 1.0, 12: 1.0, 13: 1.0, 14: 0.0, 15: 1.0, 16: 1.0, 17: 1.0, 18: 1.0, 19: 0.0, 20: 0.0, 21: 1.0, 22: 1.0, 23: 0.0, 24: 0.0, 25: 0.0, 26: 0.0, 27: 0.014491667, 28: 0.0, 29: 1.0, 30: 1.0, 31: 1.0, 32: 0.0, 33: 1.0, 34: 0.0, 35: 0.0, 36: 0.0, 37: 1.0, 38: 1.0, 39: 0.0, 40: 0.0, 41: 0.0, 42: 1.0, 43: 1.0, 44: 0.0, 45: 1.0, 46: 0.0, 47: 0.0, 48: 1.0, 49: 0.0, 50: 1.0, 51: 1.0, 52: 1.0, 53: 0.0, 54: 0.0, 55: 0.0, 56: 1.0, 57: 1.0, 58: 1.0, 59: 1.0, 60: 0.0, 61: 0.0, 62: 0.0, 63: 0.0, 64: 0.0, 65: 0.0, 66: 0.0, 67: 0.0, 68: 0.0, 69: 1.0, 70: 1.0, 71: 0.0, 72: 1.0, 73: 0.0, 74: 0.0, 75: 1.0, 76: 1.0, 77: 0.0, 78: 1.0, 79: 1.0, 80: 0.0, 81: 0.0, 82: 1.0, 83: 0.0, 84: 0.0, 85: 1.0, 86: 0.0, 87: 1.0, 88: 1.0, 89: 0.0, 90: 0.0, 91: 0.0, 92: 0.0, 93: 0.0, 94: 0.0, 95: 0.0, 96: 1.0, 97: 0.0, 98: 1.0, 99: 0.0, 100: 1.0, 101: 1.0, 102: 1.0, 103: 1.0, 104: 0.0, 105: 0.0, 106: 1.0, 107: 1.0, 108: 0.0, 109: 0.0, 110: 0.0, 111: 1.0, 112: 1.0, 113: 0.0, 114: 0.0, 115: 1.0, 116: 0.0, 117: 0.0, 118: 0.0, 119: 0.0, 120: 1.0, 121: 0.0, 122: 0.0, 123: 0.0, 124: 0.0, 125: 0.0, 126: 0.0, 127: 0.0, 128: 0.0, 129: 0.0, 130: 1.0, 131: 0.0, 132: 0.0, 133: 0.0, 134: 0.0, 135: 0.0, 136: 0.0, 137: 0.0, 138: 0.0, 139: 0.0, 140: 0.0, 141: 0.0, 142: 1.0, 143: 1.0, 144: 0.0, 145: 1.0, 146: 0.0, 147: 1.0, 148: 0.0, 149: 1.0, 150: 0.0, 151: 0.0, 152: 0.0, 153: 1.0, 154: 0.0, 155: 0.0, 156: 1.0, 157: 1.0, 158: 0.0, 159: 1.0, 160: 0.0, 161: 0.0, 162: 0.0, 163: 1.0, 164: 1.0, 165: 1.0, 166: 0.0, 167: 0.0, 168: 0.0, 169: 0.0, 170: 0.0, 171: 0.0, 172: 0.0, 173: 0.0, 174: 0.0, 175: 1.0, 176: 0.0, 177: 1.0, 178: 0.0, 179: 1.0, 180: 0.0, 181: 0.0, 182: 1.0, 183: 1.0, 184: 1.0, 185: 1.0, 186: 0.0, 187: 0.0, 188: 1.0, 189: 1.0, 190: 0.0, 191: 0.0];
discharge = [0: 1.0, 1: 0.0, 2: 0.0, 3: 0.0, 4: 0.0, 5: 0.0, 6: 0.0, 7: 0.0, 8: 0.0, 9: 1.0, 10: 0.24212037, 11: 0.0, 12: 0.0, 13: 0.0, 14: 0.0, 15: 0.0, 16: 0.0, 17: 0.0, 18: 0.0, 19: 1.0, 20: 1.0, 21: 0.0, 22: 0.0, 23: 0.0, 24: 1.0, 25: 1.0, 26: 0.0, 27: 0.0, 28: 1.0, 29: 0.0, 30: 0.0, 31: 0.0, 32: 0.0, 33: 0.0, 34: 1.0, 35: 0.0, 36: 1.0, 37: 0.0, 38: 0.0, 39: 1.0, 40: 1.0, 41: 1.0, 42: 0.0, 43: 0.0, 44: 1.0, 45: 0.0, 46: 0.0, 47: 1.0, 48: 0.0, 49: 1.0, 50: 0.0, 51: 0.0, 52: 0.0, 53: 0.0, 54: 0.021547454, 55: 1.0, 56: 0.0, 57: 0.0, 58: 0.0, 59: 0.0, 60: 0.0, 61: 1.0, 62: 0.0, 63: 1.0, 64: 1.0, 65: 0.092231481, 66: 1.0, 67: 1.0, 68: 0.0, 69: 0.0, 70: 0.0, 71: 0.0, 72: 0.0, 73: 0.0, 74: 0.082453704, 75: 0.0, 76: 0.0, 77: 1.0, 78: 0.0, 79: 0.0, 80: 1.0, 81: 1.0, 82: 0.0, 83: 1.0, 84: 1.0, 85: 0.0, 86: 0.0, 87: 0.0, 88: 0.0, 89: 1.0, 90: 0.0, 91: 0.129898148, 92: 1.0, 93: 1.0, 94: 0.0, 95: 1.0, 96: 0.0, 97: 0.0, 98: 0.0, 99: 1.0, 100: 0.0, 101: 0.0, 102: 0.0, 103: 0.0, 104: 1.0, 105: 0.59399026, 106: 0.0, 107: 0.0, 108: 1.0, 109: 0.0, 110: 1.0, 111: 0.0, 112: 0.0, 113: 1.0, 114: 0.0, 115: 0.0, 116: 1.0, 117: 0.0, 118: 1.0, 119: 0.0, 120: 0.0, 121: 0.0, 122: 0.0, 123: 1.0, 124: 0.0, 125: 1.0, 126: 1.0, 127: 0.0, 128: 1.0, 129: 1.0, 130: 0.0, 131: 0.0, 132: 1.0, 133: 1.0, 134: 0.0, 135: 1.0, 136: 1.0, 137: 0.0, 138: 0.0, 139: 1.0, 140: 0.165231481, 141: 0.0, 142: 0.0, 143: 0.0, 144: 1.0, 145: 0.0, 146: 0.0, 147: 0.0, 148: 1.0, 149: 0.0, 150: 1.0, 151: 1.0, 152: 0.0, 153: 0.0, 154: 0.0, 155: 0.0, 156: 0.0, 157: 0.0, 158: 1.0, 159: 0.0, 160: 0.0, 161: 0.0, 162: 1.0, 163: 0.0, 164: 0.0, 165: 0.0, 166: 1.0, 167: 1.0, 168: 1.0, 169: 1.0, 170: 0.0, 171: 0.0, 172: 0.0, 173: 0.0, 174: 0.0, 175: 0.0, 176: 1.0, 177: 0.0, 178: 0.097453704, 179: 0.0, 180: 0.0, 181: 0.0, 182: 0.0, 183: 0.0, 184: 0.0, 185: 0.0, 186: 0.0, 187: 0.0, 188: 0.0, 189: 0.0, 190: 1.0, 191: 0.0];
soc = [0: 3.069186, 1: 3.068572163, 2: 3.967958448, 3: 4.867164857, 4: 5.766191424, 5: 6.665038185, 6: 6.663705178, 7: 7.562372437, 8: 7.560859962, 9: 6.55934779, 10: 6.31591555, 11: 7.214652367, 12: 8.113209437, 13: 9.011586794999999, 14: 9.009784478, 15: 9.907982520999999, 16: 10.806000924, 17: 11.703839724, 18: 12.601498956, 19: 11.598978656, 20: 10.59665886, 21: 11.494539529, 22: 12.392240621, 23: 12.389762173, 24: 11.38728422, 25: 10.385006763, 26: 10.382929762, 27: 10.393895676, 28: 9.391816897, 29: 10.289938534, 30: 11.187880546, 31: 12.08564297, 32: 12.083225841, 33: 12.980809196, 34: 11.978213034, 35: 11.975817392, 36: 10.973422228, 37: 11.871227544, 38: 12.768853298, 39: 11.766299527, 40: 10.763946268, 41: 9.761793478, 42: 10.65984112, 43: 11.557709151, 44: 10.55539761, 45: 11.45328653, 46: 11.450995873, 47: 10.448705674, 48: 11.346615932, 49: 10.344346609, 50: 11.24227774, 51: 12.140029284, 52: 13.037601278, 53: 13.034993758, 54: 13.010839306, 55: 12.008237138, 56: 12.905835491, 57: 13.803254323, 58: 14.700493673, 59: 15.597553574, 60: 15.594434063, 61: 14.591315176, 62: 14.588396913, 63: 13.585479234, 64: 12.582762138, 65: 12.488014104, 66: 11.485516501, 67: 10.483219398, 68: 10.481122754, 69: 11.37902653, 70: 12.276750724, 71: 12.274295374, 72: 13.171840515, 73: 13.169206147, 74: 13.084118602, 75: 13.981501778, 76: 14.878705478, 77: 13.875729737, 78: 14.772954591, 79: 15.67, 80: 14.666866, 81: 13.663932627, 82: 14.56119984, 83: 13.5582876, 84: 12.555575943, 85: 13.453064828, 86: 13.450374215, 87: 14.34768414, 88: 15.244814603, 89: 14.24176564, 90: 14.238917287, 91: 14.106171355, 92: 13.103350121, 93: 12.100729451, 94: 12.098309305, 95: 11.095889643, 96: 11.993670465, 97: 11.991271731, 98: 12.888873477, 99: 11.886295702, 100: 12.783918443, 101: 13.681361659, 102: 14.578625387, 103: 15.475709662, 104: 14.47261452, 105: 13.875729737, 106: 14.772954591, 107: 15.67, 108: 14.666866, 109: 14.663932627, 110: 13.66099984, 111: 14.55826764, 112: 15.455355987, 113: 14.452264916, 114: 14.449374463, 115: 15.346484588, 116: 14.343415291, 117: 14.340546608, 118: 13.337678498, 119: 13.335010963, 120: 14.232343961, 121: 14.229497492, 122: 14.226651592, 123: 13.223806262, 124: 13.221161501, 125: 12.218517268, 126: 11.216073565, 127: 11.21383035, 128: 10.211587584, 129: 9.209545266999999, 130: 10.107703358, 131: 10.105681817, 132: 9.103660680999999, 133: 8.101839948, 134: 8.100219579999999, 135: 7.098599536, 136: 6.097179817, 137: 6.095960381, 138: 6.094741189, 139: 5.09352224, 140: 4.927272054, 141: 4.9262866, 142: 5.825301343, 143: 6.724136282, 144: 5.722791455, 145: 6.621646897, 146: 6.620322567, 147: 7.518998503, 148: 6.517494703, 149: 7.416191204, 150: 6.414707966, 151: 5.413425024, 152: 5.412342339, 153: 6.311259871, 154: 6.309997619, 155: 6.308735619, 156: 7.207473872, 157: 8.106032378, 158: 7.104411171, 159: 8.002990289, 160: 8.001389691, 161: 7.999789413, 162: 6.998189455, 163: 7.896789817, 164: 8.795210459, 165: 9.693451417, 166: 8.691512726999999, 167: 7.689774424, 168: 6.688236469, 169: 5.686898822, 170: 5.685761442, 171: 5.68462429, 172: 5.683487365, 173: 5.682350668, 174: 5.681214198, 175: 6.580077955, 176: 5.578761939, 177: 6.477646187, 178: 6.378896954, 179: 7.277621174, 180: 7.27616565, 181: 7.274710417, 182: 8.173255474999999, 183: 9.071620824, 184: 9.969806500000001, 185: 10.867812538, 186: 10.865638976, 187: 10.863465848, 188: 11.761293155, 189: 12.658940896, 190: 11.656409108, 191: 11.654077826];
cost = [0: 0.0, 1: 0.179854051, 2: 0.896897486, 3: 0.886206736, 4: 0.880403186, 5: 0.882663516, 6: 0.157739471, 7: 0.865741586, 8: 0.136663421, 9: 0.0, 10: 0.0, 11: 0.866352486, 12: 0.8676964660000001, 13: 0.862503816, 14: 0.133303471, 15: 0.865130686, 16: 0.870323336, 17: 1.271684636, 18: 0.860671116, 19: 0.0, 20: 0.0, 21: 0.917790266, 22: 0.912903066, 23: 0.180342771, 24: 0.0, 25: 0.0, 26: 0.261602953, 27: 0.001712599, 28: 0.0, 29: 1.422465519, 30: 1.424368879, 31: 1.417469199, 32: 0.103743033, 33: 1.411164319, 34: 0.0, 35: 0.0, 36: 0.0, 37: 1.408547199, 38: 1.409498879, 39: 0.0, 40: 0.0, 41: 0.0, 42: 0.118178165, 43: 0.118178165, 44: 0.0, 45: 0.118178165, 46: 0.098746713, 47: 0.0, 48: 1.337528079, 49: 0.0, 50: 1.406167999, 51: 1.349899919, 52: 0.789867806, 53: 0.017049201, 54: 0.322259295, 55: 0.0, 56: 0.949129436, 57: 0.748693146, 58: 0.759567166, 59: 0.762927116, 60: 0.098389833, 61: 0.0, 62: 0.107906633, 63: 0.0, 64: 0.0, 65: 0.0, 66: 0.0, 67: 0.0, 68: 0.0, 69: 1.409498879, 70: 1.413900399, 71: 0.097557113, 72: 1.404026719, 73: 0.088635113, 74: 0.0, 75: 1.408309279, 76: 1.406762799, 77: 0.0, 78: 1.395104719, 79: 1.395461599, 80: 0.0, 81: 0.0, 82: 1.415684799, 83: 0.0, 84: 0.0, 85: 1.427937679, 86: 0.117780313, 87: 1.417469199, 88: 0.796282256, 89: 0.0, 90: 0.072213471, 91: 0.0, 92: 0.0, 93: 0.0, 94: 0.072213471, 95: 0.0, 96: 0.7956713560000001, 97: 0.184435801, 98: 0.915346666, 99: 0.0, 100: 0.9046559159999999, 101: 0.903128666, 102: 0.886939816, 103: 0.8917048359999999, 104: 0.0, 105: 0.0, 106: 0.856578086, 107: 0.858410786, 108: 0.0, 109: 0.136174701, 110: 0.0, 111: 0.855234106, 112: 0.862687086, 113: 0.0, 114: 0.057857321, 115: 0.782781366, 116: 0.0, 117: 0.062439071, 118: 0.0, 119: 0.054314101, 120: 1.393677199, 121: 0.032010153, 122: 0.0, 123: 0.0, 124: 0.09160911300000001, 125: 0.0, 126: 0.0, 127: 0.114449433, 128: 0.0, 129: 0.0, 130: 1.422227599, 131: 0.0, 132: 0.0, 133: 0.0, 134: 0.0, 135: 0.0, 136: 0.0, 137: 0.0, 138: 0.0, 139: 0.0, 140: 0.0, 141: 0.0, 142: 1.500146399, 143: 1.508235679, 144: 0.0, 145: 1.495982799, 146: 0.0, 147: 1.875227279, 148: 0.0, 149: 1.036304866, 150: 0.0, 151: 0.0, 152: 0.5002711010000001, 153: 0.671292116, 154: 0.253834041, 155: 0.284989941, 156: 1.446019599, 157: 1.173839119, 158: 0.0, 159: 1.163489599, 160: 0.186420233, 161: 0.0, 162: 0.0, 163: 1.456131199, 164: 1.198939679, 165: 1.296605839, 166: 0.0, 167: 0.0, 168: 0.0, 169: 0.0, 170: 0.103386153, 171: 0.111713353, 172: 0.112902953, 173: 0.111713353, 174: 0.102196553, 175: 1.412115999, 176: 0.0, 177: 1.420681119, 178: 0.0, 179: 1.401647519, 180: 0.115044233, 181: 0.114687353, 182: 1.431149599, 183: 1.435670079, 184: 0.788157286, 185: 0.898302556, 186: 0.194088021, 187: 0.193599301, 188: 0.921761116, 189: 0.899035636, 190: 0.0, 191: 0.156823121];
earn = [0: 0.339896207, 1: 0.0, 2: 0.0, 3: 0.0, 4: 0.0, 5: 0.0, 6: 0.0, 7: 0.0, 8: 0.0, 9: 0.357756021, 10: 0.0, 11: 0.0, 12: 0.0, 13: 0.0, 14: 0.0, 15: 0.0, 16: 0.0, 17: 0.0, 18: 0.0, 19: 0.343697525, 20: 0.325659748, 21: 0.0, 22: 0.0, 23: 0.0, 24: 0.378073479, 25: 0.37730333, 26: 0.0, 27: 0.0, 28: 0.438070609, 29: 0.0, 30: 0.0, 31: 0.0, 32: 0.0, 33: 0.0, 34: 0.112016071, 35: 0.09052800599999999, 36: 0.118039163, 37: 0.0, 38: 0.0, 39: -0.007833016, 40: -0.008978371000000001, 41: -0.003815421, 42: -0.000122872, 43: -0.000195658, 44: -0.10617674, 45: -0.000966796, 46: 0.0, 47: -0.07504345, 48: 0.0, 49: -0.053056733, 50: 0.0, 51: 0.0, 52: 0.0, 53: 0.0, 54: 0.0, 55: -0.0009811170000000001, 56: 0.0, 57: 0.0, 58: 0.0, 59: 0.0, 60: 0.0, 61: 0.168371386, 62: 0.0, 63: 0.351153833, 64: 0.381086337, 65: 0.0, 66: 0.58592875, 67: 0.650293974, 68: 0.052131058, 69: 0.0, 70: 0.0, 71: 0.0, 72: 0.0, 73: 0.0, 74: 0.0, 75: 0.0, 76: 0.0, 77: 0.724371766, 78: 0.0, 79: 0.0, 80: 0.664049479, 81: 0.656760892, 82: 0.0, 83: 0.608497963, 84: 0.619696679, 85: 0.0, 86: 0.0, 87: 0.0, 88: 0.0, 89: 0.560590208, 90: 0.0, 91: 0.0, 92: 0.5633199, 93: 0.54414626, 94: 0.0, 95: 0.498710938, 96: 0.0, 97: 0.0, 98: 0.0, 99: 0.378460945, 100: 0.0, 101: 0.0, 102: 0.0, 103: 0.0, 104: 0.405891287, 105: 0.190131394, 106: 0.0, 107: 0.0, 108: 0.437352329, 109: 0.0, 110: 0.448940569, 111: 0.0, 112: 0.0, 113: 0.558981188, 114: 0.0, 115: 0.0, 116: 0.610740367, 117: 0.0, 118: 0.659783558, 119: 0.0, 120: 0.0, 121: 0.0, 122: 0.006711301, 123: 0.913044458, 124: 0.0, 125: 0.7282318330000001, 126: 0.716997014, 127: 0.0, 128: 0.562896342, 129: 0.5510041959999999, 130: 0.0, 131: 0.0, 132: 0.435385965, 133: 0.9176266870000001, 134: 0.5870654830000001, 135: 0.895201362, 136: 0.269315463, 137: 0.290059733, 138: 0.294998604, 139: 0.6015182610000001, 140: 0.0, 141: 0.316534387, 142: 0.0, 143: 0.0, 144: 0.100510837, 145: 0.0, 146: 0.130674787, 147: 0.0, 148: 0.261086426, 149: 0.0, 150: 0.120330858, 151: 0.84458065, 152: 0.0, 153: 0.0, 154: 0.0, 155: 0.0, 156: 0.0, 157: 0.0, 158: 0.685287091, 159: 0.0, 160: 0.0, 161: 0.015002083, 162: 0.570313658, 163: 0.0, 164: 0.0, 165: 0.0, 166: 0.811601013, 167: 0.860103942, 168: 0.977018342, 169: 1.078972642, 170: 0.0, 171: 0.0, 172: 0.0, 173: 0.0, 174: 0.0, 175: 0.0, 176: 0.849582708, 177: 0.0, 178: 0.0, 179: 0.0, 180: 0.0, 181: 0.0, 182: 0.0, 183: 0.0, 184: 0.0, 185: 0.0, 186: 0.0, 187: 0.0, 188: 0.0, 189: 0.0, 190: 0.476208445, 191: 0.0];
total_cost = 88.831686764;
total_earn = 29.811125614;
% _objective = 59.02056114999999;