production = [0: 0.0, 1: 0.0, 2: 0.0, 3: 0.0, 4: 0.0, 5: 0.0, 6: 0.0, 7: 0.0, 8: 0.0, 9: 0.0, 10: 0.0, 11: 0.0, 12: 0.0, 13: 0.0, 14: 0.0, 15: 0.0, 16: 0.0, 17: 0.0, 18: 0.0, 19: 0.0, 20: 0.0, 21: 0.0005, 22: 0.0, 23: 0.0032, 24: 0.0, 25: 0.0442, 26: 0.0, 27: 0.0, 28: 0.0, 29: 0.1725, 30: 0.277, 31: 0.4938, 32: 0.0, 33: 0.8425, 34: 0.9437, 35: 0.0, 36: 0.0, 37: 1.2185, 38: 0.0, 39: 1.1025, 40: 1.104, 41: 1.0973, 42: 0.0, 43: 1.1022, 44: 0.0, 45: 1.097, 46: 1.1122, 47: 0.0655, 48: 0.06850000000000001, 49: 0.0, 50: 0.061, 51: 0.0, 52: 0.0788, 53: 0.5643, 54: 0.5122, 55: 0.721, 56: 0.3825, 57: 0.3468, 58: 0.2968, 59: 0.0, 60: 0.304, 61: 0.503, 62: 0.4178, 63: 0.0, 64: 0.0, 65: 0.0, 66: 0.2243, 67: 0.1273, 68: 0.161, 69: 0.0905, 70: 0.0, 71: 0.0333, 72: 0.0, 73: 0.0008, 74: 0.0003, 75: 0.0, 76: 0.0, 77: 0.0, 78: 0.0, 79: 0.0, 80: 0.0, 81: 0.0, 82: 0.0, 83: 0.0, 84: 0.0, 85: 0.0, 86: 0.0, 87: 0.0, 88: 0.0, 89: 0.0, 90: 0.0, 91: 0.0, 92: 0.0, 93: 0.0, 94: 0.0, 95: 0.0, 96: 0.0, 97: 0.0, 98: 0.0, 99: 0.0, 100: 0.0, 101: 0.0, 102: 0.0, 103: 0.0, 104: 0.0, 105: 0.0, 106: 0.0, 107: 0.0, 108: 0.0, 109: 0.0, 110: 0.0, 111: 0.0, 112: 0.0, 113: 0.0, 114: 0.0, 115: 0.0, 116: 0.0, 117: 0.0, 118: 0.0, 119: 0.0, 120: 0.0182, 121: 0.0525, 122: 0.0927, 123: 0.1487, 124: 0.0, 125: 0.0, 126: 0.3533, 127: 0.5125, 128: 0.583, 129: 0.0, 130: 0.0, 131: 0.0, 132: 0.7485000000000001, 133: 0.0, 134: 0.0, 135: 0.0, 136: 1.4352, 137: 0.0, 138: 1.0175, 139: 1.0562, 140: 0.0, 141: 1.8065, 142: 0.9918, 143: 0.9892, 144: 0.9945000000000001, 145: 1.0485, 146: 1.0497, 147: 0.0, 148: 0.0, 149: 0.8395, 150: 0.0, 151: 0.0, 152: 0.0, 153: 0.4923, 154: 0.4175, 155: 0.435, 156: 0.2923, 157: 0.0, 158: 0.2948, 159: 0.0, 160: 0.2777, 161: 0.0, 162: 0.0, 163: 0.0, 164: 0.0, 165: 0.0, 166: 0.068, 167: 0.0462, 168: 0.0123, 169: 0.0, 170: 0.0, 171: 0.0, 172: 0.0, 173: 0.0, 174: 0.0, 175: 0.0, 176: 0.0, 177: 0.0, 178: 0.0, 179: 0.0, 180: 0.0, 181: 0.0, 182: 0.0, 183: 0.0, 184: 0.0, 185: 0.0, 186: 0.0, 187: 0.0, 188: 0.0, 189: 0.0, 190: 0.0, 191: 0.0];
buy = [0: 1.293908333, 1: 1.294408333, 2: 0.274708333, 3: 1.257208333, 4: 0.247708333, 5: 1.251408333, 6: 0.0, 7: 1.223708333, 8: 1.223708333, 9: 1.219208333, 10: 1.217908333, 11: 1.224708333, 12: 0.226908333, 13: 0.0, 14: 0.0, 15: 0.0, 16: 0.231208333, 17: 0.0, 18: 0.0, 19: 0.0, 20: 1.312908333, 21: 0.0, 22: 0.0, 23: 0.0, 24: 1.215208333, 25: 1.176708333, 26: 1.219908333, 27: 0.087708333, 28: 1.088908333, 29: 0.923908333, 30: 0.0, 31: 0.0, 32: 0.087208333, 33: 0.0, 34: 0.0, 35: 0.0, 36: 1.092208333, 37: 0.0, 38: 1.085508333, 39: 0.0, 40: 0.0, 41: 0.0, 42: 0.0, 43: 0.0, 44: 1.092008333, 45: 0.0, 46: 0.0, 47: 0.0, 48: 0.0, 49: 1.091208333, 50: 0.021708333, 51: 0.0, 52: 1.020708333, 53: 0.027908333, 54: 0.034708333, 55: 0.0, 56: 0.0, 57: 1.032108333, 58: 0.0, 59: 1.314408333, 60: 0.778708333, 61: 0.581508333, 62: 0.0, 63: 0.0, 64: 0.0, 65: 0.083008333, 66: 0.8677083330000001, 67: 0.966608333, 68: 0.0, 69: 0.0, 70: 1.089208333, 71: 1.048708333, 72: 1.080908333, 73: 0.0, 74: 1.074208333, 75: 0.0, 76: 1.083208333, 77: 0.0, 78: 0.0, 79: 1.073708333, 80: 0.0, 81: 1.081708333, 82: 0.0, 83: 0.0, 84: 1.093208333, 85: 0.0, 86: 1.099008333, 87: 0.0, 88: 0.110008333, 89: 0.0, 90: 1.118208333, 91: 1.116908333, 92: 0.109708333, 93: 0.0, 94: 0.0, 95: 1.117708333, 96: 0.109008333, 97: 1.301908333, 98: 1.304908333, 99: 1.292908333, 100: 0.0, 101: 0.0, 102: 0.258408333, 103: 0.670933001, 104: 1.238508333, 105: 0.229208333, 106: 0.0, 107: 1.211708333, 108: 0.221408333, 109: 0.222908333, 110: 0.0, 111: 1.206508333, 112: 0.0, 113: 0.102708333, 114: 0.0, 115: 0.0, 116: 1.088708333, 117: 0.0, 118: 0.098708333, 119: 1.088908333, 120: 0.054008333, 121: 1.026908333, 122: 0.0, 123: 0.0, 124: 0.0, 125: 0.076208333, 126: 0.732208333, 127: 0.583708333, 128: 0.0, 129: 0.08790833300000001, 130: 0.0, 131: 1.096408333, 132: 0.0, 133: 0.813251753, 134: 0.0, 135: 1.143208333, 136: 0.0, 137: 1.122008333, 138: 0.104708333, 139: 0.0, 140: 1.148708333, 141: 0.0, 142: 0.0, 143: 0.0, 144: 0.185508333, 145: 0.109708333, 146: 0.0, 147: 0.0, 148: 1.143008333, 149: 0.0, 150: 1.601708333, 151: 1.604008333, 152: 0.0, 153: 0.905408333, 154: 0.998008333, 155: 0.0, 156: 0.823908333, 157: 0.0, 158: 0.0, 159: 0.0, 160: 0.879008333, 161: 0.0, 162: 0.188708333, 163: 1.124708333, 164: 1.116708333, 165: 1.103408333, 166: 0.048908333, 167: 1.062508333, 168: 0.0, 169: 1.086908333, 170: 0.086908333, 171: 0.0, 172: 1.094908333, 173: 1.093908333, 174: 1.085908333, 175: 1.087708333, 176: 1.094708333, 177: 0.0, 178: 0.087708333, 179: 0.0, 180: 0.0, 181: 0.0, 182: 0.103708333, 183: 1.107508333, 184: 0.0, 185: 0.0, 186: 0.0, 187: 0.316908333, 188: 0.0, 189: 1.278208333, 190: 0.248908333, 191: 0.0];
sell = [0: 0.0, 1: 0.0, 2: 0.0, 3: 0.0, 4: 0.0, 5: 0.0, 6: 0.641791667, 7: 0.0, 8: 0.0, 9: 0.0, 10: 0.0, 11: 0.0, 12: 0.0, 13: 0.681591667, 14: 0.681791667, 15: 0.677291667, 16: 0.0, 17: 0.011791667, 18: 0.684591667, 19: 0.628791667, 20: 0.0, 21: 0.591091667, 22: 0.599091667, 23: 0.607991667, 24: 0.0, 25: 0.0, 26: 0.0, 27: 0.0, 28: 0.0, 29: 0.0, 30: 0.178991667, 31: 1.301591667, 32: 0.0, 33: 0.755591667, 34: 1.748991667, 35: 0.571969157, 36: 0.0, 37: 1.133791667, 38: 0.0, 39: 1.910491667, 40: 1.010291667, 41: 0.009091666999999999, 42: 0.814291667, 43: 1.910691667, 44: 0.0, 45: 0.013791667, 46: 1.029191667, 47: 0.880791667, 48: 0.874991667, 49: 0.0, 50: 0.0, 51: 0.8137916670000001, 52: 0.0, 53: 0.0, 54: 0.0, 55: 0.787291667, 56: 0.922291667, 57: 0.0, 58: 0.8500916670000001, 59: 0.0, 60: 0.0, 61: 0.0, 62: 1.227091667, 63: 0.807291667, 64: 0.813591667, 65: 0.0, 66: 0.0, 67: 0.0, 68: 0.794417854, 69: 0.904991667, 70: 0.0, 71: 0.0, 72: 0.0, 73: 0.826291667, 74: 0.0, 75: 0.815491667, 76: 0.0, 77: 0.818591667, 78: 0.826591667, 79: 0.0, 80: 0.817291667, 81: 0.0, 82: 0.0, 83: 0.806491667, 84: 0.0, 85: 0.798991667, 86: 0.0, 87: 0.0, 88: 0.0, 89: 0.675490503, 90: 0.0, 91: 0.0, 92: 0.0, 93: 0.789991667, 94: 0.0, 95: 0.0, 96: 0.0, 97: 0.0, 98: 0.0, 99: 0.0, 100: 0.612591667, 101: 0.615091667, 102: 0.0, 103: 0.0, 104: 0.0, 105: 0.0, 106: 0.691291667, 107: 0.0, 108: 0.0, 109: 0.0, 110: 0.685091667, 111: 0.0, 112: 0.681291667, 113: 0.0, 114: 0.805291667, 115: 0.812091667, 116: 0.0, 117: 0.797791667, 118: 0.0, 119: 0.0, 120: 0.0, 121: 0.0, 122: 0.906991667, 123: 0.070291667, 124: 0.822991667, 125: 0.0, 126: 0.0, 127: 0.0, 128: 0.494791667, 129: 0.0, 130: 0.803791667, 131: 0.0, 132: 1.552091667, 133: 0.0, 134: 0.7330916669999999, 135: 0.0, 136: 2.191491667, 137: 0.0, 138: 0.0, 139: 1.829991667, 140: 0.0, 141: 1.634991667, 142: 0.830091667, 143: 1.720691667, 144: 0.0, 145: 0.0, 146: 1.797491667, 147: 0.422991667, 148: 0.0, 149: 1.236591667, 150: 0.0, 151: 0.0, 152: 0.08109166700000001, 153: 0.0, 154: 0.0, 155: 0.868491667, 156: 0.0, 157: 0.770591667, 158: 1.067591667, 159: 0.7612916669999999, 160: 0.0, 161: 0.720491667, 162: 0.0, 163: 0.0, 164: 0.0, 165: 0.0, 166: 0.0, 167: 0.0, 168: 0.8137916670000001, 169: 0.0, 170: 0.0, 171: 0.805791667, 172: 0.0, 173: 0.0, 174: 0.0, 175: 0.0, 176: 0.0, 177: 0.805091667, 178: 0.0, 179: 0.821091667, 180: 0.439761032, 181: 0.803591667, 182: 0.0, 183: 0.0, 184: 0.803291667, 185: 0.622991667, 186: 0.582291667, 187: 0.0, 188: 0.584591667, 189: 0.0, 190: 0.0, 191: 0.643291667];
charge = [0: 1.0, 1: 1.0, 2: 0.0, 3: 1.0, 4: 0.0, 5: 1.0, 6: 0.0, 7: 1.0, 8: 1.0, 9: 1.0, 10: 1.0, 11: 1.0, 12: 0.0, 13: 0.0, 14: 0.0, 15: 0.0, 16: 0.0, 17: 0.0, 18: 0.0, 19: 0.0, 20: 1.0, 21: 0.0, 22: 0.0, 23: 0.0, 24: 1.0, 25: 1.0, 26: 1.0, 27: 0.0, 28: 1.0, 29: 1.0, 30: 0.0, 31: 0.0, 32: 0.0, 33: 0.0, 34: 0.0, 35: 0.0, 36: 1.0, 37: 0.0, 38: 1.0, 39: 0.0, 40: 0.0, 41: 1.0, 42: 0.0, 43: 0.0, 44: 1.0, 45: 1.0, 46: 0.0, 47: 0.0, 48: 0.0, 49: 1.0, 50: 0.0, 51: 0.0, 52: 1.0, 53: 0.0, 54: 0.0, 55: 0.0, 56: 0.0, 57: 1.0, 58: 0.0, 59: 1.0, 60: 1.0, 61: 1.0, 62: 0.0, 63: 0.0, 64: 0.0, 65: 0.0, 66: 1.0, 67: 1.0, 68: 0.0, 69: 0.0, 70: 1.0, 71: 1.0, 72: 1.0, 73: 0.0, 74: 1.0, 75: 0.0, 76: 1.0, 77: 0.0, 78: 0.0, 79: 1.0, 80: 0.0, 81: 1.0, 82: 0.0, 83: 0.0, 84: 1.0, 85: 0.0, 86: 1.0, 87: 0.0, 88: 0.0, 89: 0.0, 90: 1.0, 91: 1.0, 92: 0.0, 93: 0.0, 94: 0.0, 95: 1.0, 96: 0.0, 97: 1.0, 98: 1.0, 99: 1.0, 100: 0.0, 101: 0.0, 102: 0.0, 103: 0.404724668, 104: 1.0, 105: 0.0, 106: 0.0, 107: 1.0, 108: 0.0, 109: 0.0, 110: 0.0, 111: 1.0, 112: 0.0, 113: 0.0, 114: 0.0, 115: 0.0, 116: 1.0, 117: 0.0, 118: 0.0, 119: 1.0, 120: 0.0, 121: 1.0, 122: 0.0, 123: 0.0, 124: 0.0, 125: 0.0, 126: 1.0, 127: 1.0, 128: 0.0, 129: 0.0, 130: 0.0, 131: 1.0, 132: 0.0, 133: 0.700243419, 134: 0.0, 135: 1.0, 136: 0.0, 137: 1.0, 138: 1.0, 139: 0.0, 140: 1.0, 141: 0.0, 142: 0.0, 143: 0.0, 144: 1.0, 145: 1.0, 146: 0.0, 147: 0.0, 148: 1.0, 149: 0.0, 150: 1.0, 151: 1.0, 152: 0.0, 153: 1.0, 154: 1.0, 155: 0.0, 156: 1.0, 157: 0.0, 158: 0.0, 159: 0.0, 160: 1.0, 161: 0.0, 162: 0.0, 163: 1.0, 164: 1.0, 165: 1.0, 166: 0.0, 167: 1.0, 168: 0.0, 169: 1.0, 170: 0.0, 171: 0.0, 172: 1.0, 173: 1.0, 174: 1.0, 175: 1.0, 176: 1.0, 177: 0.0, 178: 0.0, 179: 0.0, 180: 0.0, 181: 0.0, 182: 0.0, 183: 1.0, 184: 0.0, 185: 0.0, 186: 0.0, 187: 0.0, 188: 0.0, 189: 1.0, 190: 0.0, 191: 0.0];
discharge = [0: 0.0, 1: 0.0, 2: 0.0, 3: 0.0, 4: 0.0, 5: 0.0, 6: 1.0, 7: 0.0, 8: 0.0, 9: 0.0, 10: 0.0, 11: 0.0, 12: 0.0, 13: 1.0, 14: 1.0, 15: 1.0, 16: 0.0, 17: 1.0, 18: 1.0, 19: 1.0, 20: 0.0, 21: 1.0, 22: 1.0, 23: 1.0, 24: 0.0, 25: 0.0, 26: 0.0, 27: 0.0, 28: 0.0, 29: 0.0, 30: 0.0, 31: 1.0, 32: 0.0, 33: 0.0, 34: 1.0, 35: 0.741530544, 36: 0.0, 37: 0.0, 38: 0.0, 39: 1.0, 40: 0.0, 41: 0.0, 42: 1.0, 43: 1.0, 44: 0.0, 45: 0.0, 46: 0.0, 47: 1.0, 48: 1.0, 49: 0.0, 50: 0.0, 51: 1.0, 52: 0.0, 53: 0.0, 54: 0.0, 55: 1.0, 56: 1.0, 57: 0.0, 58: 1.0, 59: 0.0, 60: 0.0, 61: 0.0, 62: 1.0, 63: 1.0, 64: 1.0, 65: 0.0, 66: 0.0, 67: 0.0, 68: 0.797140208, 69: 1.0, 70: 0.0, 71: 0.0, 72: 0.0, 73: 1.0, 74: 0.0, 75: 1.0, 76: 0.0, 77: 1.0, 78: 1.0, 79: 0.0, 80: 1.0, 81: 0.0, 82: 0.100787037, 83: 1.0, 84: 0.0, 85: 1.0, 86: 0.0, 87: 0.102453704, 88: 0.0, 89: 0.881332041, 90: 0.0, 91: 0.0, 92: 0.0, 93: 1.0, 94: 0.131342593, 95: 0.0, 96: 0.0, 97: 0.0, 98: 0.0, 99: 0.0, 100: 1.0, 101: 1.0, 102: 0.0, 103: 0.0, 104: 0.0, 105: 0.0, 106: 1.0, 107: 0.0, 108: 0.0, 109: 0.0, 110: 1.0, 111: 0.0, 112: 1.0, 113: 0.0, 114: 1.0, 115: 1.0, 116: 0.0, 117: 1.0, 118: 0.0, 119: 0.0, 120: 0.0, 121: 0.0, 122: 1.0, 123: 0.0, 124: 1.0, 125: 0.0, 126: 0.0, 127: 0.0, 128: 0.0, 129: 0.0, 130: 1.0, 131: 0.0, 132: 1.0, 133: 0.0, 134: 1.0, 135: 0.0, 136: 1.0, 137: 0.0, 138: 0.0, 139: 1.0, 140: 0.0, 141: 0.0, 142: 0.0, 143: 1.0, 144: 0.0, 145: 0.0, 146: 1.0, 147: 1.0, 148: 0.0, 149: 1.0, 150: 0.0, 151: 0.0, 152: 1.0, 153: 0.0, 154: 0.0, 155: 1.0, 156: 0.0, 157: 1.0, 158: 1.0, 159: 1.0, 160: 0.0, 161: 1.0, 162: 0.0, 163: 0.0, 164: 0.0, 165: 0.0, 166: 0.0, 167: 0.0, 168: 1.0, 169: 0.0, 170: 0.0, 171: 1.0, 172: 0.0, 173: 0.0, 174: 0.0, 175: 0.0, 176: 0.0, 177: 1.0, 178: 0.0, 179: 1.0, 180: 0.596077073, 181: 1.0, 182: 0.0, 183: 0.0, 184: 1.0, 185: 1.0, 186: 1.0, 187: 0.0, 188: 1.0, 189: 0.0, 190: 0.0, 191: 1.0];
soc = [0: 4.969186, 1: 5.868192163, 2: 5.867018524, 3: 6.765845121, 4: 6.764491952, 5: 7.663139053, 6: 6.661606425, 7: 7.560274104, 8: 8.458762049000001, 9: 9.357070297, 10: 10.255198883, 11: 11.153147843, 12: 11.150917214, 13: 10.14868703, 14: 9.146657293000001, 15: 8.144827961000001, 16: 8.143198996000001, 17: 7.141570356, 18: 6.140142042, 19: 5.138914013, 20: 6.037886231, 21: 5.036678653, 22: 4.035671318, 23: 3.034864183, 24: 3.93425721, 25: 4.833470359, 26: 5.732503665, 27: 5.731357164, 28: 6.630210893, 29: 7.528884851, 30: 7.527379074, 31: 6.525873598, 32: 6.524568423, 33: 6.523263509, 34: 5.521958857, 35: 4.779323921, 36: 5.678368056, 37: 5.677232382, 38: 6.576096936, 39: 5.574781716, 40: 5.57366676, 41: 6.472552027, 42: 5.471257516, 43: 4.470163265, 44: 5.369269232, 45: 6.268195378, 46: 6.266941739, 47: 5.265688351, 48: 4.264635213, 49: 5.163782286, 50: 5.16274953, 51: 4.16171698, 52: 5.060884636, 53: 5.059872459, 54: 5.058860485, 55: 4.057848713, 56: 3.057037143, 57: 3.956425736, 58: 2.955634451, 59: 3.855043324, 60: 4.754272315, 61: 5.653321461, 62: 4.652190796, 63: 3.651260358, 64: 2.650530106, 65: 2.65, 66: 3.54947, 67: 4.448760106, 68: 3.650730146, 69: 2.65, 70: 3.54947, 71: 4.448760106, 72: 5.347870354, 73: 4.34680078, 74: 5.24593142, 75: 4.244882233, 76: 5.144033257, 77: 4.14300445, 78: 3.142175849, 79: 4.041547414, 80: 3.040739105, 81: 3.940130957, 82: 3.838555894, 83: 2.837788183, 84: 3.737220625, 85: 2.736473181, 86: 3.635925886, 87: 3.532744997, 88: 3.532038448, 89: 2.65, 90: 3.54947, 91: 4.448760106, 92: 4.447870354, 93: 3.44698078, 94: 3.314948791, 95: 4.214285714, 96: 4.213442944, 97: 5.112600256, 98: 6.011577736, 99: 6.91037542, 100: 5.908993345, 101: 4.907811546, 102: 4.906829984, 103: 5.270100819, 104: 6.169046799, 105: 6.16781299, 106: 5.166579427, 107: 6.065546111, 108: 6.064333002, 109: 6.063120135, 110: 5.061907511, 111: 5.96089513, 112: 4.959702951, 113: 4.95871101, 114: 3.957719268, 115: 2.956927724, 116: 3.856336339, 117: 2.855565071, 118: 2.854993958, 119: 3.75442296, 120: 3.753672075, 121: 4.652921341, 122: 3.651990756, 123: 3.651260358, 124: 2.650530106, 125: 2.65, 126: 3.54947, 127: 4.448760106, 128: 4.447870354, 129: 4.44698078, 130: 3.446091384, 131: 4.345402165, 132: 3.344533085, 133: 3.974083256, 134: 2.973288439, 135: 3.872693781, 136: 2.871919243, 137: 3.771344859, 138: 4.67059059, 139: 3.669656472, 140: 4.56892254, 141: 4.568008756, 142: 4.567095154, 143: 3.566181735, 144: 4.465468499, 145: 5.364575405, 146: 4.36350249, 147: 3.362629789, 148: 4.261957263, 149: 3.261104872, 150: 4.160452651, 151: 5.059620561, 152: 4.058608636, 153: 4.957796915, 154: 5.856805355, 155: 4.855633994, 156: 5.754662867, 157: 4.753511935, 158: 3.752561232, 159: 2.75181072, 160: 3.651260358, 161: 2.650530106, 162: 2.65, 163: 3.54947, 164: 4.448760106, 165: 5.347870354, 166: 5.34680078, 167: 6.24573142, 168: 5.244482273, 169: 6.143433377, 170: 6.14220469, 171: 5.140976249, 172: 6.039948054, 173: 6.938740065, 174: 7.837352317, 175: 8.735784846, 176: 9.634037688999999, 177: 8.632110881999999, 178: 8.630384459, 179: 7.628658382, 180: 7.031055578, 181: 6.029649367, 182: 6.028443437, 183: 6.927237748, 184: 5.925852301, 185: 4.92466713, 186: 3.923682197, 187: 3.922897461, 188: 2.922112881, 189: 3.821528459, 190: 3.820764153, 191: 2.82];
cost = [0: 0.908626766, 1: 0.908932216, 2: 0.167819321, 3: 0.886206736, 4: 0.151325021, 5: 0.882663516, 6: 0.0, 7: 0.865741586, 8: 0.865741586, 9: 0.862992536, 10: 0.862198366, 11: 0.866352486, 12: 0.138618301, 13: 0.0, 14: 0.0, 15: 0.0, 16: 0.141245171, 17: 0.0, 18: 0.0, 19: 0.0, 20: 0.920233866, 21: 0.0, 22: 0.0, 23: 0.0, 24: 1.563789999, 25: 1.517990399, 26: 1.569381119, 27: 0.104337833, 28: 1.413543519, 29: 1.217259519, 30: 0.0, 31: 0.0, 32: 0.103743033, 33: 0.0, 34: 0.0, 35: 0.0, 36: 1.417469199, 37: 0.0, 38: 1.409498879, 39: 0.0, 40: 0.0, 41: 0.118178165, 42: 0.0, 43: 0.0, 44: 1.417231279, 45: 0.118178165, 46: 0.0, 47: 0.0, 48: 0.0, 49: 1.416279599, 50: 0.025824233, 51: 0.0, 52: 0.741728886, 53: 0.017049201, 54: 0.021203321, 55: 0.0, 56: 0.0, 57: 0.748693146, 58: 0.0, 59: 0.921150216, 60: 1.044529599, 61: 0.809940479, 62: 0.0, 63: 0.0, 64: 0.0, 65: 0.098746713, 66: 1.150403999, 67: 1.268055439, 68: 0.0, 69: 0.0, 70: 1.413900399, 71: 1.365721599, 72: 1.404026719, 73: 0.0, 74: 1.396056399, 75: 0.0, 76: 1.406762799, 77: 0.0, 78: 0.0, 79: 1.395461599, 80: 0.0, 81: 1.404978399, 82: 0.0, 83: 0.0, 84: 1.418658799, 85: 0.0, 86: 1.425558479, 87: 0.0, 88: 0.06720409099999999, 89: 0.0, 90: 0.801291636, 91: 0.800497466, 92: 0.06702082099999999, 93: 0.0, 94: 0.0, 95: 0.800986186, 96: 0.066593191, 97: 0.913513966, 98: 0.915346666, 99: 0.9080158659999999, 100: 0.0, 101: 0.0, 102: 0.157861651, 103: 0.457702589, 104: 0.874782906, 105: 0.140023371, 106: 0.0, 107: 0.858410786, 108: 0.135258351, 109: 0.136174701, 110: 0.0, 111: 0.855234106, 112: 0.0, 113: 0.062744521, 114: 0.0, 115: 0.0, 116: 0.783270086, 117: 0.0, 118: 0.060300921, 119: 0.783392266, 120: 0.064248313, 121: 1.339788319, 122: 0.0, 123: 0.0, 124: 0.0, 125: 0.090657433, 126: 0.989213199, 127: 0.812557599, 128: 0.0, 129: 0.104575753, 130: 0.0, 131: 1.422465519, 132: 0.0, 133: 1.050197767, 134: 0.0, 135: 1.478138799, 136: 0.0, 137: 1.452919279, 138: 0.242739199, 139: 0.0, 140: 1.484681599, 141: 0.0, 142: 0.0, 143: 0.0, 144: 0.338858879, 145: 0.248687199, 146: 0.0, 147: 0.0, 148: 0.816441956, 149: 0.0, 150: 1.096661786, 151: 1.098066856, 152: 0.0, 153: 0.671292116, 154: 0.727861456, 155: 0.0, 156: 1.098299519, 157: 0.0, 158: 0.0, 159: 0.0, 160: 1.163846479, 161: 0.0, 162: 0.224487433, 163: 1.456131199, 164: 1.446614399, 165: 1.430792719, 166: 0.058181353, 167: 1.382138079, 168: 0.0, 169: 1.411164319, 170: 0.103386153, 171: 0.0, 172: 1.420681119, 173: 1.419491519, 174: 1.409974719, 175: 1.412115999, 176: 1.420443199, 177: 0.0, 178: 0.104337833, 179: 0.0, 180: 0.0, 181: 0.0, 182: 0.123371433, 183: 1.435670079, 184: 0.0, 185: 0.0, 186: 0.0, 187: 0.193599301, 188: 0.0, 189: 0.899035636, 190: 0.152058101, 191: 0.0];
earn = [0: 0.0, 1: 0.0, 2: 0.0, 3: 0.0, 4: 0.0, 5: 0.0, 6: 0.340213763, 7: 0.0, 8: 0.0, 9: 0.0, 10: 0.0, 11: 0.0, 12: 0.0, 13: 0.360357514, 14: 0.361349583, 15: 0.359641875, 16: 0.0, 17: 0.006368679, 18: 0.372280948, 19: 0.343697525, 20: 0.0, 21: 0.330834006, 22: 0.337108881, 23: 0.33998894, 24: 0.0, 25: 0.0, 26: 0.0, 27: 0.0, 28: 0.0, 29: 0.0, 30: 0.078881628, 31: 0.471046024, 32: 0.0, 33: 0.148247085, 34: 0.243284741, 35: 0.055881387, 36: 0.0, 37: 0.023582867, 38: 0.0, 39: -0.007833016, 40: -0.004748371, 41: -4.2731e-05, 42: -0.008631491999999999, 43: -0.034965658, 44: 0.0, 45: -0.000966796, 46: -0.079453597, 47: -0.07504345, 48: -0.073936796, 49: 0.0, 50: 0.0, 51: -0.030354429, 52: 0.0, 53: 0.0, 54: 0.0, 55: -0.011651917, 56: -0.011805333, 57: 0.0, 58: -0.001445156, 59: 0.0, 60: 0.0, 61: 0.0, 62: 0.243945823, 63: 0.209895833, 64: 0.381086337, 65: 0.0, 66: 0.0, 67: 0.0, 68: 0.537900329, 69: 0.694943101, 70: 0.0, 71: 0.0, 72: 0.0, 73: 0.744075646, 74: 0.0, 75: 0.732393066, 76: 0.0, 77: 0.724371766, 78: 0.723928982, 79: 0.0, 80: 0.664049479, 81: 0.0, 82: 0.0, 83: 0.608497963, 84: 0.0, 85: 0.60595528, 86: 0.0, 87: 0.0, 88: 0.0, 89: 0.484056495, 90: 0.0, 91: 0.0, 92: 0.0, 93: 0.54414626, 94: 0.0, 95: 0.0, 96: 0.0, 97: 0.0, 98: 0.0, 99: 0.0, 100: 0.375334914, 101: 0.379265522, 102: 0.0, 103: 0.0, 104: 0.0, 105: 0.0, 106: 0.437449367, 107: 0.0, 108: 0.0, 109: 0.0, 110: 0.448940569, 111: 0.0, 112: 0.452990829, 113: 0.0, 114: 0.584802808, 115: 0.596643748, 116: 0.0, 117: 0.621559488, 118: 0.0, 119: 0.0, 120: 0.0, 121: 0.0, 122: 0.870621301, 123: 0.066144458, 124: 0.721352196, 125: 0.0, 126: 0.0, 127: 0.0, 128: 0.343088542, 129: 0.0, 130: 0.505986854, 131: 0.0, 132: 0.840923265, 133: 0.0, 134: 0.362147283, 135: 0.0, 136: 0.780390183, 137: 0.0, 138: 0.0, 139: 0.6015182610000001, 140: 0.0, 141: 0.316534387, 142: 0.143937895, 143: 0.293722068, 144: 0.0, 145: 0.0, 146: 0.261714787, 147: 0.077872766, 148: 0.0, 149: 0.453581823, 150: 0.0, 151: 0.0, 152: 0.040983728, 153: 0.0, 154: 0.0, 155: 0.468117008, 156: 0.0, 157: 0.454263788, 158: 0.685287091, 159: 0.523844796, 160: 0.0, 161: 0.546132683, 162: 0.0, 163: 0.0, 164: 0.0, 165: 0.0, 166: 0.0, 167: 0.0, 168: 0.992012042, 169: 0.0, 170: 0.0, 171: 1.149058917, 172: 0.0, 173: 0.0, 174: 0.0, 175: 0.0, 176: 0.0, 177: 0.833269875, 178: 0.0, 179: 0.758360263, 180: 0.370850478, 181: 0.646328778, 182: 0.0, 183: 0.0, 184: 0.673238746, 185: 0.512036851, 186: 0.471481562, 187: 0.0, 188: 0.44966791, 189: 0.0, 190: 0.0, 191: 0.452105383];
total_cost = 88.235528362;
total_earn = 32.294696274;
