open = [1, 1, 1, 1, 1, 1, 1, 1, 1, 1];
satisfied = 
[| 0.0,    0.0, 1.0,    0.0,                 0.0,    0.0, 1.0, 0.44334, 0.0001,      0.0,    0.0, 1.0,    0.0, 0.0, 0.375875,         0.0,    0.0,    0.0, 0.0,       0.0, 0.0001,    0.0, 1.0,    0.0,    0.0,         0.0, 0.600364,       0.0, 0.0,         0.0
 | 0.0,    0.0, 0.0,    0.0,                 0.0,    0.0, 0.0,     0.0,    0.0,      0.0,    0.0, 1.0, 0.0001, 0.0,      0.0,         0.0, 0.0001,    1.0, 0.0,       0.0,    0.0,    0.0, 0.0, 0.0001,    0.0, 0.999126667,      0.0,       0.0, 0.0,         0.0
 | 1.0,    0.0, 0.0, 0.0001, 0.09130363599999999,    0.0, 1.0,     0.0,    0.0,      0.0,    1.0, 1.0,    0.0, 0.0, 0.624225,         0.0,    0.0,    0.0, 0.0,       0.0,    1.0,    1.0, 0.0,    0.0,    0.0,         0.0,      0.0,       0.0, 1.0, 0.500206667
 | 0.0,    0.0, 0.0,    0.0,                 0.0,    0.0, 1.0,     0.0,    1.0,      0.0,    0.0, 1.0,    0.0, 0.0,      0.0, 0.666663333,    0.0,    0.0, 0.0,       0.0,    0.0,    0.0, 1.0,    0.0,    1.0,         0.0,      0.0,       0.0, 0.0,         0.0
 | 0.0,    0.0, 0.0,    0.0,                 0.0,    0.0, 0.0,     0.0,    0.0,      0.0,    0.0, 0.0,    0.0, 1.0,      0.0,         0.0,    0.0,    0.0, 1.0, 0.8749975,    0.0,    0.0, 0.0,    0.0,    0.0,         0.0,      0.0,       0.0, 0.0,         0.0
 | 1.0,    0.0, 0.0,    1.0,                 0.0, 0.0001, 0.0, 0.55676,    0.0, 0.997584,    0.0, 0.0,    0.0, 0.0,      0.0,         0.0,    0.0,    0.0, 0.0,       0.0,    0.0,    0.0, 1.0,    0.0,    0.0,         1.0,      0.0, 0.5001025, 0.0,         0.0
 | 0.0,    0.0, 0.0,    0.0,                 0.0,    0.0, 0.0,     0.0,    0.0,      0.0,    0.0, 0.0,    0.0, 0.0,      0.0, 0.333436667,    0.0,    0.0, 1.0,       0.0,    0.0,    0.0, 1.0,    0.0,    0.0,         0.0,      0.0,       0.0, 0.0, 0.499893333
 | 0.0, 0.0001, 0.0,    0.0,         0.908796364,    0.0, 0.0,     0.0,    0.0,      1.0, 0.0001, 0.0,    1.0, 1.0,      0.0,         0.0,    0.0, 0.0001, 1.0, 0.1251025,    0.0,    0.0, 1.0,    1.0,    0.0,         0.0,      0.0,       0.0, 1.0,         0.0
 | 0.0,    0.0, 1.0,    0.0,                 0.0,    1.0, 0.0,     0.0,    0.0,      0.0,    0.0, 0.0,    0.0, 1.0,      0.0,         0.0,    0.0,    0.0, 0.0,       0.0,    0.0,    0.0, 0.0,    0.0,    0.0,         1.0,      0.0, 0.4999975, 0.0,         0.0
 | 0.0,    1.0, 0.0,    0.0,                 0.0,    0.0, 0.0,     0.0,    0.0,      0.0,    0.0, 1.0,    0.0, 1.0,      0.0,         0.0,    1.0,    0.0, 0.0,       0.0,    0.0, 0.0001, 0.0,    0.0, 0.0001,         0.0, 0.399736,       0.0, 0.0,         0.0
 |];
