open = [1, 1, 1, 1, 1];
satisfied = 
[|         1.0,    0.0,         0.0, 0.999995,    0.0, 1.0,         0.0,    0.0,    0.0,    0.0
 | 0.999626667,    1.0, 0.111213333,      0.0, 0.0001, 0.0,         1.0,    1.0,    1.0, 0.0001
 |         0.0,    0.0,         0.0,  0.74987,    0.0, 1.0,         0.0, 0.0001,    0.0,    1.0
 |         0.0, 0.0001,         0.0,      1.0,    1.0, 0.0, 0.856982857,    0.0, 0.0001,    0.0
 |         0.0,    0.0, 0.888886667,      0.0,    0.0, 1.0,         0.0,    0.0,    0.0,    0.0
 |];
