open = [1, 1, 1, 1, 1];
satisfied = 
[| 0.0001, 0.0,         0.0,    1.0,      0.0, 1.0, 0.857054286,      0.0,       0.0, 0.0
 |    0.0, 0.0, 0.999748889,    0.0, 0.900102, 0.0,         1.0,      0.0, 0.2501525, 1.0
 |    0.0, 0.0,         0.0, 0.0001,      0.0, 1.0,         0.0,      0.0, 0.7499475, 0.0
 |    1.0, 1.0,         0.0,    0.0, 0.099998, 1.0,         0.0,      1.0,       0.0, 1.0
 |    0.0, 1.0, 0.000351111,    0.0,      0.0, 1.0,         0.0, 0.999364,       0.0, 0.0
 |];
% _objective = 14014.571720015;