production = [0: 0.0, 1: 0.0, 2: 0.0, 3: 0.0, 4: 0.0, 5: 0.0, 6: 0.0, 7: 0.0, 8: 0.0, 9: 0.0, 10: 0.0, 11: 0.0, 12: 0.0, 13: 0.0, 14: 0.0, 15: 0.0, 16: 0.0, 17: 0.0, 18: 0.0, 19: 0.0, 20: 0.0, 21: 0.0, 22: 0.0, 23: 0.0, 24: 0.0, 25: 6.4e-05, 26: 0.006194, 27: 0.001167, 28: 0.021677, 29: 0.001657, 30: 0.057956, 31: 0.053063, 32: 0.029274, 33: 0.245157, 34: 0.051542, 35: 0.175005, 36: 0.37817, 37: 0.115291, 38: 0.202612, 39: 0.147727, 40: 0.116163, 41: 0.695751, 42: 0.926663, 43: 0.679047, 44: 0.544591, 45: 0.52763, 46: 1.402544, 47: 0.284787, 48: 0.49064, 49: 0.01177, 50: 0.533514, 51: 0.091138, 52: 0.390463, 53: 0.61365, 54: 0.631171, 55: 0.39808, 56: 0.16017, 57: 0.760146, 58: 1.826618, 59: 0.601907, 60: 0.456944, 61: 0.169281, 62: 0.016956, 63: 0.106044, 64: 0.305253, 65: 0.149469, 66: 0.097108, 67: 0.017232, 68: 0.178905, 69: 0.001728, 70: 0.044038, 71: 0.116146, 72: 0.076392, 73: 0.057262, 74: 0.011701, 75: 0.00451, 76: 0.003356, 77: 0.000884, 78: 0.000359, 79: 0.0, 80: 0.0, 81: 0.0, 82: 0.0, 83: 0.0, 84: 0.0, 85: 0.0, 86: 0.0, 87: 0.0, 88: 0.0, 89: 0.0, 90: 0.0, 91: 0.0, 92: 0.0, 93: 0.0, 94: 0.0, 95: 0.0];
buy = [0: 667.6236, 1: 143.072484, 2: 393.178511, 3: 534.324622, 4: 577.442871, 5: 779.6137220000001, 6: 580.2421849999999, 7: 299.817698, 8: 977.63055, 9: 554.2751459999999, 10: 541.187588, 11: 456.318262, 12: 1.471295, 13: 746.0197470000001, 14: 254.476633, 15: 906.1058870000001, 16: 687.446497, 17: 408.329408, 18: 568.130861, 19: 621.1026450000001, 20: 122.374494, 21: 626.871456, 22: 867.564887, 23: 943.097704, 24: 730.384017, 25: 924.733599, 26: 128.905881, 27: 685.1010240000001, 28: 134.336886, 29: 606.5816, 30: 947.5766170000001, 31: 197.310123, 32: 937.487376, 33: 208.406807, 34: 159.264967, 35: 30.774601, 36: 105.441995, 37: 495.272817, 38: 788.196645, 39: 209.624869, 40: 480.2746, 41: 632.328309, 42: 164.786197, 43: 709.0496900000001, 44: 892.375553, 45: 821.850487, 46: 357.333536, 47: 629.0653579999999, 48: 393.937285, 49: 63.174766, 50: 609.3657909999999, 51: 483.235012, 52: 527.034323, 53: 511.678589, 54: 647.690518, 55: 636.017059, 56: 798.05805, 57: 480.026365, 58: 419.07434, 59: 950.9971420000001, 60: 988.9642270000001, 61: 297.775453, 62: 535.43368, 63: 922.055211, 64: 831.2061179999999, 65: 722.4820089999999, 66: 888.0553169999999, 67: 456.369125, 68: 951.611092, 69: 274.12483, 70: 114.760063, 71: 117.885024, 72: 149.21888, 73: 311.220974, 74: 191.268365, 75: 945.168622, 76: 770.615443, 77: 744.756106, 78: 477.521952, 79: 863.043054, 80: 284.795671, 81: 758.188259, 82: 545.416652, 83: 589.175574, 84: 31.6444, 85: 637.2633059999999, 86: 671.504186, 87: 371.126434, 88: 290.045726, 89: 208.28259, 90: 853.241581, 91: 126.012142, 92: 828.5528859999999, 93: 867.99758, 94: 204.488209, 95: 61.951773];
sell = [0: 2.185296, 1: 2.943447, 2: 1.597998, 3: 3.770447, 4: 3.622491, 5: 3.159206, 6: 0.15296, 7: 3.402776, 8: 2.70057, 9: 2.345387, 10: 2.648313, 11: 1.132506, 12: 0.010789, 13: 3.991155, 14: 3.064146, 15: 3.321744, 16: 3.843454, 17: 2.089331, 18: 2.052737, 19: 0.59121, 20: 1.997447, 21: 2.462313, 22: 2.039996, 23: 1.935664, 24: 0.502794, 25: 3.471035, 26: 3.253986, 27: 0.969815, 28: 1.66019, 29: 1.188333, 30: 1.417165, 31: 1.276417, 32: 0.488554, 33: 0.316036, 34: 1.583682, 35: 2.308187, 36: 1.44047, 37: 1.732874, 38: 1.871797, 39: 0.470655, 40: 0.197842, 41: 1.043609, 42: 2.009994, 43: 3.279793, 44: 3.945733, 45: 1.061981, 46: 0.730263, 47: 0.257732, 48: 2.791651, 49: 0.281629, 50: 2.026457, 51: 2.831215, 52: 2.989896, 53: 1.518755, 54: 0.297967, 55: 0.654226, 56: 3.257672, 57: 0.770141, 58: 2.317205, 59: 2.581881, 60: 2.043987, 61: 3.207539, 62: 0.230287, 63: 0.873346, 64: 2.369782, 65: 0.311734, 66: 0.50776, 67: 0.643594, 68: 2.276506, 69: 2.554542, 70: 3.827691, 71: 2.850876, 72: 1.336147, 73: 3.553536, 74: 3.777768, 75: 0.682007, 76: 3.444894, 77: 0.91164, 78: 3.353904, 79: 3.111644, 80: 3.126595, 81: 2.505111, 82: 1.821316, 83: 0.813526, 84: 1.711374, 85: 0.182197, 86: 2.835442, 87: 1.630937, 88: 0.767182, 89: 0.968731, 90: 0.018725, 91: 1.811689, 92: 3.591002, 93: 0.697031, 94: 2.980841, 95: 0.720655];
charge = [0: 0.376622, 1: 0.975681, 2: 0.059316, 3: 0.372217, 4: 0.668284, 5: 0.499795, 6: 0.656604, 7: 0.915108, 8: 0.57347, 9: 0.350392, 10: 0.265779, 11: 0.367468, 12: 0.731065, 13: 0.089411, 14: 0.656643, 15: 0.754479, 16: 0.772694, 17: 0.982526, 18: 0.24627, 19: 0.670206, 20: 0.5527, 21: 0.31045, 22: 0.753081, 23: 0.5382169999999999, 24: 0.581142, 25: 0.463126, 26: 0.53943, 27: 0.253068, 28: 0.703722, 29: 0.9752960000000001, 30: 0.416136, 31: 0.86566, 32: 0.139069, 33: 0.151284, 34: 0.473448, 35: 0.614412, 36: 0.763961, 37: 0.544163, 38: 0.18435, 39: 0.358939, 40: 0.222546, 41: 0.335903, 42: 0.757812, 43: 0.248588, 44: 0.9749139999999999, 45: 0.00204, 46: 0.506395, 47: 0.21911, 48: 0.546951, 49: 0.06947299999999999, 50: 0.125768, 51: 0.574701, 52: 0.578784, 53: 0.8192469999999999, 54: 0.444626, 55: 0.528966, 56: 0.84917, 57: 0.078821, 58: 0.887831, 59: 0.149465, 60: 0.77758, 61: 0.616594, 62: 0.164506, 63: 0.7048990000000001, 64: 0.790472, 65: 0.334902, 66: 0.100674, 67: 0.334704, 68: 0.466798, 69: 0.254644, 70: 0.107011, 71: 0.7233270000000001, 72: 0.723778, 73: 0.541635, 74: 0.534054, 75: 0.080474, 76: 0.971519, 77: 0.147969, 78: 0.899571, 79: 0.075199, 80: 0.143044, 81: 0.168503, 82: 0.011041, 83: 0.22837, 84: 0.410367, 85: 0.242085, 86: 0.56585, 87: 0.897001, 88: 0.613541, 89: 0.275856, 90: 0.82916, 91: 0.268432, 92: 0.994922, 93: 0.099841, 94: 0.076096, 95: 0.219202];
discharge = [0: 0.175452, 1: 0.176336, 2: 0.997435, 3: 0.512409, 4: 0.6423179999999999, 5: 0.357268, 6: 0.5610270000000001, 7: 0.8628130000000001, 8: 0.118728, 9: 0.99402, 10: 0.283336, 11: 0.596577, 12: 0.56591, 13: 0.8012860000000001, 14: 0.466339, 15: 0.104976, 16: 0.475176, 17: 0.525159, 18: 0.224509, 19: 0.006248, 20: 0.369685, 21: 0.7062349999999999, 22: 0.71179, 23: 0.812252, 24: 0.30459, 25: 0.076582, 26: 0.641404, 27: 0.443006, 28: 0.424515, 29: 0.641482, 30: 0.8701989999999999, 31: 0.225689, 32: 0.380947, 33: 0.48681, 34: 0.028474, 35: 0.039471, 36: 0.669238, 37: 0.333795, 38: 0.471239, 39: 0.011436, 40: 0.179407, 41: 0.528778, 42: 0.848607, 43: 0.870491, 44: 0.619405, 45: 0.6727959999999999, 46: 0.794959, 47: 0.520037, 48: 0.646703, 49: 0.803401, 50: 0.292404, 51: 0.406218, 52: 0.426586, 53: 0.916438, 54: 0.130925, 55: 0.296562, 56: 0.839026, 57: 0.767199, 58: 0.281115, 59: 0.126675, 60: 0.845267, 61: 0.221241, 62: 0.795507, 63: 0.655401, 64: 0.688335, 65: 0.775134, 66: 0.425433, 67: 0.793629, 68: 0.885493, 69: 0.222001, 70: 0.16853, 71: 0.208354, 72: 0.293841, 73: 0.5576989999999999, 74: 0.165639, 75: 0.151117, 76: 0.805381, 77: 0.172064, 78: 0.15353, 79: 0.680455, 80: 0.676884, 81: 0.946556, 82: 0.786457, 83: 0.03698, 84: 0.517727, 85: 0.1848, 86: 0.462232, 87: 0.086231, 88: 0.346142, 89: 0.8094710000000001, 90: 0.229789, 91: 0.183982, 92: 0.154418, 93: 0.627528, 94: 0.714871, 95: 0.193712];
soc = [0: 8.356093, 1: 9.820099000000001, 2: 10.042851, 3: 8.573397999999999, 4: 4.747014, 5: 12.603164, 6: 13.978583, 7: 8.501813, 8: 5.558693, 9: 8.101048, 10: 7.361479, 11: 9.161713000000001, 12: 3.930982, 13: 2.89886, 14: 10.978751, 15: 4.638132, 16: 13.204613, 17: 12.771379, 18: 12.122873, 19: 13.304142, 20: 10.355965, 21: 8.229490999999999, 22: 9.357737999999999, 23: 6.607886, 24: 7.829477, 25: 13.429265, 26: 4.495205, 27: 10.008527, 28: 3.615321, 29: 7.769463, 30: 7.810432, 31: 14.854911, 32: 5.610879, 33: 8.279949999999999, 34: 2.709585, 35: 4.467807, 36: 3.709103, 37: 13.179698, 38: 13.607632, 39: 10.996144, 40: 14.891169, 41: 6.788827, 42: 14.629707, 43: 13.641247, 44: 14.995372, 45: 5.810297, 46: 10.439954, 47: 12.021703, 48: 6.354228, 49: 5.652584, 50: 10.234061, 51: 6.409892, 52: 14.388677, 53: 7.664546, 54: 10.512994, 55: 6.426933, 56: 10.702871, 57: 7.388991, 58: 9.870188000000001, 59: 3.889697, 60: 7.50901, 61: 15.276846, 62: 15.578317, 63: 6.484227, 64: 14.974259, 65: 7.573429, 66: 8.769898, 67: 4.054202, 68: 9.020455999999999, 69: 8.792434, 70: 3.225008, 71: 11.619565, 72: 4.565995, 73: 13.61633, 74: 12.40813, 75: 3.107133, 76: 13.100819, 77: 10.142321, 78: 5.486889, 79: 13.047264, 80: 11.408888, 81: 6.440347, 82: 14.341632, 83: 12.87578, 84: 4.010683, 85: 6.241055, 86: 4.351416, 87: 15.434918, 88: 9.390905, 89: 4.978227, 90: 13.519624, 91: 7.201651, 92: 8.887732, 93: 13.170979, 94: 7.308154, 95: 13.753713];
cost = [0: 401.907342, 1: 289.842003, 2: 279.8967, 3: 182.702404, 4: 255.724916, 5: 220.60847, 6: 160.784709, 7: 534.040359, 8: 252.558997, 9: 44.564143, 10: 410.454252, 11: 18.097566, 12: 204.731873, 13: 237.201154, 14: 421.922877, 15: 337.047083, 16: 195.133893, 17: 275.649612, 18: 254.023162, 19: 314.741671, 20: 464.321732, 21: 510.88136, 22: 354.076743, 23: 512.473114, 24: 1157.689547, 25: 695.761544, 26: 1101.354847, 27: 689.685788, 28: 876.559274, 29: 1097.670357, 30: 615.239136, 31: 547.102203, 32: 1127.300387, 33: 440.811478, 34: 901.210139, 35: 1000.317553, 36: 858.7655099999999, 37: 957.597713, 38: 804.142113, 39: 1092.026623, 40: 812.665699, 41: 643.529717, 42: 625.394748, 43: 287.465022, 44: 804.300516, 45: 336.926425, 46: 406.62105, 47: 215.982906, 48: 1042.356109, 49: 1050.810817, 50: 358.750198, 51: 1008.404894, 52: 96.963943, 53: 274.620487, 54: 557.917008, 55: 383.042305, 56: 369.747929, 57: 212.138657, 58: 248.071708, 59: 73.249162, 60: 775.094058, 61: 1120.378675, 62: 1028.748221, 63: 787.42591, 64: 43.636646, 65: 701.572908, 66: 91.404006, 67: 1100.888259, 68: 299.647698, 69: 716.405741, 70: 1063.215374, 71: 386.35029, 72: 958.305741, 73: 100.164695, 74: 349.275357, 75: 935.0814350000001, 76: 919.890698, 77: 324.863843, 78: 329.841741, 79: 1123.99303, 80: 450.929317, 81: 1076.912042, 82: 89.60566300000001, 83: 582.261698, 84: 765.884988, 85: 479.746337, 86: 92.19548, 87: 1046.226957, 88: 587.191897, 89: 5.659932, 90: 546.140022, 91: 325.465423, 92: 513.270653, 93: 491.258441, 94: 30.245412, 95: 490.23925];
earn = [0: 1.178238, 1: 0.759359, 2: 0.183601, 3: 0.529012, 4: 0.32501, 5: 0.862632, 6: 0.798596, 7: 1.484736, 8: 0.868873, 9: 1.362946, 10: 1.136203, 11: 0.147459, 12: 1.346717, 13: 1.087002, 14: 0.8758049999999999, 15: 1.484133, 16: 0.113275, 17: 0.743776, 18: 1.449649, 19: 0.449271, 20: 0.239252, 21: 0.942418, 22: 0.950802, 23: 1.499393, 24: 1.222279, 25: 1.216908, 26: 1.240696, 27: 1.591048, 28: 1.781696, 29: 2.428928, 30: 1.157681, 31: 1.698709, 32: 2.68819, 33: 1.883615, 34: 0.214758, 35: 2.028278, 36: 2.248092, 37: 2.362557, 38: 1.458179, 39: 0.211525, 40: 0.029602, 41: 0.862469, 42: 0.659239, 43: 1.04238, 44: 1.127962, 45: 0.763709, 46: 0.282977, 47: 0.471933, 48: 0.54245, 49: 0.283456, 50: 0.655271, 51: 1.152506, 52: 0.252221, 53: 0.767672, 54: 0.792063, 55: 0.885121, 56: 0.71186, 57: 0.119907, 58: 0.500626, 59: 0.574453, 60: 0.41159, 61: 0.029434, 62: 0.687348, 63: 1.33297, 64: 0.872781, 65: 1.174316, 66: 1.814656, 67: 2.04112, 68: 2.240029, 69: 1.74364, 70: 1.736969, 71: 1.378159, 72: 1.607676, 73: 3.228263, 74: 2.320051, 75: 1.424944, 76: 1.763497, 77: 3.889197, 78: 3.258853, 79: 1.387206, 80: 3.200041, 81: 1.587204, 82: 3.270755, 83: 1.49401, 84: 1.338997, 85: 2.449475, 86: 2.424867, 87: 2.634795, 88: 0.134047, 89: 2.027798, 90: 1.144798, 91: 2.023472, 92: 0.8309609999999999, 93: 1.847455, 94: 0.014606, 95: 1.507997];
total_cost = 43.7706520167177;
total_earn = 18.74905089890834;
