production = [0: 0.0, 1: 0.0, 2: 0.0, 3: 0.0, 4: 0.0, 5: 0.0, 6: 0.0, 7: 0.0, 8: 0.0, 9: 0.0, 10: 0.0, 11: 0.0, 12: 0.0, 13: 0.0, 14: 0.0, 15: 0.0, 16: 0.0, 17: 0.0, 18: 0.0, 19: 0.0, 20: 0.0, 21: 0.0, 22: 0.0, 23: 0.0, 24: 0.0, 25: 0.000246, 26: 0.006719, 27: 0.014624, 28: 0.033945, 29: 0.029617, 30: 0.06254899999999999, 31: 0.08286, 32: 0.04953, 33: 0.01055, 34: 0.291334, 35: 0.108092, 36: 0.361113, 37: 0.380597, 38: 0.542292, 39: 0.476669, 40: 0.49669, 41: 0.405542, 42: 0.192114, 43: 1.18679, 44: 0.177121, 45: 0.226141, 46: 1.208097, 47: 0.512365, 48: 0.097146, 49: 0.367671, 50: 0.774501, 51: 0.107131, 52: 0.061341, 53: 0.763494, 54: 0.449666, 55: 0.312839, 56: 0.415752, 57: 0.128909, 58: 0.061544, 59: 0.324515, 60: 0.475492, 61: 0.169986, 62: 0.273955, 63: 0.219708, 64: 0.036372, 65: 0.295791, 66: 0.363356, 67: 0.274278, 68: 0.202493, 69: 0.118382, 70: 0.07303800000000001, 71: 0.091946, 72: 0.065235, 73: 0.07759199999999999, 74: 0.005247, 75: 0.005435, 76: 4e-06, 77: 0.0006669999999999999, 78: 0.000169, 79: 0.0, 80: 0.0, 81: 0.0, 82: 0.0, 83: 0.0, 84: 0.0, 85: 0.0, 86: 0.0, 87: 0.0, 88: 0.0, 89: 0.0, 90: 0.0, 91: 0.0, 92: 0.0, 93: 0.0, 94: 0.0, 95: 0.0];
buy = [0: 322.529518, 1: 656.9564769999999, 2: 831.810393, 3: 609.2012120000001, 4: 310.955875, 5: 793.419273, 6: 679.082195, 7: 333.050206, 8: 29.72875, 9: 851.502598, 10: 332.132885, 11: 345.694712, 12: 730.886947, 13: 369.863743, 14: 668.297196, 15: 330.061532, 16: 856.2636639999999, 17: 139.720032, 18: 279.379236, 19: 487.940301, 20: 82.585882, 21: 290.569648, 22: 650.7046360000001, 23: 173.183479, 24: 932.435281, 25: 610.912013, 26: 612.156968, 27: 510.377633, 28: 120.773745, 29: 736.360636, 30: 329.878272, 31: 533.0356829999999, 32: 365.070452, 33: 116.231681, 34: 754.662943, 35: 130.169595, 36: 77.78614399999999, 37: 611.5653620000001, 38: 145.455631, 39: 254.578827, 40: 976.907934, 41: 974.617377, 42: 41.033897, 43: 507.234555, 44: 270.714648, 45: 359.942488, 46: 830.849346, 47: 818.228524, 48: 988.549589, 49: 558.532181, 50: 743.910884, 51: 212.822634, 52: 299.065214, 53: 968.240177, 54: 190.122081, 55: 228.230042, 56: 304.037914, 57: 180.205652, 58: 922.655637, 59: 413.674123, 60: 385.629818, 61: 546.6214660000001, 62: 2.437323, 63: 98.701668, 64: 917.7184569999999, 65: 579.805159, 66: 549.931685, 67: 432.320295, 68: 487.580535, 69: 227.800554, 70: 245.172611, 71: 765.8621460000001, 72: 224.850577, 73: 369.272257, 74: 190.271174, 75: 217.189744, 76: 558.247982, 77: 59.565273, 78: 803.719477, 79: 888.068405, 80: 152.613585, 81: 718.673153, 82: 531.142155, 83: 426.592997, 84: 751.6863520000001, 85: 517.739376, 86: 765.013368, 87: 966.879987, 88: 804.056154, 89: 283.381816, 90: 690.83602, 91: 99.929288, 92: 298.21662, 93: 28.131387, 94: 499.913429, 95: 378.813736];
sell = [0: 1.110896, 1: 3.999865, 2: 2.205397, 3: 0.246799, 4: 1.978714, 5: 0.463307, 6: 3.414095, 7: 2.380902, 8: 0.398634, 9: 3.766911, 10: 2.426327, 11: 0.711866, 12: 2.904998, 13: 0.060953, 14: 0.542637, 15: 3.071431, 16: 2.673561, 17: 1.884122, 18: 1.812646, 19: 3.88571, 20: 3.598812, 21: 3.136385, 22: 0.498621, 23: 2.299003, 24: 0.09514599999999999, 25: 3.172707, 26: 1.940778, 27: 2.729535, 28: 3.682049, 29: 2.527606, 30: 3.769044, 31: 2.615889, 32: 2.503242, 33: 3.896498, 34: 1.168229, 35: 0.396045, 36: 0.652119, 37: 0.6208669999999999, 38: 2.892581, 39: 2.374944, 40: 1.090185, 41: 3.434288, 42: 3.119022, 43: 2.679492, 44: 3.527729, 45: 2.213547, 46: 3.632333, 47: 3.231556, 48: 1.322415, 49: 0.147011, 50: 1.568396, 51: 1.067886, 52: 0.918506, 53: 0.56654, 54: 3.766037, 55: 0.739819, 56: 2.558311, 57: 3.46303, 58: 1.04093, 59: 1.504528, 60: 2.655083, 61: 2.876745, 62: 0.9795199999999999, 63: 1.276611, 64: 0.989843, 65: 2.785878, 66: 0.937649, 67: 2.868405, 68: 3.301628, 69: 3.14747, 70: 3.380977, 71: 0.684182, 72: 0.685095, 73: 3.32347, 74: 0.001585, 75: 1.418796, 76: 2.709219, 77: 2.598601, 78: 0.323167, 79: 1.185141, 80: 3.165953, 81: 0.43767, 82: 2.597823, 83: 0.026227, 84: 3.163751, 85: 1.47148, 86: 0.650255, 87: 2.846864, 88: 2.935672, 89: 2.233207, 90: 1.494082, 91: 1.620444, 92: 0.751463, 93: 1.707318, 94: 2.438144, 95: 1.990425];
charge = [0: 0.4006, 1: 0.598535, 2: 0.549807, 3: 0.730643, 4: 0.80589, 5: 0.985496, 6: 0.339763, 7: 0.28351, 8: 0.106329, 9: 0.09368600000000001, 10: 0.7160879999999999, 11: 0.229323, 12: 0.519974, 13: 0.033199, 14: 0.129665, 15: 0.809293, 16: 0.417497, 17: 0.430472, 18: 0.562889, 19: 0.273636, 20: 0.913775, 21: 0.315966, 22: 0.439246, 23: 0.158921, 24: 0.195886, 25: 0.179028, 26: 0.396651, 27: 0.127374, 28: 0.449697, 29: 0.153887, 30: 0.103746, 31: 0.863501, 32: 0.6303299999999999, 33: 0.867966, 34: 0.428192, 35: 0.089198, 36: 0.230594, 37: 0.574543, 38: 0.659614, 39: 0.263702, 40: 0.566299, 41: 0.871005, 42: 0.466404, 43: 0.666056, 44: 0.064039, 45: 0.7869119999999999, 46: 0.994352, 47: 0.93005, 48: 0.956145, 49: 0.241276, 50: 0.300741, 51: 0.61128, 52: 0.057611, 53: 0.915613, 54: 0.492987, 55: 0.620359, 56: 0.175263, 57: 0.438122, 58: 0.886941, 59: 0.87097, 60: 0.390316, 61: 0.653922, 62: 0.298211, 63: 0.169334, 64: 0.725626, 65: 0.012064, 66: 0.627694, 67: 0.250212, 68: 0.164876, 69: 0.790341, 70: 0.811064, 71: 0.40281, 72: 0.305499, 73: 0.774468, 74: 0.250688, 75: 0.354737, 76: 0.018799, 77: 0.044158, 78: 0.305433, 79: 0.179653, 80: 0.13023, 81: 0.341113, 82: 0.56911, 83: 0.652241, 84: 0.596886, 85: 0.519209, 86: 0.200757, 87: 0.081694, 88: 0.893154, 89: 0.892088, 90: 0.413195, 91: 0.663568, 92: 0.904212, 93: 0.252298, 94: 0.724214, 95: 0.394565];
discharge = [0: 0.116519, 1: 0.038475, 2: 0.820761, 3: 0.607007, 4: 0.285072, 5: 0.896914, 6: 0.20098, 7: 0.262284, 8: 0.051882, 9: 0.758034, 10: 0.9128270000000001, 11: 0.9294790000000001, 12: 0.675424, 13: 0.8895459999999999, 14: 0.004683, 15: 0.650311, 16: 0.931745, 17: 0.586331, 18: 0.216425, 19: 0.9922530000000001, 20: 0.561678, 21: 0.507291, 22: 0.500049, 23: 0.596653, 24: 0.575512, 25: 0.992383, 26: 0.043506, 27: 0.319138, 28: 0.826034, 29: 0.493129, 30: 0.637787, 31: 0.850586, 32: 0.583157, 33: 0.492312, 34: 0.347233, 35: 0.340568, 36: 0.8144749999999999, 37: 0.282806, 38: 0.499371, 39: 0.11369, 40: 0.376494, 41: 0.989063, 42: 0.8718630000000001, 43: 0.324106, 44: 0.439838, 45: 0.141908, 46: 0.59409, 47: 0.905536, 48: 0.547119, 49: 0.227083, 50: 0.09855999999999999, 51: 0.481722, 52: 0.907216, 53: 0.5023879999999999, 54: 0.604087, 55: 0.146915, 56: 0.711189, 57: 0.6468699999999999, 58: 0.065135, 59: 0.407601, 60: 0.804728, 61: 0.286067, 62: 0.5971919999999999, 63: 0.573894, 64: 0.408351, 65: 0.622023, 66: 0.172943, 67: 0.7692639999999999, 68: 0.555418, 69: 0.850417, 70: 0.978531, 71: 0.349692, 72: 0.600404, 73: 0.525392, 74: 0.901033, 75: 0.084593, 76: 0.457747, 77: 0.061058, 78: 0.172265, 79: 0.664381, 80: 0.878405, 81: 0.23603, 82: 0.498809, 83: 0.312027, 84: 0.271442, 85: 0.064983, 86: 0.285748, 87: 0.331916, 88: 0.16156, 89: 0.701029, 90: 0.157176, 91: 0.083074, 92: 0.993254, 93: 0.088071, 94: 0.07920099999999999, 95: 0.370814];
soc = [0: 8.579758999999999, 1: 8.765946, 2: 9.508115999999999, 3: 6.725143, 4: 11.991628, 5: 3.388254, 6: 12.358475, 7: 13.216067, 8: 12.231085, 9: 10.54504, 10: 4.683317, 11: 6.108207, 12: 14.640779, 13: 5.082114, 14: 5.863305, 15: 8.99883, 16: 8.32236, 17: 10.693288, 18: 14.345889, 19: 15.435716, 20: 9.159345, 21: 6.045122, 22: 9.984954, 23: 8.752287000000001, 24: 8.119716, 25: 9.65119, 26: 10.898719, 27: 2.773363, 28: 15.594398, 29: 9.280455, 30: 8.558401999999999, 31: 10.00153, 32: 3.156505, 33: 5.172615, 34: 7.298628, 35: 4.147524, 36: 7.324234, 37: 4.783563, 38: 14.304532, 39: 15.045059, 40: 15.0327, 41: 10.799257, 42: 8.406354, 43: 3.400413, 44: 7.710582, 45: 8.867768, 46: 3.627732, 47: 11.670354, 48: 8.554372000000001, 49: 10.038842, 50: 7.742863, 51: 11.400602, 52: 12.2226, 53: 4.09352, 54: 11.926527, 55: 9.614046999999999, 56: 14.917304, 57: 11.505991, 58: 9.442468, 59: 9.783607999999999, 60: 12.296503, 61: 13.900527, 62: 13.133861, 63: 14.142584, 64: 14.934826, 65: 4.389713, 66: 11.35964, 67: 3.277385, 68: 11.69818, 69: 15.135638, 70: 13.346802, 71: 11.766086, 72: 8.299988000000001, 73: 14.009303, 74: 9.496525, 75: 3.314102, 76: 3.782224, 77: 6.17555, 78: 14.418083, 79: 8.913193, 80: 15.089194, 81: 12.9821, 82: 14.963759, 83: 7.235371, 84: 11.837589, 85: 13.912172, 86: 5.198005, 87: 3.59767, 88: 7.348117, 89: 13.807201, 90: 12.259264, 91: 6.670902, 92: 7.963028, 93: 15.15685, 94: 11.364659, 95: 13.47365];
cost = [0: 318.825507, 1: 265.594834, 2: 0.853741, 3: 185.116759, 4: 88.16950199999999, 5: 129.155949, 6: 270.525957, 7: 36.202466, 8: 262.816736, 9: 347.11429, 10: 263.1413, 11: 442.978454, 12: 530.576247, 13: 8.522997, 14: 240.986292, 15: 581.906147, 16: 590.6724819999999, 17: 529.768541, 18: 125.254665, 19: 533.548399, 20: 442.879742, 21: 98.87262200000001, 22: 407.500098, 23: 20.915115, 24: 327.151005, 25: 972.44868, 26: 1063.872373, 27: 125.37542, 28: 798.594408, 29: 111.781935, 30: 1130.876896, 31: 910.005031, 32: 75.492499, 33: 1079.99573, 34: 531.493381, 35: 487.129601, 36: 417.544398, 37: 1111.048268, 38: 785.358999, 39: 405.059473, 40: 311.429924, 41: 386.31853, 42: 1046.379158, 43: 605.517955, 44: 1137.773616, 45: 919.875508, 46: 187.548844, 47: 340.648495, 48: 1032.09282, 49: 297.217535, 50: 538.889458, 51: 300.530115, 52: 412.098842, 53: 552.125643, 54: 266.625148, 55: 472.957494, 56: 52.797211, 57: 525.927407, 58: 303.890458, 59: 525.5459499999999, 60: 171.143704, 61: 723.746312, 62: 926.724224, 63: 86.311206, 64: 739.618399, 65: 629.02685, 66: 267.348409, 67: 1080.406249, 68: 1103.216555, 69: 37.093704, 70: 892.302985, 71: 847.3779950000001, 72: 855.833429, 73: 811.086828, 74: 341.267533, 75: 1041.38454, 76: 5.127057, 77: 1060.974332, 78: 8.154794000000001, 79: 964.13569, 80: 5.856384, 81: 364.567638, 82: 138.480393, 83: 979.863432, 84: 939.257077, 85: 583.567285, 86: 863.866059, 87: 539.900848, 88: 484.308683, 89: 190.92796, 90: 157.830833, 91: 107.044408, 92: 231.533895, 93: 331.360609, 94: 130.542666, 95: 378.398427];
earn = [0: 1.214442, 1: 1.592446, 2: 1.642849, 3: 0.870789, 4: 0.599037, 5: 0.565176, 6: 0.356337, 7: 0.931611, 8: 1.562163, 9: 1.338209, 10: 0.495439, 11: 1.053788, 12: 0.318384, 13: 1.294543, 14: 0.086171, 15: 1.175518, 16: 0.659443, 17: 1.517547, 18: 0.74469, 19: 1.137682, 20: 0.231097, 21: 1.505989, 22: 1.213642, 23: 1.987778, 24: 0.711831, 25: 1.286269, 26: 1.212659, 27: 3.071933, 28: 0.667771, 29: 0.232207, 30: 2.532064, 31: 0.80588, 32: 0.580512, 33: 0.714656, 34: 1.787859, 35: 0.481968, 36: 2.113287, 37: 1.03622, 38: 1.683484, 39: 0.528443, 40: 0.012131, 41: 0.9797360000000001, 42: 1.713064, 43: 1.220348, 44: 0.824647, 45: 0.585857, 46: 0.950152, 47: 0.051513, 48: 0.062414, 49: 1.011571, 50: 0.090556, 51: 0.173585, 52: 0.048094, 53: 0.951155, 54: 1.497745, 55: 0.418269, 56: 0.922478, 57: 0.298004, 58: 0.415084, 59: 1.078207, 60: 0.964588, 61: 0.742349, 62: 1.939362, 63: 1.642547, 64: 1.679754, 65: 0.278494, 66: 0.60373, 67: 0.031631, 68: 1.059392, 69: 1.738542, 70: 0.726445, 71: 0.621353, 72: 0.511992, 73: 1.547209, 74: 0.61003, 75: 1.503314, 76: 2.776377, 77: 2.258721, 78: 2.391088, 79: 1.70218, 80: 3.501959, 81: 2.211789, 82: 2.21288, 83: 2.083082, 84: 1.561011, 85: 0.776562, 86: 0.696423, 87: 1.795675, 88: 1.095299, 89: 0.087909, 90: 0.590738, 91: 2.258542, 92: 0.365113, 93: 1.480923, 94: 2.193168, 95: 0.044186];
total_cost = 50.90769738356251;
total_earn = 16.28797973253832;
