production = [0: 0.0, 1: 0.0, 2: 0.0, 3: 0.0, 4: 0.0, 5: 0.0, 6: 0.0, 7: 0.0, 8: 0.0, 9: 0.0, 10: 0.0, 11: 0.0, 12: 0.0, 13: 0.0, 14: 0.0, 15: 0.0, 16: 0.0, 17: 0.0, 18: 0.0, 19: 0.0, 20: 0.0, 21: 0.0, 22: 0.0, 23: 0.0, 24: 0.0, 25: 8.899999999999999e-05, 26: 0.001066, 27: 0.022756, 28: 0.038033, 29: 0.011303, 30: 0.048333, 31: 0.005781, 32: 0.155261, 33: 0.277879, 34: 0.064759, 35: 0.062171, 36: 0.127227, 37: 0.38924, 38: 0.09056400000000001, 39: 0.0682, 40: 0.088658, 41: 0.5767679999999999, 42: 0.84102, 43: 0.062971, 44: 1.016862, 45: 0.27356, 46: 0.859654, 47: 0.681572, 48: 0.049382, 49: 0.386476, 50: 0.613751, 51: 0.689817, 52: 0.308698, 53: 0.324661, 54: 0.095413, 55: 0.016292, 56: 0.384035, 57: 0.043601, 58: 2.219518, 59: 0.304131, 60: 0.181169, 61: 0.161447, 62: 0.288336, 63: 0.069635, 64: 0.195958, 65: 0.144372, 66: 0.198648, 67: 0.158167, 68: 0.0689, 69: 0.194986, 70: 0.047315, 71: 0.117697, 72: 0.077122, 73: 0.07162399999999999, 74: 0.000995, 75: 0.001706, 76: 0.0006400000000000001, 77: 0.000586, 78: 5.1e-05, 79: 0.0, 80: 0.0, 81: 0.0, 82: 0.0, 83: 0.0, 84: 0.0, 85: 0.0, 86: 0.0, 87: 0.0, 88: 0.0, 89: 0.0, 90: 0.0, 91: 0.0, 92: 0.0, 93: 0.0, 94: 0.0, 95: 0.0];
buy = [0: 48.827464, 1: 175.820715, 2: 351.354072, 3: 537.3842519999999, 4: 340.414807, 5: 121.909971, 6: 255.715895, 7: 189.311466, 8: 908.029466, 9: 332.460105, 10: 688.227786, 11: 379.453644, 12: 799.777458, 13: 891.2654659999999, 14: 946.857726, 15: 36.537212, 16: 598.453131, 17: 322.255178, 18: 501.470427, 19: 418.70703, 20: 413.365768, 21: 284.412694, 22: 912.375778, 23: 516.255255, 24: 462.589302, 25: 760.34876, 26: 427.156365, 27: 605.268048, 28: 808.144234, 29: 273.734816, 30: 673.096312, 31: 806.726171, 32: 544.5955709999999, 33: 712.537806, 34: 585.431542, 35: 110.498465, 36: 899.811427, 37: 920.22916, 38: 482.378233, 39: 430.773842, 40: 110.588665, 41: 157.539111, 42: 989.384401, 43: 18.017527, 44: 925.353479, 45: 688.171502, 46: 188.609968, 47: 914.161522, 48: 465.670654, 49: 368.101395, 50: 637.737738, 51: 76.342491, 52: 284.280626, 53: 126.472635, 54: 687.5661720000001, 55: 394.208394, 56: 801.389537, 57: 429.051298, 58: 112.178331, 59: 182.696474, 60: 137.596376, 61: 577.917967, 62: 675.306473, 63: 297.10076, 64: 650.201443, 65: 808.288579, 66: 289.048189, 67: 833.8464760000001, 68: 872.5515810000001, 69: 433.859029, 70: 248.576254, 71: 634.60357, 72: 38.146605, 73: 326.400786, 74: 388.101495, 75: 948.465645, 76: 198.542995, 77: 802.073545, 78: 788.595085, 79: 120.221259, 80: 510.647267, 81: 285.868683, 82: 700.422703, 83: 918.6852720000001, 84: 32.859793, 85: 352.579838, 86: 756.359416, 87: 683.022028, 88: 298.755424, 89: 589.416871, 90: 755.603586, 91: 402.698016, 92: 135.227821, 93: 283.389106, 94: 561.801387, 95: 118.703165];
sell = [0: 2.134177, 1: 3.023503, 2: 1.137994, 3: 3.677899, 4: 3.353157, 5: 2.918239, 6: 2.377356, 7: 1.544947, 8: 2.31595, 9: 3.193265, 10: 2.461999, 11: 1.167182, 12: 3.037762, 13: 3.961064, 14: 1.585256, 15: 1.618549, 16: 0.442506, 17: 3.967015, 18: 2.20318, 19: 2.931658, 20: 2.936613, 21: 0.467305, 22: 0.314518, 23: 1.975404, 24: 0.91167, 25: 1.466689, 26: 3.878099, 27: 0.105402, 28: 1.588546, 29: 3.335478, 30: 0.5070210000000001, 31: 3.291312, 32: 3.132064, 33: 1.689176, 34: 1.735904, 35: 1.839918, 36: 2.753709, 37: 2.254112, 38: 3.24355, 39: 3.382107, 40: 1.198419, 41: 2.53314, 42: 0.553018, 43: 0.364813, 44: 2.702213, 45: 3.528732, 46: 2.097536, 47: 1.853632, 48: 0.715622, 49: 1.764723, 50: 3.904735, 51: 0.939567, 52: 1.401254, 53: 2.719372, 54: 0.583639, 55: 3.846793, 56: 1.165283, 57: 1.47315, 58: 3.966392, 59: 3.080142, 60: 2.42959, 61: 0.450746, 62: 3.333351, 63: 3.946608, 64: 0.847413, 65: 2.706614, 66: 3.952537, 67: 0.551548, 68: 1.827484, 69: 2.574353, 70: 1.92905, 71: 0.369887, 72: 2.028289, 73: 3.209607, 74: 0.09886300000000001, 75: 0.25853, 76: 3.665122, 77: 3.132206, 78: 1.380404, 79: 0.437519, 80: 0.9534589999999999, 81: 0.596127, 82: 3.181272, 83: 1.042631, 84: 0.340529, 85: 0.784073, 86: 0.983312, 87: 0.536, 88: 0.33805, 89: 0.505158, 90: 2.83545, 91: 1.10705, 92: 2.092949, 93: 1.301485, 94: 2.132239, 95: 2.300261];
charge = [0: 0.510505, 1: 0.234815, 2: 0.230946, 3: 0.8860789999999999, 4: 0.132403, 5: 0.979239, 6: 0.903428, 7: 0.647203, 8: 0.782371, 9: 0.170965, 10: 0.914563, 11: 0.79765, 12: 0.960839, 13: 0.798863, 14: 0.519571, 15: 0.614243, 16: 0.700468, 17: 0.806257, 18: 0.161041, 19: 0.760331, 20: 0.492377, 21: 0.345094, 22: 0.8812, 23: 0.119396, 24: 0.168257, 25: 0.185219, 26: 0.55912, 27: 0.383106, 28: 0.618596, 29: 0.35979, 30: 0.230425, 31: 0.939039, 32: 0.239049, 33: 0.511501, 34: 0.645556, 35: 0.894366, 36: 0.927644, 37: 0.5258, 38: 0.655072, 39: 0.042438, 40: 0.44099, 41: 0.6297970000000001, 42: 0.461486, 43: 0.476716, 44: 0.134943, 45: 0.299555, 46: 0.771979, 47: 0.823172, 48: 0.409711, 49: 0.331961, 50: 0.8300920000000001, 51: 0.338063, 52: 0.730868, 53: 0.903957, 54: 0.835019, 55: 0.623897, 56: 0.658234, 57: 0.259954, 58: 0.409549, 59: 0.996111, 60: 0.87273, 61: 0.07731200000000001, 62: 0.616347, 63: 0.777734, 64: 0.805433, 65: 0.138387, 66: 0.62232, 67: 0.207606, 68: 0.867721, 69: 0.635714, 70: 0.297036, 71: 0.248557, 72: 0.566569, 73: 0.460308, 74: 0.020868, 75: 0.140467, 76: 0.206801, 77: 0.199963, 78: 0.191524, 79: 0.969396, 80: 0.856495, 81: 0.442239, 82: 0.74585, 83: 0.801051, 84: 0.042581, 85: 0.995152, 86: 0.778881, 87: 0.04425, 88: 0.6645489999999999, 89: 0.630558, 90: 0.584571, 91: 0.494908, 92: 0.27263, 93: 0.213956, 94: 0.608602, 95: 0.599093];
discharge = [0: 0.279486, 1: 0.954694, 2: 0.273058, 3: 0.438805, 4: 0.756226, 5: 0.694065, 6: 0.29663, 7: 0.606565, 8: 0.223459, 9: 0.549258, 10: 0.761312, 11: 0.262004, 12: 0.625514, 13: 0.912075, 14: 0.005118, 15: 0.003316, 16: 0.097001, 17: 0.471565, 18: 0.371815, 19: 0.220576, 20: 0.626909, 21: 0.253137, 22: 0.094884, 23: 0.85715, 24: 0.986949, 25: 0.591606, 26: 0.775863, 27: 0.815223, 28: 0.315752, 29: 0.352245, 30: 0.268409, 31: 0.281237, 32: 0.302529, 33: 0.847043, 34: 0.339693, 35: 0.016224, 36: 0.311068, 37: 0.665674, 38: 0.906376, 39: 0.31056, 40: 0.209706, 41: 0.020152, 42: 0.726232, 43: 0.210149, 44: 0.557634, 45: 0.78299, 46: 0.144758, 47: 0.5575639999999999, 48: 0.886792, 49: 0.570132, 50: 0.130195, 51: 0.159607, 52: 0.162655, 53: 0.48812, 54: 0.08978999999999999, 55: 0.132936, 56: 0.059068, 57: 0.570308, 58: 0.56556, 59: 0.460103, 60: 0.585862, 61: 0.506821, 62: 0.809346, 63: 0.843123, 64: 0.810338, 65: 0.185853, 66: 0.03836, 67: 0.64854, 68: 0.149041, 69: 0.790483, 70: 0.77092, 71: 0.327268, 72: 0.832145, 73: 0.9332859999999999, 74: 0.68218, 75: 0.934181, 76: 0.633884, 77: 0.267485, 78: 0.698998, 79: 0.26543, 80: 0.387094, 81: 0.017855, 82: 0.09574100000000001, 83: 0.098596, 84: 0.583602, 85: 0.099856, 86: 0.515164, 87: 0.501281, 88: 0.351892, 89: 0.041913, 90: 0.661585, 91: 0.828755, 92: 0.102305, 93: 0.837328, 94: 0.867794, 95: 0.702023];
soc = [0: 9.190875, 1: 9.559094999999999, 2: 5.98955, 3: 6.039385, 4: 6.119142, 5: 12.42835, 6: 8.518348, 7: 13.382498, 8: 6.098916, 9: 8.720765999999999, 10: 3.130734, 11: 7.514941, 12: 15.357154, 13: 12.471352, 14: 11.67256, 15: 5.275085, 16: 13.811476, 17: 8.649697, 18: 7.72725, 19: 5.798935, 20: 14.172084, 21: 4.388837, 22: 14.009962, 23: 13.107817, 24: 10.874441, 25: 4.211642, 26: 13.217839, 27: 7.049825, 28: 12.116649, 29: 3.795763, 30: 5.177447, 31: 2.862248, 32: 3.570604, 33: 10.674759, 34: 11.09256, 35: 4.288081, 36: 6.651477, 37: 9.608606, 38: 9.102999000000001, 39: 15.085897, 40: 6.825685, 41: 4.673939, 42: 7.030436, 43: 9.357915999999999, 44: 4.392554, 45: 10.738499, 46: 7.96429, 47: 6.563753, 48: 8.655837999999999, 49: 10.449768, 50: 14.764459, 51: 15.557385, 52: 4.934066, 53: 6.404255, 54: 3.055246, 55: 3.936033, 56: 2.708809, 57: 4.554122, 58: 10.443803, 59: 7.122678, 60: 15.479608, 61: 3.169006, 62: 13.773846, 63: 5.152913, 64: 5.884018, 65: 4.351769, 66: 8.939095999999999, 67: 12.121277, 68: 14.679694, 69: 3.28548, 70: 15.603451, 71: 10.055315, 72: 15.046372, 73: 9.093138, 74: 9.058209, 75: 2.753327, 76: 12.395497, 77: 5.643249, 78: 10.624535, 79: 10.649604, 80: 8.597439, 81: 6.656409, 82: 12.970533, 83: 4.748135, 84: 10.330955, 85: 10.851737, 86: 10.420785, 87: 3.477422, 88: 10.324726, 89: 8.115470999999999, 90: 12.324372, 91: 7.84979, 92: 5.374872, 93: 10.069264, 94: 6.767867, 95: 13.846616];
cost = [0: 169.34119, 1: 377.297679, 2: 358.136931, 3: 313.544062, 4: 219.812634, 5: 78.197559, 6: 326.418793, 7: 297.787787, 8: 458.352028, 9: 559.783421, 10: 8.236941, 11: 383.539007, 12: 468.816629, 13: 524.148097, 14: 325.526865, 15: 261.545902, 16: 502.985491, 17: 544.081623, 18: 228.373092, 19: 59.973476, 20: 285.073949, 21: 70.569216, 22: 449.852188, 23: 474.332331, 24: 1098.143956, 25: 39.487796, 26: 1126.739646, 27: 1096.730395, 28: 57.365802, 29: 602.196372, 30: 711.9484169999999, 31: 559.179402, 32: 847.8716020000001, 33: 1180.280952, 34: 587.913196, 35: 957.126789, 36: 963.2190450000001, 37: 818.15801, 38: 1130.267229, 39: 1069.804215, 40: 437.092672, 41: 62.264906, 42: 714.887564, 43: 965.335033, 44: 404.309556, 45: 520.113056, 46: 1057.778256, 47: 1072.831695, 48: 238.123405, 49: 808.46313, 50: 573.222988, 51: 624.140368, 52: 205.576012, 53: 65.47053200000001, 54: 355.735628, 55: 2.832956, 56: 123.945896, 57: 376.953483, 58: 164.97934, 59: 311.705141, 60: 30.34544, 61: 211.094251, 62: 233.960497, 63: 1078.728889, 64: 358.391108, 65: 456.214654, 66: 551.8199980000001, 67: 849.073042, 68: 435.221008, 69: 697.805985, 70: 39.869321, 71: 541.1691520000001, 72: 461.678752, 73: 1001.206746, 74: 1043.249926, 75: 181.848314, 76: 584.866003, 77: 566.059446, 78: 215.120405, 79: 333.177514, 80: 923.270474, 81: 841.299967, 82: 586.114867, 83: 1047.365856, 84: 264.360352, 85: 76.07838599999999, 86: 877.941412, 87: 1010.829999, 88: 232.561014, 89: 223.927481, 90: 144.549495, 91: 451.742846, 92: 153.404169, 93: 438.272264, 94: 296.0874, 95: 452.282802];
earn = [0: 0.293775, 1: 0.18132, 2: 1.748583, 3: 0.122304, 4: 0.112547, 5: 0.424257, 6: 0.694905, 7: 1.313533, 8: 0.805362, 9: 0.413909, 10: 1.227407, 11: 0.70692, 12: 0.182667, 13: 1.332376, 14: 1.026253, 15: 0.289334, 16: 0.862168, 17: 1.585874, 18: 1.631727, 19: 1.709103, 20: 0.653345, 21: 1.334498, 22: 0.421916, 23: 1.20889, 24: 1.581374, 25: 0.233545, 26: 2.528789, 27: 2.221962, 28: 1.418841, 29: 0.328009, 30: 2.199165, 31: 0.003716, 32: 2.801299, 33: 2.187154, 34: 0.206876, 35: 1.685369, 36: 2.119033, 37: 0.074083, 38: 1.135696, 39: 1.668553, 40: 1.731613, 41: 0.17229, 42: 0.939813, 43: 0.650881, 44: 1.573442, 45: 0.568221, 46: 1.047143, 47: 0.863617, 48: 0.143556, 49: 0.77145, 50: 0.61165, 51: 0.706821, 52: 1.280016, 53: 1.209027, 54: 0.205759, 55: 0.365867, 56: 0.260876, 57: 1.080477, 58: 1.294785, 59: 1.754827, 60: 0.80023, 61: 0.229242, 62: 0.851677, 63: 0.582589, 64: 1.902546, 65: 0.578882, 66: 1.856029, 67: 0.481616, 68: 2.366073, 69: 2.128912, 70: 1.414828, 71: 2.673807, 72: 0.889096, 73: 0.76824, 74: 1.090265, 75: 3.092636, 76: 0.641324, 77: 3.261577, 78: 1.797038, 79: 2.720934, 80: 1.291448, 81: 2.692955, 82: 1.275307, 83: 0.258471, 84: 1.981981, 85: 1.251505, 86: 0.195167, 87: 0.242603, 88: 1.367718, 89: 1.45507, 90: 0.346475, 91: 1.258497, 92: 1.394094, 93: 1.460119, 94: 0.107176, 95: 2.075837];
total_cost = 50.90769738356251;
total_earn = 16.28797973253832;
