production = [0: 0.0, 1: 0.0, 2: 0.0, 3: 0.0, 4: 0.0, 5: 0.0, 6: 0.0, 7: 0.0, 8: 0.0, 9: 0.0, 10: 0.0, 11: 0.0, 12: 0.0, 13: 0.0, 14: 0.0, 15: 0.0, 16: 0.0, 17: 0.0, 18: 0.0, 19: 0.0, 20: 0.0, 21: 0.0, 22: 0.0, 23: 0.0, 24: 0.0, 25: 0.000181, 26: 0.001844, 27: 0.024476, 28: 0.03992, 29: 0.02638, 30: 0.039137, 31: 0.029919, 32: 0.184247, 33: 0.053544, 34: 0.278467, 35: 0.027558, 36: 0.005256, 37: 0.016757, 38: 0.123774, 39: 0.014859, 40: 0.005137, 41: 0.480938, 42: 0.041297, 43: 0.917806, 44: 0.763599, 45: 0.370729, 46: 0.601353, 47: 0.573948, 48: 0.07313500000000001, 49: 0.09392300000000001, 50: 0.873514, 51: 0.760764, 52: 0.353381, 53: 0.083438, 54: 0.313018, 55: 0.486322, 56: 0.5700769999999999, 57: 0.554783, 58: 0.307013, 59: 0.123964, 60: 0.148985, 61: 0.049654, 62: 0.1196, 63: 0.305714, 64: 0.123239, 65: 0.279774, 66: 0.022679, 67: 0.334567, 68: 0.055427, 69: 0.167415, 70: 0.14434, 71: 0.010688, 72: 0.087975, 73: 0.027571, 74: 0.015271, 75: 0.000879, 76: 0.001482, 77: 0.001058, 78: 0.00034, 79: 0.0, 80: 0.0, 81: 0.0, 82: 0.0, 83: 0.0, 84: 0.0, 85: 0.0, 86: 0.0, 87: 0.0, 88: 0.0, 89: 0.0, 90: 0.0, 91: 0.0, 92: 0.0, 93: 0.0, 94: 0.0, 95: 0.0];
buy = [0: 11.250141, 1: 635.406509, 2: 418.388295, 3: 189.63426, 4: 578.922876, 5: 575.68304, 6: 712.024243, 7: 132.222782, 8: 951.753889, 9: 495.841135, 10: 787.257823, 11: 668.125223, 12: 317.992029, 13: 800.588714, 14: 149.200782, 15: 59.692652, 16: 907.331455, 17: 274.779195, 18: 256.196959, 19: 259.120315, 20: 623.553704, 21: 399.153117, 22: 582.23194, 23: 623.287632, 24: 351.603535, 25: 998.981671, 26: 594.014639, 27: 62.350694, 28: 424.519963, 29: 414.890233, 30: 946.656493, 31: 955.308713, 32: 579.978367, 33: 613.231593, 34: 121.878964, 35: 32.659647, 36: 243.220928, 37: 826.3574170000001, 38: 329.762951, 39: 276.639814, 40: 73.17981, 41: 461.207787, 42: 822.374048, 43: 356.593995, 44: 508.501284, 45: 820.593474, 46: 121.826073, 47: 902.989318, 48: 753.160046, 49: 331.262456, 50: 659.247663, 51: 674.164327, 52: 32.815644, 53: 645.040301, 54: 469.41682, 55: 886.253691, 56: 589.823402, 57: 867.997524, 58: 761.996345, 59: 664.818901, 60: 826.6868040000001, 61: 409.553965, 62: 117.61815, 63: 207.777991, 64: 528.9008689999999, 65: 218.17949, 66: 894.377476, 67: 141.757395, 68: 382.99365, 69: 170.578837, 70: 332.917282, 71: 696.990775, 72: 412.985446, 73: 536.060422, 74: 81.53460200000001, 75: 604.344867, 76: 623.900269, 77: 301.686959, 78: 678.32124, 79: 991.7306170000001, 80: 811.567554, 81: 575.266238, 82: 894.223163, 83: 970.95989, 84: 290.734663, 85: 8.829090000000001, 86: 464.451949, 87: 280.524831, 88: 696.921461, 89: 523.333027, 90: 930.434806, 91: 172.406907, 92: 958.494421, 93: 499.426966, 94: 813.201095, 95: 593.856477];
sell = [0: 0.981688, 1: 3.909323, 2: 3.949771, 3: 1.533619, 4: 0.286892, 5: 3.81803, 6: 2.970703, 7: 1.080026, 8: 0.820271, 9: 0.563077, 10: 0.189335, 11: 0.367298, 12: 3.038322, 13: 1.620744, 14: 2.495865, 15: 2.430779, 16: 1.775302, 17: 0.792431, 18: 0.84823, 19: 0.545774, 20: 3.71791, 21: 0.64041, 22: 0.884711, 23: 2.390838, 24: 1.264269, 25: 2.579381, 26: 3.737805, 27: 1.420446, 28: 0.317032, 29: 2.766957, 30: 2.699011, 31: 2.894156, 32: 0.848738, 33: 2.637438, 34: 2.293057, 35: 1.743117, 36: 0.710422, 37: 3.326303, 38: 0.043993, 39: 1.317193, 40: 1.08821, 41: 2.586085, 42: 1.641513, 43: 3.731622, 44: 1.595154, 45: 3.348156, 46: 3.403889, 47: 2.919164, 48: 0.8780520000000001, 49: 1.576048, 50: 2.113301, 51: 3.951089, 52: 1.741674, 53: 3.866626, 54: 3.702927, 55: 3.367414, 56: 0.499395, 57: 3.961588, 58: 2.981415, 59: 1.862799, 60: 2.133655, 61: 2.365715, 62: 3.871814, 63: 0.542277, 64: 1.175181, 65: 3.118011, 66: 3.293293, 67: 0.428951, 68: 3.072947, 69: 0.38008, 70: 1.649843, 71: 3.695018, 72: 3.986391, 73: 3.828375, 74: 0.800099, 75: 2.827777, 76: 1.514827, 77: 3.830788, 78: 3.128591, 79: 2.18278, 80: 2.159944, 81: 1.431693, 82: 2.648026, 83: 3.011452, 84: 1.557762, 85: 0.00309, 86: 0.480933, 87: 1.553406, 88: 2.100237, 89: 1.376369, 90: 0.271961, 91: 3.117244, 92: 2.601648, 93: 3.113695, 94: 2.272113, 95: 3.794106];
charge = [0: 0.914557, 1: 0.808222, 2: 0.072847, 3: 0.350025, 4: 0.456285, 5: 0.288523, 6: 0.104555, 7: 0.158592, 8: 0.520651, 9: 0.533487, 10: 0.463788, 11: 0.195345, 12: 0.112679, 13: 0.415041, 14: 0.251278, 15: 0.013404, 16: 0.202033, 17: 0.281748, 18: 0.9921, 19: 0.856508, 20: 0.980876, 21: 0.497849, 22: 0.914359, 23: 0.398515, 24: 0.445583, 25: 0.251748, 26: 0.211918, 27: 0.105702, 28: 0.634033, 29: 0.911401, 30: 0.892995, 31: 0.87495, 32: 0.731221, 33: 0.779928, 34: 0.673175, 35: 0.303144, 36: 0.375432, 37: 0.893234, 38: 0.381463, 39: 0.296886, 40: 0.648862, 41: 0.223654, 42: 0.948738, 43: 0.149619, 44: 0.300691, 45: 0.920964, 46: 0.388925, 47: 0.297669, 48: 0.604627, 49: 0.851002, 50: 0.619234, 51: 0.117002, 52: 0.55374, 53: 0.9634160000000001, 54: 0.310349, 55: 0.292573, 56: 0.094027, 57: 0.906379, 58: 0.876374, 59: 0.50783, 60: 0.43031, 61: 0.059969, 62: 0.855962, 63: 0.70622, 64: 0.265771, 65: 0.411114, 66: 0.756528, 67: 0.532554, 68: 0.172547, 69: 0.022622, 70: 0.365589, 71: 0.817619, 72: 0.39796, 73: 0.9428339999999999, 74: 0.303117, 75: 0.043356, 76: 0.759867, 77: 0.894214, 78: 0.7508899999999999, 79: 0.302322, 80: 0.528369, 81: 0.465381, 82: 0.665397, 83: 0.565473, 84: 0.422606, 85: 0.734001, 86: 0.173739, 87: 0.523791, 88: 0.178436, 89: 0.741919, 90: 0.297132, 91: 0.36798, 92: 0.840684, 93: 0.221208, 94: 0.904022, 95: 0.934227];
discharge = [0: 0.5026119999999999, 1: 0.294218, 2: 0.07725600000000001, 3: 0.623411, 4: 0.133837, 5: 0.384823, 6: 0.472397, 7: 0.180361, 8: 0.131662, 9: 0.6417620000000001, 10: 0.823369, 11: 0.577066, 12: 0.8105869999999999, 13: 0.427418, 14: 0.552215, 15: 0.087772, 16: 0.305127, 17: 0.178536, 18: 0.285018, 19: 0.356554, 20: 0.794691, 21: 0.871102, 22: 0.5338540000000001, 23: 0.445574, 24: 0.301048, 25: 0.225527, 26: 0.423127, 27: 0.585707, 28: 0.357087, 29: 0.42242, 30: 0.061848, 31: 0.313368, 32: 0.08749899999999999, 33: 0.5727719999999999, 34: 0.73293, 35: 0.759386, 36: 0.198447, 37: 0.721618, 38: 0.648183, 39: 0.915384, 40: 0.377709, 41: 0.022323, 42: 0.09551900000000001, 43: 0.390611, 44: 0.360691, 45: 0.17311, 46: 0.319475, 47: 0.890205, 48: 0.8607939999999999, 49: 0.668181, 50: 0.951932, 51: 0.858905, 52: 0.942144, 53: 0.75365, 54: 0.299669, 55: 0.508142, 56: 0.7214739999999999, 57: 0.410963, 58: 0.195389, 59: 0.074744, 60: 0.167276, 61: 0.424335, 62: 0.658493, 63: 0.246201, 64: 0.87967, 65: 0.241613, 66: 0.70616, 67: 0.69017, 68: 0.481312, 69: 0.688427, 70: 0.650294, 71: 0.664529, 72: 0.224278, 73: 0.173106, 74: 0.102714, 75: 0.731876, 76: 0.518895, 77: 0.599051, 78: 0.6482059999999999, 79: 0.598213, 80: 0.901513, 81: 0.625918, 82: 0.501393, 83: 0.229984, 84: 0.672021, 85: 0.061007, 86: 0.664435, 87: 0.7921820000000001, 88: 0.592592, 89: 0.606613, 90: 0.440525, 91: 0.780485, 92: 0.828548, 93: 0.312329, 94: 0.981966, 95: 0.235571];
soc = [0: 8.037076000000001, 1: 8.038652000000001, 2: 11.051577, 3: 11.671882, 4: 4.304057, 5: 4.621663, 6: 12.156541, 7: 13.155407, 8: 4.851343, 9: 3.864552, 10: 6.788738, 11: 11.962339, 12: 8.71818, 13: 11.638392, 14: 15.404385, 15: 14.152652, 16: 10.533843, 17: 3.38992, 18: 11.69729, 19: 13.55627, 20: 10.505508, 21: 4.903094, 22: 13.652762, 23: 5.310694, 24: 14.620966, 25: 10.247624, 26: 8.622356, 27: 11.009461, 28: 13.40778, 29: 4.830869, 30: 13.671832, 31: 3.598766, 32: 15.286309, 33: 3.818967, 34: 5.980284, 35: 7.443256, 36: 6.356209, 37: 5.946189, 38: 13.687095, 39: 6.791266, 40: 7.912326, 41: 6.023012, 42: 11.871893, 43: 3.630785, 44: 11.879128, 45: 8.567053, 46: 12.738927, 47: 14.818957, 48: 12.029789, 49: 6.341344, 50: 6.589291, 51: 6.43015, 52: 13.554302, 53: 12.766066, 54: 7.458034, 55: 8.839029, 56: 14.341446, 57: 14.773811, 58: 9.582503000000001, 59: 7.279866, 60: 7.795565, 61: 5.404766, 62: 5.601938, 63: 6.924725, 64: 12.259604, 65: 14.394963, 66: 11.275721, 67: 5.478683, 68: 14.136834, 69: 7.547458, 70: 13.10965, 71: 3.573507, 72: 11.464626, 73: 5.46842, 74: 4.401682, 75: 9.770806, 76: 10.701291, 77: 7.877233, 78: 11.48639, 79: 10.760247, 80: 4.020029, 81: 12.665026, 82: 11.103314, 83: 15.178816, 84: 8.970701999999999, 85: 14.792096, 86: 5.074196, 87: 4.912343, 88: 6.799317, 89: 11.920481, 90: 4.975485, 91: 12.791741, 92: 9.461377000000001, 93: 13.480691, 94: 3.419417, 95: 9.389702];
cost = [0: 504.088103, 1: 251.666888, 2: 484.334853, 3: 471.501557, 4: 115.12077, 5: 211.556261, 6: 73.880556, 7: 101.790348, 8: 365.78539, 9: 264.417327, 10: 520.3367040000001, 11: 363.797195, 12: 506.01069, 13: 392.14485, 14: 157.980956, 15: 57.617782, 16: 220.882786, 17: 10.349905, 18: 388.389277, 19: 442.928339, 20: 448.05467, 21: 208.845104, 22: 164.200994, 23: 340.685931, 24: 305.345946, 25: 303.061044, 26: 78.137261, 27: 926.69479, 28: 958.417236, 29: 968.636581, 30: 738.783305, 31: 546.194343, 32: 589.032729, 33: 1054.495845, 34: 1178.651688, 35: 297.840167, 36: 514.204151, 37: 1111.270473, 38: 108.484563, 39: 305.583675, 40: 1139.284695, 41: 921.357636, 42: 385.50041, 43: 315.082389, 44: 695.981139, 45: 71.5167, 46: 93.44526399999999, 47: 986.195301, 48: 606.038856, 49: 879.07388, 50: 1131.574899, 51: 737.051842, 52: 360.12787, 53: 605.7170180000001, 54: 288.051102, 55: 147.452839, 56: 32.091268, 57: 497.256577, 58: 69.349037, 59: 369.090961, 60: 890.124084, 61: 1041.716688, 62: 298.504073, 63: 761.526482, 64: 118.701238, 65: 120.739421, 66: 1146.256717, 67: 46.111633, 68: 110.162726, 69: 907.820532, 70: 1065.607871, 71: 748.507159, 72: 141.105003, 73: 1159.155687, 74: 400.688279, 75: 774.655398, 76: 635.4377040000001, 77: 254.179989, 78: 759.414177, 79: 1091.620699, 80: 222.930089, 81: 826.023265, 82: 368.06221, 83: 1153.761098, 84: 1071.087897, 85: 416.746302, 86: 599.046023, 87: 563.210202, 88: 591.558352, 89: 484.706749, 90: 316.903125, 91: 579.582443, 92: 444.362248, 93: 374.12027, 94: 448.753888, 95: 138.041654];
earn = [0: 0.30619, 1: 0.372926, 2: 0.837375, 3: 0.927496, 4: 0.053303, 5: 0.758289, 6: 1.507627, 7: 0.780132, 8: 1.610463, 9: 0.684933, 10: 1.061362, 11: 0.117743, 12: 1.242517, 13: 0.714422, 14: 0.919115, 15: 1.573169, 16: 0.163135, 17: 1.371114, 18: 1.150356, 19: 1.117609, 20: 1.813985, 21: 0.980846, 22: 1.505602, 23: 1.317491, 24: 1.23387, 25: 0.055331, 26: 2.300461, 27: 2.307835, 28: 2.10936, 29: 1.492706, 30: 3.617751, 31: 1.236769, 32: 2.030285, 33: 1.377156, 34: 2.316404, 35: 0.10873, 36: 0.47242, 37: 0.442649, 38: 0.8398099999999999, 39: 1.234868, 40: 0.929585, 41: 0.948176, 42: 0.298687, 43: 0.996201, 44: 0.194557, 45: 1.262437, 46: 0.085142, 47: 0.66364, 48: 0.303359, 49: 0.694541, 50: 0.889689, 51: 1.183905, 52: 0.379031, 53: 0.6467309999999999, 54: 0.325664, 55: 1.409403, 56: 0.432603, 57: 1.661493, 58: 0.546549, 59: 1.213422, 60: 0.016751, 61: 0.508168, 62: 1.060158, 63: 0.169191, 64: 0.712286, 65: 1.006734, 66: 1.250073, 67: 0.611311, 68: 0.164812, 69: 0.407946, 70: 1.670731, 71: 2.055257, 72: 0.031496, 73: 0.272722, 74: 2.46129, 75: 2.985217, 76: 2.553941, 77: 0.286099, 78: 1.184667, 79: 3.061533, 80: 1.707328, 81: 0.8613690000000001, 82: 3.522366, 83: 0.284635, 84: 1.753837, 85: 0.729497, 86: 1.411949, 87: 0.988586, 88: 0.849828, 89: 1.594959, 90: 2.536314, 91: 0.321267, 92: 1.522857, 93: 1.233281, 94: 1.695484, 95: 0.736483];
total_cost = 50.90769738356251;
total_earn = 16.28797973253832;
