production = [0: 0.0, 1: 0.0, 2: 0.0, 3: 0.0, 4: 0.0, 5: 0.0, 6: 0.0, 7: 0.0, 8: 0.0, 9: 0.0, 10: 0.0, 11: 0.0, 12: 0.0, 13: 0.0, 14: 0.0, 15: 0.0, 16: 0.0, 17: 0.0, 18: 0.0, 19: 0.0, 20: 0.0, 21: 0.0, 22: 0.0, 23: 0.0, 24: 0.0, 25: 0.000163, 26: 0.00628, 27: 0.013097, 28: 0.037903, 29: 0.045787, 30: 0.065689, 31: 0.118182, 32: 0.084825, 33: 0.079596, 34: 0.28953, 35: 0.172343, 36: 0.019318, 37: 0.112506, 38: 0.479855, 39: 0.386747, 40: 0.318861, 41: 0.620081, 42: 0.277156, 43: 0.08845799999999999, 44: 1.112351, 45: 0.713565, 46: 1.452365, 47: 0.010133, 48: 0.163847, 49: 0.44586, 50: 0.593264, 51: 0.099352, 52: 0.227877, 53: 0.669861, 54: 0.041508, 55: 0.410041, 56: 0.016433, 57: 0.391115, 58: 2.118275, 59: 0.550634, 60: 0.367375, 61: 0.155176, 62: 0.09719700000000001, 63: 0.297341, 64: 0.195174, 65: 0.007856999999999999, 66: 0.121879, 67: 0.258525, 68: 0.084728, 69: 0.074297, 70: 0.15417, 71: 0.081874, 72: 0.029359, 73: 0.062736, 74: 0.020048, 75: 0.011724, 76: 0.001027, 77: 0.00119, 78: 0.000275, 79: 0.0, 80: 0.0, 81: 0.0, 82: 0.0, 83: 0.0, 84: 0.0, 85: 0.0, 86: 0.0, 87: 0.0, 88: 0.0, 89: 0.0, 90: 0.0, 91: 0.0, 92: 0.0, 93: 0.0, 94: 0.0, 95: 0.0];
buy = [0: 284.570312, 1: 463.642569, 2: 836.650252, 3: 927.139499, 4: 487.744947, 5: 783.71278, 6: 66.779645, 7: 840.739769, 8: 86.23662400000001, 9: 754.220149, 10: 150.607825, 11: 392.993714, 12: 779.559362, 13: 27.219521, 14: 744.854205, 15: 770.335515, 16: 388.539761, 17: 248.63961, 18: 164.652423, 19: 425.55096, 20: 876.7567749999999, 21: 861.989401, 22: 139.410105, 23: 134.002816, 24: 689.222786, 25: 972.736584, 26: 758.113678, 27: 818.058885, 28: 54.163352, 29: 233.56013, 30: 517.766048, 31: 771.812511, 32: 510.332692, 33: 910.021984, 34: 142.588657, 35: 700.739331, 36: 818.309111, 37: 677.755364, 38: 797.452847, 39: 808.361543, 40: 205.922026, 41: 53.829915, 42: 938.638064, 43: 842.456414, 44: 281.174129, 45: 552.095746, 46: 48.994044, 47: 599.9006010000001, 48: 224.099712, 49: 809.395094, 50: 628.6827029999999, 51: 86.073027, 52: 909.6530320000001, 53: 646.8465169999999, 54: 773.006064, 55: 4.201396, 56: 504.154951, 57: 951.788725, 58: 819.4815599999999, 59: 650.27726, 60: 272.922762, 61: 301.296803, 62: 335.741212, 63: 741.360876, 64: 887.0042570000001, 65: 476.463156, 66: 802.2914510000001, 67: 213.39234, 68: 87.61327900000001, 69: 283.224861, 70: 837.634483, 71: 393.349439, 72: 981.135124, 73: 112.310271, 74: 340.057372, 75: 510.645522, 76: 207.623628, 77: 224.661935, 78: 926.1583879999999, 79: 113.554894, 80: 694.783311, 81: 756.776406, 82: 146.998298, 83: 177.245664, 84: 439.575352, 85: 729.166352, 86: 629.456509, 87: 32.818901, 88: 477.166546, 89: 807.529769, 90: 927.023896, 91: 260.914747, 92: 339.279297, 93: 192.598098, 94: 903.237349, 95: 157.652487];
sell = [0: 0.742412, 1: 2.202718, 2: 2.436308, 3: 0.769936, 4: 2.43957, 5: 1.429691, 6: 1.262721, 7: 2.149975, 8: 3.866748, 9: 3.711423, 10: 2.308538, 11: 0.169288, 12: 0.007835999999999999, 13: 3.892865, 14: 3.853071, 15: 2.69688, 16: 3.738063, 17: 0.010992, 18: 2.899567, 19: 3.127729, 20: 0.344067, 21: 0.03269, 22: 0.058741, 23: 3.630075, 24: 0.739572, 25: 2.586604, 26: 2.097891, 27: 0.927874, 28: 3.716043, 29: 0.129884, 30: 1.66574, 31: 2.309798, 32: 1.499155, 33: 3.162376, 34: 1.977816, 35: 1.659168, 36: 0.780139, 37: 3.944506, 38: 2.02944, 39: 2.706561, 40: 2.709359, 41: 1.010108, 42: 0.798675, 43: 0.435495, 44: 2.381888, 45: 3.342635, 46: 3.268202, 47: 1.53236, 48: 2.944824, 49: 0.751259, 50: 0.245937, 51: 1.701157, 52: 0.102138, 53: 3.437625, 54: 0.476348, 55: 1.082762, 56: 1.47878, 57: 0.960168, 58: 0.907268, 59: 1.436744, 60: 0.353303, 61: 0.172922, 62: 2.564344, 63: 0.02684, 64: 2.70024, 65: 0.591816, 66: 1.80007, 67: 0.705382, 68: 3.294587, 69: 3.633815, 70: 2.051779, 71: 2.371616, 72: 1.083247, 73: 0.241717, 74: 2.063553, 75: 3.483244, 76: 0.495543, 77: 1.339464, 78: 2.304473, 79: 0.795154, 80: 1.646135, 81: 0.788301, 82: 3.729777, 83: 0.290137, 84: 0.151366, 85: 3.194214, 86: 2.252789, 87: 1.604422, 88: 1.802116, 89: 3.623871, 90: 0.633257, 91: 3.443901, 92: 1.964534, 93: 1.589382, 94: 1.828144, 95: 3.177823];
charge = [0: 0.045152, 1: 0.5381010000000001, 2: 0.347701, 3: 0.765224, 4: 0.518024, 5: 0.480175, 6: 0.033062, 7: 0.965943, 8: 0.448978, 9: 0.511531, 10: 0.294759, 11: 0.075818, 12: 0.197763, 13: 0.020171, 14: 0.006055, 15: 0.280325, 16: 0.593033, 17: 0.8425010000000001, 18: 0.331073, 19: 0.627443, 20: 0.123107, 21: 0.537697, 22: 0.326353, 23: 0.481265, 24: 0.507667, 25: 0.630444, 26: 0.792088, 27: 0.404307, 28: 0.096647, 29: 0.667019, 30: 0.986955, 31: 0.777979, 32: 0.746526, 33: 0.195504, 34: 0.47121, 35: 0.018481, 36: 0.253307, 37: 0.233743, 38: 0.07561900000000001, 39: 0.813066, 40: 0.148616, 41: 0.06500499999999999, 42: 0.489492, 43: 0.626992, 44: 0.810365, 45: 0.401442, 46: 0.809555, 47: 0.299198, 48: 0.443909, 49: 0.895454, 50: 0.96653, 51: 0.165501, 52: 0.117759, 53: 0.137691, 54: 0.233, 55: 0.850017, 56: 0.044732, 57: 0.819007, 58: 0.208662, 59: 0.772319, 60: 0.682501, 61: 0.283368, 62: 0.638046, 63: 0.123395, 64: 0.21232, 65: 0.777224, 66: 0.423646, 67: 0.610608, 68: 0.784595, 69: 0.9744390000000001, 70: 0.416093, 71: 0.426793, 72: 0.336197, 73: 0.835172, 74: 0.607673, 75: 0.524268, 76: 0.012087, 77: 0.551824, 78: 0.243159, 79: 0.199845, 80: 0.34478, 81: 0.955723, 82: 0.324013, 83: 0.267034, 84: 0.797579, 85: 0.237622, 86: 0.148523, 87: 0.250303, 88: 0.41568, 89: 0.603505, 90: 0.532085, 91: 0.416974, 92: 0.313098, 93: 0.903734, 94: 0.101926, 95: 0.226347];
discharge = [0: 0.556601, 1: 0.6280520000000001, 2: 0.898518, 3: 0.7572680000000001, 4: 0.316695, 5: 0.22972, 6: 0.82087, 7: 0.243618, 8: 0.889283, 9: 0.696371, 10: 0.706352, 11: 0.212729, 12: 0.323904, 13: 0.723902, 14: 0.438883, 15: 0.373048, 16: 0.698005, 17: 0.609975, 18: 0.649568, 19: 0.948226, 20: 0.149198, 21: 0.123614, 22: 0.162503, 23: 0.09535100000000001, 24: 0.775676, 25: 0.97319, 26: 0.09316099999999999, 27: 0.646224, 28: 0.084144, 29: 0.658263, 30: 0.201355, 31: 0.275579, 32: 0.166021, 33: 0.230491, 34: 0.741592, 35: 0.045643, 36: 0.943261, 37: 0.554528, 38: 0.003903, 39: 0.073542, 40: 0.845827, 41: 0.129661, 42: 0.752, 43: 0.950184, 44: 0.262299, 45: 0.23901, 46: 0.06645, 47: 0.6104810000000001, 48: 0.852117, 49: 0.339124, 50: 0.735783, 51: 0.899149, 52: 0.123341, 53: 0.95526, 54: 0.40363, 55: 0.300638, 56: 0.5199240000000001, 57: 0.183557, 58: 0.591081, 59: 0.145731, 60: 0.088895, 61: 0.239875, 62: 0.072809, 63: 0.009456000000000001, 64: 0.504107, 65: 0.489284, 66: 0.353034, 67: 0.781182, 68: 0.607302, 69: 0.218974, 70: 0.694509, 71: 0.345117, 72: 0.186624, 73: 0.270195, 74: 0.931146, 75: 0.091349, 76: 0.151616, 77: 0.18402, 78: 0.485648, 79: 0.53266, 80: 0.703496, 81: 0.884121, 82: 0.164017, 83: 0.624155, 84: 0.417329, 85: 0.323564, 86: 0.889172, 87: 0.779737, 88: 0.40706, 89: 0.858735, 90: 0.875306, 91: 0.550296, 92: 0.820553, 93: 0.638502, 94: 0.8506629999999999, 95: 0.277891];
soc = [0: 8.461865, 1: 7.435747, 2: 11.424049, 3: 9.028991, 4: 6.502394, 5: 7.89155, 6: 9.96148, 7: 11.154056, 8: 4.845986, 9: 12.857533, 10: 3.018849, 11: 13.884648, 12: 2.713154, 13: 6.734346, 14: 11.411631, 15: 5.116971, 16: 3.052386, 17: 14.181863, 18: 12.913073, 19: 9.075512, 20: 5.762567, 21: 13.220122, 22: 11.760477, 23: 3.998968, 24: 6.071899, 25: 10.018359, 26: 5.002021, 27: 6.700496, 28: 6.591193, 29: 8.604146999999999, 30: 3.878697, 31: 10.964662, 32: 14.422886, 33: 7.677204, 34: 5.642234, 35: 2.85591, 36: 7.837474, 37: 14.441003, 38: 15.169435, 39: 13.485067, 40: 14.308953, 41: 9.223967, 42: 10.162879, 43: 14.626645, 44: 8.92618, 45: 9.100149999999999, 46: 14.018901, 47: 8.469687, 48: 15.382015, 49: 11.409954, 50: 11.436381, 51: 10.148757, 52: 7.718245, 53: 9.444959000000001, 54: 6.076195, 55: 9.995846, 56: 5.082056, 57: 4.709915, 58: 14.637794, 59: 2.801976, 60: 12.60985, 61: 10.071939, 62: 7.012695, 63: 8.174087999999999, 64: 11.589918, 65: 8.926254, 66: 6.49779, 67: 7.602879, 68: 4.020887, 69: 7.773606, 70: 14.930871, 71: 5.322692, 72: 14.256235, 73: 10.19981, 74: 15.558303, 75: 10.036994, 76: 9.339667, 77: 12.084045, 78: 15.161058, 79: 3.918232, 80: 15.643191, 81: 8.527511000000001, 82: 6.00105, 83: 5.992974, 84: 4.912474, 85: 12.562117, 86: 8.854134999999999, 87: 5.405524, 88: 14.12607, 89: 3.833739, 90: 4.241948, 91: 7.611701, 92: 9.721596999999999, 93: 14.811286, 94: 3.073428, 95: 9.668198];
cost = [0: 280.931566, 1: 321.155267, 2: 566.214683, 3: 432.977869, 4: 65.206667, 5: 368.715678, 6: 209.746277, 7: 133.888453, 8: 168.45907, 9: 313.051357, 10: 275.59379, 11: 562.013016, 12: 115.31031, 13: 295.640918, 14: 313.65661, 15: 488.931976, 16: 354.361208, 17: 428.825465, 18: 546.089884, 19: 345.785966, 20: 8.415692999999999, 21: 386.386207, 22: 285.851927, 23: 592.331041, 24: 421.866026, 25: 1124.790558, 26: 130.637515, 27: 882.792546, 28: 601.009589, 29: 346.090853, 30: 8.875372, 31: 814.997021, 32: 692.410869, 33: 165.329277, 34: 818.534521, 35: 275.301406, 36: 149.969211, 37: 1099.589201, 38: 797.510699, 39: 101.493042, 40: 407.945448, 41: 582.694589, 42: 950.183543, 43: 670.82749, 44: 1149.286831, 45: 1019.283603, 46: 433.310134, 47: 581.549224, 48: 976.867965, 49: 684.296062, 50: 118.657643, 51: 111.526869, 52: 522.166201, 53: 589.141075, 54: 479.076596, 55: 510.427227, 56: 213.651726, 57: 525.766203, 58: 556.464522, 59: 15.970229, 60: 339.514847, 61: 15.827695, 62: 499.677291, 63: 1030.466302, 64: 1057.957005, 65: 424.101456, 66: 890.797546, 67: 591.542718, 68: 272.564899, 69: 339.100796, 70: 374.344622, 71: 660.103569, 72: 730.361954, 73: 415.93515, 74: 108.074246, 75: 998.872519, 76: 9.353631, 77: 560.888284, 78: 647.010935, 79: 768.531593, 80: 426.08875, 81: 957.07606, 82: 547.606076, 83: 954.128498, 84: 551.759772, 85: 701.583922, 86: 147.720657, 87: 297.921818, 88: 75.72805, 89: 83.286376, 90: 524.0068690000001, 91: 325.870219, 92: 195.304302, 93: 120.489326, 94: 565.409498, 95: 188.09793];
earn = [0: 1.901398, 1: 0.653908, 2: 1.532441, 3: 0.631753, 4: 0.71238, 5: 0.40705, 6: 1.332818, 7: 0.60024, 8: 1.631005, 9: 1.43965, 10: 1.255252, 11: 0.436682, 12: 1.301645, 13: 0.964325, 14: 1.24006, 15: 1.059373, 16: 0.532817, 17: 0.124418, 18: 0.048062, 19: 0.181729, 20: 1.637533, 21: 1.826565, 22: 1.715308, 23: 1.387626, 24: 1.93339, 25: 1.483127, 26: 1.030352, 27: 1.93608, 28: 0.449552, 29: 0.123219, 30: 1.886832, 31: 1.952325, 32: 1.922963, 33: 0.774874, 34: 1.346089, 35: 2.247729, 36: 0.525701, 37: 0.396027, 38: 1.97365, 39: 1.869337, 40: 1.198143, 41: 1.138231, 42: 0.364154, 43: 1.387676, 44: 1.567931, 45: 0.985322, 46: 0.523097, 47: 0.856243, 48: 1.353301, 49: 0.325301, 50: 0.166265, 51: 1.193892, 52: 0.128177, 53: 0.951606, 54: 1.470399, 55: 0.112243, 56: 0.406913, 57: 1.247184, 58: 0.30074, 59: 1.65431, 60: 1.359113, 61: 1.038161, 62: 0.457776, 63: 0.240469, 64: 0.349315, 65: 0.518132, 66: 1.023226, 67: 0.267027, 68: 0.734874, 69: 1.388607, 70: 1.145022, 71: 2.606873, 72: 2.513298, 73: 1.687627, 74: 2.215002, 75: 0.705478, 76: 0.276499, 77: 3.949542, 78: 1.751637, 79: 3.880368, 80: 0.125723, 81: 0.895745, 82: 1.723392, 83: 0.657245, 84: 0.013542, 85: 0.046766, 86: 1.025186, 87: 0.8150309999999999, 88: 2.225146, 89: 0.03011, 90: 0.093475, 91: 0.277038, 92: 2.307707, 93: 0.928548, 94: 1.794856, 95: 0.249416];
total_cost = 45.35084709884245;
total_earn = 19.11808431000001;
