production = [0: 0.0, 1: 0.0, 2: 0.0, 3: 0.0, 4: 0.0, 5: 0.0, 6: 0.0, 7: 0.0, 8: 0.0, 9: 0.0, 10: 0.0, 11: 0.0, 12: 0.0, 13: 0.0, 14: 0.0, 15: 0.0, 16: 0.0, 17: 0.0, 18: 0.0, 19: 0.0, 20: 0.0, 21: 0.0, 22: 0.0, 23: 0.0, 24: 0.0, 25: 4e-06, 26: 0.006402, 27: 0.003969, 28: 0.031071, 29: 0.048712, 30: 0.070257, 31: 0.062935, 32: 0.041222, 33: 0.283115, 34: 0.130787, 35: 0.029993, 36: 0.159204, 37: 0.287499, 38: 0.113975, 39: 0.247854, 40: 0.44463, 41: 0.925252, 42: 0.917676, 43: 0.936754, 44: 1.118367, 45: 0.420844, 46: 1.056547, 47: 0.299781, 48: 0.834514, 49: 0.071759, 50: 0.807812, 51: 0.127619, 52: 0.30305, 53: 0.222139, 54: 0.107493, 55: 0.674538, 56: 0.118454, 57: 0.291064, 58: 0.679279, 59: 0.2739, 60: 0.412142, 61: 0.080843, 62: 0.142389, 63: 0.013763, 64: 0.087045, 65: 0.061957, 66: 0.306571, 67: 0.118617, 68: 0.02521, 69: 0.038429, 70: 0.066484, 71: 0.009253000000000001, 72: 0.063142, 73: 0.072782, 74: 0.01854, 75: 0.006648, 76: 0.004948, 77: 0.001414, 78: 0.000495, 79: 0.0, 80: 0.0, 81: 0.0, 82: 0.0, 83: 0.0, 84: 0.0, 85: 0.0, 86: 0.0, 87: 0.0, 88: 0.0, 89: 0.0, 90: 0.0, 91: 0.0, 92: 0.0, 93: 0.0, 94: 0.0, 95: 0.0];
buy = [0: 992.569537, 1: 466.381901, 2: 850.023951, 3: 211.339737, 4: 289.01987, 5: 614.00238, 6: 824.653597, 7: 973.03152, 8: 535.648851, 9: 930.6800040000001, 10: 216.685648, 11: 54.835525, 12: 110.677752, 13: 829.611698, 14: 972.930641, 15: 681.2185449999999, 16: 472.725176, 17: 495.959111, 18: 168.929652, 19: 823.709255, 20: 348.562289, 21: 46.612844, 22: 350.466937, 23: 132.791671, 24: 843.804757, 25: 917.977179, 26: 340.082498, 27: 258.904379, 28: 603.6589269999999, 29: 172.506687, 30: 52.92912, 31: 891.284171, 32: 759.824786, 33: 19.54264, 34: 186.232075, 35: 162.153727, 36: 800.018503, 37: 176.689984, 38: 713.721234, 39: 22.984443, 40: 248.097019, 41: 930.007129, 42: 479.234105, 43: 87.13454, 44: 706.022742, 45: 784.9830920000001, 46: 748.625165, 47: 553.863065, 48: 279.522546, 49: 145.423687, 50: 700.679976, 51: 815.088163, 52: 6.199259, 53: 772.824834, 54: 320.65092, 55: 352.458445, 56: 485.293691, 57: 591.906124, 58: 261.806895, 59: 897.441765, 60: 198.959597, 61: 42.301106, 62: 842.770072, 63: 59.07111, 64: 311.064686, 65: 362.308682, 66: 86.14712, 67: 938.1500129999999, 68: 692.537927, 69: 739.597095, 70: 703.242236, 71: 73.03120199999999, 72: 48.695048, 73: 752.098748, 74: 645.812156, 75: 808.804297, 76: 58.404702, 77: 50.385229, 78: 967.213902, 79: 455.613756, 80: 950.632569, 81: 892.7946459999999, 82: 785.588889, 83: 138.752551, 84: 261.313637, 85: 366.01104, 86: 103.175587, 87: 894.951563, 88: 385.310641, 89: 909.484882, 90: 871.803077, 91: 498.014058, 92: 554.277375, 93: 295.940646, 94: 249.57951, 95: 369.355048];
sell = [0: 1.644063, 1: 1.668176, 2: 0.733176, 3: 2.424408, 4: 0.5844780000000001, 5: 0.167705, 6: 2.269394, 7: 3.555296, 8: 3.746439, 9: 3.400929, 10: 1.604282, 11: 1.159325, 12: 2.882478, 13: 0.781988, 14: 0.805001, 15: 1.678986, 16: 2.997106, 17: 2.260126, 18: 0.975162, 19: 2.181862, 20: 0.046287, 21: 3.05458, 22: 3.600348, 23: 2.431308, 24: 1.325583, 25: 1.416235, 26: 1.127468, 27: 1.895561, 28: 0.974896, 29: 1.68636, 30: 1.06144, 31: 2.688856, 32: 0.686589, 33: 2.99652, 34: 1.256254, 35: 2.700965, 36: 2.370843, 37: 1.649756, 38: 3.03708, 39: 3.172378, 40: 3.81749, 41: 1.698229, 42: 2.848847, 43: 1.221986, 44: 1.400683, 45: 0.548902, 46: 2.144871, 47: 2.044996, 48: 1.831604, 49: 1.208245, 50: 3.054838, 51: 0.38652, 52: 0.134635, 53: 0.77786, 54: 3.81915, 55: 2.912852, 56: 2.910099, 57: 1.154405, 58: 2.598531, 59: 3.643503, 60: 1.122784, 61: 1.925159, 62: 2.060251, 63: 2.589872, 64: 0.523255, 65: 3.155623, 66: 2.26606, 67: 2.595989, 68: 2.303767, 69: 3.001575, 70: 1.582476, 71: 0.392404, 72: 1.310297, 73: 0.507711, 74: 3.443978, 75: 3.466414, 76: 3.172097, 77: 3.464587, 78: 3.24409, 79: 1.212078, 80: 1.152271, 81: 3.791332, 82: 2.494409, 83: 2.903101, 84: 2.908789, 85: 2.544462, 86: 0.927629, 87: 0.50987, 88: 3.730441, 89: 0.080306, 90: 3.716766, 91: 2.653892, 92: 0.206328, 93: 2.117932, 94: 1.780623, 95: 2.934294];
charge = [0: 0.991356, 1: 0.382812, 2: 0.681619, 3: 0.367442, 4: 0.63471, 5: 0.103199, 6: 0.816457, 7: 0.205799, 8: 0.304842, 9: 0.665853, 10: 0.426507, 11: 0.152118, 12: 0.260354, 13: 0.010922, 14: 0.747781, 15: 0.660975, 16: 0.379988, 17: 0.183479, 18: 0.669173, 19: 0.260817, 20: 0.612366, 21: 0.11149, 22: 0.469824, 23: 0.535172, 24: 0.418849, 25: 0.236507, 26: 0.354366, 27: 0.521153, 28: 0.528685, 29: 0.814777, 30: 0.5946129999999999, 31: 0.087299, 32: 0.832605, 33: 0.836128, 34: 0.212478, 35: 0.203026, 36: 0.06727900000000001, 37: 0.337279, 38: 0.978057, 39: 0.585261, 40: 0.6236969999999999, 41: 0.390469, 42: 0.964553, 43: 0.590234, 44: 0.979857, 45: 0.839521, 46: 0.498168, 47: 0.639163, 48: 0.306816, 49: 0.824076, 50: 0.839548, 51: 0.739063, 52: 0.61831, 53: 0.25239, 54: 0.407921, 55: 0.396895, 56: 0.990576, 57: 0.382109, 58: 0.962849, 59: 0.846981, 60: 0.949227, 61: 0.179496, 62: 0.362976, 63: 0.721092, 64: 0.699696, 65: 0.737765, 66: 0.644333, 67: 0.612357, 68: 0.22619, 69: 0.007043, 70: 0.174531, 71: 0.33954, 72: 0.685603, 73: 0.772558, 74: 0.125233, 75: 0.429973, 76: 0.653356, 77: 0.531462, 78: 0.276939, 79: 0.393042, 80: 0.78117, 81: 0.147201, 82: 0.967883, 83: 0.111452, 84: 0.575698, 85: 0.886324, 86: 0.685204, 87: 0.15581, 88: 0.135185, 89: 0.136887, 90: 0.357063, 91: 0.373535, 92: 0.8003209999999999, 93: 0.273589, 94: 0.831505, 95: 0.410374];
discharge = [0: 0.913624, 1: 0.007175, 2: 0.275971, 3: 0.022732, 4: 0.612087, 5: 0.955234, 6: 0.879943, 7: 0.631956, 8: 0.037019, 9: 0.791458, 10: 0.351657, 11: 0.9255370000000001, 12: 0.15947, 13: 0.092901, 14: 0.082762, 15: 0.556324, 16: 0.468197, 17: 0.012079, 18: 0.827072, 19: 0.140763, 20: 0.807306, 21: 0.571366, 22: 0.121372, 23: 0.317801, 24: 0.5416570000000001, 25: 0.658913, 26: 0.274127, 27: 0.7551020000000001, 28: 0.848766, 29: 0.262392, 30: 0.180671, 31: 0.475752, 32: 0.073492, 33: 0.496837, 34: 0.412443, 35: 0.051517, 36: 0.51104, 37: 0.503217, 38: 0.171338, 39: 0.292754, 40: 0.8064480000000001, 41: 0.372263, 42: 0.823123, 43: 0.661092, 44: 0.453007, 45: 0.293645, 46: 0.147708, 47: 0.949334, 48: 0.702515, 49: 0.06578299999999999, 50: 0.889697, 51: 0.391506, 52: 0.212394, 53: 0.111016, 54: 0.696114, 55: 0.031545, 56: 0.701109, 57: 0.189006, 58: 0.125119, 59: 0.503931, 60: 0.078737, 61: 0.934629, 62: 0.514324, 63: 0.548718, 64: 0.317013, 65: 0.631104, 66: 0.668649, 67: 0.08397, 68: 0.324124, 69: 0.191037, 70: 0.584657, 71: 0.050643, 72: 0.858951, 73: 0.245109, 74: 0.045972, 75: 0.43987, 76: 0.29247, 77: 0.455632, 78: 0.28063, 79: 0.349474, 80: 0.498666, 81: 0.6921620000000001, 82: 0.812052, 83: 0.987351, 84: 0.970869, 85: 0.07391300000000001, 86: 0.698618, 87: 0.5463, 88: 0.564931, 89: 0.7331490000000001, 90: 0.380341, 91: 0.945487, 92: 0.371312, 93: 0.587026, 94: 0.77862, 95: 0.956656];
soc = [0: 8.358305, 1: 10.464061, 2: 9.519016000000001, 3: 10.28875, 4: 13.164697, 5: 8.456199, 6: 6.635296, 7: 4.729329, 8: 15.668496, 9: 4.955465, 10: 10.189565, 11: 9.736475, 12: 5.863005, 13: 3.071654, 14: 4.534514, 15: 5.326044, 16: 3.42324, 17: 11.815374, 18: 5.405474, 19: 9.666524000000001, 20: 3.279777, 21: 11.21743, 22: 7.94415, 23: 6.527227, 24: 4.789827, 25: 6.156145, 26: 11.972034, 27: 10.524945, 28: 7.542025, 29: 10.001681, 30: 12.285566, 31: 9.250325999999999, 32: 12.596706, 33: 7.743799, 34: 10.052211, 35: 6.958323, 36: 11.599167, 37: 4.230756, 38: 14.105312, 39: 8.239110999999999, 40: 9.081918, 41: 5.753898, 42: 7.322287, 43: 2.781482, 44: 5.765855, 45: 12.266926, 46: 13.414509, 47: 13.916609, 48: 6.882768, 49: 8.744745, 50: 10.534203, 51: 9.785425, 52: 11.820631, 53: 14.629783, 54: 11.857424, 55: 10.331085, 56: 13.183082, 57: 14.600845, 58: 14.3547, 59: 8.534368000000001, 60: 8.873563000000001, 61: 13.551785, 62: 14.574104, 63: 4.194304, 64: 6.911309, 65: 13.616956, 66: 9.723077999999999, 67: 5.70926, 68: 8.054888, 69: 13.954622, 70: 7.508825, 71: 2.745955, 72: 11.514046, 73: 6.350633, 74: 8.082098999999999, 75: 14.401426, 76: 6.786615, 77: 14.779964, 78: 12.176782, 79: 7.520033, 80: 10.619986, 81: 4.60285, 82: 3.695535, 83: 5.425386, 84: 6.414133, 85: 4.039511, 86: 7.50612, 87: 8.652837, 88: 3.50521, 89: 12.313388, 90: 3.705404, 91: 3.202798, 92: 7.298303, 93: 4.189917, 94: 11.765459, 95: 8.389398];
cost = [0: 218.293142, 1: 213.049574, 2: 456.525645, 3: 299.694604, 4: 502.591856, 5: 461.361898, 6: 124.926274, 7: 175.168589, 8: 342.172491, 9: 145.817128, 10: 504.225182, 11: 394.994184, 12: 410.136185, 13: 109.567515, 14: 593.637576, 15: 43.18973, 16: 484.633316, 17: 230.508474, 18: 83.22044200000001, 19: 65.115976, 20: 46.686234, 21: 369.503775, 22: 487.137168, 23: 130.445285, 24: 892.621298, 25: 198.560036, 26: 1042.907121, 27: 597.81177, 28: 700.9586859999999, 29: 345.90745, 30: 552.6550109999999, 31: 654.514646, 32: 139.031513, 33: 1159.639387, 34: 371.793445, 35: 254.069223, 36: 655.591105, 37: 361.146662, 38: 1032.368008, 39: 943.813945, 40: 339.681807, 41: 757.153667, 42: 83.933497, 43: 263.22954, 44: 1049.311587, 45: 1167.444368, 46: 1054.323238, 47: 146.31259, 48: 61.139834, 49: 1005.178946, 50: 552.657346, 51: 476.345208, 52: 491.749468, 53: 313.157775, 54: 447.093327, 55: 61.162462, 56: 315.134047, 57: 378.264264, 58: 284.56186, 59: 441.19777, 60: 834.4467100000001, 61: 399.987488, 62: 647.830763, 63: 538.143446, 64: 209.572443, 65: 229.943221, 66: 1015.532092, 67: 326.564052, 68: 1089.824575, 69: 261.242633, 70: 658.561109, 71: 102.86023, 72: 65.96116600000001, 73: 527.916699, 74: 270.319164, 75: 300.899191, 76: 618.440815, 77: 887.464425, 78: 424.008491, 79: 830.006067, 80: 1098.91149, 81: 1146.697504, 82: 342.602111, 83: 421.189726, 84: 1175.395214, 85: 39.580525, 86: 210.91473, 87: 1033.394581, 88: 2.474468, 89: 169.342645, 90: 472.85337, 91: 432.629614, 92: 258.775064, 93: 383.350891, 94: 208.111356, 95: 39.831057];
earn = [0: 0.138466, 1: 2.012383, 2: 0.335269, 3: 0.767302, 4: 1.737141, 5: 1.753433, 6: 0.214994, 7: 0.41354, 8: 0.522472, 9: 0.717848, 10: 0.16231, 11: 1.325821, 12: 1.233165, 13: 0.88611, 14: 0.173935, 15: 0.923776, 16: 1.457205, 17: 1.639004, 18: 1.663714, 19: 0.281949, 20: 0.122993, 21: 1.240016, 22: 1.635554, 23: 0.841496, 24: 0.7399480000000001, 25: 2.366896, 26: 2.703888, 27: 1.308954, 28: 1.481985, 29: 2.293937, 30: 2.991405, 31: 2.093108, 32: 0.871908, 33: 1.42641, 34: 1.969605, 35: 0.43332, 36: 0.146765, 37: 2.206699, 38: 1.919519, 39: 0.175372, 40: 0.382054, 41: 1.78057, 42: 0.360801, 43: 0.505451, 44: 1.388586, 45: 0.220374, 46: 0.798603, 47: 1.076523, 48: 1.259656, 49: 0.215219, 50: 0.512886, 51: 0.959336, 52: 0.132817, 53: 0.986161, 54: 0.818967, 55: 0.405825, 56: 1.572132, 57: 0.139344, 58: 0.606583, 59: 1.042436, 60: 0.347665, 61: 1.19616, 62: 0.574099, 63: 0.7242459999999999, 64: 0.357113, 65: 0.819997, 66: 0.25213, 67: 1.251025, 68: 0.445813, 69: 1.567218, 70: 0.9427990000000001, 71: 0.907205, 72: 2.846313, 73: 0.311852, 74: 0.739559, 75: 1.831428, 76: 1.153446, 77: 2.302426, 78: 2.550833, 79: 2.984038, 80: 2.571226, 81: 2.902968, 82: 2.826924, 83: 1.01118, 84: 1.567736, 85: 1.362986, 86: 1.849528, 87: 1.966783, 88: 1.662845, 89: 0.352708, 90: 0.51566, 91: 1.452726, 92: 1.986447, 93: 1.544465, 94: 1.151957, 95: 0.116103];
total_cost = 50.99009049567464;
total_earn = 18.63354300096303;
