production = [0: 0.0, 1: 0.0, 2: 0.0, 3: 0.0, 4: 0.0, 5: 0.0, 6: 0.0, 7: 0.0, 8: 0.0, 9: 0.0, 10: 0.0, 11: 0.0, 12: 0.0, 13: 0.0, 14: 0.0, 15: 0.0, 16: 0.0, 17: 0.0, 18: 0.0, 19: 0.0, 20: 0.0, 21: 0.0, 22: 0.0, 23: 0.0, 24: 0.006, 25: 0.0415, 26: 0.0625, 27: 0.103, 28: 0.0, 29: 0.2382, 30: 0.2152, 31: 0.0, 32: 0.4485, 33: 0.7514999999999999, 34: 0.0, 35: 1.093, 36: 0.9507, 37: 1.0697, 38: 1.098145833, 39: 0.0, 40: 0.0, 41: 0.0, 42: 0.0, 43: 1.5023, 44: 1.102645833, 45: 1.7532, 46: 1.100945833, 47: 0.0, 48: 1.8507, 49: 1.8308, 50: 1.8587, 51: 0.0, 52: 1.694, 53: 1.6482, 54: 1.582, 55: 0.0, 56: 1.437, 57: 1.3275, 58: 0.0, 59: 0.0, 60: 0.0, 61: 0.0, 62: 0.6735, 63: 0.0, 64: 0.5669999999999999, 65: 0.5158, 66: 0.0, 67: 0.2193, 68: 0.1035, 69: 0.0, 70: 0.0, 71: 0.024, 72: 0.0047, 73: 0.0003, 74: 0.0, 75: 0.0, 76: 0.0, 77: 0.0, 78: 0.0, 79: 0.0, 80: 0.0, 81: 0.0, 82: 0.0, 83: 0.0, 84: 0.0, 85: 0.0, 86: 0.0, 87: 0.0, 88: 0.0, 89: 0.0, 90: 0.0, 91: 0.0, 92: 0.0, 93: 0.0, 94: 0.0, 95: 0.0];
buy = [0: 1.277645833, 1: 0.238645833, 2: 1.234845833, 3: 0.234645833, 4: 1.250445833, 5: 1.242645833, 6: 0.236892494, 7: 0.0, 8: 1.228145833, 9: 0.0, 10: 1.226945833, 11: 0.227645833, 12: 0.0, 13: 1.230145833, 14: 1.229445833, 15: 1.230445833, 16: 1.518845833, 17: 0.550145833, 18: 0.585845833, 19: 0.109445833, 20: 0.108145833, 21: 0.0, 22: 0.103645833, 23: 1.107945833, 24: 0.099645833, 25: 0.063345833, 26: 1.027145833, 27: 0.0, 28: 0.0, 29: 0.0, 30: 0.0, 31: 0.0, 32: 0.652145833, 33: 0.348645833, 34: 0.099945833, 35: 0.008145833, 36: 0.0, 37: 0.0, 38: 0.0, 39: 0.0, 40: 0.099445833, 41: 0.0, 42: 1.098145833, 43: 0.0, 44: 0.0, 45: 0.0, 46: 0.0, 47: 0.0, 48: 0.0, 49: 0.0, 50: 0.0, 51: 1.095845833, 52: 0.0, 53: 0.0, 54: 0.0, 55: 0.401345833, 56: 0.0, 57: 0.049645833, 58: 0.0, 59: 0.0, 60: 1.103145833, 61: 0.0, 62: 0.0, 63: 1.103145833, 64: 0.0, 65: 0.0, 66: 1.097945833, 67: 0.880345833, 68: 0.0, 69: 1.101445833, 70: 0.0, 71: 0.0, 72: 0.0, 73: 1.089845833, 74: 1.090645833, 75: 1.089845833, 76: 1.089345833, 77: 1.090945833, 78: 0.0, 79: 0.0, 80: 0.088845833, 81: 0.0, 82: 1.093145833, 83: 1.092145833, 84: 1.108145833, 85: 0.0, 86: 0.0, 87: 0.108145833, 88: 0.0, 89: 1.266845833, 90: 0.0, 91: 0.0, 92: 0.0, 93: 1.336645833, 94: 1.295845833, 95: 0.293645833];
sell = [0: 0.0, 1: 0.0, 2: 0.0, 3: 0.0, 4: 0.0, 5: 0.0, 6: 0.0, 7: 0.655854167, 8: 0.0, 9: 0.671554167, 10: 0.0, 11: 0.0, 12: 0.670854167, 13: 0.0, 14: 0.0, 15: 0.0, 16: 0.0, 17: 0.0, 18: 0.0, 19: 0.0, 20: 0.0, 21: 0.796154167, 22: 0.0, 23: 0.0, 24: 0.0, 25: 0.0, 26: 0.0, 27: 0.914654167, 28: 0.810654167, 29: 1.049554167, 30: 1.013554167, 31: 0.798154167, 32: 0.0, 33: 0.0, 34: 0.0, 35: 0.0, 36: 0.850554167, 37: 1.864854167, 38: 0.0, 39: 0.801854167, 40: 0.0, 41: 0.802054167, 42: 0.0, 43: 0.402854167, 44: 0.0, 45: 2.550854167, 46: 0.0, 47: 0.805654167, 48: 2.656554167, 49: 0.737154167, 50: 2.664054167, 51: 0.0, 52: 1.598154167, 53: 0.346354167, 54: 0.7660395840000001, 55: 0.0, 56: 0.030854167, 57: 0.0, 58: 0.521854167, 59: 0.549854167, 60: 0.0, 61: 0.797854167, 62: 1.469654167, 63: 0.0, 64: 1.365554167, 65: 1.315654167, 66: 0.0, 67: 0.0, 68: 0.902854167, 69: 0.0, 70: 0.0, 71: 0.823054167, 72: 0.668780511, 73: 0.0, 74: 0.0, 75: 0.0, 76: 0.0, 77: 0.0, 78: 0.810654167, 79: 0.810354167, 80: 0.0, 81: 0.811154167, 82: 0.0, 83: 0.0, 84: 0.0, 85: 0.794054167, 86: 0.791054167, 87: 0.0, 88: 0.793554167, 89: 0.0, 90: 0.564154167, 91: 0.564354167, 92: 0.566154167, 93: 0.0, 94: 0.0, 95: 0.0];
charge = [0: 1.0, 1: 0.0, 2: 1.0, 3: 0.0, 4: 1.0, 5: 1.0, 6: 0.009746660000000001, 7: 0.0, 8: 1.0, 9: 0.0, 10: 1.0, 11: 0.0, 12: 0.0, 13: 1.0, 14: 1.0, 15: 1.0, 16: 1.0, 17: 0.0, 18: 0.0, 19: 0.0, 20: 0.0, 21: 0.0, 22: 0.0, 23: 1.0, 24: 0.0, 25: 0.0, 26: 1.0, 27: 0.0, 28: 0.0, 29: 0.0, 30: 0.0, 31: 0.0, 32: 1.0, 33: 1.0, 34: 0.0, 35: 1.0, 36: 0.0, 37: 0.0, 38: 1.0, 39: 0.0, 40: 0.0, 41: 0.0, 42: 1.0, 43: 1.0, 44: 1.0, 45: 0.0, 46: 1.0, 47: 0.0, 48: 0.0, 49: 1.0, 50: 0.0, 51: 1.0, 52: 0.0, 53: 1.0, 54: 0.422114582, 55: 0.0, 56: 1.0, 57: 1.0, 58: 0.0, 59: 0.0, 60: 1.0, 61: 0.0, 62: 0.0, 63: 1.0, 64: 0.0, 65: 0.0, 66: 1.0, 67: 1.0, 68: 0.0, 69: 1.0, 70: 0.0, 71: 0.0, 72: 0.0, 73: 1.0, 74: 1.0, 75: 1.0, 76: 1.0, 77: 1.0, 78: 0.0, 79: 0.0, 80: 0.0, 81: 0.0, 82: 1.0, 83: 1.0, 84: 1.0, 85: 0.0, 86: 0.0, 87: 0.0, 88: 0.0, 89: 1.0, 90: 0.0, 91: 0.0, 92: 0.0, 93: 1.0, 94: 1.0, 95: 0.0];
discharge = [0: 0.0, 1: 0.0, 2: 0.0, 3: 0.0, 4: 0.0, 5: 0.0, 6: 0.0, 7: 1.0, 8: 0.0, 9: 1.0, 10: 0.0, 11: 0.0, 12: 1.0, 13: 0.0, 14: 0.0, 15: 0.0, 16: 0.0, 17: 0.0, 18: 0.0, 19: 0.0, 20: 0.0, 21: 1.0, 22: 0.0, 23: 0.0, 24: 0.0, 25: 0.0, 26: 0.0, 27: 1.0, 28: 1.0, 29: 1.0, 30: 1.0, 31: 1.0, 32: 0.0, 33: 0.0, 34: 0.0, 35: 0.0, 36: 0.0, 37: 1.0, 38: 0.0, 39: 1.0, 40: 0.0, 41: 1.0, 42: 0.0, 43: 0.0, 44: 0.0, 45: 1.0, 46: 0.0, 47: 1.0, 48: 1.0, 49: 0.0, 50: 1.0, 51: 0.0, 52: 0.0, 53: 0.0, 54: 0.0, 55: 0.0, 56: 0.0, 57: 0.0, 58: 1.0, 59: 1.0, 60: 0.0, 61: 1.0, 62: 1.0, 63: 0.0, 64: 1.0, 65: 1.0, 66: 0.0, 67: 0.0, 68: 1.0, 69: 0.0, 70: 0.11049537, 71: 1.0, 72: 0.83691816, 73: 0.0, 74: 0.0, 75: 0.0, 76: 0.0, 77: 0.0, 78: 1.0, 79: 1.0, 80: 0.0, 81: 1.0, 82: 0.0, 83: 0.0, 84: 0.0, 85: 1.0, 86: 1.0, 87: 0.0, 88: 1.0, 89: 0.0, 90: 1.0, 91: 1.0, 92: 1.0, 93: 0.0, 94: 0.0, 95: 0.0];
soc = [0: 9.828213999999999, 1: 9.826248357000001, 2: 10.724283108, 3: 10.722138251, 4: 11.619993823, 5: 12.517669824, 6: 12.523938285, 7: 11.521433497, 8: 12.41912921, 9: 11.416645385, 10: 12.314362055, 11: 12.311899183, 12: 11.309436803, 13: 12.207174916, 14: 13.104733481, 15: 14.002112534, 16: 14.899312112, 17: 14.896332249, 18: 14.893352983, 19: 14.890374312, 20: 14.887396237, 21: 13.884418758, 22: 13.881641874, 23: 14.778865546, 24: 14.775909773, 25: 14.772954591, 26: 15.67, 27: 14.666866, 28: 13.663932627, 29: 12.66119984, 30: 11.6586676, 31: 10.656335867, 32: 11.5542046, 33: 12.451893759, 34: 12.44940338, 35: 13.346913499, 36: 13.344244117, 37: 12.341575268, 38: 13.239106953, 39: 12.236459131, 40: 12.234011839, 41: 11.231565037, 42: 12.129318724, 43: 13.02689286, 44: 13.924287482, 45: 12.921502624, 46: 13.818918324, 47: 12.81615454, 48: 11.813591309, 49: 12.711228591, 50: 11.708686345, 51: 12.606344608, 52: 12.603823339, 53: 13.501302574, 54: 13.878505438, 55: 13.875729737, 56: 14.772954591, 57: 15.67, 58: 14.666866, 59: 13.663932627, 60: 14.56119984, 61: 13.5582876, 62: 12.555575943, 63: 13.453064828, 64: 12.450374215, 65: 11.44788414, 66: 12.345594563, 67: 13.243125444, 68: 12.24047619, 69: 13.138028724, 70: 13.024905747, 71: 12.022300766, 72: 11.182978146, 73: 12.08074155, 74: 12.978325402, 75: 13.875729737, 76: 14.772954591, 77: 15.67, 78: 14.666866, 79: 13.663932627, 80: 13.66119984, 81: 12.6584676, 82: 13.555935907, 83: 14.45322472, 84: 15.350334075, 85: 14.347264008, 86: 13.344394555, 87: 13.341725676, 88: 12.339057331, 89: 13.23658952, 90: 12.233942202, 91: 11.231495413, 92: 10.229249114, 93: 11.127203264, 94: 12.024977824, 95: 12.022572828];
cost = [0: 0.898692005, 1: 0.14578874, 2: 0.872545485, 3: 0.14334514, 4: 0.882075525, 5: 0.877310505, 6: 0.145869467, 7: 0.0, 8: 0.868452455, 9: 0.0, 10: 0.867719375, 11: 0.13906884, 12: 0.0, 13: 0.869674255, 14: 0.8692466250000001, 15: 0.869857525, 16: 1.046041085, 17: 0.33608409, 18: 0.35789322, 19: 0.06686046, 20: 0.06606629, 21: 0.0, 22: 0.06331724, 23: 0.795022275, 24: 0.118538683, 25: 0.075356203, 26: 1.340070849, 27: 0.0, 28: 0.0, 29: 0.0, 30: 0.0, 31: 0.0, 32: 0.893970849, 33: 0.532927249, 34: 0.118895563, 35: 0.127868449, 36: 0.0, 37: 0.0, 38: 0.118178165, 39: 0.0, 40: 0.118300763, 41: 0.0, 42: 1.424532449, 43: 0.118178165, 44: 0.118178165, 45: 0.0, 46: 0.118178165, 47: 0.0, 48: 0.0, 49: 0.118178165, 50: 0.0, 51: 1.421796369, 52: 0.0, 53: 0.118178165, 54: 0.049884727, 55: 0.24518217, 56: 0.118178165, 57: 0.148506805, 58: 0.0, 59: 0.0, 60: 1.430480449, 61: 0.0, 62: 0.0, 63: 1.430480449, 64: 0.0, 65: 0.0, 66: 1.424294529, 67: 1.165437569, 68: 0.0, 69: 1.428458129, 70: 0.0, 71: 0.0, 72: 0.0, 73: 1.414658769, 74: 1.415610449, 75: 1.414658769, 76: 1.414063969, 77: 1.415967329, 78: 0.0, 79: 0.0, 80: 0.105691003, 81: 0.0, 82: 1.418584449, 83: 1.417394849, 84: 1.436428449, 85: 0.0, 86: 0.0, 87: 0.128650283, 88: 0.0, 89: 0.892094285, 90: 0.0, 91: 0.0, 92: 0.0, 93: 0.934735105, 94: 0.909810385, 95: 0.17938824];
earn = [0: 0.0, 1: 0.0, 2: 0.0, 3: 0.0, 4: 0.0, 5: 0.0, 6: 0.0, 7: 0.390626742, 8: 0.0, 9: 0.396955668, 10: 0.0, 11: 0.0, 12: 0.3960723, 13: 0.0, 14: 0.0, 15: 0.0, 16: 0.0, 17: 0.0, 18: 0.0, 19: 0.0, 20: 0.0, 21: 0.545922912, 22: 0.0, 23: 0.0, 24: 0.0, 25: 0.0, 26: 0.0, 27: 0.824011939, 28: 0.741424301, 29: 0.923922533, 30: 0.828783242, 31: 0.581056233, 32: 0.0, 33: 0.0, 34: 0.0, 35: 0.0, 36: 0.488558313, 37: 0.96226475, 38: 0.0, 39: 0.308713854, 40: 0.0, 41: 0.210940246, 42: 0.0, 43: 0.06288553500000001, 44: 0.0, 45: 0.104840106, 46: 0.0, 47: 0.010151243, 48: 0.02258071, 49: 0.009877866000000001, 50: 0.039960813, 51: 0.0, 52: 0.078789, 53: 0.018183594, 54: 0.086715681, 55: 0.0, 56: 0.009240823, 57: 0.0, 58: 0.204879946, 59: 0.23957146, 60: 0.0, 61: 0.406586483, 62: 0.7897921490000001, 63: 0.0, 64: 0.843502809, 65: 0.850044157, 66: 0.0, 67: 0.0, 68: 0.683280033, 69: 0.0, 70: 0.0, 71: 0.800337872, 72: 0.711582464, 73: 0.0, 74: 0.0, 75: 0.0, 76: 0.0, 77: 0.0, 78: 0.8852343499999999, 79: 0.863027188, 80: 0.0, 81: 0.731742174, 82: 0.0, 83: 0.0, 84: 0.0, 85: 0.6122951679999999, 86: 0.596217525, 87: 0.0, 88: 0.587864927, 89: 0.0, 90: 0.399816058, 91: 0.392734065, 92: 0.396647609, 93: 0.0, 94: 0.0, 95: 0.0];
total_cost = 40.000896338;
total_earn = 19.03763484;
% _objective = 20.963261498;