production = [0: 0.0, 1: 0.0, 2: 0.0, 3: 0.0, 4: 0.0, 5: 0.0, 6: 0.0, 7: 0.0, 8: 0.0, 9: 0.0, 10: 0.0, 11: 0.0, 12: 0.0, 13: 0.0, 14: 0.0, 15: 0.0, 16: 0.0, 17: 0.0, 18: 0.0, 19: 0.0, 20: 0.0, 21: 0.0, 22: 0.0, 23: 0.0, 24: 0.0, 25: 0.0, 26: 0.0625, 27: 0.0, 28: 0.0, 29: 0.2382, 30: 0.0, 31: 0.0, 32: 0.0, 33: 0.100145833, 34: 0.0, 35: 0.0, 36: 0.0, 37: 0.0, 38: 1.3702, 39: 0.0, 40: 1.2335, 41: 1.3017, 42: 0.0, 43: 0.0, 44: 1.7457, 45: 1.7532, 46: 1.8002, 47: 0.0, 48: 0.0, 49: 1.093645833, 50: 1.8587, 51: 0.0, 52: 0.0, 53: 0.0, 54: 1.582, 55: 1.489, 56: 0.406145833, 57: 1.3275, 58: 0.0, 59: 0.0, 60: 0.9683, 61: 0.9038, 62: 0.0, 63: 0.7117, 64: 0.5669999999999999, 65: 0.0, 66: 0.344, 67: 0.0, 68: 0.0, 69: 0.0877, 70: 0.0432, 71: 0.024, 72: 0.0, 73: 0.0, 74: 0.0, 75: 0.0, 76: 0.0, 77: 0.0, 78: 0.0, 79: 0.0, 80: 0.0, 81: 0.0, 82: 0.0, 83: 0.0, 84: 0.0, 85: 0.0, 86: 0.0, 87: 0.0, 88: 0.0, 89: 0.0, 90: 0.0, 91: 0.0, 92: 0.0, 93: 0.0, 94: 0.0, 95: 0.0];
buy = [0: 1.277645833, 1: 1.238645833, 2: 0.234845833, 3: 1.163306312, 4: 1.250445833, 5: 0.0, 6: 0.227145833, 7: 1.244145833, 8: 0.0, 9: 0.0, 10: 1.226945833, 11: 0.227645833, 12: 1.229145833, 13: 1.230145833, 14: 0.229445833, 15: 0.0, 16: 0.518845833, 17: 1.550145833, 18: 0.0, 19: 0.0, 20: 1.108145833, 21: 1.103845833, 22: 1.103645833, 23: 1.107945833, 24: 0.0, 25: 0.0, 26: 1.027145833, 27: 0.0, 28: 0.089345833, 29: 0.0, 30: 1.101645833, 31: 0.0, 32: 0.0, 33: 0.0, 34: 1.099945833, 35: 1.101145833, 36: 1.100145833, 37: 1.104845833, 38: 0.0, 39: 1.098145833, 40: 0.0, 41: 0.0, 42: 1.098145833, 43: 0.0, 44: 0.0, 45: 0.0, 46: 0.0, 47: 1.094345833, 48: 1.094145833, 49: 0.0, 50: 0.0, 51: 0.0, 52: 0.0, 53: 0.0, 54: 0.0, 55: 0.0, 56: 0.0, 57: 0.0, 58: 1.378145833, 59: 0.350145833, 60: 0.0, 61: 0.0, 62: 1.103845833, 63: 0.0, 64: 0.534445833, 65: 0.0, 66: 0.0, 67: 1.099645833, 68: 0.0, 69: 0.013745833, 70: 0.0, 71: 1.076945833, 72: 1.089145833, 73: 0.0, 74: 0.090645833, 75: 0.0, 76: 0.089345833, 77: 0.0, 78: 1.089345833, 79: 1.089645833, 80: 0.0, 81: 1.088845833, 82: 0.0, 83: 0.092145833, 84: 0.108145833, 85: 0.0, 86: 0.0, 87: 1.108145833, 88: 0.106445833, 89: 0.0, 90: 1.335845833, 91: 0.0, 92: 0.0, 93: 1.336645833, 94: 1.295845833, 95: 1.293645833];
sell = [0: 0.0, 1: 0.0, 2: 0.0, 3: 0.0, 4: 0.0, 5: 0.657354167, 6: 0.0, 7: 0.0, 8: 0.671854167, 9: 0.671554167, 10: 0.0, 11: 0.0, 12: 0.0, 13: 0.0, 14: 0.0, 15: 0.669554167, 16: 0.0, 17: 0.0, 18: 0.314154167, 19: 0.790554167, 20: 0.0, 21: 0.0, 22: 0.0, 23: 0.0, 24: 0.7943541670000001, 25: 0.795154167, 26: 0.0, 27: 0.811654167, 28: 0.0, 29: 1.049554167, 30: 0.0, 31: 0.798154167, 32: 0.7993541669999999, 33: 0.0, 34: 0.0, 35: 0.0, 36: 0.0, 37: 0.0, 38: 0.272054167, 39: 0.0, 40: 2.034054167, 41: 1.203754167, 42: 0.0, 43: 0.800554167, 44: 2.543054167, 45: 2.550854167, 46: 1.223064403, 47: 0.0, 48: 0.0, 49: 0.0, 50: 2.664054167, 51: 0.804154167, 52: 0.804154167, 53: 0.598154167, 54: 2.088154167, 55: 0.08765416700000001, 56: 0.0, 57: 0.950354167, 58: 0.0, 59: 0.0, 60: 1.765154167, 61: 0.801654167, 62: 0.0, 63: 1.508554167, 64: 0.0, 65: 0.799854167, 66: 0.246054167, 67: 0.0, 68: 0.7993541669999999, 69: 0.0, 70: 0.8437541670000001, 71: 0.0, 72: 0.0, 73: 0.809854167, 74: 0.0, 75: 0.810154167, 76: 0.0, 77: 0.809054167, 78: 0.0, 79: 0.0, 80: 0.811154167, 81: 0.0, 82: 0.806854167, 83: 0.0, 84: 0.0, 85: 0.794054167, 86: 0.791054167, 87: 0.0, 88: 0.0, 89: 0.633154167, 90: 0.0, 91: 0.564354167, 92: 0.566154167, 93: 0.0, 94: 0.0, 95: 0.0];
charge = [0: 1.0, 1: 1.0, 2: 0.0, 3: 0.928660479, 4: 1.0, 5: 0.0, 6: 0.0, 7: 1.0, 8: 0.0, 9: 0.0, 10: 1.0, 11: 0.0, 12: 1.0, 13: 1.0, 14: 0.0, 15: 0.0, 16: 0.0, 17: 1.0, 18: 0.0, 19: 0.0, 20: 1.0, 21: 1.0, 22: 1.0, 23: 1.0, 24: 0.0, 25: 0.0, 26: 1.0, 27: 0.0, 28: 0.0, 29: 0.0, 30: 1.0, 31: 0.0, 32: 0.0, 33: 0.0, 34: 1.0, 35: 1.0, 36: 1.0, 37: 1.0, 38: 1.0, 39: 1.0, 40: 0.0, 41: 0.0, 42: 1.0, 43: 0.0, 44: 0.0, 45: 0.0, 46: 0.476189764, 47: 1.0, 48: 1.0, 49: 1.0, 50: 0.0, 51: 0.0, 52: 0.0, 53: 0.0, 54: 0.0, 55: 1.0, 56: 0.0, 57: 0.0, 58: 1.0, 59: 0.0, 60: 0.0, 61: 0.0, 62: 1.0, 63: 0.0, 64: 1.0, 65: 0.0, 66: 0.0, 67: 1.0, 68: 0.0, 69: 0.0, 70: 0.0, 71: 1.0, 72: 1.0, 73: 0.0, 74: 0.0, 75: 0.0, 76: 0.0, 77: 0.0, 78: 1.0, 79: 1.0, 80: 0.0, 81: 1.0, 82: 0.0, 83: 0.0, 84: 0.0, 85: 0.0, 86: 0.0, 87: 1.0, 88: 0.0, 89: 0.0, 90: 1.0, 91: 0.0, 92: 0.0, 93: 1.0, 94: 1.0, 95: 1.0];
discharge = [0: 0.0, 1: 0.0, 2: 0.0, 3: 0.0, 4: 0.0, 5: 1.0, 6: 0.0, 7: 0.0, 8: 1.0, 9: 1.0, 10: 0.0, 11: 0.0, 12: 0.0, 13: 0.0, 14: 0.0, 15: 1.0, 16: 0.0, 17: 0.0, 18: 1.0, 19: 1.0, 20: 0.0, 21: 0.0, 22: 0.0, 23: 0.0, 24: 1.0, 25: 1.0, 26: 0.0, 27: 1.0, 28: 0.0, 29: 1.0, 30: 0.0, 31: 1.0, 32: 1.0, 33: 0.0, 34: 0.0, 35: 0.0, 36: 0.0, 37: 0.0, 38: 0.0, 39: 0.0, 40: 1.0, 41: 0.0, 42: 0.0, 43: 1.0, 44: 1.0, 45: 1.0, 46: 0.0, 47: 0.0, 48: 0.0, 49: 0.0, 50: 1.0, 51: 1.0, 52: 1.0, 53: 1.0, 54: 1.0, 55: 0.0, 56: 0.0, 57: 0.0, 58: 0.0, 59: 0.0, 60: 1.0, 61: 0.0, 62: 0.0, 63: 1.0, 64: 0.0, 65: 1.0, 66: 0.0, 67: 0.0, 68: 1.0, 69: 0.0, 70: 1.0, 71: 0.0, 72: 0.0, 73: 1.0, 74: 0.0, 75: 1.0, 76: 0.0, 77: 1.0, 78: 0.0, 79: 0.0, 80: 1.0, 81: 0.0, 82: 1.0, 83: 0.0, 84: 0.0, 85: 1.0, 86: 1.0, 87: 0.0, 88: 0.0, 89: 1.0, 90: 0.0, 91: 1.0, 92: 1.0, 93: 0.0, 94: 0.0, 95: 0.0];
soc = [0: 9.828213999999999, 1: 10.726248357, 2: 10.724103108, 3: 11.557752718, 4: 12.455441167, 5: 11.452950079, 6: 11.450659489, 7: 12.348369357, 8: 11.345899683, 9: 10.343630503, 10: 11.241561777, 11: 11.239313465, 12: 12.137065602, 13: 13.034638189, 14: 13.032031261, 15: 12.029424855, 16: 12.02701897, 17: 12.924613566, 18: 11.922028643, 19: 10.919644238, 20: 11.817460317, 21: 12.715096817, 22: 13.612553797, 23: 14.509831287, 24: 13.50692932, 25: 12.504227935, 26: 13.401727089, 27: 12.399046744, 28: 12.396566934, 29: 11.394087621, 30: 12.291808803, 31: 11.289350442, 32: 10.287092571, 33: 10.285035153, 34: 11.182978146, 35: 12.08074155, 36: 12.978325402, 37: 13.875729737, 38: 14.772954591, 39: 15.67, 40: 14.666866, 41: 14.663932627, 42: 15.56099984, 43: 14.55788764, 44: 13.554976063, 45: 12.552265068, 46: 12.978325402, 47: 13.875729737, 48: 14.772954591, 49: 15.67, 50: 14.666866, 51: 13.663932627, 52: 12.66119984, 53: 11.6586676, 54: 10.656335867, 55: 11.5542046, 56: 11.551893759, 57: 11.54958338, 58: 12.447273463, 59: 12.444784009, 60: 11.442295052, 61: 11.440006593, 62: 12.337718591, 63: 11.335251048, 64: 12.232983998, 65: 11.230537401, 66: 11.228291293, 67: 12.126045635, 68: 11.123620426, 69: 11.121395702, 70: 10.119171423, 71: 11.017147588, 72: 11.914944159, 73: 10.91256117, 74: 10.910378658, 75: 9.908196582, 76: 9.906214943, 77: 8.904233700000001, 78: 9.802452853, 79: 10.700492362, 80: 9.698352264, 81: 10.596412593, 82: 9.594293310999999, 83: 9.592374452, 84: 9.590455977, 85: 8.588537885999999, 86: 7.586820179, 87: 8.485302815000001, 88: 8.483605753999999, 89: 7.481909033, 90: 8.380412651, 91: 7.378736569, 92: 6.377260821, 93: 7.275985369, 94: 8.174530172000001, 95: 9.072895266];
cost = [0: 0.898692005, 1: 0.874866905, 2: 0.14346732, 3: 0.8204112180000001, 4: 0.882075525, 5: 0.0, 6: 0.13876339, 7: 0.878226855, 8: 0.0, 9: 0.0, 10: 0.867719375, 11: 0.13906884, 12: 0.869063355, 13: 0.869674255, 14: 0.14016846, 15: 0.0, 16: 0.31696292, 17: 1.065162255, 18: 0.0, 19: 0.0, 20: 0.795144455, 21: 0.792517585, 22: 0.7923954050000001, 23: 0.795022275, 24: 0.0, 25: 0.0, 26: 1.340070849, 27: 0.0, 28: 0.106285803, 29: 0.0, 30: 1.428696049, 31: 0.0, 32: 0.0, 33: 0.0, 34: 1.426673729, 35: 1.428101249, 36: 1.426911649, 37: 1.432502769, 38: 0.118178165, 39: 1.424532449, 40: 0.0, 41: 0.0, 42: 1.424532449, 43: 0.0, 44: 0.0, 45: 0.0, 46: 0.056275233, 47: 1.420011969, 48: 1.419774049, 49: 0.118178165, 50: 0.0, 51: 0.0, 52: 0.0, 53: 0.0, 54: 0.0, 55: 0.118178165, 56: 0.0, 57: 0.0, 58: 0.960087455, 59: 0.21390409, 60: 0.0, 61: 0.0, 62: 1.431313169, 63: 0.0, 64: 0.7539549290000001, 65: 0.0, 66: 0.0, 67: 1.426316849, 68: 0.0, 69: 0.016352043, 70: 0.0, 71: 1.399312929, 72: 1.413826049, 73: 0.0, 74: 0.107832283, 75: 0.0, 76: 0.106285803, 77: 0.0, 78: 1.414063969, 79: 1.414420849, 80: 0.0, 81: 1.413469169, 82: 0.0, 83: 0.109616683, 84: 0.128650283, 85: 0.0, 86: 0.0, 87: 1.436428449, 88: 0.06502776, 89: 0.0, 90: 0.934246385, 91: 0.0, 92: 0.0, 93: 0.934735105, 94: 0.909810385, 95: 0.908466405];
earn = [0: 0.0, 1: 0.0, 2: 0.0, 3: 0.0, 4: 0.0, 5: 0.388693519, 6: 0.0, 7: 0.0, 8: 0.398006408, 9: 0.396955668, 10: 0.0, 11: 0.0, 12: 0.0, 13: 0.0, 14: 0.0, 15: 0.415391405, 16: 0.0, 17: 0.0, 18: 0.201498483, 19: 0.51314871, 20: 0.0, 21: 0.0, 22: 0.0, 23: 0.0, 24: 0.642870827, 25: 0.68319646, 26: 0.0, 27: 0.731219239, 28: 0.0, 29: 0.923922533, 30: 0.0, 31: 0.581056233, 32: 0.640842235, 33: 0.0, 34: 0.0, 35: 0.0, 36: 0.0, 37: 0.0, 38: 0.126341955, 39: 0.0, 40: 0.6905613900000001, 41: 0.316587346, 42: 0.0, 43: 0.124966505, 44: 0.179031013, 45: 0.104840106, 46: 0.020669788, 47: 0.0, 48: 0.0, 49: 0.0, 50: 0.039960813, 51: 0.012544805, 52: 0.0396448, 53: 0.031403094, 54: 0.236379052, 55: 0.012008621, 56: 0.0, 57: 0.332433887, 58: 0.0, 59: 0.0, 60: 0.898463471, 61: 0.408522963, 62: 0.0, 63: 0.884314453, 64: 0.0, 65: 0.5167857769999999, 66: 0.166357222, 67: 0.0, 68: 0.604951233, 69: 0.0, 70: 0.745541182, 71: 0.0, 72: 0.0, 73: 0.898938125, 74: 0.0, 75: 0.939778833, 76: 0.0, 77: 0.906949721, 78: 0.0, 79: 0.0, 80: 0.763296071, 81: 0.0, 82: 0.70680425, 83: 0.0, 84: 0.0, 85: 0.6122951679999999, 86: 0.596217525, 87: 0.0, 88: 0.0, 89: 0.463658796, 90: 0.0, 91: 0.392734065, 92: 0.396647609, 93: 0.0, 94: 0.0, 95: 0.0];
total_cost = 44.266426174;
total_earn = 19.686431359;
% _objective = 24.579994815;