production = [0: 0.0, 1: 0.0, 2: 0.0, 3: 0.0, 4: 0.0, 5: 0.0, 6: 0.0, 7: 0.0, 8: 0.0, 9: 0.0, 10: 0.0, 11: 0.0, 12: 0.0, 13: 0.0, 14: 0.0, 15: 0.0, 16: 0.0, 17: 0.0, 18: 0.0, 19: 0.0, 20: 0.0, 21: 0.0, 22: 0.0, 23: 0.0008, 24: 0.006, 25: 0.0, 26: 0.0625, 27: 0.0, 28: 0.0, 29: 0.0, 30: 0.0, 31: 0.0, 32: 0.0, 33: 0.0, 34: 0.8025, 35: 0.0, 36: 0.0, 37: 1.0697, 38: 0.0, 39: 0.0, 40: 1.2335, 41: 0.0, 42: 1.486, 43: 1.5023, 44: 0.0, 45: 1.7532, 46: 0.0, 47: 1.8237, 48: 0.0, 49: 1.8308, 50: 1.8587, 51: 1.758, 52: 0.0, 53: 1.6482, 54: 1.582, 55: 0.0, 56: 0.0, 57: 0.0, 58: 1.2428, 59: 0.0, 60: 0.0, 61: 0.0, 62: 0.6735, 63: 0.7117, 64: 0.0, 65: 0.5158, 66: 0.0, 67: 0.0, 68: 0.0, 69: 0.0877, 70: 0.0, 71: 0.024, 72: 0.0047, 73: 0.0003, 74: 0.0, 75: 0.0, 76: 0.0, 77: 0.0, 78: 0.0, 79: 0.0, 80: 0.0, 81: 0.0, 82: 0.0, 83: 0.0, 84: 0.0, 85: 0.0, 86: 0.0, 87: 0.0, 88: 0.0, 89: 0.0, 90: 0.0, 91: 0.0, 92: 0.0, 93: 0.0, 94: 0.0, 95: 0.0];
buy = [0: 0.0, 1: 0.0, 2: 1.234845833, 3: 1.234645833, 4: 0.0, 5: 0.242645833, 6: 0.227145833, 7: 0.0, 8: 0.228145833, 9: 1.228445833, 10: 0.0, 11: 0.0, 12: 0.0, 13: 1.230145833, 14: 0.0, 15: 0.0, 16: 0.518845833, 17: 0.0, 18: 1.585845833, 19: 0.95789344, 20: 0.108145833, 21: 1.103845833, 22: 1.103645833, 23: 1.107145833, 24: 0.099645833, 25: 0.104845833, 26: 0.027145833, 27: 0.0, 28: 1.089345833, 29: 1.088645833, 30: 1.101645833, 31: 0.0, 32: 0.0, 33: 0.0, 34: 0.0, 35: 0.101145833, 36: 0.0, 37: 0.0, 38: 0.098145833, 39: 0.098145833, 40: 0.0, 41: 1.097945833, 42: 0.0, 43: 0.0, 44: 1.102645833, 45: 0.0, 46: 1.100945833, 47: 0.0, 48: 1.094145833, 49: 0.0, 50: 0.0, 51: 0.0, 52: 0.0, 53: 0.0, 54: 0.0, 55: 0.401345833, 56: 1.406145833, 57: 1.377145833, 58: 0.0, 59: 0.350145833, 60: 0.0, 61: 0.102145833, 62: 0.430345833, 63: 0.0, 64: 0.0, 65: 0.584345833, 66: 1.097945833, 67: 0.0, 68: 0.100645833, 69: 0.013745833, 70: 0.0, 71: 1.076945833, 72: 1.084445833, 73: 0.0, 74: 1.090645833, 75: 1.089845833, 76: 1.089345833, 77: 0.0, 78: 1.089345833, 79: 1.089645833, 80: 0.088845833, 81: 0.088845833, 82: 0.0, 83: 0.092145833, 84: 0.108145833, 85: 1.105945833, 86: 0.108945833, 87: 0.108145833, 88: 0.0, 89: 1.266845833, 90: 0.335845833, 91: 0.335645833, 92: 0.0, 93: 0.336645833, 94: 1.295845833, 95: 1.293645833];
sell = [0: 0.622354167, 1: 0.661354167, 2: 0.0, 3: 0.0, 4: 0.0, 5: 0.0, 6: 0.0, 7: 0.655854167, 8: 0.0, 9: 0.0, 10: 0.673054167, 11: 0.6723541669999999, 12: 0.670854167, 13: 0.0, 14: 0.670554167, 15: 0.669554167, 16: 0.0, 17: 0.349854167, 18: 0.0, 19: 0.0, 20: 0.0, 21: 0.0, 22: 0.0, 23: 0.0, 24: 0.0, 25: 0.0, 26: 0.0, 27: 0.811654167, 28: 0.0, 29: 0.0, 30: 0.0, 31: 0.798154167, 32: 0.7993541669999999, 33: 0.799854167, 34: 1.602554167, 35: 0.0, 36: 0.799854167, 37: 1.864854167, 38: 0.0, 39: 0.0, 40: 1.134054167, 41: 0.0, 42: 1.387854167, 43: 2.302854167, 44: 0.0, 45: 0.650854167, 46: 0.0, 47: 2.629354167, 48: 0.0, 49: 0.737154167, 50: 2.664054167, 51: 2.562154167, 52: 0.804154167, 53: 2.246354167, 54: 0.188154167, 55: 0.0, 56: 0.0, 57: 0.0, 58: 1.764654167, 59: 0.0, 60: 0.796854167, 61: 0.0, 62: 0.0, 63: 0.608554167, 64: 0.798554167, 65: 0.0, 66: 0.0, 67: 0.434383595, 68: 0.0, 69: 0.0, 70: 0.800554167, 71: 0.0, 72: 0.0, 73: 0.810154167, 74: 0.0, 75: 0.0, 76: 0.0, 77: 0.809054167, 78: 0.0, 79: 0.0, 80: 0.0, 81: 0.0, 82: 0.806854167, 83: 0.0, 84: 0.0, 85: 0.0, 86: 0.0, 87: 0.0, 88: 0.793554167, 89: 0.0, 90: 0.0, 91: 0.0, 92: 0.566154167, 93: 0.0, 94: 0.0, 95: 0.0];
charge = [0: 0.0, 1: 0.0, 2: 1.0, 3: 1.0, 4: 0.0, 5: 0.0, 6: 0.0, 7: 0.0, 8: 0.0, 9: 1.0, 10: 0.0, 11: 0.0, 12: 0.0, 13: 1.0, 14: 0.0, 15: 0.0, 16: 0.0, 17: 0.0, 18: 1.0, 19: 0.848447607, 20: 0.0, 21: 1.0, 22: 1.0, 23: 1.0, 24: 0.0, 25: 0.0, 26: 0.0, 27: 0.0, 28: 1.0, 29: 1.0, 30: 1.0, 31: 0.0, 32: 0.0, 33: 0.0, 34: 0.0, 35: 0.0, 36: 0.0, 37: 0.0, 38: 0.0, 39: 0.0, 40: 0.0, 41: 1.0, 42: 0.0, 43: 0.0, 44: 1.0, 45: 1.0, 46: 1.0, 47: 0.0, 48: 1.0, 49: 1.0, 50: 0.0, 51: 0.0, 52: 0.0, 53: 0.0, 54: 1.0, 55: 0.0, 56: 1.0, 57: 1.0, 58: 0.0, 59: 0.0, 60: 0.0, 61: 0.0, 62: 1.0, 63: 0.0, 64: 0.0, 65: 1.0, 66: 1.0, 67: 0.0, 68: 0.0, 69: 0.0, 70: 0.0, 71: 1.0, 72: 1.0, 73: 0.0, 74: 1.0, 75: 1.0, 76: 1.0, 77: 0.0, 78: 1.0, 79: 1.0, 80: 0.0, 81: 0.0, 82: 0.0, 83: 0.0, 84: 0.0, 85: 1.0, 86: 0.0, 87: 0.0, 88: 0.0, 89: 1.0, 90: 0.0, 91: 0.0, 92: 0.0, 93: 0.0, 94: 1.0, 95: 1.0];
discharge = [0: 1.0, 1: 1.0, 2: 0.0, 3: 0.0, 4: 0.278273148, 5: 0.0, 6: 0.0, 7: 1.0, 8: 0.0, 9: 0.0, 10: 1.0, 11: 1.0, 12: 1.0, 13: 0.0, 14: 1.0, 15: 1.0, 16: 0.0, 17: 1.0, 18: 0.0, 19: 0.0, 20: 0.0, 21: 0.0, 22: 0.0, 23: 0.0, 24: 0.0, 25: 0.0, 26: 0.0, 27: 1.0, 28: 0.0, 29: 0.0, 30: 0.0, 31: 1.0, 32: 1.0, 33: 1.0, 34: 1.0, 35: 0.0, 36: 1.0, 37: 1.0, 38: 0.0, 39: 0.0, 40: 0.0, 41: 0.0, 42: 0.0, 43: 1.0, 44: 0.0, 45: 0.0, 46: 0.0, 47: 1.0, 48: 0.0, 49: 0.0, 50: 1.0, 51: 1.0, 52: 1.0, 53: 1.0, 54: 0.0, 55: 0.0, 56: 0.0, 57: 0.0, 58: 1.0, 59: 0.0, 60: 1.0, 61: 0.0, 62: 0.0, 63: 0.0, 64: 1.0, 65: 0.0, 66: 0.0, 67: 0.593366031, 68: 0.0, 69: 0.0, 70: 1.0, 71: 0.0, 72: 0.0, 73: 1.0, 74: 0.0, 75: 0.0, 76: 0.0, 77: 1.0, 78: 0.0, 79: 0.0, 80: 0.0, 81: 0.0, 82: 1.0, 83: 0.0, 84: 0.0, 85: 0.0, 86: 0.0, 87: 0.0, 88: 1.0, 89: 0.0, 90: 0.0, 91: 0.0, 92: 1.0, 93: 0.0, 94: 0.0, 95: 0.0];
soc = [0: 7.928214, 1: 6.926628357, 2: 7.825243032, 3: 8.723677983, 4: 8.443660099000001, 5: 8.441971367000001, 6: 8.440282973, 7: 7.438594916, 8: 7.437107197, 9: 8.335619776, 10: 7.333952652, 11: 6.332485861, 12: 5.331219364, 13: 6.23015312, 14: 5.22890709, 15: 4.227861308, 16: 4.227015736, 17: 3.226170333, 18: 4.125525099, 19: 4.88830284, 20: 4.887325179, 21: 5.786347714, 22: 6.685190445, 23: 7.583853407, 24: 7.582336636, 25: 7.580820169, 26: 7.579304005, 27: 6.577788144, 28: 7.476472586, 29: 8.374977292000001, 30: 9.273302296000001, 31: 8.271447636, 32: 7.269793346, 33: 6.268339387, 34: 5.26708572, 35: 5.266032302, 36: 4.264979096, 37: 3.2641261, 38: 3.263473275, 39: 3.26282058, 40: 3.262168016, 41: 4.161515583, 42: 4.160683279, 43: 3.159851143, 44: 4.059219173, 45: 4.958407329, 46: 5.857415647, 47: 4.856244164, 48: 5.755272915, 49: 6.654121861, 50: 5.652791036, 51: 4.651660478, 52: 3.650730146, 53: 2.65, 54: 3.54947, 55: 3.548760106, 56: 4.448050354, 57: 5.347160744, 58: 4.346091312, 59: 4.345222093, 60: 3.344353049, 61: 3.343684178, 62: 4.243015442, 63: 4.242166839, 64: 3.241318405, 65: 4.140670141, 66: 5.039842007, 67: 4.445468008, 68: 4.444578914, 69: 4.443689999, 70: 3.442801261, 71: 4.3421127, 72: 5.241244278, 73: 4.240196029, 74: 5.13934799, 75: 6.03832012, 76: 6.937112456, 77: 5.935725034, 78: 6.834537889, 79: 7.733170981, 80: 7.731624347, 81: 7.730078022, 82: 6.728532006, 83: 6.7271863, 84: 6.725840863, 85: 7.624495694, 86: 7.622970795, 87: 7.621446201, 88: 6.619921912, 89: 7.518597928, 90: 7.517094208, 91: 7.515590789, 92: 6.514087671, 93: 6.512784853, 94: 7.411482296, 95: 8.31];
cost = [0: 0.0, 1: 0.0, 2: 0.872545485, 3: 0.872423305, 4: 0.0, 5: 0.14823234, 6: 0.13876339, 7: 0.0, 8: 0.13937429, 9: 0.868635725, 10: 0.0, 11: 0.0, 12: 0.0, 13: 0.869674255, 14: 0.0, 15: 0.0, 16: 0.31696292, 17: 0.0, 18: 1.086971385, 19: 0.685445084, 20: 0.06606629, 21: 0.792517585, 22: 0.7923954050000001, 23: 0.794533555, 24: 0.118538683, 25: 0.124724603, 26: 0.032292683, 27: 0.0, 28: 1.414063969, 29: 1.413231249, 30: 1.428696049, 31: 0.0, 32: 0.0, 33: 0.0, 34: 0.0, 35: 0.120323083, 36: 0.0, 37: 0.0, 38: 0.116754283, 39: 0.116754283, 40: 0.0, 41: 1.424294529, 42: 0.0, 43: 0.0, 44: 1.429885649, 45: 0.118178165, 46: 1.427863329, 47: 0.0, 48: 1.419774049, 49: 0.118178165, 50: 0.0, 51: 0.0, 52: 0.0, 53: 0.0, 54: 0.118178165, 55: 0.24518217, 56: 0.977192655, 57: 0.959476555, 58: 0.0, 59: 0.21390409, 60: 0.0, 61: 0.121512683, 62: 0.630117569, 63: 0.0, 64: 0.0, 65: 0.813315969, 66: 1.424294529, 67: 0.0, 68: 0.119728283, 69: 0.016352043, 70: 0.0, 71: 1.399312929, 72: 1.408234929, 73: 0.0, 74: 1.415610449, 75: 1.414658769, 76: 1.414063969, 77: 0.0, 78: 1.414063969, 79: 1.414420849, 80: 0.105691003, 81: 0.105691003, 82: 0.0, 83: 0.109616683, 84: 0.128650283, 85: 1.433811329, 86: 0.129601963, 87: 0.128650283, 88: 0.0, 89: 0.892094285, 90: 0.20516822, 91: 0.20504604, 92: 0.0, 93: 0.20565694, 94: 0.909810385, 95: 0.908466405];
earn = [0: 0.373163558, 1: 0.388942385, 2: 0.0, 3: 0.0, 4: 0.0, 5: 0.0, 6: 0.0, 7: 0.390626742, 8: 0.0, 9: 0.0, 10: 0.399996091, 11: 0.402740146, 12: 0.3960723, 13: 0.0, 14: 0.409909762, 15: 0.415391405, 16: 0.0, 17: 0.222437279, 18: 0.0, 19: 0.0, 20: 0.0, 21: 0.0, 22: 0.0, 23: 0.0, 24: 0.0, 25: 0.0, 26: 0.0, 27: 0.731219239, 28: 0.0, 29: 0.0, 30: 0.0, 31: 0.581056233, 32: 0.640842235, 33: 0.578214577, 34: 0.989096432, 35: 0.0, 36: 0.459436233, 37: 0.96226475, 38: 0.0, 39: 0.0, 40: 0.38501139, 41: 0.0, 42: 0.287008242, 43: 0.359475535, 44: 0.0, 45: 0.026750106, 46: 0.0, 47: 0.033129863, 48: 0.0, 49: 0.009877866000000001, 50: 0.039960813, 51: 0.039969605, 52: 0.0396448, 53: 0.117933594, 54: 0.021299052, 55: 0.0, 56: 0.0, 57: 0.0, 58: 0.692803226, 59: 0.0, 60: 0.405598771, 61: 0.0, 62: 0.0, 63: 0.356734453, 64: 0.493266909, 65: 0.0, 66: 0.0, 67: 0.322399504, 68: 0.0, 69: 0.0, 70: 0.707369662, 71: 0.0, 72: 0.0, 73: 0.8992711249999999, 74: 0.0, 75: 0.0, 76: 0.0, 77: 0.906949721, 78: 0.0, 79: 0.0, 80: 0.0, 81: 0.0, 82: 0.70680425, 83: 0.0, 84: 0.0, 85: 0.0, 86: 0.0, 87: 0.0, 88: 0.587864927, 89: 0.0, 90: 0.0, 91: 0.0, 92: 0.396647609, 93: 0.0, 94: 0.0, 95: 0.0];
total_cost = 40.255669178;
total_earn = 16.177180388;
% _objective = 24.07848879;