production = [0: 0.0, 1: 0.0, 2: 0.0, 3: 0.0, 4: 0.0, 5: 0.0, 6: 0.0, 7: 0.0, 8: 0.0, 9: 0.0, 10: 0.0, 11: 0.0, 12: 0.0, 13: 0.0, 14: 0.0, 15: 0.0, 16: 0.0, 17: 0.0, 18: 0.0, 19: 0.0, 20: 0.0, 21: 0.0, 22: 0.0, 23: 0.0, 24: 0.0003, 25: 0.0003, 26: 0.0, 27: 0.01, 28: 0.0095, 29: 0.046, 30: 0.0, 31: 0.1445, 32: 0.1092, 33: 0.0, 34: 0.0, 35: 0.0, 36: 0.0, 37: 0.0, 38: 0.0, 39: 0.6142, 40: 0.0, 41: 0.5697, 42: 0.0, 43: 0.0, 44: 0.792, 45: 0.0, 46: 0.703, 47: 0.0, 48: 0.0, 49: 0.0, 50: 1.133145833, 51: 0.0, 52: 0.0, 53: 0.8808, 54: 0.0, 55: 0.3625, 56: 0.6835, 57: 0.7702, 58: 0.6315, 59: 0.0, 60: 0.6175, 61: 0.0, 62: 0.0, 63: 0.6342, 64: 0.0, 65: 1.277, 66: 0.863, 67: 0.9183, 68: 0.0, 69: 0.6222, 70: 0.5403, 71: 0.0, 72: 0.2018, 73: 0.0, 74: 0.0823, 75: 0.0, 76: 0.042, 77: 0.0203, 78: 0.0, 79: 0.0, 80: 0.0, 81: 0.0, 82: 0.0, 83: 0.0, 84: 0.0, 85: 0.0, 86: 0.0, 87: 0.0, 88: 0.0, 89: 0.0, 90: 0.0, 91: 0.0, 92: 0.0, 93: 0.0, 94: 0.0, 95: 0.0, 96: 0.0, 97: 0.0, 98: 0.0, 99: 0.0, 100: 0.0, 101: 0.0, 102: 0.0, 103: 0.0, 104: 0.0, 105: 0.0, 106: 0.0, 107: 0.0, 108: 0.0, 109: 0.0, 110: 0.0, 111: 0.0, 112: 0.0, 113: 0.0, 114: 0.0, 115: 0.0, 116: 0.0, 117: 0.0, 118: 0.0, 119: 0.0005, 120: 0.0, 121: 0.0, 122: 0.0065, 123: 0.0362, 124: 0.0, 125: 0.0302, 126: 0.0675, 127: 0.0922, 128: 0.093, 129: 0.0, 130: 0.1447, 131: 0.0, 132: 0.0, 133: 0.0, 134: 0.1062, 135: 0.0, 136: 0.0, 137: 0.516, 138: 0.0, 139: 0.0, 140: 0.0, 141: 0.0, 142: 0.6635, 143: 0.0, 144: 0.0, 145: 0.0, 146: 0.0, 147: 1.2067, 148: 0.677, 149: 0.0, 150: 1.1498, 151: 0.0, 152: 0.0, 153: 1.74, 154: 0.0, 155: 1.4543, 156: 1.3117, 157: 0.0, 158: 0.837, 159: 0.4358, 160: 0.9948, 161: 0.0, 162: 0.0, 163: 0.0, 164: 0.0, 165: 0.5118, 166: 0.6165, 167: 0.0, 168: 0.0, 169: 0.0, 170: 0.0, 171: 0.0, 172: 0.043, 173: 0.022, 174: 0.005, 175: 0.0008, 176: 0.0, 177: 0.0, 178: 0.0, 179: 0.0, 180: 0.0, 181: 0.0, 182: 0.0, 183: 0.0, 184: 0.0, 185: 0.0, 186: 0.0, 187: 0.0, 188: 0.0, 189: 0.0, 190: 0.0, 191: 0.0];
buy = [0: 1.365845833, 1: 1.340445833, 2: 0.330145833, 3: 1.12017283, 4: 1.266145833, 5: 0.246945833, 6: 1.246945833, 7: 0.0, 8: 0.0, 9: 0.0, 10: 1.228345833, 11: 0.228145833, 12: 0.0, 13: 0.222145833, 14: 0.0, 15: 1.231345833, 16: 0.230645833, 17: 1.225845833, 18: 0.0, 19: 0.0, 20: 1.112145833, 21: 1.105145833, 22: 1.102645833, 23: 1.101445833, 24: 0.0, 25: 1.112545833, 26: 1.110645833, 27: 0.0, 28: 1.087645833, 29: 0.059345833, 30: 0.0, 31: 0.9606458329999999, 32: 0.0, 33: 1.097845833, 34: 1.106145833, 35: 1.105645833, 36: 0.104145833, 37: 0.0, 38: 0.097145833, 39: 0.490945833, 40: 1.105645833, 41: 0.0, 42: 1.098145833, 43: 0.0, 44: 0.0, 45: 0.0, 46: 0.402945833, 47: 0.104345833, 48: 0.0, 49: 1.129645833, 50: 0.0, 51: 1.617445833, 52: 0.0, 53: 0.7570458329999999, 54: 1.137345833, 55: 1.042645833, 56: 0.0, 57: 0.0, 58: 1.283645833, 59: 1.891845833, 60: 0.0, 61: 0.0, 62: 0.0, 63: 0.835745833, 64: 0.170845833, 65: 0.0, 66: 0.0, 67: 0.227345833, 68: 0.250945833, 69: 1.009945833, 70: 0.0, 71: 0.0, 72: 0.961845833, 73: 0.0, 74: 0.0, 75: 0.194145833, 76: 1.078645833, 77: 0.092845833, 78: 1.105645833, 79: 0.0, 80: 0.095145833, 81: 0.0, 82: 1.153645833, 83: 0.155845833, 84: 0.0, 85: 0.0, 86: 0.0, 87: 0.172645833, 88: 0.376145833, 89: 1.352145833, 90: 0.320345833, 91: 1.280445833, 92: 1.256845833, 93: 0.243645833, 94: 0.0, 95: 0.232845833, 96: 0.0, 97: 0.0, 98: 1.242145833, 99: 1.241145833, 100: 0.242645833, 101: 0.243445833, 102: 0.246145833, 103: 0.0, 104: 1.239945833, 105: 0.0, 106: 1.233345833, 107: 0.0, 108: 0.999691073, 109: 1.240445833, 110: 1.243445833, 111: 1.242445833, 112: 0.0, 113: 1.241645833, 114: 0.241945833, 115: 0.242445833, 116: 1.243945833, 117: 0.0, 118: 0.115945833, 119: 0.0, 120: 0.122145833, 121: 1.123345833, 122: 0.111645833, 123: 1.079245833, 124: 1.110845833, 125: 0.0, 126: 1.049145833, 127: 0.0, 128: 0.0, 129: 0.117145833, 130: 0.962245833, 131: 0.0, 132: 0.0, 133: 0.0, 134: 0.654445833, 135: 0.934145833, 136: 1.133645833, 137: 0.0, 138: 0.0, 139: 1.140145833, 140: 0.0, 141: 0.0, 142: 0.450445833, 143: 1.104345833, 144: 0.0, 145: 0.0, 146: 0.118945833, 147: 0.0, 148: 0.0, 149: 0.109145833, 150: 0.0, 151: 1.149945833, 152: 1.649345833, 153: 0.0, 154: 2.136645833, 155: 0.941845833, 156: 0.010445833, 157: 1.548145833, 158: 0.0, 159: 0.0, 160: 0.8578458329999999, 161: 0.0, 162: 0.0, 163: 1.107645833, 164: 0.0, 165: 0.610545833, 166: 0.0, 167: 0.0, 168: 1.382645833, 169: 0.123845833, 170: 1.135645833, 171: 0.124145833, 172: 0.080645833, 173: 1.102845833, 174: 1.222645833, 175: 0.0, 176: 1.188945833, 177: 1.184945833, 178: 1.170345833, 179: 1.178945833, 180: 0.182428056, 181: 0.0, 182: 0.171145833, 183: 0.0, 184: 1.157845833, 185: 0.0, 186: 0.0, 187: 0.0, 188: 1.317645833, 189: 1.318145833, 190: 1.304645833, 191: 0.0];
sell = [0: 0.0, 1: 0.0, 2: 0.0, 3: 0.0, 4: 0.0, 5: 0.0, 6: 0.0, 7: 0.660554167, 8: 0.657854167, 9: 0.672154167, 10: 0.0, 11: 0.0, 12: 0.680554167, 13: 0.0, 14: 0.666654167, 15: 0.0, 16: 0.0, 17: 0.0, 18: 0.679554167, 19: 0.6048541670000001, 20: 0.0, 21: 0.0, 22: 0.0, 23: 0.0, 24: 0.788454167, 25: 0.0, 26: 0.0, 27: 0.812154167, 28: 0.0, 29: 0.0, 30: 0.792554167, 31: 0.0, 32: 0.913054167, 33: 0.0, 34: 0.0, 35: 0.0, 36: 0.0, 37: 0.802654167, 38: 0.0, 39: 0.0, 40: 0.0, 41: 1.365854167, 42: 0.0, 43: 0.795654167, 44: 1.587354167, 45: 0.794854167, 46: 0.0, 47: 0.0, 48: 0.252354167, 49: 0.0, 50: 0.0, 51: 0.0, 52: 0.270554167, 53: 0.0, 54: 0.0, 55: 0.0, 56: 1.419854167, 57: 0.8880541669999999, 58: 0.0, 59: 0.0, 60: 1.090154167, 61: 0.468654167, 62: 0.466654167, 63: 0.0, 64: 0.0, 65: 0.100854167, 66: 0.7066541670000001, 67: 0.0, 68: 0.0, 69: 0.0, 70: 0.352854167, 71: 0.764054167, 72: 0.0, 73: 0.752554167, 74: 0.838154167, 75: 0.0, 76: 0.0, 77: 0.0, 78: 0.0, 79: 0.805354167, 80: 0.0, 81: 0.724354167, 82: 0.0, 83: 0.0, 84: 0.708354167, 85: 0.709854167, 86: 0.750554167, 87: 0.0, 88: 0.0, 89: 0.0, 90: 0.0, 91: 0.0, 92: 0.0, 93: 0.0, 94: 0.650854167, 95: 0.0, 96: 0.667154167, 97: 0.660554167, 98: 0.0, 99: 0.0, 100: 0.0, 101: 0.0, 102: 0.0, 103: 0.652054167, 104: 0.0, 105: 0.666654167, 106: 0.0, 107: 0.658354167, 108: 0.0, 109: 0.0, 110: 0.0, 111: 0.0, 112: 0.665154167, 113: 0.0, 114: 0.0, 115: 0.0, 116: 0.0, 117: 0.785354167, 118: 0.0, 119: 0.776354167, 120: 0.0, 121: 0.0, 122: 0.0, 123: 0.0, 124: 0.0, 125: 0.821254167, 126: 0.0, 127: 0.874254167, 128: 0.493646234, 129: 0.0, 130: 0.0, 131: 0.793554167, 132: 0.756854167, 133: 0.305354167, 134: 0.0, 135: 0.0, 136: 0.0, 137: 1.286354167, 138: 0.770354167, 139: 0.0, 140: 0.771654167, 141: 0.780054167, 142: 0.0, 143: 0.0, 144: 0.790154167, 145: 0.787854167, 146: 0.0, 147: 1.849554167, 148: 1.467154167, 149: 0.0, 150: 0.035154167, 151: 0.0, 152: 0.0, 153: 1.980354167, 154: 0.0, 155: 0.0, 156: 0.0, 157: 0.0, 158: 0.834854167, 159: 0.031654167, 160: 0.0, 161: 0.781054167, 162: 0.7993541669999999, 163: 0.0, 164: 0.270154167, 165: 0.0, 166: 0.499854167, 167: 0.787354167, 168: 0.0, 169: 0.0, 170: 0.0, 171: 0.0, 172: 0.0, 173: 0.0, 174: 0.0, 175: 0.720154167, 176: 0.0, 177: 0.0, 178: 0.0, 179: 0.0, 180: 0.0, 181: 0.729654167, 182: 0.0, 183: 0.730354167, 184: 0.0, 185: 0.768554167, 186: 0.575354167, 187: 0.0, 188: 0.0, 189: 0.0, 190: 0.0, 191: 0.593854167];
charge = [0: 1.0, 1: 1.0, 2: 0.0, 3: 0.852026996, 4: 1.0, 5: 0.0, 6: 1.0, 7: 0.0, 8: 0.0, 9: 0.0, 10: 1.0, 11: 0.0, 12: 0.0, 13: 0.0, 14: 0.0, 15: 1.0, 16: 0.0, 17: 1.0, 18: 0.0, 19: 0.0, 20: 1.0, 21: 1.0, 22: 1.0, 23: 1.0, 24: 0.0, 25: 1.0, 26: 1.0, 27: 0.0, 28: 1.0, 29: 0.0, 30: 0.0, 31: 1.0, 32: 0.0, 33: 1.0, 34: 1.0, 35: 1.0, 36: 0.0, 37: 0.0, 38: 0.0, 39: 1.0, 40: 1.0, 41: 0.0, 42: 1.0, 43: 0.0, 44: 0.0, 45: 0.0, 46: 1.0, 47: 0.0, 48: 0.0, 49: 1.0, 50: 1.0, 51: 1.0, 52: 0.0, 53: 1.0, 54: 1.0, 55: 1.0, 56: 0.0, 57: 0.0, 58: 1.0, 59: 1.0, 60: 0.0, 61: 0.0, 62: 0.0, 63: 1.0, 64: 0.0, 65: 1.0, 66: 0.0, 67: 1.0, 68: 0.0, 69: 1.0, 70: 0.0, 71: 0.0, 72: 1.0, 73: 0.0, 74: 0.0, 75: 0.0, 76: 1.0, 77: 0.0, 78: 1.0, 79: 0.0, 80: 0.0, 81: 0.0, 82: 1.0, 83: 0.0, 84: 0.0, 85: 0.0, 86: 0.0, 87: 0.0, 88: 0.0, 89: 1.0, 90: 0.0, 91: 1.0, 92: 1.0, 93: 0.0, 94: 0.0, 95: 0.0, 96: 0.0, 97: 0.0, 98: 1.0, 99: 1.0, 100: 0.0, 101: 0.0, 102: 0.0, 103: 0.0, 104: 1.0, 105: 0.0, 106: 1.0, 107: 0.0, 108: 0.756745239, 109: 1.0, 110: 1.0, 111: 1.0, 112: 0.0, 113: 1.0, 114: 0.0, 115: 0.0, 116: 1.0, 117: 0.0, 118: 0.0, 119: 0.0, 120: 0.0, 121: 1.0, 122: 0.0, 123: 1.0, 124: 1.0, 125: 0.0, 126: 1.0, 127: 0.0, 128: 0.0, 129: 0.0, 130: 1.0, 131: 0.0, 132: 0.0, 133: 0.0, 134: 0.0, 135: 0.0, 136: 1.0, 137: 0.0, 138: 0.0, 139: 1.0, 140: 0.0, 141: 0.0, 142: 1.0, 143: 1.0, 144: 0.0, 145: 0.0, 146: 0.0, 147: 0.0, 148: 0.0, 149: 0.0, 150: 1.0, 151: 1.0, 152: 1.0, 153: 0.0, 154: 1.0, 155: 1.0, 156: 0.0, 157: 1.0, 158: 0.0, 159: 0.0, 160: 1.0, 161: 0.0, 162: 0.0, 163: 1.0, 164: 0.0, 165: 1.0, 166: 0.0, 167: 0.0, 168: 1.0, 169: 0.0, 170: 1.0, 171: 0.0, 172: 0.0, 173: 1.0, 174: 1.0, 175: 0.0, 176: 1.0, 177: 1.0, 178: 1.0, 179: 1.0, 180: 0.003482222, 181: 0.0, 182: 0.0, 183: 0.0, 184: 1.0, 185: 0.0, 186: 0.0, 187: 0.0, 188: 1.0, 189: 1.0, 190: 1.0, 191: 0.0];
discharge = [0: 0.0, 1: 0.0, 2: 0.0, 3: 0.0, 4: 0.0, 5: 0.0, 6: 0.0, 7: 1.0, 8: 1.0, 9: 1.0, 10: 0.0, 11: 0.0, 12: 1.0, 13: 0.0, 14: 1.0, 15: 0.0, 16: 0.0, 17: 0.0, 18: 1.0, 19: 1.0, 20: 0.0, 21: 0.0, 22: 0.0, 23: 0.0, 24: 1.0, 25: 0.0, 26: 0.0, 27: 1.0, 28: 0.0, 29: 0.0, 30: 1.0, 31: 0.0, 32: 1.0, 33: 0.0, 34: 0.0, 35: 0.0, 36: 0.0, 37: 1.0, 38: 0.0, 39: 0.0, 40: 0.0, 41: 1.0, 42: 0.0, 43: 1.0, 44: 1.0, 45: 1.0, 46: 0.0, 47: 0.0, 48: 1.0, 49: 0.0, 50: 0.0, 51: 0.0, 52: 1.0, 53: 0.0, 54: 0.0, 55: 0.0, 56: 1.0, 57: 1.0, 58: 0.0, 59: 0.0, 60: 1.0, 61: 1.0, 62: 1.0, 63: 0.0, 64: 0.0, 65: 0.0, 66: 0.0, 67: 0.0, 68: 1.0, 69: 0.0, 70: 0.0, 71: 1.0, 72: 0.0, 73: 1.0, 74: 1.0, 75: 0.0, 76: 0.0, 77: 0.0, 78: 0.0, 79: 1.0, 80: 0.0, 81: 1.0, 82: 0.0, 83: 0.0, 84: 1.0, 85: 1.0, 86: 1.0, 87: 0.0, 88: 0.0, 89: 0.0, 90: 0.0, 91: 0.0, 92: 0.0, 93: 0.0, 94: 1.0, 95: 0.0, 96: 1.0, 97: 1.0, 98: 0.0, 99: 0.0, 100: 0.0, 101: 0.0, 102: 0.0, 103: 1.0, 104: 0.0, 105: 1.0, 106: 0.0, 107: 1.0, 108: 0.0, 109: 0.0, 110: 0.0, 111: 0.0, 112: 1.0, 113: 0.0, 114: 0.0, 115: 0.0, 116: 0.0, 117: 1.0, 118: 0.0, 119: 1.0, 120: 0.0, 121: 0.0, 122: 0.0, 123: 0.0, 124: 0.0, 125: 1.0, 126: 0.0, 127: 1.0, 128: 0.574768964, 129: 0.0, 130: 0.0, 131: 1.0, 132: 1.0, 133: 1.0, 134: 0.0, 135: 0.0, 136: 0.0, 137: 1.0, 138: 1.0, 139: 0.0, 140: 1.0, 141: 1.0, 142: 0.0, 143: 0.0, 144: 1.0, 145: 1.0, 146: 0.0, 147: 1.0, 148: 1.0, 149: 0.0, 150: 0.0, 151: 0.0, 152: 0.0, 153: 1.0, 154: 0.0, 155: 0.0, 156: 0.0, 157: 0.0, 158: 1.0, 159: 0.0, 160: 0.0, 161: 1.0, 162: 1.0, 163: 0.0, 164: 1.0, 165: 0.0, 166: 0.0, 167: 1.0, 168: 0.0, 169: 0.0, 170: 0.0, 171: 0.0, 172: 0.0, 173: 0.0, 174: 0.0, 175: 1.0, 176: 0.0, 177: 0.0, 178: 0.0, 179: 0.0, 180: 0.0, 181: 1.0, 182: 0.0, 183: 1.0, 184: 0.0, 185: 1.0, 186: 1.0, 187: 0.356828704, 188: 0.0, 189: 0.0, 190: 0.0, 191: 1.0];
soc = [0: 8.728434, 1: 9.626688313000001, 2: 9.624762976, 3: 10.38966232, 4: 11.287584387, 5: 11.28532687, 6: 12.183069805, 7: 11.180633191, 8: 10.178397064, 9: 9.176361385, 10: 10.074526113, 11: 10.072511207, 12: 9.070496705, 13: 9.068682605999999, 14: 8.066868869, 15: 8.965255495999999, 16: 8.963462443999999, 17: 9.861669751999999, 18: 8.859697418, 19: 7.857925479, 20: 8.756353893, 21: 9.654602623000001, 22: 10.552671702, 23: 11.450561168, 24: 10.448271056, 25: 11.346181401, 26: 12.243912165, 27: 11.241463383, 28: 12.13921509, 29: 12.136787247, 30: 11.134359889, 31: 12.032133017, 32: 11.029726591, 33: 11.927520646, 34: 12.825135141, 35: 13.722570114, 36: 13.7198256, 37: 12.717081635, 38: 12.714538219, 39: 13.611995311, 40: 14.509272912, 41: 13.506371058, 42: 14.403669783, 43: 13.400789049, 44: 12.398108892, 45: 11.39562927, 46: 12.293350144, 47: 12.290891474, 48: 11.288433296, 49: 12.186175609, 50: 13.083738374, 51: 13.981121626, 52: 12.978325402, 53: 13.875729737, 54: 14.772954591, 55: 15.67, 56: 14.666866, 57: 13.663932627, 58: 14.56119984, 59: 15.4582876, 60: 14.455195943, 61: 13.452304904, 62: 12.449614443, 63: 13.34712452, 64: 13.344455095, 65: 14.241786204, 66: 14.238937847, 67: 15.136090059, 68: 14.133062841, 69: 15.030236228, 70: 15.027230181, 71: 14.024224735, 72: 14.92141989, 73: 13.918435606, 74: 12.915651919, 75: 12.913068789, 76: 13.810486175, 77: 13.807724078, 78: 14.704962533, 79: 13.70202154, 80: 13.699281136, 81: 12.69654128, 82: 13.594001972, 83: 13.591283171, 84: 12.588564915, 85: 11.586047202, 86: 10.583729992, 87: 10.581613246, 88: 10.579496923, 89: 11.477381024, 90: 11.475085548, 91: 12.372790531, 92: 13.270315973, 93: 13.267661909, 94: 12.265008377, 95: 12.262555375, 96: 11.260102864, 97: 10.257850844, 98: 11.155799274, 99: 12.053568114, 100: 12.0511574, 101: 12.048747169, 102: 12.046337419, 103: 11.043928152, 104: 11.941719366, 105: 10.939331022, 106: 11.837143156, 107: 10.834775727, 108: 11.513679488, 109: 12.411376752, 110: 13.308894476, 111: 14.206232698, 112: 13.203391451, 113: 14.100750773, 114: 14.097930623, 115: 14.095111036, 116: 14.992292014, 117: 13.989293556, 118: 13.986495697, 119: 12.983698398, 120: 12.981101658, 121: 13.878505438, 122: 13.875729737, 123: 14.772954591, 124: 15.67, 125: 14.666866, 126: 15.563932627, 127: 14.56081984, 128: 13.983138712, 129: 13.980342085, 130: 14.877546016, 131: 13.874570507, 132: 12.871795593, 133: 11.869221234, 134: 11.86684739, 135: 11.86447402, 136: 12.762101125, 137: 11.759548705, 138: 10.757196795, 139: 11.655045356, 140: 10.652714347, 141: 9.650583804, 142: 10.548653687, 143: 11.446543957, 144: 10.444254648, 145: 9.442165796999999, 146: 9.440277364, 147: 8.438389308, 148: 7.43670163, 149: 7.43521429, 150: 8.333727247000001, 151: 9.232060502, 152: 10.13021409, 153: 9.128188047, 154: 10.026362409, 155: 10.924357137, 156: 10.922172265, 157: 11.819987831, 158: 10.817623833, 159: 10.815460309, 160: 11.713297216, 161: 10.710954557, 162: 9.708812366, 163: 10.606870604, 164: 9.604749229999999, 165: 10.50282828, 166: 10.500727714, 167: 9.498627568, 168: 10.396727843, 169: 10.394648497, 170: 11.292569568, 171: 11.290311054, 172: 11.288052992, 173: 12.185795381, 174: 13.083358222, 175: 12.08074155, 176: 12.978325402, 177: 13.875729737, 178: 14.772954591, 179: 15.67, 180: 15.67, 181: 14.666866, 182: 14.663932627, 183: 13.66099984, 184: 14.55826764, 185: 13.555355987, 186: 12.552644916, 187: 12.193305683, 188: 13.090867022, 189: 13.988248848, 190: 14.885451199, 191: 13.882474108];
cost = [0: 0.952573385, 1: 0.937056525, 2: 0.20168609, 3: 0.785004569, 4: 0.891666655, 5: 0.15085921, 6: 0.879937375, 7: 0.0, 8: 0.0, 9: 0.0, 10: 0.868574635, 11: 0.13937429, 12: 0.0, 13: 0.13570889, 14: 0.0, 15: 0.870407335, 16: 0.14090154, 17: 0.867047385, 18: 0.0, 19: 0.0, 20: 0.797588055, 21: 0.793311755, 22: 0.791784505, 23: 0.791051425, 24: 0.0, 25: 1.441662689, 26: 1.439402449, 27: 0.0, 28: 1.412041649, 29: 0.070597803, 30: 0.0, 31: 1.260962449, 32: 0.0, 33: 1.424175569, 34: 1.434049249, 35: 1.433454449, 36: 0.123891883, 37: 0.0, 38: 0.115564683, 39: 0.702207329, 40: 1.433454449, 41: 0.0, 42: 1.424532449, 43: 0.0, 44: 0.0, 45: 0.0, 46: 0.597522529, 47: 0.124129803, 48: 0.0, 49: 1.462004849, 50: 0.118178165, 51: 2.042291729, 52: 0.0, 53: 0.580657465, 54: 0.812982735, 55: 0.755130505, 56: 0.0, 57: 0.0, 58: 0.9023574049999999, 59: 1.273906785, 60: 0.0, 61: 0.0, 62: 0.0, 63: 1.112381409, 64: 0.203238203, 65: 0.118178165, 66: 0.0, 67: 0.388628769, 68: 0.298525163, 69: 1.319609729, 70: 0.0, 71: 0.0, 72: 1.262389969, 73: 0.0, 74: 0.0, 75: 0.230955883, 76: 1.401335249, 77: 0.110449403, 78: 1.433454449, 79: 0.0, 80: 0.113185483, 81: 0.0, 82: 1.490555249, 83: 0.185394203, 84: 0.0, 85: 0.0, 86: 0.0, 87: 0.205379483, 88: 0.22978749, 89: 0.944204055, 90: 0.19569927, 91: 0.900402525, 92: 0.885985285, 93: 0.14884324, 94: 0.0, 95: 0.14224552, 96: 0.0, 97: 0.0, 98: 0.877005055, 99: 0.876394155, 100: 0.14823234, 101: 0.14872106, 102: 0.15037049, 103: 0.0, 104: 0.875661075, 105: 0.0, 106: 0.8716291350000001, 107: 0.0, 108: 0.70014204, 109: 0.8759665250000001, 110: 0.877799225, 111: 0.877188325, 112: 0.0, 113: 0.876699605, 114: 0.14780471, 115: 0.14811016, 116: 0.878104675, 117: 0.0, 118: 0.07083130999999999, 119: 0.0, 120: 0.145304683, 121: 1.454510369, 122: 0.132813883, 123: 1.402049009, 124: 1.439640369, 125: 0.0, 126: 1.366242049, 127: 0.0, 128: 0.0, 129: 0.139356683, 130: 1.262865809, 131: 0.0, 132: 0.0, 133: 0.0, 134: 0.778528763, 135: 1.111259883, 136: 1.466763249, 137: 0.0, 138: 0.0, 139: 1.474495649, 140: 0.0, 141: 0.0, 142: 0.654028529, 143: 1.431907969, 144: 0.0, 145: 0.0, 146: 0.141497963, 147: 0.0, 148: 0.0, 149: 0.06667719, 150: 0.118178165, 151: 0.820680075, 152: 1.125763535, 153: 0.0, 154: 1.423455105, 155: 0.693551785, 156: 0.012426363, 157: 1.959852449, 158: 0.0, 159: 0.0, 160: 1.138671569, 161: 0.0, 162: 0.0, 163: 1.435833649, 164: 0.0, 165: 0.844483489, 166: 0.0, 167: 0.0, 168: 1.762973649, 169: 0.147327003, 170: 1.469142449, 171: 0.147683883, 172: 0.095936283, 173: 1.430123569, 174: 1.572637649, 175: 0.0, 176: 1.532548129, 177: 1.527789729, 178: 1.510421569, 179: 1.520652129, 180: 0.217427938, 181: 0.0, 182: 0.203595083, 183: 0.0, 184: 0.8255061849999999, 185: 0.0, 186: 0.0, 187: 0.0, 188: 0.923128005, 189: 0.923433455, 190: 0.915186305, 191: 0.0];
earn = [0: 0.0, 1: 0.0, 2: 0.0, 3: 0.0, 4: 0.0, 5: 0.0, 6: 0.0, 7: 0.389726958, 8: 0.400567402, 9: 0.397780836, 10: 0.0, 11: 0.0, 12: 0.396558913, 13: 0.0, 14: 0.383659473, 15: 0.0, 16: 0.0, 17: 0.0, 18: 0.400257404, 19: 0.354928425, 20: 0.0, 21: 0.0, 22: 0.0, 23: 0.0, 24: 0.510760609, 25: 0.0, 26: 0.0, 27: 0.552914557, 28: 0.0, 29: 0.0, 30: 0.534102253, 31: 0.0, 32: 0.645164074, 33: 0.0, 34: 0.0, 35: 0.0, 36: 0.0, 37: 0.425005381, 38: 0.0, 39: 0.0, 40: 0.0, 41: 0.5638246, 42: 0.0, 43: 0.241162778, 44: 0.386203269, 45: 0.171211588, 46: 0.0, 47: 0.0, 48: 0.02995444, 49: 0.0, 50: 0.0, 51: 0.0, 52: 0.012905434, 53: 0.0, 54: 0.0, 55: 0.0, 56: 0.00837714, 57: 0.002664163, 58: 0.0, 59: 0.0, 60: 0.054398693, 61: 0.018090051, 62: 0.021979411, 63: 0.0, 64: 0.0, 65: 0.023035092, 66: 0.230581255, 67: 0.0, 68: 0.0, 69: 0.0, 70: 0.184719156, 71: 0.407011655, 72: 0.0, 73: 0.445436811, 74: 0.525271216, 75: 0.0, 76: 0.0, 77: 0.0, 78: 0.0, 79: 0.736979598, 80: 0.0, 81: 0.62142344, 82: 0.0, 83: 0.0, 84: 0.47679319, 85: 0.4361344, 86: 0.444403122, 87: 0.0, 88: 0.0, 89: 0.0, 90: 0.0, 91: 0.0, 92: 0.0, 93: 0.0, 94: 0.350094456, 95: 0.0, 96: 0.34978893, 97: 0.342034948, 98: 0.0, 99: 0.0, 100: 0.0, 101: 0.0, 102: 0.0, 103: 0.311029838, 104: 0.0, 105: 0.269861607, 106: 0.0, 107: 0.276245408, 108: 0.0, 109: 0.0, 110: 0.0, 111: 0.0, 112: 0.239388985, 113: 0.0, 114: 0.0, 115: 0.0, 116: 0.0, 117: 0.223040583, 118: 0.0, 119: 0.213730302, 120: 0.0, 121: 0.0, 122: 0.0, 123: 0.0, 124: 0.0, 125: 0.24637625, 126: 0.0, 127: 0.24435404, 128: 0.109392005, 129: 0.0, 130: 0.0, 131: 0.153155954, 132: 0.089308792, 133: 0.027726158, 134: 0.0, 135: 0.0, 136: 0.0, 137: 0.02019576, 138: 0.008088718999999999, 139: 0.0, 140: 0.004861421, 141: 0.004134287, 142: 0.0, 143: 0.0, 144: 0.001343262, 145: -0.00086664, 146: 0.0, 147: -0.002219465, 148: -0.003227739, 149: 0.0, 150: -7.7339e-05, 151: 0.0, 152: 0.0, 153: -0.010693913, 154: 0.0, 155: 0.0, 156: 0.0, 157: 0.0, 158: -0.000834854, 159: -1.8993e-05, 160: 0.0, 161: 0.005311168, 162: 0.012949538, 163: 0.0, 164: 0.045250823, 165: 0.0, 166: 0.173649338, 167: 0.28911645, 168: 0.0, 169: 0.0, 170: 0.0, 171: 0.0, 172: 0.0, 173: 0.0, 174: 0.0, 175: 0.529241297, 176: 0.0, 177: 0.0, 178: 0.0, 179: 0.0, 180: 0.0, 181: 0.386424847, 182: 0.0, 183: 0.355171231, 184: 0.0, 185: 0.399494456, 186: 0.288885327, 187: 0.0, 188: 0.0, 189: 0.0, 190: 0.0, 191: 0.265809125];
total_cost = 96.86753200699999;
total_earn = 17.651503145;
% _objective = 79.216028862;