production = [0: 0.0, 1: 0.0, 2: 0.0, 3: 0.0, 4: 0.0, 5: 0.0, 6: 0.0, 7: 0.0, 8: 0.0, 9: 0.0, 10: 0.0, 11: 0.0, 12: 0.0, 13: 0.0, 14: 0.0, 15: 0.0, 16: 0.0, 17: 0.0, 18: 0.0, 19: 0.0, 20: 0.0, 21: 0.0, 22: 0.0, 23: 0.0, 24: 0.0, 25: 0.0003, 26: 0.0035, 27: 0.01, 28: 0.0095, 29: 0.0, 30: 0.0, 31: 0.1445, 32: 0.0, 33: 0.0, 34: 0.0, 35: 0.2722, 36: 0.0, 37: 0.0, 38: 0.179, 39: 0.0, 40: 0.652, 41: 0.0, 42: 0.4637, 43: 0.0, 44: 0.0, 45: 0.0, 46: 0.703, 47: 0.8758, 48: 0.8087, 49: 0.9323, 50: 0.0, 51: 0.0, 52: 0.5258, 53: 0.8808, 54: 0.137345833, 55: 0.0, 56: 0.0, 57: 0.0, 58: 0.6315, 59: 0.0, 60: 0.6175, 61: 0.0, 62: 0.0, 63: 0.0, 64: 0.0, 65: 0.0, 66: 0.863, 67: 0.0, 68: 0.0, 69: 0.0, 70: 0.5403, 71: 0.4245, 72: 0.2018, 73: 0.0, 74: 0.0823, 75: 0.0732, 76: 0.0, 77: 0.0, 78: 0.0, 79: 0.0, 80: 0.0, 81: 0.0, 82: 0.0, 83: 0.0, 84: 0.0, 85: 0.0, 86: 0.0, 87: 0.0, 88: 0.0, 89: 0.0, 90: 0.0, 91: 0.0, 92: 0.0, 93: 0.0, 94: 0.0, 95: 0.0, 96: 0.0, 97: 0.0, 98: 0.0, 99: 0.0, 100: 0.0, 101: 0.0, 102: 0.0, 103: 0.0, 104: 0.0, 105: 0.0, 106: 0.0, 107: 0.0, 108: 0.0, 109: 0.0, 110: 0.0, 111: 0.0, 112: 0.0, 113: 0.0, 114: 0.0, 115: 0.0, 116: 0.0, 117: 0.0, 118: 0.0, 119: 0.0, 120: 0.0, 121: 0.0013, 122: 0.0065, 123: 0.0, 124: 0.0872, 125: 0.0, 126: 0.0, 127: 0.0, 128: 0.0, 129: 0.0, 130: 0.0, 131: 0.0, 132: 0.0, 133: 0.0, 134: 0.1062, 135: 0.2288, 136: 0.5867, 137: 0.0, 138: 0.0, 139: 0.6685, 140: 0.0, 141: 0.5245, 142: 0.0, 143: 0.6465, 144: 0.0, 145: 0.0, 146: 1.124, 147: 0.0, 148: 0.677, 149: 0.614, 150: 0.0, 151: 0.0, 152: 0.0, 153: 0.0, 154: 0.0, 155: 1.4543, 156: 1.3117, 157: 0.5172, 158: 0.0, 159: 0.0, 160: 0.0, 161: 0.0, 162: 0.0, 163: 0.0, 164: 0.5723, 165: 0.5118, 166: 0.6165, 167: 0.5004999999999999, 168: 0.0, 169: 0.0, 170: 0.0867, 171: 0.0, 172: 0.043, 173: 0.022, 174: 0.0, 175: 0.0, 176: 0.0005, 177: 0.0, 178: 0.0, 179: 0.0, 180: 0.0, 181: 0.0, 182: 0.0, 183: 0.0, 184: 0.0, 185: 0.0, 186: 0.0, 187: 0.0, 188: 0.0, 189: 0.0, 190: 0.0, 191: 0.0];
buy = [0: 0.365845833, 1: 0.0, 2: 0.330145833, 3: 0.0, 4: 1.266145833, 5: 1.246945833, 6: 1.246945833, 7: 1.239445833, 8: 1.242145833, 9: 0.0, 10: 0.0, 11: 1.228145833, 12: 0.219445833, 13: 0.222145833, 14: 0.0, 15: 1.231345833, 16: 0.230645833, 17: 0.225845833, 18: 1.220445833, 19: 0.295145833, 20: 1.112145833, 21: 1.105145833, 22: 0.102645833, 23: 0.101445833, 24: 1.111845833, 25: 1.112545833, 26: 0.0, 27: 1.087845833, 28: 1.087645833, 29: 0.0, 30: 1.107445833, 31: 0.9606458329999999, 32: 0.0, 33: 0.0, 34: 1.106145833, 35: 0.833445833, 36: 0.0, 37: 0.0, 38: 0.0, 39: 0.0, 40: 0.453645833, 41: 0.103845833, 42: 0.0, 43: 0.0, 44: 0.104645833, 45: 0.0, 46: 0.402945833, 47: 0.0, 48: 0.838945833, 49: 0.0, 50: 0.0, 51: 0.617445833, 52: 1.103645833, 53: 0.0, 54: 0.0, 55: 1.405145833, 56: 1.163645833, 57: 1.782145833, 58: 0.283645833, 59: 0.0, 60: 0.0, 61: 0.431345833, 62: 1.433345833, 63: 0.469945833, 64: 0.170845833, 65: 1.176145833, 66: 0.293345833, 67: 1.145645833, 68: 0.250945833, 69: 0.632145833, 70: 0.6471458329999999, 71: 0.0, 72: 0.0, 73: 0.147445833, 74: 0.061845833, 75: 0.0, 76: 0.0, 77: 0.0, 78: 0.105645833, 79: 0.0, 80: 0.0, 81: 0.175645833, 82: 0.0, 83: 0.0, 84: 1.191645833, 85: 0.0, 86: 1.149445833, 87: 1.172645833, 88: 1.376145833, 89: 1.352145833, 90: 0.320345833, 91: 1.280445833, 92: 0.0, 93: 1.243645833, 94: 1.249145833, 95: 0.232845833, 96: 0.0, 97: 0.239445833, 98: 0.0, 99: 0.0, 100: 1.242645833, 101: 0.243445833, 102: 0.0, 103: 0.0, 104: 0.903006878, 105: 0.0, 106: 1.233345833, 107: 0.241645833, 108: 0.242945833, 109: 0.0, 110: 0.0, 111: 0.242445833, 112: 1.234845833, 113: 0.241645833, 114: 0.241945833, 115: 0.242445833, 116: 0.243945833, 117: 0.114645833, 118: 0.115945833, 119: 0.124145833, 120: 0.122145833, 121: 0.0, 122: 0.111645833, 123: 0.115445833, 124: 0.0, 125: 0.0, 126: 1.116645833, 127: 0.117945833, 128: 0.0, 129: 1.117145833, 130: 1.106945833, 131: 1.106445833, 132: 1.143145833, 133: 0.0, 134: 0.654445833, 135: 1.705345833, 136: 0.0, 137: 0.0, 138: 0.0, 139: 0.0, 140: 0.0, 141: 0.595445833, 142: 1.113945833, 143: 0.0, 144: 0.0, 145: 1.112145833, 146: 0.0, 147: 1.257145833, 148: 0.432845833, 149: 0.495145833, 150: 0.114645833, 151: 1.149945833, 152: 1.649345833, 153: 0.659645833, 154: 2.136645833, 155: 0.941845833, 156: 0.010445833, 157: 1.030945833, 158: 0.002145833, 159: 0.404145833, 160: 0.0, 161: 1.118945833, 162: 0.0, 163: 1.107645833, 164: 0.057545833, 165: 0.0, 166: 0.0, 167: 0.612145833, 168: 1.382645833, 169: 0.0, 170: 0.048945833, 171: 1.124145833, 172: 0.080645833, 173: 1.102845833, 174: 0.227645833, 175: 0.0, 176: 0.188445833, 177: 0.0, 178: 0.0, 179: 0.178945833, 180: 1.178945833, 181: 0.170345833, 182: 0.171145833, 183: 1.169645833, 184: 1.157845833, 185: 0.0, 186: 0.324645833, 187: 0.0, 188: 1.317645833, 189: 1.318145833, 190: 0.304645833, 191: 1.306145833];
sell = [0: 0.0, 1: 0.559554167, 2: 0.0, 3: 0.631854167, 4: 0.0, 5: 0.0, 6: 0.0, 7: 0.0, 8: 0.0, 9: 0.672154167, 10: 0.671654167, 11: 0.0, 12: 0.0, 13: 0.0, 14: 0.666654167, 15: 0.0, 16: 0.0, 17: 0.0, 18: 0.0, 19: 0.0, 20: 0.0, 21: 0.0, 22: 0.0, 23: 0.0, 24: 0.0, 25: 0.0, 26: 0.792854167, 27: 0.0, 28: 0.0, 29: 0.794654167, 30: 0.0, 31: 0.0, 32: 0.803854167, 33: 0.802154167, 34: 0.0, 35: 0.0, 36: 0.795854167, 37: 0.802654167, 38: 0.9818541670000001, 39: 0.794854167, 40: 0.0, 41: 0.0, 42: 0.0, 43: 0.795654167, 44: 0.0, 45: 0.794854167, 46: 0.0, 47: 1.671454167, 48: 0.0, 49: 1.702654167, 50: 0.766854167, 51: 0.0, 52: 0.0, 53: 0.242954167, 54: 0.0, 55: 0.0, 56: 0.0, 57: 0.0, 58: 0.0, 59: 0.008154167, 60: 0.0, 61: 0.0, 62: 0.0, 63: 0.0, 64: 0.0, 65: 0.0, 66: 0.0, 67: 0.0, 68: 0.0, 69: 0.0, 70: 0.0, 71: 1.188554167, 72: 0.938154167, 73: 0.0, 74: 0.0, 75: 0.779054167, 76: 0.779354167, 77: 0.786854167, 78: 0.0, 79: 0.805354167, 80: 0.804854167, 81: 0.0, 82: 0.746354167, 83: 0.744154167, 84: 0.0, 85: 0.709854167, 86: 0.0, 87: 0.0, 88: 0.0, 89: 0.0, 90: 0.0, 91: 0.0, 92: 0.6431541670000001, 93: 0.0, 94: 0.0, 95: 0.0, 96: 0.667154167, 97: 0.0, 98: 0.657854167, 99: 0.658854167, 100: 0.0, 101: 0.0, 102: 0.653854167, 103: 0.652054167, 104: 0.0, 105: 0.666654167, 106: 0.0, 107: 0.0, 108: 0.0, 109: 0.659554167, 110: 0.656554167, 111: 0.0, 112: 0.0, 113: 0.0, 114: 0.0, 115: 0.0, 116: 0.0, 117: 0.0, 118: 0.0, 119: 0.0, 120: 0.0, 121: 0.777954167, 122: 0.0, 123: 0.0, 124: 0.876354167, 125: 0.791054167, 126: 0.0, 127: 0.0, 128: 0.783354167, 129: 0.0, 130: 0.0, 131: 0.0, 132: 0.0, 133: 0.305354167, 134: 0.0, 135: 0.0, 136: 1.353054167, 137: 0.770354167, 138: 0.770354167, 139: 0.528354167, 140: 0.0, 141: 0.0, 142: 0.0, 143: 1.442154167, 144: 0.790154167, 145: 0.0, 146: 1.005054167, 147: 0.0, 148: 0.0, 149: 0.0, 150: 0.0, 151: 0.0, 152: 0.0, 153: 0.0, 154: 0.0, 155: 0.0, 156: 0.0, 157: 0.0, 158: 0.0, 159: 0.0, 160: 0.047354167, 161: 0.0, 162: 0.7993541669999999, 163: 0.0, 164: 0.0, 165: 1.289454167, 166: 1.399854167, 167: 0.0, 168: 0.0, 169: 0.776154167, 170: 0.0, 171: 0.0, 172: 0.0, 173: 0.0, 174: 0.0, 175: 0.719354167, 176: 0.0, 177: 0.715054167, 178: 0.729654167, 179: 0.0, 180: 0.0, 181: 0.0, 182: 0.0, 183: 0.0, 184: 0.0, 185: 0.768554167, 186: 0.0, 187: 0.0, 188: 0.0, 189: 0.0, 190: 0.0, 191: 0.0];
charge = [0: 0.0, 1: 0.0, 2: 0.0, 3: 0.0, 4: 1.0, 5: 1.0, 6: 1.0, 7: 1.0, 8: 1.0, 9: 0.0, 10: 0.0, 11: 1.0, 12: 0.0, 13: 0.0, 14: 0.0, 15: 1.0, 16: 0.0, 17: 0.0, 18: 1.0, 19: 0.0, 20: 1.0, 21: 1.0, 22: 0.0, 23: 0.0, 24: 1.0, 25: 1.0, 26: 0.0, 27: 1.0, 28: 1.0, 29: 0.0, 30: 1.0, 31: 1.0, 32: 0.0, 33: 0.0, 34: 1.0, 35: 1.0, 36: 0.0, 37: 0.0, 38: 0.0, 39: 0.0, 40: 1.0, 41: 0.0, 42: 0.365554167, 43: 0.0, 44: 0.0, 45: 0.0, 46: 1.0, 47: 0.0, 48: 1.0, 49: 0.0, 50: 0.0, 51: 0.0, 52: 1.0, 53: 0.0, 54: 0.0, 55: 1.0, 56: 1.0, 57: 1.0, 58: 0.0, 59: 0.0, 60: 0.190154167, 61: 0.0, 62: 1.0, 63: 0.0, 64: 0.0, 65: 1.0, 66: 1.0, 67: 1.0, 68: 0.0, 69: 0.0, 70: 1.0, 71: 0.0, 72: 0.0, 73: 0.0, 74: 0.0, 75: 0.0, 76: 0.0, 77: 0.0, 78: 0.0, 79: 0.0, 80: 0.0, 81: 0.0, 82: 0.0, 83: 0.0, 84: 1.0, 85: 0.0, 86: 1.0, 87: 1.0, 88: 1.0, 89: 1.0, 90: 0.0, 91: 1.0, 92: 0.0, 93: 1.0, 94: 1.0, 95: 0.0, 96: 0.0, 97: 0.0, 98: 0.0, 99: 0.0, 100: 1.0, 101: 0.0, 102: 0.0, 103: 0.0, 104: 0.663061045, 105: 0.0, 106: 1.0, 107: 0.0, 108: 0.0, 109: 0.0, 110: 0.0, 111: 0.0, 112: 1.0, 113: 0.0, 114: 0.0, 115: 0.0, 116: 0.0, 117: 0.0, 118: 0.0, 119: 0.0, 120: 0.0, 121: 0.0, 122: 0.0, 123: 0.0, 124: 0.0, 125: 0.0, 126: 1.0, 127: 0.0, 128: 0.0, 129: 1.0, 130: 1.0, 131: 1.0, 132: 1.0, 133: 0.0, 134: 0.0, 135: 1.0, 136: 0.0, 137: 0.0, 138: 0.0, 139: 0.0, 140: 0.0, 141: 1.0, 142: 1.0, 143: 0.0, 144: 0.0, 145: 1.0, 146: 0.0, 147: 1.0, 148: 1.0, 149: 1.0, 150: 0.0, 151: 1.0, 152: 1.0, 153: 0.0, 154: 1.0, 155: 1.0, 156: 0.0, 157: 1.0, 158: 0.0, 159: 0.0, 160: 0.0, 161: 1.0, 162: 0.0, 163: 1.0, 164: 0.0, 165: 0.0, 166: 0.0, 167: 1.0, 168: 1.0, 169: 0.0, 170: 0.0, 171: 1.0, 172: 0.0, 173: 1.0, 174: 0.0, 175: 0.0, 176: 0.0, 177: 0.0, 178: 0.0, 179: 0.0, 180: 1.0, 181: 0.0, 182: 0.0, 183: 1.0, 184: 1.0, 185: 0.0, 186: 0.0, 187: 0.0, 188: 1.0, 189: 1.0, 190: 0.0, 191: 1.0];
discharge = [0: 0.0, 1: 1.0, 2: 0.0, 3: 1.0, 4: 0.0, 5: 0.0, 6: 0.0, 7: 0.0, 8: 0.0, 9: 1.0, 10: 1.0, 11: 0.0, 12: 0.0, 13: 0.0, 14: 1.0, 15: 0.0, 16: 0.0, 17: 0.0, 18: 0.0, 19: 0.0, 20: 0.0, 21: 0.0, 22: 0.0, 23: 0.0, 24: 0.0, 25: 0.0, 26: 1.0, 27: 0.0, 28: 0.0, 29: 1.0, 30: 0.0, 31: 0.0, 32: 1.0, 33: 1.0, 34: 0.0, 35: 0.0, 36: 1.0, 37: 1.0, 38: 1.0, 39: 1.0, 40: 0.0, 41: 0.0, 42: 0.0, 43: 1.0, 44: 0.0, 45: 1.0, 46: 0.0, 47: 1.0, 48: 0.0, 49: 1.0, 50: 1.0, 51: 0.0, 52: 0.0, 53: 0.0, 54: 0.0, 55: 0.0, 56: 0.0, 57: 0.0, 58: 0.0, 59: 1.0, 60: 0.0, 61: 0.0, 62: 0.0, 63: 0.0, 64: 0.0, 65: 0.0, 66: 0.0, 67: 0.0, 68: 1.0, 69: 0.0, 70: 0.0, 71: 1.0, 72: 1.0, 73: 0.0, 74: 0.0, 75: 1.0, 76: 1.0, 77: 1.0, 78: 0.0, 79: 1.0, 80: 1.0, 81: 0.0, 82: 1.0, 83: 1.0, 84: 0.0, 85: 1.0, 86: 0.0, 87: 0.0, 88: 0.0, 89: 0.0, 90: 0.0, 91: 0.0, 92: 1.0, 93: 0.0, 94: 0.0, 95: 0.0, 96: 1.0, 97: 0.0, 98: 1.0, 99: 1.0, 100: 0.0, 101: 0.0, 102: 1.0, 103: 1.0, 104: 0.0, 105: 1.0, 106: 0.0, 107: 0.0, 108: 0.0, 109: 1.0, 110: 1.0, 111: 0.0, 112: 0.0, 113: 0.0, 114: 0.0, 115: 0.0, 116: 0.0, 117: 0.0, 118: 0.0, 119: 0.0, 120: 0.0, 121: 1.0, 122: 0.0, 123: 0.0, 124: 1.0, 125: 1.0, 126: 0.0, 127: 0.0, 128: 1.0, 129: 0.0, 130: 0.0, 131: 0.0, 132: 0.0, 133: 1.0, 134: 0.0, 135: 0.0, 136: 1.0, 137: 1.0, 138: 1.0, 139: 0.0, 140: 0.142606481, 141: 0.0, 142: 0.0, 143: 1.0, 144: 1.0, 145: 0.0, 146: 0.0, 147: 0.0, 148: 0.0, 149: 0.0, 150: 0.0, 151: 0.0, 152: 0.0, 153: 0.0, 154: 0.0, 155: 0.0, 156: 0.0, 157: 0.0, 158: 1.0, 159: 0.0, 160: 1.0, 161: 0.0, 162: 1.0, 163: 0.0, 164: 0.0, 165: 1.0, 166: 1.0, 167: 0.0, 168: 0.0, 169: 1.0, 170: 0.0, 171: 0.0, 172: 0.0, 173: 0.0, 174: 0.0, 175: 1.0, 176: 0.0, 177: 1.0, 178: 1.0, 179: 0.0, 180: 0.0, 181: 0.0, 182: 0.0, 183: 0.0, 184: 0.0, 185: 1.0, 186: 0.0, 187: 0.356828704, 188: 0.0, 189: 0.0, 190: 0.0, 191: 0.0];
soc = [0: 7.828434, 1: 6.826868313, 2: 6.82550294, 3: 5.824137839, 4: 6.722973011, 5: 7.621628417, 6: 8.520104091, 7: 9.418400070000001, 8: 10.31651639, 9: 9.314453087, 10: 8.312590196, 11: 9.210927677999999, 12: 9.209085493, 13: 9.207243675999999, 14: 8.205402227, 15: 9.103761147, 16: 9.101940394, 17: 9.100120005999999, 18: 9.998299982000001, 19: 9.996300322, 20: 10.894301062, 21: 11.792122202, 22: 11.789763777, 23: 11.787405825, 24: 12.685048344, 25: 13.582511334, 26: 12.579794832, 27: 13.477278873, 28: 14.374583417, 29: 13.3717085, 30: 14.269034159, 31: 15.166180352, 32: 14.163147116, 33: 13.160314486, 34: 14.057682423, 35: 14.954870887, 36: 13.951879913, 37: 12.949089537, 38: 11.946499719, 39: 10.944110419, 40: 11.841921597, 41: 11.839553212, 42: 12.166184052, 43: 11.163750815, 44: 11.161518065, 45: 10.159285761, 46: 11.057253904, 47: 10.055042453, 48: 10.953031445, 49: 9.950840838, 50: 8.948850670000001, 51: 8.9470609, 52: 9.845271488, 53: 9.843302434, 54: 9.841333773000001, 55: 10.739365506, 56: 11.637217633, 57: 12.53489019, 58: 12.532383212, 59: 11.529876735, 60: 11.69870951, 61: 11.696369768, 62: 12.594030494, 63: 12.591511688, 64: 12.588993385, 65: 13.486475587, 66: 14.383778292, 67: 15.280901536, 68: 14.277845356, 69: 14.274989787, 70: 15.172134789, 71: 14.169100362, 72: 13.166266542, 73: 13.163633288, 74: 13.161000562, 75: 12.158368362, 76: 11.155936688, 77: 10.153705501, 78: 10.151674759, 79: 9.149644425, 80: 8.147814496000001, 81: 8.146184933000001, 82: 7.144555696, 83: 6.143126785, 84: 7.041898159, 85: 6.04048978, 86: 6.939281682, 87: 7.837893825, 88: 8.736326246999999, 89: 9.634578981000001, 90: 9.632652066, 91: 10.530725535, 92: 9.528619389999999, 93: 10.426713666, 94: 11.324628323, 95: 11.322363398, 96: 10.320098925, 97: 10.318034905, 98: 9.315971297999999, 99: 8.314108104000001, 100: 9.212445281999999, 101: 9.210602793, 102: 8.208760673, 103: 7.207118921, 104: 7.802432437, 105: 6.800871951, 106: 7.699511776, 107: 7.697971874, 108: 7.69643228, 109: 6.694892993, 110: 5.693554015, 111: 5.692415304, 112: 6.591276821, 113: 6.589958565, 114: 6.588640574, 115: 6.587322846, 116: 6.586005381, 117: 6.58468818, 118: 6.583371242, 119: 6.582054568, 120: 6.580738157, 121: 5.57942201, 122: 5.578306125, 123: 5.577190464, 124: 4.576075026, 125: 3.575159811, 126: 4.474444779, 127: 4.47354989, 128: 3.47265518, 129: 4.371960649, 130: 5.271086257, 131: 6.170032039, 132: 7.068798033, 133: 6.067384273, 134: 6.066170797, 135: 6.964957562, 136: 5.963564571, 137: 4.962371858, 138: 3.961379384, 139: 3.960587108, 140: 3.817188509, 141: 4.716425071, 142: 5.615481786, 143: 4.61435869, 144: 3.613435818, 145: 4.512713131, 146: 4.511810588, 147: 5.410908226, 148: 6.309826045, 149: 7.208564079, 150: 7.207122366, 151: 8.105680941999999, 152: 9.004059806000001, 153: 9.002258994, 154: 9.900458542000001, 155: 10.79847845, 156: 10.796318755, 157: 11.694159491, 158: 10.691820659, 159: 10.689682295, 160: 9.687544358, 161: 10.58560685, 162: 9.583489728, 163: 10.48157303, 164: 10.479476716, 165: 9.47738082, 166: 8.475485344000001, 167: 9.373790247000001, 168: 10.271915489, 169: 9.269861106, 170: 9.268007133999999, 171: 10.166153532, 172: 10.164120302, 173: 11.062087477, 174: 11.05987506, 175: 10.057663085, 176: 10.055651552, 177: 9.053640422000001, 178: 8.051829694, 179: 8.050219328000001, 180: 8.948609284, 181: 8.946819562, 182: 8.945030198, 183: 9.843241192000001, 184: 10.741272544, 185: 9.739124289999999, 186: 9.737176464999999, 187: 9.378400326, 188: 10.276524646, 189: 11.174469341, 190: 11.172234447, 191: 12.07];
cost = [0: 0.22349522, 1: 0.0, 2: 0.20168609, 3: 0.0, 4: 0.891666655, 5: 0.879937375, 6: 0.879937375, 7: 0.875355625, 8: 0.877005055, 9: 0.0, 10: 0.0, 11: 0.868452455, 12: 0.13405946, 13: 0.13570889, 14: 0.0, 15: 0.870407335, 16: 0.14090154, 17: 0.13796922, 18: 0.863748525, 19: 0.18030459, 20: 0.797588055, 21: 0.793311755, 22: 0.06270634, 23: 0.06197326, 24: 1.440829969, 25: 1.441662689, 26: 0.0, 27: 1.412279569, 28: 1.412041649, 29: 0.0, 30: 1.435595729, 31: 1.260962449, 32: 0.0, 33: 0.0, 34: 1.434049249, 35: 1.109645329, 36: 0.0, 37: 0.0, 38: 0.0, 39: 0.0, 40: 0.657835249, 41: 0.123535003, 42: 0.043200521, 43: 0.0, 44: 0.124486683, 45: 0.0, 46: 0.597522529, 47: 0.0, 48: 1.116188129, 49: 0.0, 50: 0.0, 51: 0.734513563, 52: 0.7923954050000001, 53: 0.0, 54: 0.0, 55: 0.976581755, 56: 0.829049405, 57: 1.206891055, 58: 0.17327924, 59: 0.0, 60: 0.022472071, 61: 0.513129003, 62: 1.823286369, 63: 0.559047563, 64: 0.203238203, 65: 1.517321249, 66: 0.467142369, 67: 1.481038449, 68: 0.298525163, 69: 0.752000683, 70: 0.8880228489999999, 71: 0.0, 72: 0.0, 73: 0.175401563, 74: 0.07357180300000001, 75: 0.0, 76: 0.0, 77: 0.0, 78: 0.125676283, 79: 0.0, 80: 0.0, 81: 0.208948283, 82: 0.0, 83: 0.0, 84: 1.535760049, 85: 0.0, 86: 1.485558929, 87: 1.513157649, 88: 0.958865655, 89: 0.944204055, 90: 0.19569927, 91: 0.900402525, 92: 0.0, 93: 0.877921405, 94: 0.881281355, 95: 0.14224552, 96: 0.0, 97: 0.14627746, 98: 0.0, 99: 0.0, 100: 0.877310505, 101: 0.14872106, 102: 0.0, 103: 0.0, 104: 0.6300062400000001, 105: 0.0, 106: 0.8716291350000001, 107: 0.14762144, 108: 0.14841561, 109: 0.0, 110: 0.0, 111: 0.14811016, 112: 0.872545485, 113: 0.14762144, 114: 0.14780471, 115: 0.14811016, 116: 0.14902651, 117: 0.07003714, 118: 0.07083130999999999, 119: 0.07584069, 120: 0.145304683, 121: 0.0, 122: 0.132813883, 123: 0.137334363, 124: 0.0, 125: 0.0, 126: 1.446540049, 127: 0.140308363, 128: 0.0, 129: 1.447134849, 130: 1.435000929, 131: 1.434406129, 132: 1.478064449, 133: 0.0, 134: 0.778528763, 135: 2.146857569, 136: 0.0, 137: 0.0, 138: 0.0, 139: 0.0, 140: 0.0, 141: 0.8265205289999999, 142: 1.443328129, 143: 0.0, 144: 0.0, 145: 1.441186849, 146: 0.0, 147: 1.613678849, 148: 0.382603685, 149: 0.420662755, 150: 0.07003714, 151: 0.820680075, 152: 1.125763535, 153: 0.40297764, 154: 1.423455105, 155: 0.693551785, 156: 0.012426363, 157: 1.344591329, 158: 0.002552683, 159: 0.480771883, 160: 0.0, 161: 1.449276129, 162: 0.0, 163: 1.435833649, 164: 0.06845652300000001, 165: 0.0, 166: 0.0, 167: 0.8463868490000001, 168: 1.762973649, 169: 0.0, 170: 0.058225963, 171: 1.455462049, 172: 0.095936283, 173: 1.430123569, 174: 0.270807483, 175: 0.0, 176: 0.224175163, 177: 0.0, 178: 0.0, 179: 0.212873963, 180: 1.520652129, 181: 0.202643403, 182: 0.203595083, 183: 1.509588849, 184: 0.8255061849999999, 185: 0.0, 186: 0.19832614, 187: 0.0, 188: 0.923128005, 189: 0.923433455, 190: 0.18610814, 191: 0.916102655];
earn = [0: 0.0, 1: 0.375908489, 2: 0.0, 3: 0.407609123, 4: 0.0, 5: 0.0, 6: 0.0, 7: 0.0, 8: 0.0, 9: 0.397780836, 10: 0.389290755, 11: 0.0, 12: 0.0, 13: 0.0, 14: 0.383659473, 15: 0.0, 16: 0.0, 17: 0.0, 18: 0.0, 19: 0.0, 20: 0.0, 21: 0.0, 22: 0.0, 23: 0.0, 24: 0.0, 25: 0.0, 26: 0.538823692, 27: 0.0, 28: 0.0, 29: 0.536629959, 30: 0.0, 31: 0.0, 32: 0.568003354, 33: 0.526373564, 34: 0.0, 35: 0.0, 36: 0.494066267, 37: 0.425005381, 38: 0.519106298, 39: 0.380576175, 40: 0.0, 41: 0.0, 42: 0.0, 43: 0.241162778, 44: 0.0, 45: 0.171211588, 46: 0.0, 47: 0.240187964, 48: 0.0, 49: 0.12889092, 50: 0.032667988, 51: 0.0, 52: 0.0, 53: 0.005685128, 54: 0.0, 55: 0.0, 56: 0.0, 57: 0.0, 58: 0.0, 59: 0.000106004, 60: 0.0, 61: 0.0, 62: 0.0, 63: 0.0, 64: 0.0, 65: 0.0, 66: 0.0, 67: 0.0, 68: 0.0, 69: 0.0, 70: 0.0, 71: 0.633142805, 72: 0.533997352, 73: 0.0, 74: 0.0, 75: 0.516357102, 76: 0.58443769, 77: 0.616028127, 78: 0.0, 79: 0.736979598, 80: 0.718010402, 81: 0.0, 82: 0.62253401, 83: 0.581109989, 84: 0.0, 85: 0.4361344, 86: 0.0, 87: 0.0, 88: 0.0, 89: 0.0, 90: 0.0, 91: 0.0, 92: 0.395668443, 93: 0.0, 94: 0.0, 95: 0.0, 96: 0.34978893, 97: 0.0, 98: 0.3378739, 99: 0.337794531, 100: 0.0, 101: 0.0, 102: 0.32097701, 103: 0.311029838, 104: 0.0, 105: 0.269861607, 106: 0.0, 107: 0.0, 108: 0.0, 109: 0.25643466, 110: 0.255399571, 111: 0.0, 112: 0.0, 113: 0.0, 114: 0.0, 115: 0.0, 116: 0.0, 117: 0.0, 118: 0.0, 119: 0.0, 120: 0.0, 121: 0.202968242, 122: 0.0, 123: 0.0, 124: 0.260101917, 125: 0.23731625, 126: 0.0, 127: 0.0, 128: 0.173591283, 129: 0.0, 130: 0.0, 131: 0.0, 132: 0.0, 133: 0.027726158, 134: 0.0, 135: 0.0, 136: 0.026519862, 137: 0.01209456, 138: 0.008088718999999999, 139: 0.003962656, 140: 0.0, 141: 0.0, 142: 0.0, 143: 0.001297939, 144: 0.001343262, 145: 0.0, 146: -0.001507581, 147: 0.0, 148: 0.0, 149: 0.0, 150: 0.0, 151: 0.0, 152: 0.0, 153: 0.0, 154: 0.0, 155: 0.0, 156: 0.0, 157: 0.0, 158: 0.0, 159: 0.0, 160: 1.8942e-05, 161: 0.0, 162: 0.012949538, 163: 0.0, 164: 0.0, 165: 0.317463616, 166: 0.486309337, 167: 0.0, 168: 0.0, 169: 0.385671005, 170: 0.0, 171: 0.0, 172: 0.0, 173: 0.0, 174: 0.0, 175: 0.528653377, 176: 0.0, 177: 0.500895444, 178: 0.496821522, 179: 0.0, 180: 0.0, 181: 0.0, 182: 0.0, 183: 0.0, 184: 0.0, 185: 0.399494456, 186: 0.0, 187: 0.0, 188: 0.0, 189: 0.0, 190: 0.0, 191: 0.0];
total_cost = 91.489285024;
total_earn = 19.658086201;
% _objective = 71.83119882299999;