production = [0: 0.0, 1: 0.0, 2: 0.0, 3: 0.0, 4: 0.0, 5: 0.0, 6: 0.0, 7: 0.0, 8: 0.0, 9: 0.0, 10: 0.0, 11: 0.0, 12: 0.0, 13: 0.0, 14: 0.0, 15: 0.0, 16: 0.0, 17: 0.0, 18: 0.0, 19: 0.0, 20: 0.000243, 21: 0.000146, 22: 2e-06, 23: 0.000951, 24: 0.000571, 25: 0.000465, 26: 0.007932, 27: 0.030961, 28: 0.007227, 29: 0.002338, 30: 0.00211, 31: 0.199978, 32: 0.129095, 33: 0.27318, 34: 0.28903, 35: 0.08397, 36: 0.816239, 37: 0.196488, 38: 1.115743, 39: 0.949205, 40: 0.053647, 41: 1.444068, 42: 0.6763400000000001, 43: 0.340726, 44: 1.298655, 45: 1.654088, 46: 0.038367, 47: 0.868731, 48: 0.56548, 49: 0.460814, 50: 1.908941, 51: 0.677152, 52: 2.158975, 53: 1.520619, 54: 1.27946, 55: 1.892642, 56: 1.347924, 57: 1.813268, 58: 1.358019, 59: 0.224705, 60: 1.184142, 61: 1.232195, 62: 0.186007, 63: 0.177711, 64: 0.735065, 65: 0.298963, 66: 0.770001, 67: 0.510773, 68: 0.565794, 69: 0.158371, 70: 0.525041, 71: 0.306857, 72: 0.181805, 73: 0.03185, 74: 0.022911, 75: 0.039738, 76: 0.014493, 77: 0.004523, 78: 0.000488, 79: 0.000785, 80: 0.0, 81: 0.0, 82: 0.0, 83: 0.0, 84: 0.0, 85: 0.0, 86: 0.0, 87: 0.0, 88: 0.0, 89: 0.0, 90: 0.0, 91: 0.0, 92: 0.0, 93: 0.0, 94: 0.0, 95: 0.0, 96: 0.0, 97: 0.0, 98: 0.0, 99: 0.0, 100: 0.0, 101: 0.0, 102: 0.0, 103: 0.0, 104: 0.0, 105: 0.0, 106: 0.0, 107: 0.0, 108: 0.0, 109: 0.0, 110: 0.0, 111: 0.0, 112: 0.0, 113: 0.0, 114: 0.0, 115: 0.0, 116: 0.0, 117: 0.0, 118: 0.0, 119: 1.3e-05, 120: 0.0, 121: 0.000593, 122: 0.004561, 123: 0.026172, 124: 0.050531, 125: 0.058802, 126: 0.032388, 127: 0.171092, 128: 0.034893, 129: 0.082292, 130: 0.280099, 131: 0.483312, 132: 0.500715, 133: 0.246276, 134: 0.016454, 135: 1.090443, 136: 0.097175, 137: 0.813105, 138: 0.667288, 139: 0.198176, 140: 1.557536, 141: 0.307356, 142: 1.175673, 143: 1.478427, 144: 0.946281, 145: 0.311499, 146: 0.801187, 147: 0.17734, 148: 1.406281, 149: 1.190766, 150: 0.193376, 151: 0.235474, 152: 1.647197, 153: 0.082499, 154: 0.633508, 155: 0.202628, 156: 1.374119, 157: 0.869211, 158: 0.843519, 159: 0.324997, 160: 0.582946, 161: 0.709891, 162: 0.497968, 163: 0.437295, 164: 0.16165, 165: 0.140548, 166: 0.267447, 167: 0.286477, 168: 0.177641, 169: 0.084965, 170: 0.114948, 171: 0.019396, 172: 0.024174, 173: 0.002246, 174: 0.00083, 175: 0.0, 176: 4e-06, 177: 0.0, 178: 0.0, 179: 0.0, 180: 0.0, 181: 0.0, 182: 0.0, 183: 0.0, 184: 0.0, 185: 0.0, 186: 0.0, 187: 0.0, 188: 0.0, 189: 0.0, 190: 0.0, 191: 0.0];
buy = [0: 818.707165, 1: 74.35720999999999, 2: 544.82082, 3: 937.195793, 4: 830.623394, 5: 527.780744, 6: 37.762106, 7: 898.403095, 8: 514.58606, 9: 241.72534, 10: 955.5272639999999, 11: 701.082126, 12: 848.673175, 13: 687.088616, 14: 270.038272, 15: 378.273281, 16: 558.149129, 17: 53.530988, 18: 383.493262, 19: 443.41875, 20: 766.166141, 21: 872.035272, 22: 795.291107, 23: 493.507456, 24: 924.839627, 25: 825.20476, 26: 273.430667, 27: 751.8479620000001, 28: 654.311873, 29: 818.8941150000001, 30: 816.765822, 31: 980.173001, 32: 434.98245, 33: 47.110941, 34: 64.18438, 35: 470.29947, 36: 238.051791, 37: 32.437207, 38: 28.546324, 39: 985.477438, 40: 436.783106, 41: 803.622425, 42: 394.793552, 43: 382.193684, 44: 547.372376, 45: 951.159795, 46: 523.173902, 47: 488.445329, 48: 878.6569040000001, 49: 888.670513, 50: 319.529974, 51: 335.819232, 52: 48.112808, 53: 223.933369, 54: 664.249668, 55: 628.646316, 56: 890.993526, 57: 283.526434, 58: 753.159099, 59: 45.181644, 60: 981.89739, 61: 67.514876, 62: 63.826557, 63: 723.021128, 64: 348.007412, 65: 943.062798, 66: 324.191132, 67: 308.781044, 68: 667.253018, 69: 850.622969, 70: 264.651374, 71: 772.19155, 72: 58.792902, 73: 786.272233, 74: 141.950244, 75: 402.915294, 76: 536.405286, 77: 579.337946, 78: 515.945954, 79: 866.926316, 80: 541.9064080000001, 81: 25.222463, 82: 499.06841, 83: 642.83357, 84: 179.800641, 85: 894.325094, 86: 268.949754, 87: 456.494306, 88: 588.584491, 89: 91.806271, 90: 590.895207, 91: 449.53121, 92: 521.225993, 93: 398.594419, 94: 939.3666930000001, 95: 174.693986, 96: 125.928078, 97: 756.5096160000001, 98: 101.993456, 99: 395.653961, 100: 976.213312, 101: 788.1895029999999, 102: 452.458062, 103: 67.221513, 104: 382.412745, 105: 569.28873, 106: 982.167143, 107: 858.728523, 108: 209.058754, 109: 124.188279, 110: 350.675097, 111: 668.0361830000001, 112: 846.496849, 113: 729.1295239999999, 114: 932.005782, 115: 992.011608, 116: 51.149054, 117: 336.808248, 118: 915.821645, 119: 942.2514169999999, 120: 994.051757, 121: 99.11615999999999, 122: 5.41974, 123: 143.894415, 124: 153.459063, 125: 451.862294, 126: 872.275769, 127: 840.6483919999999, 128: 968.753118, 129: 674.258327, 130: 864.034574, 131: 406.732448, 132: 169.194415, 133: 240.48905, 134: 940.6725280000001, 135: 950.1905819999999, 136: 53.948252, 137: 168.847652, 138: 814.697189, 139: 59.913674, 140: 550.400588, 141: 449.385666, 142: 227.219671, 143: 233.369223, 144: 426.216394, 145: 186.671484, 146: 252.052293, 147: 824.458919, 148: 730.041706, 149: 965.446017, 150: 889.430124, 151: 521.6200250000001, 152: 675.93352, 153: 474.826593, 154: 300.255351, 155: 237.98182, 156: 511.350973, 157: 907.575631, 158: 153.152547, 159: 642.874371, 160: 733.023088, 161: 452.103983, 162: 10.965034, 163: 237.64481, 164: 684.622182, 165: 676.680329, 166: 436.640342, 167: 433.056253, 168: 686.4576929999999, 169: 493.726776, 170: 303.711821, 171: 514.1277260000001, 172: 534.309392, 173: 642.899208, 174: 456.357074, 175: 974.405568, 176: 464.294548, 177: 65.972623, 178: 271.774918, 179: 96.268244, 180: 593.960868, 181: 539.876713, 182: 73.49550600000001, 183: 427.518824, 184: 611.4659789999999, 185: 528.884899, 186: 953.102894, 187: 925.2109830000001, 188: 604.141604, 189: 209.013215, 190: 876.005501, 191: 605.014424];
sell = [0: 3.554851, 1: 2.556335, 2: 1.94515, 3: 3.374899, 4: 2.903593, 5: 2.679057, 6: 1.804819, 7: 3.33989, 8: 3.617965, 9: 2.750543, 10: 0.838473, 11: 0.738375, 12: 1.5164, 13: 1.178296, 14: 3.543568, 15: 3.362115, 16: 2.474384, 17: 3.618065, 18: 2.834364, 19: 1.812269, 20: 1.012746, 21: 2.714393, 22: 3.037326, 23: 3.04503, 24: 1.554259, 25: 1.20516, 26: 1.629066, 27: 0.023311, 28: 2.405517, 29: 3.230475, 30: 3.268225, 31: 1.633824, 32: 2.211672, 33: 3.054678, 34: 0.82833, 35: 3.082889, 36: 0.03342, 37: 2.821238, 38: 3.820548, 39: 0.102761, 40: 3.813171, 41: 1.116212, 42: 0.049661, 43: 0.086295, 44: 3.855722, 45: 0.854433, 46: 0.208407, 47: 0.757337, 48: 3.426687, 49: 3.823274, 50: 1.978512, 51: 2.0663, 52: 1.865832, 53: 3.980172, 54: 0.625228, 55: 2.752585, 56: 1.289858, 57: 0.598065, 58: 1.755626, 59: 0.8903489999999999, 60: 3.079958, 61: 3.468687, 62: 0.199537, 63: 3.459106, 64: 2.638918, 65: 1.10029, 66: 2.323427, 67: 0.091628, 68: 3.837873, 69: 2.151407, 70: 3.697646, 71: 3.696263, 72: 1.827658, 73: 0.865702, 74: 0.292113, 75: 0.498407, 76: 1.706364, 77: 3.309053, 78: 3.070999, 79: 0.117162, 80: 1.078422, 81: 2.778087, 82: 2.17618, 83: 2.130962, 84: 1.144065, 85: 1.093877, 86: 2.627777, 87: 2.071824, 88: 3.476069, 89: 0.434379, 90: 1.814074, 91: 2.619961, 92: 2.580215, 93: 0.609015, 94: 1.776919, 95: 3.952211, 96: 1.174436, 97: 2.043849, 98: 2.315274, 99: 1.473223, 100: 3.732184, 101: 2.061291, 102: 3.44258, 103: 3.916261, 104: 0.412114, 105: 2.855205, 106: 3.116782, 107: 1.961214, 108: 2.949807, 109: 3.198654, 110: 1.837449, 111: 1.4248, 112: 0.135167, 113: 1.949816, 114: 0.457949, 115: 2.169687, 116: 0.32379, 117: 1.048957, 118: 1.84608, 119: 2.964986, 120: 2.969857, 121: 3.777703, 122: 0.705692, 123: 0.532856, 124: 3.702555, 125: 1.776583, 126: 0.022572, 127: 3.31526, 128: 2.229911, 129: 1.268272, 130: 2.184689, 131: 1.063279, 132: 3.436587, 133: 0.219815, 134: 3.472823, 135: 1.875569, 136: 1.718197, 137: 0.182828, 138: 3.384594, 139: 2.780774, 140: 1.752871, 141: 0.370334, 142: 2.923107, 143: 1.483593, 144: 2.883911, 145: 0.9489649999999999, 146: 1.927827, 147: 3.202924, 148: 3.158377, 149: 0.945203, 150: 2.594946, 151: 3.496229, 152: 2.18546, 153: 2.505144, 154: 3.492283, 155: 0.472305, 156: 3.025576, 157: 0.594368, 158: 1.717698, 159: 2.15238, 160: 2.991456, 161: 0.997965, 162: 0.167114, 163: 0.743804, 164: 3.087472, 165: 3.771474, 166: 3.403868, 167: 3.025108, 168: 2.775306, 169: 0.862428, 170: 3.105781, 171: 3.660812, 172: 2.221891, 173: 1.762693, 174: 1.778385, 175: 3.268231, 176: 2.317574, 177: 1.613478, 178: 3.668204, 179: 3.351589, 180: 1.766278, 181: 0.740472, 182: 3.309613, 183: 0.751273, 184: 2.988795, 185: 1.935015, 186: 1.927237, 187: 3.265255, 188: 1.532945, 189: 3.83362, 190: 2.090697, 191: 2.742529];
charge = [0: 0.855561, 1: 0.332511, 2: 0.534758, 3: 0.849897, 4: 0.677644, 5: 0.5017430000000001, 6: 0.313279, 7: 0.471867, 8: 0.111058, 9: 0.7936569999999999, 10: 0.376006, 11: 0.976743, 12: 0.623704, 13: 0.961724, 14: 0.363166, 15: 0.450323, 16: 0.408009, 17: 0.864795, 18: 0.674776, 19: 0.700151, 20: 0.956469, 21: 0.6931929999999999, 22: 0.226325, 23: 0.138123, 24: 0.485649, 25: 0.967181, 26: 0.022203, 27: 0.333564, 28: 0.640716, 29: 0.03749, 30: 0.554915, 31: 0.829192, 32: 0.945488, 33: 0.78967, 34: 0.628779, 35: 0.930349, 36: 0.430802, 37: 0.9165759999999999, 38: 0.354666, 39: 0.336291, 40: 0.556856, 41: 0.371354, 42: 0.039612, 43: 0.393204, 44: 0.130138, 45: 0.580547, 46: 0.8262429999999999, 47: 0.179304, 48: 0.931217, 49: 0.934684, 50: 0.105688, 51: 0.8823299999999999, 52: 0.331946, 53: 0.843836, 54: 0.334561, 55: 0.407641, 56: 0.8610719999999999, 57: 0.59816, 58: 0.368111, 59: 0.161504, 60: 0.8967580000000001, 61: 0.273436, 62: 0.52666, 63: 0.421013, 64: 0.20601, 65: 0.162167, 66: 0.960524, 67: 0.28184, 68: 0.770494, 69: 0.195248, 70: 0.689445, 71: 0.345998, 72: 0.07875500000000001, 73: 0.878566, 74: 0.22341, 75: 0.577927, 76: 0.01268, 77: 0.806828, 78: 0.7564109999999999, 79: 0.8497440000000001, 80: 0.713419, 81: 0.004997, 82: 0.027247, 83: 0.011324, 84: 0.814577, 85: 0.623659, 86: 0.137636, 87: 0.856344, 88: 0.399094, 89: 0.825712, 90: 0.68475, 91: 0.895513, 92: 0.955383, 93: 0.459123, 94: 0.509059, 95: 0.207968, 96: 0.262673, 97: 0.160808, 98: 0.320931, 99: 0.764502, 100: 0.705241, 101: 0.360811, 102: 0.236543, 103: 0.684667, 104: 0.86276, 105: 0.011556, 106: 0.89346, 107: 0.637544, 108: 0.11302, 109: 0.254397, 110: 0.708554, 111: 0.56103, 112: 0.685017, 113: 0.413068, 114: 0.117662, 115: 0.714735, 116: 0.642968, 117: 0.614752, 118: 0.369056, 119: 0.983198, 120: 0.09234100000000001, 121: 0.30508, 122: 0.254842, 123: 0.782385, 124: 0.648247, 125: 0.750157, 126: 0.812351, 127: 0.104355, 128: 0.254278, 129: 0.39236, 130: 0.99433, 131: 0.655336, 132: 0.000489, 133: 0.089548, 134: 0.849407, 135: 0.740448, 136: 0.096315, 137: 0.222792, 138: 0.765255, 139: 0.977737, 140: 0.978975, 141: 0.576456, 142: 0.221552, 143: 0.379558, 144: 0.932451, 145: 0.37557, 146: 0.139234, 147: 0.867672, 148: 0.427579, 149: 0.693142, 150: 0.382578, 151: 0.5152099999999999, 152: 0.050074, 153: 0.254403, 154: 0.971875, 155: 0.242159, 156: 0.439478, 157: 0.584178, 158: 0.110937, 159: 0.563338, 160: 0.281553, 161: 0.876865, 162: 0.024813, 163: 0.871071, 164: 0.885725, 165: 0.508731, 166: 0.00028, 167: 0.470392, 168: 0.541231, 169: 0.434566, 170: 0.87293, 171: 0.4541, 172: 0.385732, 173: 0.934675, 174: 0.889076, 175: 0.455965, 176: 0.077843, 177: 0.228993, 178: 0.06975199999999999, 179: 0.788762, 180: 0.327399, 181: 0.408323, 182: 0.251738, 183: 0.792077, 184: 0.541422, 185: 0.490322, 186: 0.40227, 187: 0.588524, 188: 0.552829, 189: 0.101031, 190: 0.360288, 191: 0.942391];
discharge = [0: 0.584553, 1: 0.14549, 2: 0.862339, 3: 0.434793, 4: 0.883328, 5: 0.123003, 6: 0.42876, 7: 0.7717349999999999, 8: 0.287948, 9: 0.001445, 10: 0.26664, 11: 0.852614, 12: 0.747451, 13: 0.500441, 14: 0.181173, 15: 0.341015, 16: 0.285529, 17: 0.704193, 18: 0.445606, 19: 0.200087, 20: 0.842193, 21: 0.774846, 22: 0.611472, 23: 0.5331050000000001, 24: 0.038708, 25: 0.495926, 26: 0.651906, 27: 0.497436, 28: 0.06879399999999999, 29: 0.204099, 30: 0.684007, 31: 0.643066, 32: 0.158961, 33: 0.534427, 34: 0.386999, 35: 0.017544, 36: 0.759552, 37: 0.769803, 38: 0.078329, 39: 0.473278, 40: 0.992773, 41: 0.582808, 42: 0.373565, 43: 0.36425, 44: 0.603208, 45: 0.545384, 46: 0.230828, 47: 0.948905, 48: 0.7922400000000001, 49: 0.723373, 50: 0.31311, 51: 0.389916, 52: 0.638053, 53: 0.556864, 54: 0.08286200000000001, 55: 0.595452, 56: 0.5589229999999999, 57: 0.779, 58: 0.291155, 59: 0.916878, 60: 0.152557, 61: 0.929499, 62: 0.956844, 63: 0.631132, 64: 0.637731, 65: 0.244704, 66: 0.135389, 67: 0.29745, 68: 0.378193, 69: 0.141899, 70: 0.368911, 71: 0.985504, 72: 0.865493, 73: 0.450287, 74: 0.375688, 75: 0.691396, 76: 0.232128, 77: 0.432851, 78: 0.899338, 79: 0.615394, 80: 0.281917, 81: 0.292047, 82: 0.888555, 83: 0.500579, 84: 0.01535, 85: 0.46832, 86: 0.607714, 87: 0.061372, 88: 0.7782750000000001, 89: 0.568296, 90: 0.403803, 91: 0.08185000000000001, 92: 0.028469, 93: 0.097826, 94: 0.043477, 95: 0.094822, 96: 0.343869, 97: 0.298765, 98: 0.505925, 99: 0.223509, 100: 0.389125, 101: 0.53104, 102: 0.772319, 103: 0.384828, 104: 0.486601, 105: 0.456604, 106: 0.205422, 107: 0.68633, 108: 0.885312, 109: 0.258463, 110: 0.570863, 111: 0.479239, 112: 0.770697, 113: 0.789235, 114: 0.560737, 115: 0.614403, 116: 0.651193, 117: 0.81857, 118: 0.288884, 119: 0.623933, 120: 0.9500999999999999, 121: 0.763311, 122: 0.853438, 123: 0.051358, 124: 0.260193, 125: 0.589363, 126: 0.240783, 127: 0.839726, 128: 0.37791, 129: 0.032543, 130: 0.869689, 131: 0.160204, 132: 0.945164, 133: 0.7325, 134: 0.052555, 135: 0.527043, 136: 0.568465, 137: 0.44097, 138: 0.782135, 139: 0.281797, 140: 0.443552, 141: 0.383814, 142: 0.377049, 143: 0.477763, 144: 0.248082, 145: 0.600727, 146: 0.526437, 147: 0.443203, 148: 0.8368679999999999, 149: 0.260592, 150: 0.262699, 151: 0.752063, 152: 0.844473, 153: 0.758012, 154: 0.67921, 155: 0.459367, 156: 0.613232, 157: 0.799268, 158: 0.109108, 159: 0.954619, 160: 0.267014, 161: 0.477876, 162: 0.692483, 163: 0.027751, 164: 0.507155, 165: 0.132267, 166: 0.5708800000000001, 167: 0.1637, 168: 0.718558, 169: 0.509123, 170: 0.482104, 171: 0.603366, 172: 0.584009, 173: 0.741314, 174: 0.338475, 175: 0.931679, 176: 0.607781, 177: 0.533115, 178: 0.570331, 179: 0.985318, 180: 0.147344, 181: 0.140527, 182: 0.007939, 183: 0.961075, 184: 0.173565, 185: 0.663789, 186: 0.627545, 187: 0.7057909999999999, 188: 0.621653, 189: 0.066423, 190: 0.453503, 191: 0.736693];
soc = [0: 8.349930000000001, 1: 9.237727, 2: 5.423937, 3: 4.992559, 4: 6.062465, 5: 4.16238, 6: 12.77139, 7: 12.871432, 8: 15.220419, 9: 7.856655, 10: 10.868701, 11: 6.87074, 12: 9.415425000000001, 13: 11.342547, 14: 11.211184, 15: 8.022550000000001, 16: 13.804156, 17: 9.088865, 18: 7.193719, 19: 15.584525, 20: 10.694838, 21: 13.247173, 22: 13.449031, 23: 15.562498, 24: 7.616137, 25: 12.912525, 26: 4.13547, 27: 15.465526, 28: 6.943828, 29: 12.331946, 30: 2.815371, 31: 15.306639, 32: 12.329598, 33: 14.085405, 34: 14.077756, 35: 9.519436000000001, 36: 13.824861, 37: 10.478749, 38: 8.743930000000001, 39: 2.723059, 40: 5.51287, 41: 11.792109, 42: 9.838085, 43: 12.461218, 44: 15.664078, 45: 7.616193, 46: 8.018528, 47: 2.671466, 48: 8.984458999999999, 49: 13.164746, 50: 4.377525, 51: 13.506369, 52: 5.749989, 53: 13.583445, 54: 8.665037999999999, 55: 4.478016, 56: 12.764199, 57: 4.100465, 58: 15.362666, 59: 12.8018, 60: 4.857603, 61: 11.348174, 62: 7.525247, 63: 4.515839, 64: 8.072338, 65: 9.45228, 66: 5.862742, 67: 7.06124, 68: 4.539703, 69: 12.135149, 70: 15.56294, 71: 11.596717, 72: 3.064132, 73: 2.977781, 74: 3.425006, 75: 12.526189, 76: 8.115836, 77: 10.491716, 78: 7.5471, 79: 9.91995, 80: 7.465136, 81: 9.305664, 82: 12.8537, 83: 6.532724, 84: 15.031731, 85: 14.167615, 86: 5.786474, 87: 7.600422, 88: 8.799345000000001, 89: 11.556708, 90: 13.50196, 91: 9.457819000000001, 92: 11.804888, 93: 7.094207, 94: 4.960291, 95: 6.713132, 96: 12.515562, 97: 12.852855, 98: 4.698802, 99: 14.116374, 100: 13.886762, 101: 4.024914, 102: 3.043933, 103: 11.540783, 104: 15.133205, 105: 10.421342, 106: 7.099928, 107: 9.584614999999999, 108: 5.777408, 109: 14.796608, 110: 13.311059, 111: 10.817362, 112: 15.017502, 113: 3.097211, 114: 2.72614, 115: 15.602456, 116: 4.245745, 117: 4.227174, 118: 14.84772, 119: 8.425366, 120: 11.483281, 121: 12.181862, 122: 8.964378999999999, 123: 3.327862, 124: 15.664508, 125: 14.014753, 126: 8.80566, 127: 6.260869, 128: 5.147193, 129: 13.966925, 130: 11.998884, 131: 15.35058, 132: 14.147407, 133: 4.192814, 134: 7.130242, 135: 11.282938, 136: 12.50651, 137: 10.558059, 138: 12.227369, 139: 8.30076, 140: 7.348687, 141: 9.717938, 142: 14.1729, 143: 7.12772, 144: 9.899112000000001, 145: 11.400823, 146: 7.72101, 147: 14.09423, 148: 12.452791, 149: 15.39939, 150: 15.644437, 151: 3.275517, 152: 10.958973, 153: 6.170551, 154: 8.565949, 155: 15.075277, 156: 15.200672, 157: 8.392765000000001, 158: 3.367196, 159: 9.0596, 160: 9.393753999999999, 161: 6.602636, 162: 9.749528, 163: 9.966117000000001, 164: 7.198972, 165: 6.693309, 166: 14.997458, 167: 13.288365, 168: 14.985228, 169: 14.918109, 170: 2.704972, 171: 8.799450999999999, 172: 4.399314, 173: 10.326913, 174: 7.597899, 175: 13.613546, 176: 6.684008, 177: 6.789348, 178: 11.133519, 179: 12.031939, 180: 5.55409, 181: 8.119769, 182: 4.898248, 183: 9.328201999999999, 184: 11.313805, 185: 5.332466, 186: 13.884316, 187: 4.246449, 188: 13.542235, 189: 14.970207, 190: 12.62493, 191: 8.297488];
cost = [0: 458.981505, 1: 571.449303, 2: 510.029555, 3: 551.603222, 4: 524.672146, 5: 8.033303999999999, 6: 553.668545, 7: 212.565271, 8: 575.221675, 9: 406.901072, 10: 87.970792, 11: 566.693583, 12: 106.874448, 13: 79.246422, 14: 118.31293, 15: 150.458554, 16: 418.891788, 17: 499.376193, 18: 89.81397, 19: 371.533838, 20: 14.482455, 21: 488.399565, 22: 176.980597, 23: 287.588336, 24: 780.875534, 25: 656.427369, 26: 94.602287, 27: 484.493495, 28: 944.701995, 29: 24.066095, 30: 217.13959, 31: 372.700376, 32: 794.658894, 33: 286.703341, 34: 1070.747982, 35: 130.681405, 36: 237.689867, 37: 89.717342, 38: 454.686981, 39: 3.297495, 40: 452.190719, 41: 1001.817533, 42: 162.254539, 43: 819.004492, 44: 607.664225, 45: 327.301078, 46: 670.643834, 47: 773.135881, 48: 153.700691, 49: 280.372756, 50: 477.429473, 51: 140.311041, 52: 163.522532, 53: 366.677422, 54: 115.166478, 55: 531.663618, 56: 97.43129500000001, 57: 49.796422, 58: 315.117441, 59: 138.211539, 60: 164.630722, 61: 711.077845, 62: 79.087244, 63: 409.098749, 64: 46.939077, 65: 724.231765, 66: 957.200196, 67: 1065.142534, 68: 705.468646, 69: 909.97076, 70: 846.337564, 71: 464.815207, 72: 68.9927, 73: 1029.431909, 74: 655.542687, 75: 596.947557, 76: 431.126121, 77: 199.588657, 78: 560.916407, 79: 1131.046532, 80: 857.456874, 81: 180.927182, 82: 1135.840303, 83: 1158.632432, 84: 326.812089, 85: 926.536785, 86: 1022.71661, 87: 101.650935, 88: 470.063242, 89: 328.301956, 90: 267.148809, 91: 345.805987, 92: 206.430232, 93: 11.512113, 94: 553.098585, 95: 264.568256, 96: 138.026479, 97: 290.193653, 98: 324.526898, 99: 148.504964, 100: 82.06609899999999, 101: 378.558671, 102: 552.460141, 103: 39.080128, 104: 520.283284, 105: 411.105034, 106: 143.692682, 107: 437.270076, 108: 214.321287, 109: 460.425873, 110: 61.24009, 111: 173.713765, 112: 16.781931, 113: 14.048797, 114: 571.783941, 115: 137.388478, 116: 327.382235, 117: 162.013282, 118: 504.184769, 119: 20.639229, 120: 219.175985, 121: 330.051876, 122: 302.55394, 123: 590.368689, 124: 498.423567, 125: 244.351698, 126: 178.635029, 127: 1130.668267, 128: 192.52255, 129: 652.328944, 130: 851.386661, 131: 1163.426094, 132: 426.330359, 133: 1184.989089, 134: 1182.663023, 135: 895.824526, 136: 1001.110627, 137: 66.588185, 138: 68.40698500000001, 139: 783.791875, 140: 70.25190600000001, 141: 1142.111065, 142: 674.224183, 143: 912.148188, 144: 439.751732, 145: 1176.902608, 146: 655.452109, 147: 455.306123, 148: 410.739884, 149: 52.709431, 150: 221.005531, 151: 202.934701, 152: 525.305165, 153: 126.687262, 154: 194.124335, 155: 416.995823, 156: 362.643549, 157: 660.327192, 158: 221.630649, 159: 279.810436, 160: 422.679777, 161: 326.575278, 162: 157.731622, 163: 47.404853, 164: 638.402143, 165: 164.557187, 166: 1156.978528, 167: 105.242365, 168: 1119.761357, 169: 505.330205, 170: 630.683373, 171: 309.509875, 172: 941.96072, 173: 922.144729, 174: 476.121826, 175: 316.027459, 176: 1169.226727, 177: 1150.512737, 178: 769.427198, 179: 781.23209, 180: 787.422382, 181: 934.616992, 182: 11.662817, 183: 753.490376, 184: 519.397974, 185: 561.203495, 186: 301.893069, 187: 154.33807, 188: 223.941423, 189: 144.358051, 190: 35.175949, 191: 202.66952];
earn = [0: 0.110813, 1: 0.744204, 2: 0.20142, 3: 0.581707, 4: 0.486758, 5: 1.551783, 6: 1.616706, 7: 2.500652, 8: 1.92945, 9: 1.384989, 10: 2.027446, 11: 2.629846, 12: 2.458417, 13: 0.051593, 14: 0.777677, 15: 1.399176, 16: 1.688221, 17: 1.704873, 18: 1.454988, 19: 1.443125, 20: 2.466477, 21: 2.533128, 22: 3.029883, 23: 1.070617, 24: 1.249537, 25: 2.68634, 26: 2.837948, 27: 1.220784, 28: 2.794484, 29: 0.012821, 30: 1.186024, 31: 3.934924, 32: 0.780525, 33: 1.281624, 34: 2.778403, 35: 0.554667, 36: 0.195151, 37: 2.293932, 38: 0.919195, 39: 0.651376, 40: 1.828858, 41: 2.191965, 42: 1.018913, 43: 0.881675, 44: 1.506647, 45: 0.023321, 46: 0.09705, 47: 0.820894, 48: 1.01773, 49: 1.479665, 50: 0.603234, 51: 0.329004, 52: 0.629765, 53: 0.035743, 54: 0.670793, 55: 0.40184, 56: 0.747981, 57: 1.139443, 58: 0.554424, 59: 0.138841, 60: 0.977734, 61: 1.359611, 62: 1.351096, 63: 0.973905, 64: 1.074448, 65: 0.025319, 66: 1.46813, 67: 1.055143, 68: 1.342251, 69: 1.707579, 70: 1.193722, 71: 1.469874, 72: 1.495988, 73: 2.384208, 74: 2.671474, 75: 2.814809, 76: 0.781809, 77: 3.296532, 78: 2.774634, 79: 0.870704, 80: 3.807819, 81: 3.905716, 82: 3.215696, 83: 0.307775, 84: 1.37386, 85: 0.874358, 86: 0.649338, 87: 2.871069, 88: 0.117966, 89: 2.795433, 90: 2.126954, 91: 2.425896, 92: 0.012186, 93: 1.317943, 94: 0.297954, 95: 1.10787, 96: 2.412545, 97: 2.385057, 98: 1.789442, 99: 0.444992, 100: 0.205336, 101: 1.623658, 102: 1.190105, 103: 1.434587, 104: 0.122053, 105: 0.126253, 106: 0.514201, 107: 2.044404, 108: 1.785911, 109: 1.633515, 110: 0.302884, 111: 1.672059, 112: 0.515578, 113: 0.293327, 114: 1.760815, 115: 0.13852, 116: 0.566213, 117: 0.731472, 118: 1.922842, 119: 1.984632, 120: 0.245653, 121: 0.100071, 122: 1.46528, 123: 1.648005, 124: 1.953515, 125: 0.62961, 126: 2.985348, 127: 1.351703, 128: 2.132902, 129: 2.070594, 130: 2.155654, 131: 1.12124, 132: 1.235159, 133: 0.020052, 134: 0.7314000000000001, 135: 0.106034, 136: 1.558197, 137: 0.974797, 138: 1.160475, 139: 0.8149690000000001, 140: 0.005943, 141: 0.183627, 142: 0.6298, 143: 0.137507, 144: 0.67843, 145: 0.131149, 146: 0.243968, 147: 0.231404, 148: 0.200618, 149: 0.192191, 150: 0.132401, 151: 0.133402, 152: 0.070206, 153: 0.04135, 154: 0.587498, 155: 0.613887, 156: 0.729974, 157: 0.370962, 158: 0.774692, 159: 1.508976, 160: 0.5599730000000001, 161: 1.905476, 162: 0.885424, 163: 1.624268, 164: 0.885097, 165: 0.573444, 166: 0.605246, 167: 0.208453, 168: 2.720879, 169: 1.636499, 170: 1.428175, 171: 1.661376, 172: 1.340695, 173: 3.361172, 174: 1.584399, 175: 2.309673, 176: 3.583023, 177: 3.284501, 178: 1.18687, 179: 2.012381, 180: 0.111552, 181: 0.597772, 182: 0.806524, 183: 0.861476, 184: 2.734347, 185: 2.260904, 186: 1.483429, 187: 2.585395, 188: 1.398635, 189: 2.414944, 190: 1.685725, 191: 0.005168];
total_cost = 94.36230116621881;
total_earn = 36.48754391482013;
