production = [0: 0.0, 1: 0.0, 2: 0.0, 3: 0.0, 4: 0.0, 5: 0.0, 6: 0.0, 7: 0.0, 8: 0.0, 9: 0.0, 10: 0.0, 11: 0.0, 12: 0.0, 13: 0.0, 14: 0.0, 15: 0.0, 16: 0.0, 17: 0.0, 18: 0.0, 19: 0.0, 20: 0.000272, 21: 0.000238, 22: 0.000378, 23: 0.000904, 24: 0.0009890000000000001, 25: 0.0009990000000000001, 26: 0.002807, 27: 0.006955, 28: 0.003456, 29: 0.093671, 30: 0.016131, 31: 0.157388, 32: 0.03533, 33: 0.142712, 34: 0.250879, 35: 0.216232, 36: 0.50447, 37: 0.392163, 38: 0.964215, 39: 0.547938, 40: 1.218955, 41: 0.969855, 42: 1.480469, 43: 0.6349320000000001, 44: 0.158481, 45: 0.282388, 46: 0.574778, 47: 0.915649, 48: 0.390812, 49: 1.230246, 50: 1.825133, 51: 2.022769, 52: 0.6725950000000001, 53: 0.990443, 54: 1.0112, 55: 1.387305, 56: 1.459982, 57: 0.291738, 58: 0.922942, 59: 1.166901, 60: 0.70829, 61: 1.098021, 62: 0.136426, 63: 0.9863960000000001, 64: 0.228677, 65: 0.336049, 66: 0.836803, 67: 0.758483, 68: 0.453199, 69: 0.02562, 70: 0.325821, 71: 0.260261, 72: 0.05868, 73: 0.088544, 74: 0.006379, 75: 0.048915, 76: 0.026176, 77: 0.012111, 78: 0.000166, 79: 0.000251, 80: 0.0, 81: 0.0, 82: 0.0, 83: 0.0, 84: 0.0, 85: 0.0, 86: 0.0, 87: 0.0, 88: 0.0, 89: 0.0, 90: 0.0, 91: 0.0, 92: 0.0, 93: 0.0, 94: 0.0, 95: 0.0, 96: 0.0, 97: 0.0, 98: 0.0, 99: 0.0, 100: 0.0, 101: 0.0, 102: 0.0, 103: 0.0, 104: 0.0, 105: 0.0, 106: 0.0, 107: 0.0, 108: 0.0, 109: 0.0, 110: 0.0, 111: 0.0, 112: 0.0, 113: 0.0, 114: 0.0, 115: 0.0, 116: 0.0, 117: 0.0, 118: 0.0, 119: 0.000366, 120: 0.0, 121: 0.000878, 122: 0.004483, 123: 0.026356, 124: 0.014251, 125: 0.051958, 126: 0.013253, 127: 0.175125, 128: 0.061619, 129: 0.238339, 130: 0.443672, 131: 0.559876, 132: 0.854596, 133: 0.09453, 134: 0.440202, 135: 0.32337, 136: 0.491712, 137: 0.4655, 138: 0.231502, 139: 1.49654, 140: 0.595013, 141: 0.002861, 142: 1.671135, 143: 0.019077, 144: 0.530841, 145: 1.509479, 146: 0.053686, 147: 1.890373, 148: 0.83717, 149: 0.475949, 150: 1.216733, 151: 0.636536, 152: 0.329843, 153: 0.994673, 154: 0.143614, 155: 0.858897, 156: 1.446955, 157: 1.046959, 158: 0.495643, 159: 1.362803, 160: 0.602492, 161: 0.799823, 162: 0.9145219999999999, 163: 0.6045970000000001, 164: 0.252807, 165: 0.270711, 166: 0.154993, 167: 0.058419, 168: 0.146119, 169: 0.192155, 170: 0.010123, 171: 0.057118, 172: 0.001281, 173: 0.008612, 174: 0.000242, 175: 0.0, 176: 0.000227, 177: 0.0, 178: 0.0, 179: 0.0, 180: 0.0, 181: 0.0, 182: 0.0, 183: 0.0, 184: 0.0, 185: 0.0, 186: 0.0, 187: 0.0, 188: 0.0, 189: 0.0, 190: 0.0, 191: 0.0];
buy = [0: 875.910251, 1: 651.522947, 2: 242.401611, 3: 431.397059, 4: 472.261746, 5: 940.77665, 6: 175.78492, 7: 778.657965, 8: 417.212713, 9: 868.7860930000001, 10: 553.2519590000001, 11: 752.212012, 12: 715.987478, 13: 261.199923, 14: 208.219065, 15: 244.250003, 16: 254.30804, 17: 465.506513, 18: 429.408264, 19: 883.594522, 20: 755.663575, 21: 238.658135, 22: 243.641433, 23: 906.178241, 24: 8.159978000000001, 25: 668.20552, 26: 751.931271, 27: 731.202116, 28: 836.849507, 29: 347.973793, 30: 601.2885209999999, 31: 521.477032, 32: 926.835394, 33: 108.211972, 34: 298.246322, 35: 211.750733, 36: 260.615171, 37: 506.794153, 38: 248.361586, 39: 610.489025, 40: 783.93424, 41: 149.593263, 42: 969.6225910000001, 43: 873.595165, 44: 530.8831300000001, 45: 404.280449, 46: 461.45114, 47: 70.751178, 48: 371.381726, 49: 741.21435, 50: 104.046361, 51: 324.19135, 52: 575.726276, 53: 585.567629, 54: 581.1452880000001, 55: 150.018324, 56: 134.997459, 57: 948.74311, 58: 900.631498, 59: 568.520818, 60: 980.114159, 61: 846.560368, 62: 348.821253, 63: 440.791304, 64: 548.733154, 65: 432.844146, 66: 106.077236, 67: 260.213448, 68: 309.414061, 69: 949.215077, 70: 328.724433, 71: 528.262881, 72: 439.442359, 73: 967.383337, 74: 283.965256, 75: 255.611177, 76: 236.034124, 77: 545.492484, 78: 221.306753, 79: 212.807618, 80: 591.9364849999999, 81: 435.001119, 82: 687.02878, 83: 640.411309, 84: 148.22631, 85: 601.0453199999999, 86: 569.4186580000001, 87: 569.369359, 88: 790.448744, 89: 91.16045800000001, 90: 555.744054, 91: 998.005145, 92: 471.103897, 93: 471.025123, 94: 518.368862, 95: 12.477785, 96: 196.856183, 97: 766.344784, 98: 872.026713, 99: 959.237215, 100: 238.124994, 101: 115.592864, 102: 37.324999, 103: 629.907874, 104: 818.461842, 105: 493.187356, 106: 359.186306, 107: 115.191633, 108: 964.489707, 109: 614.865803, 110: 551.707732, 111: 508.125115, 112: 576.263762, 113: 317.28117, 114: 681.219386, 115: 512.432013, 116: 974.7131010000001, 117: 290.174376, 118: 246.727641, 119: 808.338808, 120: 79.662747, 121: 237.539192, 122: 238.775858, 123: 50.613176, 124: 400.0579, 125: 904.718983, 126: 436.096919, 127: 543.470138, 128: 915.832571, 129: 495.996906, 130: 188.141535, 131: 188.52574, 132: 452.569808, 133: 61.907098, 134: 113.467961, 135: 599.072286, 136: 249.994497, 137: 784.781021, 138: 247.07535, 139: 406.630029, 140: 452.139253, 141: 179.371538, 142: 581.7074270000001, 143: 917.116898, 144: 122.761423, 145: 461.423343, 146: 977.76385, 147: 59.934218, 148: 460.943409, 149: 721.789942, 150: 408.576605, 151: 566.1637490000001, 152: 865.096057, 153: 112.70826, 154: 477.308099, 155: 189.095537, 156: 193.894737, 157: 231.08325, 158: 584.210957, 159: 177.006048, 160: 873.644636, 161: 495.395235, 162: 666.648632, 163: 153.44793, 164: 633.453026, 165: 937.84523, 166: 281.402591, 167: 408.715858, 168: 476.764683, 169: 265.453026, 170: 287.225195, 171: 232.408409, 172: 186.142583, 173: 729.12346, 174: 578.452061, 175: 212.403197, 176: 551.495855, 177: 10.804232, 178: 254.449589, 179: 793.414494, 180: 288.481105, 181: 872.731927, 182: 213.226172, 183: 89.978635, 184: 701.311436, 185: 137.454925, 186: 100.410468, 187: 453.185652, 188: 348.329592, 189: 434.962036, 190: 88.82138999999999, 191: 807.416413];
sell = [0: 3.829569, 1: 2.890229, 2: 1.287602, 3: 2.397683, 4: 2.377604, 5: 3.221852, 6: 1.946192, 7: 0.680933, 8: 0.687925, 9: 2.902735, 10: 1.380037, 11: 0.858468, 12: 1.908149, 13: 1.334, 14: 0.887597, 15: 3.808959, 16: 0.826871, 17: 1.628141, 18: 0.908403, 19: 3.932385, 20: 1.240001, 21: 1.773346, 22: 3.671506, 23: 3.586456, 24: 0.460305, 25: 0.375698, 26: 0.791429, 27: 0.196561, 28: 0.027399, 29: 2.130036, 30: 3.479614, 31: 3.221189, 32: 2.274424, 33: 2.039875, 34: 2.449907, 35: 2.604037, 36: 0.110599, 37: 2.020064, 38: 1.622942, 39: 0.973395, 40: 2.094111, 41: 3.028715, 42: 0.020077, 43: 3.561053, 44: 3.246137, 45: 3.626572, 46: 0.035851, 47: 1.355229, 48: 0.860236, 49: 2.819358, 50: 3.016893, 51: 0.323672, 52: 2.346644, 53: 3.450009, 54: 0.135772, 55: 2.206457, 56: 1.451524, 57: 0.301213, 58: 1.47804, 59: 2.575682, 60: 0.930059, 61: 2.614507, 62: 3.679537, 63: 3.368338, 64: 0.211978, 65: 3.322818, 66: 1.02046, 67: 0.149155, 68: 1.307912, 69: 3.190241, 70: 2.498585, 71: 1.890384, 72: 2.707876, 73: 2.448244, 74: 2.327711, 75: 1.457274, 76: 3.040111, 77: 2.316521, 78: 0.657934, 79: 1.111904, 80: 0.376966, 81: 0.177958, 82: 2.62717, 83: 2.991715, 84: 1.86856, 85: 2.637023, 86: 3.812358, 87: 2.872548, 88: 0.054968, 89: 3.260126, 90: 2.142122, 91: 2.383827, 92: 3.09203, 93: 3.080901, 94: 1.532713, 95: 0.136537, 96: 2.303211, 97: 1.432357, 98: 0.28269, 99: 2.591547, 100: 3.529971, 101: 2.432391, 102: 2.39042, 103: 0.066786, 104: 2.703368, 105: 2.644682, 106: 1.354893, 107: 0.258579, 108: 2.268861, 109: 2.056126, 110: 1.225741, 111: 1.895991, 112: 2.996058, 113: 2.760296, 114: 0.820155, 115: 0.460807, 116: 1.082972, 117: 0.494632, 118: 3.522696, 119: 2.850349, 120: 3.15004, 121: 1.171845, 122: 3.66471, 123: 3.672971, 124: 3.71582, 125: 0.627065, 126: 0.18319, 127: 2.641618, 128: 2.000669, 129: 1.629783, 130: 3.377177, 131: 1.919088, 132: 3.958878, 133: 2.161975, 134: 0.793077, 135: 3.212122, 136: 0.9350850000000001, 137: 2.797593, 138: 2.333726, 139: 0.790317, 140: 1.118267, 141: 3.393594, 142: 2.422245, 143: 0.33012, 144: 1.544857, 145: 0.511097, 146: 2.238185, 147: 0.639292, 148: 2.271309, 149: 1.053042, 150: 3.316559, 151: 2.751453, 152: 3.727283, 153: 3.528515, 154: 1.609941, 155: 2.754029, 156: 1.575676, 157: 1.15419, 158: 3.566021, 159: 3.76644, 160: 1.074383, 161: 2.733739, 162: 3.635356, 163: 2.133151, 164: 1.250969, 165: 1.314624, 166: 0.604082, 167: 0.972983, 168: 1.323868, 169: 1.811981, 170: 1.744534, 171: 2.538831, 172: 0.675731, 173: 3.148089, 174: 0.148902, 175: 2.153103, 176: 1.928434, 177: 1.92363, 178: 3.148945, 179: 0.471312, 180: 0.359173, 181: 0.162263, 182: 3.537857, 183: 2.638542, 184: 2.58977, 185: 3.274126, 186: 0.584404, 187: 0.028155, 188: 1.360472, 189: 2.133617, 190: 2.292628, 191: 2.068069];
charge = [0: 0.000378, 1: 0.896723, 2: 0.782424, 3: 0.996458, 4: 0.8356789999999999, 5: 0.370937, 6: 0.314465, 7: 0.21811, 8: 0.276081, 9: 0.283455, 10: 0.110732, 11: 0.027701, 12: 0.798789, 13: 0.359896, 14: 0.155743, 15: 0.712696, 16: 0.136984, 17: 0.208844, 18: 0.143424, 19: 0.087382, 20: 0.024297, 21: 0.660835, 22: 0.355365, 23: 0.543959, 24: 0.518601, 25: 0.019557, 26: 0.407527, 27: 0.207104, 28: 0.922271, 29: 0.786597, 30: 0.355938, 31: 0.975681, 32: 0.8986960000000001, 33: 0.073909, 34: 0.731564, 35: 0.261235, 36: 0.809956, 37: 0.179059, 38: 0.7500559999999999, 39: 0.157554, 40: 0.733026, 41: 0.544645, 42: 0.591679, 43: 0.464586, 44: 0.376003, 45: 0.08727799999999999, 46: 0.5606449999999999, 47: 0.475351, 48: 0.605106, 49: 0.604832, 50: 0.728781, 51: 0.6123459999999999, 52: 0.426034, 53: 0.670709, 54: 0.458115, 55: 0.694972, 56: 0.759957, 57: 0.392553, 58: 0.201916, 59: 0.118877, 60: 0.2624, 61: 0.190796, 62: 0.52339, 63: 0.467129, 64: 0.563422, 65: 0.222162, 66: 0.332102, 67: 0.996879, 68: 0.252634, 69: 0.824143, 70: 0.898794, 71: 0.709203, 72: 0.333023, 73: 0.311705, 74: 0.8870130000000001, 75: 0.266325, 76: 0.217701, 77: 0.25859, 78: 0.319859, 79: 0.008182, 80: 0.877244, 81: 0.623858, 82: 0.8944530000000001, 83: 0.001288, 84: 0.470353, 85: 0.668903, 86: 0.395305, 87: 0.719456, 88: 0.660568, 89: 0.910653, 90: 0.876864, 91: 0.996027, 92: 0.34932, 93: 0.756587, 94: 0.366807, 95: 0.988532, 96: 0.8259919999999999, 97: 0.471897, 98: 0.550714, 99: 0.024869, 100: 0.311303, 101: 0.494406, 102: 0.659637, 103: 0.088578, 104: 0.435083, 105: 0.357487, 106: 0.111809, 107: 0.919616, 108: 0.821669, 109: 0.483774, 110: 0.8051700000000001, 111: 0.691507, 112: 0.80138, 113: 0.911505, 114: 0.474822, 115: 0.665472, 116: 0.353161, 117: 0.596361, 118: 0.664293, 119: 0.444645, 120: 0.431138, 121: 0.662776, 122: 0.887544, 123: 0.9929210000000001, 124: 0.979065, 125: 0.505174, 126: 0.182253, 127: 0.164949, 128: 0.5271940000000001, 129: 0.199832, 130: 0.08658, 131: 0.195367, 132: 0.218077, 133: 0.103082, 134: 0.143829, 135: 0.260131, 136: 0.992421, 137: 0.638453, 138: 0.905214, 139: 0.655673, 140: 0.985978, 141: 0.688174, 142: 0.998461, 143: 0.191059, 144: 0.036167, 145: 0.434013, 146: 0.547185, 147: 0.009868999999999999, 148: 0.418091, 149: 0.639868, 150: 0.8182160000000001, 151: 0.912238, 152: 0.365234, 153: 0.577862, 154: 0.026059, 155: 0.762495, 156: 0.995932, 157: 0.704186, 158: 0.898633, 159: 0.52974, 160: 0.287384, 161: 0.28615, 162: 0.239865, 163: 0.26699, 164: 0.511521, 165: 0.484612, 166: 0.874846, 167: 0.151134, 168: 0.875584, 169: 0.443558, 170: 0.150512, 171: 0.108949, 172: 0.829939, 173: 0.01464, 174: 0.70667, 175: 0.332922, 176: 0.031024, 177: 0.396917, 178: 0.54126, 179: 0.345026, 180: 0.623382, 181: 0.602305, 182: 0.021392, 183: 0.749827, 184: 0.09247, 185: 0.152907, 186: 0.8556820000000001, 187: 0.921635, 188: 0.327571, 189: 0.497637, 190: 0.903569, 191: 0.626853];
discharge = [0: 0.526904, 1: 0.947059, 2: 0.612832, 3: 0.5415720000000001, 4: 0.725359, 5: 0.515107, 6: 0.404523, 7: 0.733634, 8: 0.932006, 9: 0.3739, 10: 0.535191, 11: 0.962678, 12: 0.222359, 13: 0.991713, 14: 0.200051, 15: 0.8181349999999999, 16: 0.782017, 17: 0.027736, 18: 0.100129, 19: 0.590764, 20: 0.37325, 21: 0.996864, 22: 0.82242, 23: 0.468877, 24: 0.419075, 25: 0.457039, 26: 0.204717, 27: 0.785261, 28: 0.640949, 29: 0.564702, 30: 0.334819, 31: 0.617496, 32: 0.045064, 33: 0.033738, 34: 0.609701, 35: 0.221214, 36: 0.341258, 37: 0.993712, 38: 0.833077, 39: 0.417711, 40: 0.163363, 41: 0.145278, 42: 0.445252, 43: 0.974185, 44: 0.809844, 45: 0.194092, 46: 0.707275, 47: 0.227683, 48: 0.907589, 49: 0.64367, 50: 0.579043, 51: 0.862237, 52: 0.401915, 53: 0.252544, 54: 0.267677, 55: 0.7554999999999999, 56: 0.454703, 57: 0.527796, 58: 0.741933, 59: 0.996969, 60: 0.047313, 61: 0.363503, 62: 0.16502, 63: 0.312259, 64: 0.22144, 65: 0.49095, 66: 0.6633829999999999, 67: 0.067509, 68: 0.769163, 69: 0.580103, 70: 0.695439, 71: 0.394173, 72: 0.838211, 73: 0.203057, 74: 0.305363, 75: 0.459202, 76: 0.9231740000000001, 77: 0.40352, 78: 0.384229, 79: 0.749952, 80: 0.991571, 81: 0.534672, 82: 0.991879, 83: 0.598719, 84: 0.89463, 85: 0.5039979999999999, 86: 0.967678, 87: 0.190128, 88: 0.390651, 89: 0.624986, 90: 0.432142, 91: 0.402372, 92: 0.979236, 93: 0.08573699999999999, 94: 0.526921, 95: 0.613679, 96: 0.815816, 97: 0.681877, 98: 0.88691, 99: 0.800795, 100: 0.7499209999999999, 101: 0.658146, 102: 0.149228, 103: 0.45278, 104: 0.55567, 105: 0.981343, 106: 0.952017, 107: 0.323657, 108: 0.8270420000000001, 109: 0.297064, 110: 0.558499, 111: 0.112383, 112: 0.992282, 113: 0.037821, 114: 0.100728, 115: 0.199587, 116: 0.257121, 117: 0.707529, 118: 0.90425, 119: 0.051891, 120: 0.397354, 121: 0.807803, 122: 0.550331, 123: 0.613054, 124: 0.137171, 125: 0.62087, 126: 0.592827, 127: 0.141068, 128: 0.203925, 129: 0.562348, 130: 0.434109, 131: 0.651719, 132: 0.742283, 133: 0.647716, 134: 0.369826, 135: 0.587379, 136: 0.437292, 137: 0.863834, 138: 0.879082, 139: 0.024765, 140: 0.596064, 141: 0.215897, 142: 0.416712, 143: 0.896725, 144: 0.337731, 145: 0.77545, 146: 0.916777, 147: 0.94974, 148: 0.544055, 149: 0.273446, 150: 0.70706, 151: 0.407029, 152: 0.044061, 153: 0.332611, 154: 0.722352, 155: 0.038177, 156: 0.267173, 157: 0.52823, 158: 0.389137, 159: 0.078523, 160: 0.427775, 161: 0.167394, 162: 0.695068, 163: 0.962515, 164: 0.052438, 165: 0.276579, 166: 0.106136, 167: 0.6766219999999999, 168: 0.353324, 169: 0.421744, 170: 0.8190499999999999, 171: 0.848724, 172: 0.877951, 173: 0.606529, 174: 0.109218, 175: 0.01397, 176: 0.401993, 177: 0.11873, 178: 0.458465, 179: 0.842848, 180: 0.5615329999999999, 181: 0.292504, 182: 0.403956, 183: 0.303933, 184: 0.388022, 185: 0.03123, 186: 0.807476, 187: 0.502701, 188: 0.933554, 189: 0.271141, 190: 0.823099, 191: 0.653771];
soc = [0: 7.1037, 1: 5.95883, 2: 7.711607, 3: 7.662412, 4: 6.285838, 5: 6.802357, 6: 6.610083, 7: 13.31101, 8: 3.822365, 9: 12.898662, 10: 8.263596, 11: 6.92514, 12: 7.648035, 13: 14.756588, 14: 14.126018, 15: 5.988964, 16: 14.792099, 17: 7.52744, 18: 13.112576, 19: 10.792033, 20: 8.67123, 21: 5.183749, 22: 15.261386, 23: 13.41092, 24: 6.642752, 25: 3.040719, 26: 13.037085, 27: 13.94333, 28: 8.087649000000001, 29: 10.170575, 30: 5.742148, 31: 7.25361, 32: 3.792786, 33: 3.859481, 34: 3.794686, 35: 5.616452, 36: 11.974119, 37: 4.413668, 38: 4.231924, 39: 11.28772, 40: 13.197886, 41: 6.286438, 42: 2.995782, 43: 12.752173, 44: 5.960134, 45: 7.054797, 46: 6.825029, 47: 7.614768, 48: 9.710284, 49: 13.261064, 50: 7.51418, 51: 8.057973, 52: 12.067345, 53: 4.967629, 54: 10.234346, 55: 11.752337, 56: 2.72765, 57: 3.241479, 58: 11.370851, 59: 2.776765, 60: 5.246413, 61: 7.91399, 62: 14.985672, 63: 6.886181, 64: 8.106415, 65: 2.980617, 66: 11.956202, 67: 3.305813, 68: 9.90931, 69: 13.043078, 70: 15.107017, 71: 5.831561, 72: 12.860001, 73: 12.020075, 74: 3.019004, 75: 5.18195, 76: 4.110729, 77: 8.98494, 78: 12.657588, 79: 4.584113, 80: 8.080398000000001, 81: 7.453256, 82: 12.946591, 83: 5.940212, 84: 11.480978, 85: 5.369885, 86: 5.303943, 87: 8.380668999999999, 88: 11.126172, 89: 11.820106, 90: 13.671457, 91: 5.063979, 92: 10.650841, 93: 14.178338, 94: 7.309188, 95: 7.312424, 96: 13.404285, 97: 13.24735, 98: 14.363481, 99: 4.203897, 100: 8.116690999999999, 101: 12.234361, 102: 9.454454999999999, 103: 6.257225, 104: 14.604627, 105: 11.032334, 106: 3.817977, 107: 3.214535, 108: 7.88542, 109: 6.003853, 110: 7.935674, 111: 13.524487, 112: 14.100604, 113: 6.241523, 114: 4.166245, 115: 12.225702, 116: 12.615973, 117: 6.302675, 118: 11.247883, 119: 6.699684, 120: 11.712146, 121: 3.639591, 122: 9.275188999999999, 123: 14.38633, 124: 7.370296, 125: 13.798207, 126: 12.225462, 127: 12.788716, 128: 6.709353, 129: 12.20594, 130: 14.414809, 131: 11.90056, 132: 12.095959, 133: 4.711981, 134: 13.823807, 135: 9.690256, 136: 14.954774, 137: 13.199059, 138: 11.798089, 139: 9.597629, 140: 7.330356, 141: 3.711133, 142: 5.337244, 143: 3.405748, 144: 6.459694, 145: 6.948854, 146: 8.128743, 147: 12.144522, 148: 7.87248, 149: 7.242477, 150: 5.477148, 151: 3.580156, 152: 6.026962, 153: 4.361885, 154: 8.571183, 155: 4.437565, 156: 13.847065, 157: 10.490953, 158: 13.469102, 159: 10.310779, 160: 6.003613, 161: 14.71679, 162: 14.029492, 163: 9.34385, 164: 15.164203, 165: 6.448484, 166: 11.566426, 167: 10.075079, 168: 12.490394, 169: 14.282314, 170: 15.250494, 171: 10.058846, 172: 9.595067999999999, 173: 15.339423, 174: 9.309196, 175: 7.57659, 176: 4.302198, 177: 12.33448, 178: 10.665851, 179: 13.165163, 180: 10.985384, 181: 5.168833, 182: 2.673347, 183: 8.338789999999999, 184: 13.243244, 185: 8.171162000000001, 186: 14.707709, 187: 10.154959, 188: 7.427686, 189: 10.623995, 190: 12.278185, 191: 15.392972];
cost = [0: 459.238839, 1: 196.919788, 2: 561.351543, 3: 199.268348, 4: 13.309598, 5: 455.605557, 6: 93.938084, 7: 109.169513, 8: 210.76523, 9: 517.768746, 10: 300.812756, 11: 474.036748, 12: 11.703263, 13: 212.139034, 14: 369.904176, 15: 340.103176, 16: 322.370472, 17: 204.701244, 18: 387.657208, 19: 306.215062, 20: 48.474804, 21: 463.262346, 22: 207.644475, 23: 293.629227, 24: 37.335843, 25: 58.292804, 26: 457.654358, 27: 226.635786, 28: 968.312682, 29: 593.148541, 30: 1125.55961, 31: 109.342711, 32: 338.273052, 33: 212.509066, 34: 547.038273, 35: 962.3675950000001, 36: 19.956063, 37: 414.11595, 38: 25.719285, 39: 627.066109, 40: 949.903517, 41: 1040.78945, 42: 563.742025, 43: 209.541861, 44: 348.490419, 45: 1095.675138, 46: 1148.738428, 47: 898.44675, 48: 1173.414686, 49: 90.263504, 50: 288.406074, 51: 379.135526, 52: 538.861825, 53: 506.304289, 54: 352.926752, 55: 591.617329, 56: 451.556184, 57: 206.288547, 58: 588.24648, 59: 183.878152, 60: 986.0940409999999, 61: 586.681499, 62: 340.4534, 63: 228.256351, 64: 264.392939, 65: 1165.603536, 66: 651.061769, 67: 37.743108, 68: 548.878812, 69: 356.093154, 70: 501.481194, 71: 1033.722185, 72: 376.313636, 73: 424.334302, 74: 351.088523, 75: 745.998562, 76: 232.938233, 77: 905.35378, 78: 1052.9092, 79: 192.718731, 80: 135.771471, 81: 289.881815, 82: 38.859776, 83: 264.370278, 84: 268.820753, 85: 277.946299, 86: 1081.668221, 87: 438.290856, 88: 562.231733, 89: 442.291779, 90: 140.946635, 91: 12.070972, 92: 130.887161, 93: 537.441748, 94: 144.849541, 95: 1.60796, 96: 539.297724, 97: 487.304565, 98: 313.907356, 99: 452.284233, 100: 307.111468, 101: 195.346316, 102: 173.93206, 103: 279.841228, 104: 357.464401, 105: 277.051322, 106: 174.275898, 107: 334.170797, 108: 64.298087, 109: 312.674849, 110: 176.91946, 111: 512.617067, 112: 130.882539, 113: 370.548461, 114: 206.468978, 115: 167.985225, 116: 585.178397, 117: 230.208637, 118: 458.681375, 119: 598.240124, 120: 957.395582, 121: 927.2227370000001, 122: 342.296613, 123: 918.589078, 124: 847.473281, 125: 25.239158, 126: 1108.781416, 127: 348.221597, 128: 209.060361, 129: 740.729117, 130: 749.144553, 131: 38.200703, 132: 889.108985, 133: 596.416112, 134: 566.368557, 135: 15.997226, 136: 505.385502, 137: 1131.412136, 138: 856.0522989999999, 139: 1102.434181, 140: 1102.40994, 141: 576.790271, 142: 1111.075786, 143: 931.738994, 144: 561.109999, 145: 730.446508, 146: 1187.107606, 147: 73.738159, 148: 553.823365, 149: 284.900318, 150: 324.138935, 151: 248.812139, 152: 234.859518, 153: 513.825478, 154: 484.64519, 155: 200.678278, 156: 232.071484, 157: 504.718156, 158: 1065.170503, 159: 1043.96505, 160: 482.76408, 161: 947.320079, 162: 172.094693, 163: 994.7807, 164: 1137.169725, 165: 735.3829449999999, 166: 972.977899, 167: 632.010571, 168: 423.850518, 169: 621.203858, 170: 185.260696, 171: 1034.29344, 172: 244.188203, 173: 365.732936, 174: 161.774067, 175: 434.439366, 176: 926.5827870000001, 177: 346.058482, 178: 954.273498, 179: 478.209264, 180: 203.635248, 181: 267.184977, 182: 1111.384955, 183: 438.871292, 184: 426.547832, 185: 298.155675, 186: 484.933372, 187: 475.499939, 188: 595.545086, 189: 73.350238, 190: 584.855559, 191: 289.325071];
earn = [0: 0.440047, 1: 1.491395, 2: 2.711208, 3: 0.365212, 4: 0.21489, 5: 1.915653, 6: 2.641769, 7: 1.19426, 8: 0.294061, 9: 0.698415, 10: 1.696669, 11: 0.807325, 12: 2.161376, 13: 1.451986, 14: 2.039711, 15: 2.721006, 16: 1.650441, 17: 2.574437, 18: 0.902833, 19: 0.955151, 20: 0.836012, 21: 0.043831, 22: 0.364417, 23: 0.10686, 24: 3.084555, 25: 3.338791, 26: 3.2072, 27: 1.20337, 28: 1.878833, 29: 3.000388, 30: 1.939222, 31: 1.305016, 32: 1.262908, 33: 1.487856, 34: 0.318115, 35: 1.584795, 36: 1.99943, 37: 0.679852, 38: 0.136569, 39: 2.255122, 40: 0.809372, 41: 0.776871, 42: 1.150206, 43: 1.996821, 44: 1.369505, 45: 1.784232, 46: 1.135078, 47: 0.067263, 48: 0.11749, 49: 0.5618030000000001, 50: 0.93952, 51: 0.123248, 52: 0.586459, 53: 0.2806, 54: 0.473529, 55: 0.725768, 56: 1.132075, 57: 1.153978, 58: 0.005922, 59: 1.282913, 60: 0.577881, 61: 0.755511, 62: 0.003824, 63: 1.013661, 64: 1.005486, 65: 0.794231, 66: 1.368854, 67: 0.045979, 68: 1.476225, 69: 1.747351, 70: 1.259608, 71: 1.293235, 72: 2.285495, 73: 1.125985, 74: 2.011211, 75: 1.146992, 76: 3.874237, 77: 2.983289, 78: 2.343269, 79: 2.043836, 80: 4.055691, 81: 1.163009, 82: 2.089864, 83: 3.550199, 84: 1.298524, 85: 3.118304, 86: 1.286386, 87: 2.472438, 88: 2.495595, 89: 1.379291, 90: 0.309173, 91: 1.128083, 92: 2.71512, 93: 1.747962, 94: 2.573942, 95: 1.765682, 96: 0.030774, 97: 1.574143, 98: 2.095808, 99: 2.193136, 100: 0.042538, 101: 0.915412, 102: 1.879969, 103: 2.027781, 104: 1.672198, 105: 1.47724, 106: 0.637476, 107: 0.748408, 108: 2.219824, 109: 0.07692599999999999, 110: 1.153642, 111: 0.38491, 112: 0.646961, 113: 0.287196, 114: 2.329365, 115: 0.649906, 116: 0.517636, 117: 0.301984, 118: 0.385911, 119: 0.590763, 120: 1.336924, 121: 1.180754, 122: 0.27793, 123: 1.660513, 124: 2.400118, 125: 1.093519, 126: 0.141111, 127: 3.015943, 128: 2.453708, 129: 0.22201, 130: 1.312361, 131: 2.119083, 132: 1.039523, 133: 1.166078, 134: 1.070134, 135: 1.688511, 136: 1.174889, 137: 0.299935, 138: 0.8712569999999999, 139: 0.853931, 140: 0.984755, 141: 0.819363, 142: 0.770102, 143: 0.197815, 144: 0.690319, 145: 0.133184, 146: 0.225964, 147: 0.152698, 148: 0.150044, 149: 0.041993, 150: 0.08604299999999999, 151: 0.057053, 152: 0.387712, 153: 0.256404, 154: 0.00292, 155: 0.08479100000000001, 156: 0.778478, 157: 0.804684, 158: 0.141477, 159: 0.420476, 160: 1.2765, 161: 0.828866, 162: 1.674811, 163: 2.034615, 164: 1.948377, 165: 0.103465, 166: 0.937371, 167: 0.993545, 168: 1.064833, 169: 1.494789, 170: 2.918919, 171: 1.302108, 172: 1.12914, 173: 1.490296, 174: 1.898769, 175: 1.922029, 176: 0.295578, 177: 2.705607, 178: 0.368508, 179: 2.996162, 180: 1.070467, 181: 1.322237, 182: 2.077318, 183: 2.660446, 184: 0.5227349999999999, 185: 1.46532, 186: 2.497413, 187: 1.950825, 188: 2.2759, 189: 1.276485, 190: 1.569236, 191: 2.377007];
total_cost = 99.27815857792797;
total_earn = 39.81110474611015;
