production = [0: 0.0, 1: 0.0, 2: 0.0, 3: 0.0, 4: 0.0, 5: 0.0, 6: 0.0, 7: 0.0, 8: 0.0, 9: 0.0, 10: 0.0, 11: 0.0, 12: 0.0, 13: 0.0, 14: 0.0, 15: 0.0, 16: 0.0, 17: 0.0, 18: 0.0, 19: 0.0, 20: 5.7e-05, 21: 0.000465, 22: 4.1e-05, 23: 0.000607, 24: 0.001058, 25: 0.00043, 26: 0.006516, 27: 0.026358, 28: 0.06855, 29: 0.055552, 30: 0.07212200000000001, 31: 0.126047, 32: 0.242815, 33: 0.04775, 34: 0.006057, 35: 0.024321, 36: 0.04465, 37: 0.985502, 38: 0.239358, 39: 1.14106, 40: 0.162496, 41: 0.801835, 42: 1.281769, 43: 0.878766, 44: 0.313269, 45: 1.018202, 46: 1.215413, 47: 1.671916, 48: 1.557806, 49: 1.596836, 50: 1.697449, 51: 0.003351, 52: 0.403299, 53: 0.837955, 54: 1.519596, 55: 0.663306, 56: 1.943261, 57: 0.8412539999999999, 58: 1.332034, 59: 0.106137, 60: 0.9118889999999999, 61: 0.457487, 62: 1.467151, 63: 0.291051, 64: 0.01677, 65: 0.932547, 66: 1.02817, 67: 0.206037, 68: 0.052505, 69: 0.372125, 70: 0.484109, 71: 0.337178, 72: 0.054233, 73: 0.073521, 74: 0.016174, 75: 0.009384, 76: 0.011453, 77: 0.006535, 78: 0.000321, 79: 0.001291, 80: 0.0, 81: 0.0, 82: 0.0, 83: 0.0, 84: 0.0, 85: 0.0, 86: 0.0, 87: 0.0, 88: 0.0, 89: 0.0, 90: 0.0, 91: 0.0, 92: 0.0, 93: 0.0, 94: 0.0, 95: 0.0, 96: 0.0, 97: 0.0, 98: 0.0, 99: 0.0, 100: 0.0, 101: 0.0, 102: 0.0, 103: 0.0, 104: 0.0, 105: 0.0, 106: 0.0, 107: 0.0, 108: 0.0, 109: 0.0, 110: 0.0, 111: 0.0, 112: 0.0, 113: 0.0, 114: 0.0, 115: 0.0, 116: 0.0, 117: 0.0, 118: 0.0, 119: 6.999999999999999e-05, 120: 0.0, 121: 0.000451, 122: 0.007192, 123: 0.010406, 124: 0.011966, 125: 0.056995, 126: 0.093793, 127: 0.046267, 128: 0.044642, 129: 0.115614, 130: 0.140211, 131: 0.597549, 132: 0.7917650000000001, 133: 0.900674, 134: 0.621598, 135: 1.117537, 136: 0.8951170000000001, 137: 1.292789, 138: 0.66434, 139: 0.442543, 140: 1.32781, 141: 0.948753, 142: 1.440272, 143: 0.033966, 144: 0.199319, 145: 1.484111, 146: 1.670874, 147: 0.428582, 148: 1.928147, 149: 0.890746, 150: 0.557377, 151: 0.163634, 152: 0.962286, 153: 1.795144, 154: 1.437449, 155: 0.086289, 156: 1.252554, 157: 1.449182, 158: 0.014966, 159: 0.631449, 160: 1.036714, 161: 0.189379, 162: 0.32931, 163: 0.454706, 164: 0.112581, 165: 0.204716, 166: 0.156985, 167: 0.179398, 168: 0.238862, 169: 0.187265, 170: 0.003172, 171: 0.005028, 172: 0.022011, 173: 0.006957, 174: 0.001767, 175: 0.0, 176: 0.000191, 177: 0.0, 178: 0.0, 179: 0.0, 180: 0.0, 181: 0.0, 182: 0.0, 183: 0.0, 184: 0.0, 185: 0.0, 186: 0.0, 187: 0.0, 188: 0.0, 189: 0.0, 190: 0.0, 191: 0.0];
buy = [0: 839.1897729999999, 1: 479.284391, 2: 883.746235, 3: 650.6619470000001, 4: 934.5068670000001, 5: 533.687466, 6: 515.463508, 7: 553.186075, 8: 387.506191, 9: 626.848433, 10: 57.368777, 11: 303.926624, 12: 75.235544, 13: 397.540886, 14: 558.814566, 15: 407.647831, 16: 25.158711, 17: 381.81827, 18: 761.02113, 19: 728.311064, 20: 613.375891, 21: 931.749717, 22: 223.733566, 23: 789.4786340000001, 24: 795.571458, 25: 555.422003, 26: 799.23235, 27: 276.302222, 28: 598.5692770000001, 29: 707.9333, 30: 422.743117, 31: 665.459972, 32: 308.090659, 33: 408.365284, 34: 505.047807, 35: 162.639845, 36: 109.312303, 37: 547.423071, 38: 301.025387, 39: 593.505897, 40: 784.318798, 41: 515.275847, 42: 216.906571, 43: 114.724426, 44: 955.982993, 45: 565.252232, 46: 436.779881, 47: 0.699251, 48: 668.8381460000001, 49: 626.654372, 50: 75.267871, 51: 859.042231, 52: 319.108991, 53: 755.158713, 54: 780.62585, 55: 65.27748200000001, 56: 222.670704, 57: 180.921894, 58: 66.44613200000001, 59: 945.61455, 60: 126.948082, 61: 124.887087, 62: 524.742478, 63: 936.518314, 64: 608.883003, 65: 396.094722, 66: 964.553797, 67: 645.364053, 68: 129.600548, 69: 512.103022, 70: 63.904254, 71: 839.9236969999999, 72: 475.914513, 73: 958.401289, 74: 751.70588, 75: 767.655255, 76: 127.799256, 77: 853.93685, 78: 644.5095710000001, 79: 357.513179, 80: 1.530618, 81: 190.559886, 82: 53.144393, 83: 159.986997, 84: 325.894529, 85: 428.218808, 86: 691.375183, 87: 4.174357, 88: 322.447261, 89: 721.442717, 90: 577.689332, 91: 831.02598, 92: 460.928007, 93: 135.736619, 94: 959.2013040000001, 95: 302.049402, 96: 585.135834, 97: 306.057707, 98: 187.667899, 99: 50.363994, 100: 767.676953, 101: 194.204733, 102: 664.6132, 103: 271.072695, 104: 653.760629, 105: 210.933568, 106: 990.723287, 107: 741.0013750000001, 108: 517.927314, 109: 813.324386, 110: 223.563701, 111: 415.729568, 112: 349.46477, 113: 306.155346, 114: 291.750464, 115: 187.492306, 116: 515.7796990000001, 117: 933.264083, 118: 677.348234, 119: 850.789202, 120: 65.727424, 121: 280.70569, 122: 756.909004, 123: 764.801728, 124: 562.8962749999999, 125: 951.1720749999999, 126: 396.544269, 127: 711.670398, 128: 230.315273, 129: 12.658281, 130: 909.3137369999999, 131: 786.376287, 132: 970.360764, 133: 497.588225, 134: 361.897626, 135: 723.7376839999999, 136: 526.647482, 137: 345.30617, 138: 669.407079, 139: 700.161485, 140: 856.678862, 141: 304.873122, 142: 299.238224, 143: 61.232838, 144: 931.080736, 145: 848.230213, 146: 132.096596, 147: 71.254362, 148: 61.329372, 149: 53.671546, 150: 928.723336, 151: 888.336841, 152: 872.136601, 153: 585.011173, 154: 219.58321, 155: 938.877911, 156: 797.6745979999999, 157: 103.345176, 158: 163.352417, 159: 179.901564, 160: 127.923418, 161: 395.654499, 162: 93.196938, 163: 403.813151, 164: 994.270166, 165: 535.738792, 166: 659.3596199999999, 167: 830.318832, 168: 568.632291, 169: 651.242917, 170: 834.089374, 171: 328.907661, 172: 421.485903, 173: 49.119998, 174: 433.828104, 175: 104.968953, 176: 658.6701399999999, 177: 480.949975, 178: 117.724547, 179: 539.588376, 180: 147.210398, 181: 806.129225, 182: 389.460917, 183: 991.2237270000001, 184: 256.623635, 185: 807.91703, 186: 8.774965999999999, 187: 427.521287, 188: 132.48434, 189: 692.920604, 190: 503.437533, 191: 639.578302];
sell = [0: 0.1278, 1: 3.435052, 2: 1.091528, 3: 2.862533, 4: 3.789829, 5: 3.003807, 6: 1.733607, 7: 2.567779, 8: 0.289085, 9: 0.500024, 10: 1.432441, 11: 1.288633, 12: 1.712633, 13: 2.329282, 14: 3.006704, 15: 1.039055, 16: 1.678063, 17: 1.021008, 18: 0.325164, 19: 1.978994, 20: 2.402654, 21: 2.04336, 22: 2.409916, 23: 1.986202, 24: 0.231544, 25: 3.897267, 26: 3.206859, 27: 1.239998, 28: 3.217089, 29: 3.530702, 30: 2.263483, 31: 0.653942, 32: 1.574781, 33: 1.624698, 34: 3.734629, 35: 2.536149, 36: 3.987266, 37: 3.274515, 38: 2.727263, 39: 3.768554, 40: 0.09866, 41: 3.906012, 42: 2.828515, 43: 3.193972, 44: 1.239405, 45: 2.080418, 46: 1.821471, 47: 3.249483, 48: 2.258909, 49: 1.998519, 50: 0.318003, 51: 1.946881, 52: 1.209472, 53: 0.569129, 54: 2.864085, 55: 0.760388, 56: 0.309523, 57: 2.562415, 58: 3.792114, 59: 2.867581, 60: 2.728139, 61: 3.924833, 62: 1.833479, 63: 1.004173, 64: 2.888993, 65: 2.129806, 66: 2.990978, 67: 0.892418, 68: 3.041509, 69: 0.955254, 70: 1.663941, 71: 3.527834, 72: 3.072977, 73: 3.071443, 74: 1.869921, 75: 2.274309, 76: 2.027251, 77: 0.579642, 78: 1.668473, 79: 1.764644, 80: 1.261777, 81: 2.542303, 82: 2.006961, 83: 2.795416, 84: 0.482248, 85: 2.008348, 86: 0.483841, 87: 0.180331, 88: 2.670006, 89: 1.130587, 90: 1.881544, 91: 1.378074, 92: 2.091533, 93: 3.591841, 94: 2.257081, 95: 2.223116, 96: 3.036171, 97: 1.505554, 98: 3.95192, 99: 1.362435, 100: 2.957884, 101: 3.31693, 102: 2.521213, 103: 3.346025, 104: 1.258453, 105: 3.631037, 106: 1.720707, 107: 1.736962, 108: 3.769289, 109: 3.747463, 110: 0.013546, 111: 3.952751, 112: 3.646427, 113: 2.010728, 114: 0.438492, 115: 0.264248, 116: 3.480442, 117: 0.9352470000000001, 118: 2.767737, 119: 0.942545, 120: 2.77836, 121: 0.715005, 122: 0.674889, 123: 3.204212, 124: 3.030599, 125: 2.996065, 126: 3.858253, 127: 1.103611, 128: 2.988543, 129: 3.38523, 130: 3.823014, 131: 3.793263, 132: 1.428189, 133: 1.365686, 134: 3.551559, 135: 0.788948, 136: 3.891087, 137: 0.545436, 138: 3.918273, 139: 3.392964, 140: 0.138641, 141: 2.322451, 142: 2.810705, 143: 3.941123, 144: 0.545633, 145: 0.675673, 146: 0.07338799999999999, 147: 2.829189, 148: 3.180439, 149: 3.024975, 150: 1.554649, 151: 0.837139, 152: 1.405609, 153: 0.710026, 154: 0.194372, 155: 0.34512, 156: 0.898033, 157: 3.928566, 158: 3.723143, 159: 2.797344, 160: 3.487909, 161: 0.557032, 162: 2.425563, 163: 0.429441, 164: 2.900289, 165: 3.351686, 166: 1.358333, 167: 0.372881, 168: 3.267648, 169: 3.171335, 170: 3.535307, 171: 2.500493, 172: 2.77811, 173: 2.109297, 174: 1.15576, 175: 0.007863, 176: 1.69748, 177: 1.618269, 178: 2.98816, 179: 0.964504, 180: 3.828753, 181: 1.039919, 182: 2.348325, 183: 1.024539, 184: 1.774072, 185: 3.146747, 186: 3.706185, 187: 1.523484, 188: 1.317386, 189: 1.938314, 190: 0.051866, 191: 2.076711];
charge = [0: 0.144094, 1: 0.926033, 2: 0.727025, 3: 0.060343, 4: 0.880309, 5: 0.38774, 6: 0.716356, 7: 0.536389, 8: 0.898554, 9: 0.124214, 10: 0.167035, 11: 0.790754, 12: 0.164791, 13: 0.744961, 14: 0.113147, 15: 0.576326, 16: 0.583323, 17: 0.073977, 18: 0.034717, 19: 0.452045, 20: 0.01053, 21: 0.144965, 22: 0.336761, 23: 0.257368, 24: 0.095929, 25: 0.929265, 26: 0.523583, 27: 0.017454, 28: 0.105528, 29: 0.878314, 30: 0.950407, 31: 0.745078, 32: 0.468823, 33: 0.115561, 34: 0.66074, 35: 0.745326, 36: 0.034619, 37: 0.751579, 38: 0.411553, 39: 0.472167, 40: 0.158437, 41: 0.536406, 42: 0.208114, 43: 0.694888, 44: 0.947955, 45: 0.111351, 46: 0.618236, 47: 0.374235, 48: 0.653746, 49: 0.636746, 50: 0.044192, 51: 0.579864, 52: 0.089446, 53: 0.017772, 54: 0.149613, 55: 0.675986, 56: 0.229593, 57: 0.178179, 58: 0.741741, 59: 0.533871, 60: 0.381313, 61: 0.100075, 62: 0.423946, 63: 0.534182, 64: 0.302938, 65: 0.460353, 66: 0.7953209999999999, 67: 0.611716, 68: 0.010614, 69: 0.808537, 70: 0.737568, 71: 0.416891, 72: 0.923783, 73: 0.49614, 74: 0.167124, 75: 0.509924, 76: 0.677119, 77: 0.651298, 78: 0.596433, 79: 0.027823, 80: 0.289992, 81: 0.547383, 82: 0.623343, 83: 0.766744, 84: 0.245867, 85: 0.96696, 86: 0.915767, 87: 0.807767, 88: 0.797303, 89: 0.109125, 90: 0.733609, 91: 0.919123, 92: 0.989822, 93: 0.544975, 94: 0.534278, 95: 0.540014, 96: 0.130809, 97: 0.063593, 98: 0.27454, 99: 0.732109, 100: 0.587541, 101: 0.7572990000000001, 102: 0.200173, 103: 0.406485, 104: 0.623301, 105: 0.660316, 106: 0.156526, 107: 0.7562720000000001, 108: 0.862366, 109: 0.355268, 110: 0.398293, 111: 0.39918, 112: 0.314882, 113: 0.959999, 114: 0.751722, 115: 0.820293, 116: 0.993622, 117: 0.770779, 118: 0.07445, 119: 0.888444, 120: 0.104503, 121: 0.322754, 122: 0.20318, 123: 0.927859, 124: 0.380351, 125: 0.700247, 126: 0.377624, 127: 0.153578, 128: 0.951883, 129: 0.80997, 130: 0.345237, 131: 0.357441, 132: 0.6845059999999999, 133: 0.323887, 134: 0.46417, 135: 0.277317, 136: 0.287742, 137: 0.07296800000000001, 138: 0.8608479999999999, 139: 0.428657, 140: 0.286338, 141: 0.718523, 142: 0.046864, 143: 0.9182979999999999, 144: 0.8415049999999999, 145: 0.499083, 146: 0.029065, 147: 0.821893, 148: 0.994791, 149: 0.155795, 150: 0.012499, 151: 0.873293, 152: 0.393973, 153: 0.07030400000000001, 154: 0.65089, 155: 0.5630849999999999, 156: 0.932366, 157: 0.711608, 158: 0.111635, 159: 0.466097, 160: 0.33558, 161: 0.161302, 162: 0.9445210000000001, 163: 0.66973, 164: 0.934975, 165: 0.585754, 166: 0.4311, 167: 0.621624, 168: 0.517073, 169: 0.440954, 170: 0.894104, 171: 0.728778, 172: 0.305421, 173: 0.5915550000000001, 174: 0.393689, 175: 6.4e-05, 176: 0.801127, 177: 0.505941, 178: 0.604941, 179: 0.530296, 180: 0.191201, 181: 0.433707, 182: 0.978618, 183: 0.056736, 184: 0.262416, 185: 0.843817, 186: 0.301484, 187: 0.706484, 188: 0.570593, 189: 0.235409, 190: 0.607471, 191: 0.152386];
discharge = [0: 0.318276, 1: 0.65831, 2: 0.525223, 3: 0.648792, 4: 0.882042, 5: 0.930451, 6: 0.8540180000000001, 7: 0.528826, 8: 0.563851, 9: 0.448016, 10: 0.9341429999999999, 11: 0.646183, 12: 0.932768, 13: 0.574153, 14: 0.5016, 15: 0.220302, 16: 0.642, 17: 0.519438, 18: 0.888063, 19: 0.647587, 20: 0.868027, 21: 0.094697, 22: 0.279076, 23: 0.8754110000000001, 24: 0.376146, 25: 0.038225, 26: 0.316425, 27: 0.642555, 28: 0.422609, 29: 0.962747, 30: 0.579591, 31: 0.822223, 32: 0.137091, 33: 0.997214, 34: 0.962139, 35: 0.910972, 36: 0.417192, 37: 0.027329, 38: 0.344164, 39: 0.281179, 40: 0.673361, 41: 0.756935, 42: 0.8897620000000001, 43: 0.645782, 44: 0.181509, 45: 0.06415899999999999, 46: 0.07824399999999999, 47: 0.254067, 48: 0.894186, 49: 0.498914, 50: 0.952569, 51: 0.127479, 52: 0.783672, 53: 0.017909, 54: 0.062961, 55: 0.033274, 56: 0.275958, 57: 0.698511, 58: 0.241694, 59: 0.926234, 60: 0.369928, 61: 0.789703, 62: 0.832393, 63: 0.421942, 64: 0.232617, 65: 0.608689, 66: 0.5417650000000001, 67: 0.395138, 68: 0.025409, 69: 0.449568, 70: 0.125956, 71: 0.403165, 72: 0.496938, 73: 0.739668, 74: 0.544812, 75: 0.765968, 76: 0.053004, 77: 0.748692, 78: 0.270781, 79: 0.5758450000000001, 80: 0.599726, 81: 0.286698, 82: 0.920516, 83: 0.720904, 84: 0.35279, 85: 0.331209, 86: 0.159308, 87: 0.085906, 88: 0.796274, 89: 0.8619869999999999, 90: 0.396814, 91: 0.7019069999999999, 92: 0.6818070000000001, 93: 0.940507, 94: 0.931409, 95: 0.579471, 96: 0.8651720000000001, 97: 0.826312, 98: 0.234688, 99: 0.6253030000000001, 100: 0.9453, 101: 0.8616, 102: 0.403704, 103: 0.710295, 104: 0.105083, 105: 0.204043, 106: 0.403016, 107: 0.531906, 108: 0.533579, 109: 0.888238, 110: 0.653663, 111: 0.044396, 112: 0.203452, 113: 0.204483, 114: 0.275646, 115: 0.970626, 116: 0.350308, 117: 0.104834, 118: 0.467291, 119: 0.115492, 120: 0.611582, 121: 0.258838, 122: 0.999615, 123: 0.910237, 124: 0.11466, 125: 0.828739, 126: 0.368244, 127: 0.659345, 128: 0.497453, 129: 0.914392, 130: 0.138585, 131: 0.878591, 132: 0.272573, 133: 0.646224, 134: 0.8726699999999999, 135: 0.167904, 136: 0.739098, 137: 0.860079, 138: 0.25917, 139: 0.405196, 140: 0.907928, 141: 0.369227, 142: 0.580893, 143: 0.8102819999999999, 144: 0.334785, 145: 0.932121, 146: 0.928013, 147: 0.039788, 148: 0.087476, 149: 0.4269, 150: 0.992237, 151: 0.468833, 152: 0.5649380000000001, 153: 0.373327, 154: 0.308927, 155: 0.44866, 156: 0.895814, 157: 0.261383, 158: 0.538357, 159: 0.558508, 160: 0.395799, 161: 0.271696, 162: 0.106615, 163: 0.100282, 164: 0.740228, 165: 0.695716, 166: 0.747959, 167: 0.00036, 168: 0.17677, 169: 0.379579, 170: 0.06866999999999999, 171: 0.188758, 172: 0.818997, 173: 0.836287, 174: 0.596653, 175: 0.695838, 176: 0.950425, 177: 0.8507940000000001, 178: 0.055197, 179: 0.742409, 180: 0.090528, 181: 0.712854, 182: 0.475369, 183: 0.658278, 184: 0.286381, 185: 0.888057, 186: 0.668309, 187: 0.616853, 188: 0.9215989999999999, 189: 0.232197, 190: 0.192646, 191: 0.7993749999999999];
soc = [0: 8.387567000000001, 1: 8.732891, 2: 4.642298, 3: 3.636014, 4: 3.282373, 5: 12.660841, 6: 3.398977, 7: 14.683437, 8: 11.663751, 9: 14.098946, 10: 13.980823, 11: 12.537495, 12: 5.307306, 13: 11.739711, 14: 7.246645, 15: 11.965987, 16: 13.774786, 17: 13.691075, 18: 5.730398, 19: 2.833562, 20: 11.10094, 21: 8.505084999999999, 22: 5.134248, 23: 8.431445, 24: 14.840111, 25: 6.295346, 26: 7.209382, 27: 4.471571, 28: 10.998085, 29: 3.749326, 30: 13.91769, 31: 12.198587, 32: 12.668994, 33: 9.866083, 34: 6.493968, 35: 13.459289, 36: 14.433904, 37: 13.32531, 38: 13.517828, 39: 5.475927, 40: 5.668769, 41: 5.272316, 42: 12.866981, 43: 9.216722000000001, 44: 5.830183, 45: 10.787472, 46: 4.61247, 47: 2.969188, 48: 8.127525, 49: 15.0603, 50: 13.103712, 51: 3.318995, 52: 10.172925, 53: 12.272295, 54: 14.014852, 55: 13.988887, 56: 12.060224, 57: 13.294942, 58: 6.498898, 59: 6.290141, 60: 14.400215, 61: 7.87815, 62: 5.382941, 63: 13.924689, 64: 5.42879, 65: 8.584838, 66: 6.404778, 67: 14.879844, 68: 3.167067, 69: 3.904119, 70: 3.709733, 71: 14.860013, 72: 5.389082, 73: 11.472352, 74: 12.1849, 75: 13.74376, 76: 11.19881, 77: 13.967586, 78: 7.142125, 79: 12.317095, 80: 13.65029, 81: 14.599961, 82: 4.631373, 83: 4.839288, 84: 3.432942, 85: 12.634095, 86: 6.158822, 87: 14.540988, 88: 3.775714, 89: 2.936414, 90: 5.227903, 91: 11.533742, 92: 9.432072, 93: 13.653439, 94: 6.95758, 95: 5.603925, 96: 8.796035, 97: 15.387244, 98: 4.464362, 99: 10.837086, 100: 13.274243, 101: 11.667563, 102: 12.129446, 103: 15.487147, 104: 5.80228, 105: 7.430903, 106: 11.440758, 107: 3.040476, 108: 8.522074999999999, 109: 5.810797, 110: 4.621074, 111: 5.060143, 112: 5.180638, 113: 15.405815, 114: 12.710715, 115: 9.215539, 116: 8.59408, 117: 9.602895999999999, 118: 10.449169, 119: 8.409041, 120: 4.891666, 121: 4.757148, 122: 13.84098, 123: 8.215752, 124: 8.350955000000001, 125: 4.451344, 126: 5.970684, 127: 10.148102, 128: 8.330503, 129: 6.674366, 130: 5.537136, 131: 12.088966, 132: 14.034108, 133: 12.395081, 134: 14.745464, 135: 14.218719, 136: 14.162164, 137: 7.399515, 138: 9.213625, 139: 5.283334, 140: 2.949994, 141: 10.904015, 142: 8.713977, 143: 12.779493, 144: 7.49606, 145: 14.92594, 146: 3.163978, 147: 14.818978, 148: 4.888185, 149: 8.15808, 150: 12.000711, 151: 6.52139, 152: 10.647692, 153: 7.16234, 154: 12.140649, 155: 8.884584, 156: 14.381914, 157: 12.57125, 158: 11.640111, 159: 5.001432, 160: 13.351687, 161: 4.312009, 162: 6.49773, 163: 2.904261, 164: 9.676739, 165: 13.399997, 166: 13.782842, 167: 2.768518, 168: 4.208322, 169: 14.431619, 170: 4.907394, 171: 14.745602, 172: 14.717931, 173: 4.165105, 174: 3.87927, 175: 10.41797, 176: 6.836387, 177: 5.144999, 178: 7.2339, 179: 7.686515, 180: 7.768908, 181: 13.483774, 182: 5.180979, 183: 10.65442, 184: 12.728312, 185: 14.796749, 186: 5.178319, 187: 12.205361, 188: 6.834825, 189: 11.960114, 190: 9.398056, 191: 14.843682];
cost = [0: 476.752679, 1: 514.007254, 2: 152.838155, 3: 526.062876, 4: 112.939739, 5: 408.235519, 6: 172.331597, 7: 173.509428, 8: 100.796131, 9: 128.392224, 10: 449.571007, 11: 353.288101, 12: 413.295846, 13: 6.424434, 14: 22.462679, 15: 101.438717, 16: 212.90833, 17: 372.325638, 18: 38.5073, 19: 51.455937, 20: 32.542595, 21: 201.049933, 22: 288.351595, 23: 87.04532, 24: 236.740457, 25: 341.16269, 26: 137.496804, 27: 805.240552, 28: 11.507209, 29: 747.472668, 30: 641.527093, 31: 489.992441, 32: 703.795866, 33: 652.679623, 34: 156.209719, 35: 231.779066, 36: 587.971291, 37: 35.552311, 38: 522.132029, 39: 825.39482, 40: 470.107963, 41: 1012.926727, 42: 299.228041, 43: 1055.847757, 44: 410.274093, 45: 142.456246, 46: 310.013665, 47: 813.309518, 48: 706.5858500000001, 49: 790.280232, 50: 341.078792, 51: 256.324379, 52: 460.24829, 53: 435.982567, 54: 528.821377, 55: 89.753799, 56: 176.81797, 57: 332.780744, 58: 442.86221, 59: 598.236075, 60: 637.147983, 61: 418.6964, 62: 947.808625, 63: 974.625137, 64: 1135.593647, 65: 142.642626, 66: 583.335877, 67: 991.1660000000001, 68: 758.233431, 69: 677.904258, 70: 992.2766789999999, 71: 365.441503, 72: 318.410265, 73: 900.1209689999999, 74: 297.214411, 75: 294.045371, 76: 324.296211, 77: 861.894202, 78: 369.306504, 79: 1129.693986, 80: 782.995078, 81: 1120.124124, 82: 466.277334, 83: 725.542354, 84: 440.398702, 85: 1150.303787, 86: 739.71548, 87: 474.933812, 88: 202.350061, 89: 67.86605299999999, 90: 459.026791, 91: 182.088763, 92: 388.080542, 93: 589.923228, 94: 174.659497, 95: 19.328885, 96: 269.514985, 97: 563.3165289999999, 98: 61.844897, 99: 212.445296, 100: 254.667094, 101: 415.039303, 102: 521.445968, 103: 480.166593, 104: 369.474225, 105: 122.830355, 106: 333.601223, 107: 521.888243, 108: 226.193019, 109: 307.695, 110: 221.585104, 111: 188.144901, 112: 19.280099, 113: 315.518794, 114: 345.007671, 115: 46.944001, 116: 293.420984, 117: 409.141782, 118: 401.900504, 119: 251.033645, 120: 863.211962, 121: 1006.848648, 122: 217.206937, 123: 189.566225, 124: 676.9370249999999, 125: 985.389545, 126: 409.433948, 127: 112.88787, 128: 102.823234, 129: 481.071612, 130: 1100.055532, 131: 903.5242500000001, 132: 115.062923, 133: 1066.663862, 134: 39.768377, 135: 131.91501, 136: 269.464215, 137: 401.21159, 138: 729.578651, 139: 66.12468200000001, 140: 381.419538, 141: 374.980291, 142: 970.6010240000001, 143: 340.394482, 144: 890.9464850000001, 145: 575.534766, 146: 132.195289, 147: 500.572771, 148: 605.669186, 149: 339.420597, 150: 517.761501, 151: 258.413421, 152: 101.232055, 153: 154.685144, 154: 609.1967079999999, 155: 327.469258, 156: 1024.469308, 157: 124.171296, 158: 445.206232, 159: 777.0611290000001, 160: 699.576477, 161: 239.401586, 162: 404.090476, 163: 393.778716, 164: 646.182694, 165: 404.863838, 166: 585.234925, 167: 35.097088, 168: 92.75511299999999, 169: 442.782573, 170: 325.503461, 171: 459.786392, 172: 422.176925, 173: 763.405618, 174: 1159.368532, 175: 715.384224, 176: 414.874998, 177: 298.912089, 178: 247.207244, 179: 726.714243, 180: 1135.537921, 181: 1030.633596, 182: 414.150643, 183: 255.317698, 184: 575.618894, 185: 158.046004, 186: 404.666061, 187: 415.420395, 188: 214.139342, 189: 278.961824, 190: 549.184818, 191: 524.754811];
earn = [0: 0.446355, 1: 0.951599, 2: 0.633141, 3: 1.132782, 4: 2.62258, 5: 1.909019, 6: 1.882113, 7: 2.50896, 8: 1.155852, 9: 1.156143, 10: 2.48286, 11: 0.789391, 12: 0.649874, 13: 1.8494, 14: 0.170594, 15: 2.702077, 16: 2.197875, 17: 2.206227, 18: 0.018138, 19: 2.112316, 20: 0.700098, 21: 2.713207, 22: 2.043119, 23: 2.134744, 24: 2.876018, 25: 3.219714, 26: 0.07517600000000001, 27: 2.693393, 28: 0.664954, 29: 1.526564, 30: 3.861534, 31: 1.358691, 32: 1.340555, 33: 2.094217, 34: 0.800969, 35: 3.372039, 36: 2.092284, 37: 2.562389, 38: 0.210755, 39: 1.440524, 40: 1.610888, 41: 0.050362, 42: 2.061866, 43: 1.017327, 44: 0.917768, 45: 1.77207, 46: 1.345684, 47: 1.162596, 48: 1.34099, 49: 0.678524, 50: 1.058432, 51: 0.5556680000000001, 52: 0.016136, 53: 0.360782, 54: 0.033829, 55: 0.290589, 56: 0.826244, 57: 0.868018, 58: 0.369194, 59: 0.830696, 60: 0.509506, 61: 0.004964, 62: 1.415248, 63: 0.790914, 64: 1.758567, 65: 0.59432, 66: 0.557124, 67: 1.039874, 68: 1.755708, 69: 1.398547, 70: 0.119808, 71: 2.263203, 72: 0.774525, 73: 2.12409, 74: 1.446692, 75: 1.196569, 76: 1.769616, 77: 0.355712, 78: 1.784028, 79: 2.571647, 80: 0.688151, 81: 0.139176, 82: 3.224934, 83: 1.740312, 84: 2.453628, 85: 1.700947, 86: 0.251507, 87: 0.698784, 88: 1.581588, 89: 0.027879, 90: 0.771344, 91: 0.962665, 92: 1.030362, 93: 0.786563, 94: 1.295742, 95: 1.700664, 96: 0.777671, 97: 0.70324, 98: 0.772518, 99: 2.312908, 100: 1.868499, 101: 1.528172, 102: 0.842888, 103: 0.826159, 104: 0.34849, 105: 0.801527, 106: 0.201677, 107: 2.293756, 108: 1.077363, 109: 0.68915, 110: 0.175147, 111: 2.308099, 112: 1.482328, 113: 2.008784, 114: 1.18698, 115: 0.285394, 116: 1.80177, 117: 1.568395, 118: 1.316844, 119: 0.471118, 120: 2.461838, 121: 2.384194, 122: 3.236916, 123: 2.410043, 124: 3.416385, 125: 3.047405, 126: 2.530443, 127: 1.00873, 128: 0.407107, 129: 0.42125, 130: 2.528664, 131: 0.09994400000000001, 132: 2.231395, 133: 1.355629, 134: 1.907492, 135: 0.979635, 136: 0.914089, 137: 0.90747, 138: 0.258864, 139: 0.866798, 140: 0.662268, 141: 0.202891, 142: 0.512312, 143: 0.328131, 144: 0.622492, 145: 0.034427, 146: 0.189702, 147: 0.015336, 148: 0.036902, 149: 0.029296, 150: 5.4e-05, 151: 0.09353400000000001, 152: 0.23061, 153: 0.173736, 154: 0.5446299999999999, 155: 0.504036, 156: 0.17893, 157: 0.421775, 158: 0.181272, 159: 1.27656, 160: 0.730344, 161: 0.782703, 162: 0.986945, 163: 0.843153, 164: 0.022209, 165: 1.44904, 166: 1.194603, 167: 0.922721, 168: 2.603243, 169: 2.113453, 170: 0.23789, 171: 0.161831, 172: 1.989175, 173: 0.355998, 174: 2.03678, 175: 3.209001, 176: 2.540345, 177: 1.205254, 178: 1.540183, 179: 3.153266, 180: 0.322201, 181: 1.300228, 182: 2.479474, 183: 0.806856, 184: 0.700994, 185: 0.778205, 186: 0.464502, 187: 1.722203, 188: 2.319883, 189: 0.700671, 190: 1.509524, 191: 1.544479];
total_cost = 92.38405927027118;
total_earn = 39.76034856260794;
