production = [0: 0.0, 1: 0.0, 2: 0.0, 3: 0.0, 4: 0.0, 5: 0.0, 6: 0.0, 7: 0.0, 8: 0.0, 9: 0.0, 10: 0.0, 11: 0.0, 12: 0.0, 13: 0.0, 14: 0.0, 15: 0.0, 16: 0.0, 17: 0.0, 18: 0.0, 19: 0.0, 20: 0.0, 21: 0.0, 22: 0.000107, 23: 0.006138, 24: 0.037494, 25: 0.063183, 26: 0.00253, 27: 0.153408, 28: 0.192277, 29: 0.118233, 30: 0.263832, 31: 0.475956, 32: 0.647281, 33: 0.113743, 34: 0.132108, 35: 0.467412, 36: 0.6597420000000001, 37: 0.108962, 38: 0.299367, 39: 0.492714, 40: 1.285224, 41: 1.630579, 42: 0.410141, 43: 1.089932, 44: 1.343876, 45: 0.705889, 46: 0.382935, 47: 0.622966, 48: 0.904748, 49: 0.07263699999999999, 50: 1.657437, 51: 1.214093, 52: 1.55975, 53: 0.331266, 54: 0.577348, 55: 0.168652, 56: 1.166756, 57: 0.582097, 58: 1.17106, 59: 0.702553, 60: 0.844235, 61: 0.608544, 62: 0.789266, 63: 0.703904, 64: 0.36401, 65: 0.09514400000000001, 66: 0.284956, 67: 0.03195, 68: 0.02427, 69: 0.009599999999999999, 70: 0.031725, 71: 0.001183, 72: 0.000619, 73: 0.000259, 74: 0.0, 75: 7.4e-05, 76: 0.0, 77: 0.0, 78: 0.0, 79: 0.0, 80: 0.0, 81: 0.0, 82: 0.0, 83: 0.0, 84: 0.0, 85: 0.0, 86: 0.0, 87: 0.0, 88: 0.0, 89: 0.0, 90: 0.0, 91: 0.0, 92: 0.0, 93: 0.0, 94: 0.0, 95: 0.0];
buy = [0: 505.914157, 1: 920.981328, 2: 595.166552, 3: 669.853242, 4: 520.840989, 5: 458.297641, 6: 588.068021, 7: 275.842637, 8: 130.534768, 9: 505.405423, 10: 948.664934, 11: 688.3418359999999, 12: 193.036773, 13: 225.428868, 14: 193.525681, 15: 92.41511800000001, 16: 526.706805, 17: 234.359124, 18: 511.666396, 19: 846.129542, 20: 510.117187, 21: 858.597346, 22: 760.244066, 23: 851.215084, 24: 556.885374, 25: 372.183568, 26: 643.752404, 27: 990.090637, 28: 730.47508, 29: 888.675242, 30: 955.679244, 31: 73.26554, 32: 643.579538, 33: 34.752555, 34: 856.815693, 35: 952.218938, 36: 731.363153, 37: 564.073395, 38: 162.290882, 39: 784.446963, 40: 616.97379, 41: 155.979301, 42: 600.982861, 43: 178.957314, 44: 291.755973, 45: 363.670109, 46: 198.557875, 47: 981.540919, 48: 918.285624, 49: 420.449987, 50: 927.867607, 51: 547.122665, 52: 62.438608, 53: 604.241479, 54: 351.216493, 55: 172.947586, 56: 428.233752, 57: 85.796708, 58: 927.286199, 59: 370.234314, 60: 317.469886, 61: 59.764037, 62: 900.3809220000001, 63: 460.34268, 64: 369.755657, 65: 405.876825, 66: 239.497868, 67: 78.692881, 68: 834.823614, 69: 405.328035, 70: 405.845581, 71: 617.245154, 72: 945.546658, 73: 215.992544, 74: 331.58699, 75: 889.689113, 76: 426.105177, 77: 298.372725, 78: 321.429479, 79: 453.449459, 80: 799.663924, 81: 273.981544, 82: 255.605098, 83: 51.553006, 84: 966.014967, 85: 316.969965, 86: 421.424177, 87: 848.276872, 88: 278.402046, 89: 962.084096, 90: 822.925191, 91: 738.852247, 92: 571.299253, 93: 294.636627, 94: 766.866906, 95: 738.55054];
sell = [0: 0.976797, 1: 1.938101, 2: 0.584687, 3: 0.908856, 4: 1.338777, 5: 2.478793, 6: 0.151047, 7: 3.265082, 8: 3.800202, 9: 2.220076, 10: 3.885835, 11: 1.95236, 12: 2.464976, 13: 3.613825, 14: 0.913957, 15: 2.718101, 16: 0.418214, 17: 2.342572, 18: 3.847176, 19: 2.965158, 20: 3.294857, 21: 3.484983, 22: 1.805741, 23: 3.383959, 24: 3.487961, 25: 1.879041, 26: 3.020816, 27: 3.183048, 28: 2.94356, 29: 0.06037, 30: 1.318228, 31: 1.107251, 32: 1.786368, 33: 1.237981, 34: 0.762304, 35: 3.179676, 36: 2.923466, 37: 2.816596, 38: 3.695385, 39: 3.070757, 40: 0.600725, 41: 1.745625, 42: 0.675027, 43: 1.825233, 44: 3.075554, 45: 3.216221, 46: 1.995982, 47: 0.804274, 48: 3.617868, 49: 1.275376, 50: 3.308654, 51: 3.073534, 52: 2.393801, 53: 2.755227, 54: 1.270082, 55: 2.854685, 56: 3.592964, 57: 3.348826, 58: 2.307153, 59: 2.256981, 60: 0.89823, 61: 3.098144, 62: 3.050696, 63: 1.366854, 64: 3.045753, 65: 2.995227, 66: 3.388022, 67: 3.367964, 68: 2.718489, 69: 0.5266, 70: 3.987688, 71: 1.230379, 72: 1.1602, 73: 1.704468, 74: 0.071828, 75: 2.047796, 76: 1.719266, 77: 2.423081, 78: 2.549028, 79: 3.300975, 80: 2.409527, 81: 0.175923, 82: 2.149154, 83: 2.848501, 84: 2.358744, 85: 1.812805, 86: 0.480033, 87: 2.966268, 88: 1.536492, 89: 0.356382, 90: 3.099675, 91: 1.78208, 92: 0.775281, 93: 2.097929, 94: 0.6543099999999999, 95: 1.708772];
charge = [0: 0.035976, 1: 0.570342, 2: 0.063142, 3: 0.247258, 4: 0.262597, 5: 0.653162, 6: 0.129508, 7: 0.301776, 8: 0.779771, 9: 0.546207, 10: 0.469482, 11: 0.34802, 12: 0.474107, 13: 0.043079, 14: 0.700523, 15: 0.699304, 16: 0.023157, 17: 0.523161, 18: 0.05165, 19: 0.621712, 20: 0.939215, 21: 0.436022, 22: 0.456732, 23: 0.622811, 24: 0.13546, 25: 0.725078, 26: 0.856063, 27: 0.317436, 28: 0.458532, 29: 0.959839, 30: 0.415826, 31: 0.29861, 32: 0.586236, 33: 0.383348, 34: 0.688905, 35: 0.51416, 36: 0.911236, 37: 0.192163, 38: 0.603336, 39: 0.391159, 40: 0.211422, 41: 0.382135, 42: 0.040161, 43: 0.421636, 44: 0.551578, 45: 0.475987, 46: 0.627254, 47: 0.826442, 48: 0.517028, 49: 0.038919, 50: 0.9188229999999999, 51: 0.577641, 52: 0.306659, 53: 0.726084, 54: 0.295059, 55: 0.995681, 56: 0.201916, 57: 0.773429, 58: 0.3931, 59: 0.7191689999999999, 60: 0.276443, 61: 0.769604, 62: 0.7490830000000001, 63: 0.645058, 64: 0.081705, 65: 0.730524, 66: 0.239448, 67: 0.764262, 68: 0.515306, 69: 0.640196, 70: 0.653778, 71: 0.738608, 72: 0.499853, 73: 0.727545, 74: 0.159753, 75: 0.041926, 76: 0.863936, 77: 0.6585259999999999, 78: 0.212629, 79: 0.037896, 80: 0.392146, 81: 0.551223, 82: 0.518639, 83: 0.08644300000000001, 84: 0.525775, 85: 0.050542, 86: 0.790811, 87: 0.323913, 88: 0.897567, 89: 0.957794, 90: 0.307857, 91: 0.049799, 92: 0.166913, 93: 0.939053, 94: 0.381507, 95: 0.558628];
discharge = [0: 0.7802249999999999, 1: 0.6617420000000001, 2: 0.5865089999999999, 3: 0.9778559999999999, 4: 0.202923, 5: 0.94603, 6: 0.9530149999999999, 7: 0.590856, 8: 0.217018, 9: 0.860231, 10: 0.462332, 11: 0.281179, 12: 0.650188, 13: 0.286194, 14: 0.28187, 15: 0.208082, 16: 0.758466, 17: 0.08208799999999999, 18: 0.498991, 19: 0.62668, 20: 0.959247, 21: 0.9976969999999999, 22: 0.210842, 23: 0.114708, 24: 0.876651, 25: 0.6249130000000001, 26: 0.737089, 27: 0.211221, 28: 0.558712, 29: 0.146072, 30: 0.778498, 31: 0.723095, 32: 0.778494, 33: 0.254074, 34: 0.080958, 35: 0.974773, 36: 0.044128, 37: 0.43552, 38: 0.212394, 39: 0.299977, 40: 0.107556, 41: 0.152459, 42: 0.402703, 43: 0.646149, 44: 0.5618, 45: 0.053692, 46: 0.295635, 47: 0.244285, 48: 0.662294, 49: 0.752553, 50: 0.983788, 51: 0.966973, 52: 0.312414, 53: 0.050199, 54: 0.796829, 55: 0.661521, 56: 0.298153, 57: 0.986559, 58: 0.589395, 59: 0.521679, 60: 0.60712, 61: 0.960865, 62: 0.195508, 63: 0.693876, 64: 0.202642, 65: 0.41243, 66: 0.228928, 67: 0.89439, 68: 0.147148, 69: 0.888405, 70: 0.106858, 71: 0.561796, 72: 0.979235, 73: 0.799051, 74: 0.436236, 75: 0.722737, 76: 0.377606, 77: 0.764053, 78: 0.510888, 79: 0.191355, 80: 0.529133, 81: 0.501353, 82: 0.519315, 83: 0.225345, 84: 0.525351, 85: 0.075755, 86: 0.000781, 87: 0.261826, 88: 0.561451, 89: 0.34469, 90: 0.565765, 91: 0.106388, 92: 0.714597, 93: 0.216383, 94: 0.03749, 95: 0.196607];
soc = [0: 11.205476, 1: 10.725526, 2: 12.243815, 3: 9.905849, 4: 7.727277, 5: 11.345938, 6: 5.544009, 7: 11.662828, 8: 11.774198, 9: 10.467873, 10: 8.732692999999999, 11: 9.624743, 12: 8.991974000000001, 13: 8.723977, 14: 7.661965, 15: 7.120184, 16: 12.683021, 17: 13.216226, 18: 7.421945, 19: 5.685046, 20: 10.113791, 21: 13.821947, 22: 13.250607, 23: 5.420137, 24: 8.961532, 25: 15.146818, 26: 6.799222, 27: 3.627232, 28: 13.918424, 29: 13.178735, 30: 8.806229999999999, 31: 12.571912, 32: 7.853294, 33: 12.426176, 34: 14.794336, 35: 5.97599, 36: 6.395257, 37: 3.239963, 38: 5.336779, 39: 6.497634, 40: 14.500843, 41: 6.891596, 42: 14.184641, 43: 8.734057, 44: 3.839031, 45: 7.25657, 46: 8.648880999999999, 47: 10.44934, 48: 5.800932, 49: 3.628732, 50: 10.458903, 51: 4.681323, 52: 3.850938, 53: 12.489366, 54: 6.47564, 55: 7.102323, 56: 10.619943, 57: 13.28174, 58: 14.206793, 59: 11.328352, 60: 10.295612, 61: 7.227662, 62: 15.149843, 63: 14.992034, 64: 3.279224, 65: 12.960314, 66: 8.669414, 67: 15.044871, 68: 3.837776, 69: 6.481635, 70: 15.321931, 71: 6.015019, 72: 6.769259, 73: 2.696397, 74: 14.282063, 75: 15.147065, 76: 8.911068, 77: 12.284261, 78: 13.834169, 79: 14.570801, 80: 9.497453, 81: 7.064835, 82: 13.194552, 83: 10.373352, 84: 12.797327, 85: 11.243687, 86: 8.367336, 87: 5.095104, 88: 4.676983, 89: 5.318124, 90: 6.297929, 91: 14.960731, 92: 12.923491, 93: 5.146935, 94: 8.306613, 95: 13.696904];
cost = [0: 195.316628, 1: 296.019775, 2: 404.630149, 3: 467.76437, 4: 349.904586, 5: 587.574357, 6: 470.180844, 7: 11.337022, 8: 390.680354, 9: 113.766887, 10: 603.048061, 11: 552.554626, 12: 398.665468, 13: 354.391904, 14: 306.658277, 15: 49.375663, 16: 520.680997, 17: 445.684224, 18: 175.965859, 19: 545.873228, 20: 518.48517, 21: 419.79705, 22: 99.367779, 23: 37.088207, 24: 1042.1312, 25: 905.133908, 26: 137.399319, 27: 348.039522, 28: 771.98636, 29: 822.727275, 30: 1168.775924, 31: 800.2109840000001, 32: 487.28784, 33: 541.377599, 34: 966.03093, 35: 244.610163, 36: 804.647275, 37: 479.727175, 38: 634.934159, 39: 796.207204, 40: 380.381359, 41: 80.79446799999999, 42: 99.717226, 43: 978.835902, 44: 41.953454, 45: 351.1326, 46: 621.256684, 47: 354.87052, 48: 738.700319, 49: 490.870809, 50: 743.434567, 51: 1140.076502, 52: 128.997904, 53: 471.791724, 54: 451.3568, 55: 191.974654, 56: 0.576495, 57: 240.984386, 58: 436.090709, 59: 584.233458, 60: 4.33896, 61: 497.182207, 62: 619.7943739999999, 63: 58.963189, 64: 416.508131, 65: 340.258133, 66: 916.961818, 67: 114.522633, 68: 1158.349588, 69: 378.340686, 70: 428.415234, 71: 666.068293, 72: 771.160128, 73: 798.920701, 74: 66.32127699999999, 75: 1062.829126, 76: 361.926951, 77: 141.568433, 78: 1044.16525, 79: 0.131166, 80: 799.544203, 81: 1080.680697, 82: 1124.387234, 83: 2.299107, 84: 616.2306149999999, 85: 271.570082, 86: 375.569131, 87: 225.771283, 88: 460.137899, 89: 343.858214, 90: 438.63252, 91: 391.737183, 92: 70.715007, 93: 267.719269, 94: 225.640271, 95: 125.918497];
earn = [0: 1.980506, 1: 1.73406, 2: 1.324338, 3: 0.59467, 4: 0.238713, 5: 0.207795, 6: 0.654985, 7: 0.4854, 8: 2.163943, 9: 1.521864, 10: 0.109273, 11: 2.071893, 12: 1.549842, 13: 0.818547, 14: 1.477964, 15: 1.086861, 16: 1.835661, 17: 1.422394, 18: 1.12406, 19: 0.690846, 20: 0.383812, 21: 0.918712, 22: 1.876359, 23: 1.321062, 24: 0.435787, 25: 1.569335, 26: 1.072131, 27: 0.174519, 28: 0.447609, 29: 1.555269, 30: 1.101885, 31: 0.623999, 32: 1.181692, 33: 1.067828, 34: 0.38906, 35: 1.374123, 36: 0.764703, 37: 0.469301, 38: 0.793712, 39: 0.063862, 40: 0.207869, 41: 0.06313000000000001, 42: 0.023527, 43: 0.203733, 44: 0.124523, 45: 0.056488, 46: 0.035023, 47: 0.100979, 48: 0.054779, 49: 0.02897, 50: 0.114013, 51: 0.037063, 52: 0.19308, 53: 0.004649, 54: 0.02539, 55: 0.06333800000000001, 56: 0.081555, 57: 0.491851, 58: 0.304769, 59: 0.811288, 60: 0.436835, 61: 0.142991, 62: 0.666591, 63: 0.303127, 64: 1.077129, 65: 0.19999, 66: 2.229618, 67: 1.870532, 68: 0.460679, 69: 2.137019, 70: 2.46617, 71: 0.026487, 72: 1.668815, 73: 0.407376, 74: 2.535106, 75: 0.495781, 76: 2.830112, 77: 2.608551, 78: 2.344127, 79: 1.939468, 80: 1.493719, 81: 2.026576, 82: 0.839995, 83: 0.812493, 84: 0.551907, 85: 1.64503, 86: 1.697791, 87: 2.631909, 88: 0.738868, 89: 2.306394, 90: 0.904502, 91: 0.086905, 92: 0.744821, 93: 0.112199, 94: 0.161961, 95: 1.676365];
total_cost = 47.30476917979167;
total_earn = 12.71422672250002;
