production = [0: 0.0, 1: 0.0, 2: 0.0, 3: 0.0, 4: 0.0, 5: 0.0, 6: 0.0, 7: 0.0, 8: 0.0, 9: 0.0, 10: 0.0, 11: 0.0, 12: 0.0, 13: 0.0, 14: 0.0, 15: 0.0, 16: 0.0, 17: 0.0, 18: 0.0, 19: 0.0, 20: 0.0, 21: 0.0, 22: 0.001828, 23: 0.004002, 24: 0.006445, 25: 0.001076, 26: 0.026666, 27: 0.072407, 28: 0.011142, 29: 0.147956, 30: 0.107192, 31: 0.338936, 32: 0.580041, 33: 0.513018, 34: 0.048224, 35: 0.801994, 36: 0.877219, 37: 0.394908, 38: 0.376161, 39: 0.07603500000000001, 40: 0.325068, 41: 1.469698, 42: 0.74285, 43: 1.077284, 44: 0.398481, 45: 0.006748, 46: 0.57864, 47: 0.876124, 48: 0.026693, 49: 0.930465, 50: 1.150588, 51: 0.553377, 52: 1.55975, 53: 1.177384, 54: 1.006537, 55: 0.766655, 56: 0.662985, 57: 0.720208, 58: 0.034917, 59: 0.666907, 60: 0.486806, 61: 0.31978, 62: 0.176371, 63: 0.231995, 64: 0.137814, 65: 0.115806, 66: 0.102278, 67: 0.09868300000000001, 68: 0.035266, 69: 0.016464, 70: 0.031141, 71: 0.011377, 72: 0.000322, 73: 0.001027, 74: 0.0, 75: 3.9e-05, 76: 0.0, 77: 0.0, 78: 0.0, 79: 0.0, 80: 0.0, 81: 0.0, 82: 0.0, 83: 0.0, 84: 0.0, 85: 0.0, 86: 0.0, 87: 0.0, 88: 0.0, 89: 0.0, 90: 0.0, 91: 0.0, 92: 0.0, 93: 0.0, 94: 0.0, 95: 0.0];
buy = [0: 413.367816, 1: 995.618273, 2: 226.411087, 3: 161.576462, 4: 344.234577, 5: 406.581211, 6: 611.668255, 7: 755.758381, 8: 694.665708, 9: 555.9755, 10: 320.39648, 11: 176.624875, 12: 369.886807, 13: 959.260777, 14: 415.756038, 15: 462.412311, 16: 93.632852, 17: 910.099641, 18: 422.621492, 19: 357.942619, 20: 804.003527, 21: 485.277978, 22: 221.437652, 23: 211.375549, 24: 134.608208, 25: 326.070309, 26: 568.906482, 27: 345.476811, 28: 535.596931, 29: 484.775452, 30: 343.112267, 31: 996.651396, 32: 237.935246, 33: 429.915344, 34: 380.744179, 35: 457.486792, 36: 836.320598, 37: 129.678164, 38: 476.148876, 39: 732.4155469999999, 40: 297.012125, 41: 342.901892, 42: 122.584238, 43: 276.496151, 44: 570.704981, 45: 153.111438, 46: 511.586327, 47: 448.277796, 48: 144.212723, 49: 729.637986, 50: 231.266589, 51: 63.044189, 52: 45.510525, 53: 92.935604, 54: 553.495531, 55: 464.228074, 56: 508.993053, 57: 995.550664, 58: 115.594546, 59: 516.859914, 60: 196.655313, 61: 705.101, 62: 606.058027, 63: 595.2578150000001, 64: 172.016815, 65: 370.509485, 66: 109.275092, 67: 800.066877, 68: 318.733244, 69: 2.256008, 70: 230.947857, 71: 83.045314, 72: 176.81791, 73: 395.45206, 74: 811.20286, 75: 340.477444, 76: 254.740909, 77: 79.259078, 78: 495.784633, 79: 885.101889, 80: 902.558764, 81: 838.236804, 82: 524.460225, 83: 893.017509, 84: 89.76306700000001, 85: 909.9043809999999, 86: 326.753652, 87: 560.138832, 88: 542.442585, 89: 636.909578, 90: 179.510304, 91: 195.671399, 92: 924.932672, 93: 573.01731, 94: 663.435907, 95: 127.051097];
sell = [0: 2.533124, 1: 0.596728, 2: 0.243299, 3: 0.820812, 4: 3.356757, 5: 3.279963, 6: 1.101662, 7: 1.952962, 8: 3.984364, 9: 2.668128, 10: 3.104883, 11: 1.280923, 12: 1.429277, 13: 0.569093, 14: 0.612344, 15: 1.877435, 16: 3.645893, 17: 0.783774, 18: 1.579975, 19: 3.8796, 20: 3.90004, 21: 1.32377, 22: 1.948513, 23: 3.817908, 24: 1.67319, 25: 1.515776, 26: 1.658218, 27: 0.101964, 28: 3.525858, 29: 0.042702, 30: 3.116175, 31: 0.140093, 32: 2.952821, 33: 3.040784, 34: 3.295096, 35: 1.987296, 36: 0.771292, 37: 1.54457, 38: 3.177381, 39: 2.985544, 40: 2.221662, 41: 1.403237, 42: 2.301935, 43: 2.557003, 44: 0.863537, 45: 0.533759, 46: 2.932627, 47: 1.876812, 48: 1.041971, 49: 3.794333, 50: 0.04567, 51: 3.147931, 52: 3.869182, 53: 1.099763, 54: 0.35716, 55: 1.586575, 56: 3.07738, 57: 0.688591, 58: 0.840795, 59: 0.762031, 60: 3.831338, 61: 3.519535, 62: 0.060674, 63: 2.06954, 64: 3.761759, 65: 3.084865, 66: 2.294725, 67: 1.190347, 68: 0.025778, 69: 2.489801, 70: 1.763799, 71: 2.811736, 72: 3.972345, 73: 0.787673, 74: 3.691519, 75: 3.974886, 76: 0.248738, 77: 1.411304, 78: 0.898636, 79: 1.052801, 80: 1.650332, 81: 1.472275, 82: 2.545554, 83: 2.262339, 84: 0.249188, 85: 2.27111, 86: 2.57849, 87: 0.111162, 88: 3.335711, 89: 0.351152, 90: 1.147777, 91: 0.536748, 92: 3.007346, 93: 3.329178, 94: 2.46412, 95: 0.674218];
charge = [0: 0.976308, 1: 0.369094, 2: 0.036779, 3: 0.902053, 4: 0.441862, 5: 0.522859, 6: 0.652966, 7: 0.054272, 8: 0.405395, 9: 0.096619, 10: 0.122416, 11: 0.225299, 12: 0.638234, 13: 0.555044, 14: 0.526805, 15: 0.468818, 16: 0.626135, 17: 0.700247, 18: 0.051687, 19: 0.272434, 20: 0.550173, 21: 0.421389, 22: 0.248057, 23: 0.485309, 24: 0.012143, 25: 0.058585, 26: 0.388495, 27: 0.515831, 28: 0.383396, 29: 0.760472, 30: 0.565056, 31: 0.242992, 32: 0.209713, 33: 0.680356, 34: 0.435571, 35: 0.4009, 36: 0.596738, 37: 0.277426, 38: 0.318148, 39: 0.709489, 40: 0.285181, 41: 0.015298, 42: 0.08294, 43: 0.486368, 44: 0.9523779999999999, 45: 0.905581, 46: 0.468646, 47: 0.087725, 48: 0.551382, 49: 0.70035, 50: 0.390847, 51: 0.211207, 52: 0.479672, 53: 0.480129, 54: 0.11927, 55: 0.254385, 56: 0.284074, 57: 0.697873, 58: 0.667414, 59: 0.165761, 60: 0.565784, 61: 0.128753, 62: 0.656008, 63: 0.144539, 64: 0.284769, 65: 0.260297, 66: 0.775397, 67: 0.848141, 68: 0.509153, 69: 0.605092, 70: 0.679581, 71: 0.665889, 72: 0.934428, 73: 0.338558, 74: 0.67393, 75: 0.568619, 76: 0.119778, 77: 0.220288, 78: 0.598404, 79: 0.370773, 80: 0.044157, 81: 0.795395, 82: 0.374175, 83: 0.882286, 84: 0.149503, 85: 0.102759, 86: 0.365866, 87: 0.504448, 88: 0.55561, 89: 0.349979, 90: 0.193119, 91: 0.406881, 92: 0.364893, 93: 0.223275, 94: 0.296845, 95: 0.459617];
discharge = [0: 0.644309, 1: 0.732931, 2: 0.901526, 3: 0.6160600000000001, 4: 0.6421210000000001, 5: 0.7047099999999999, 6: 0.679864, 7: 0.112599, 8: 0.79844, 9: 0.758926, 10: 0.481514, 11: 0.183135, 12: 0.982358, 13: 0.925078, 14: 0.220684, 15: 0.534624, 16: 0.08827, 17: 0.290013, 18: 0.337659, 19: 0.59428, 20: 0.952001, 21: 0.824433, 22: 0.881084, 23: 0.47186, 24: 0.303, 25: 0.108405, 26: 0.054692, 27: 0.967294, 28: 0.751336, 29: 0.950455, 30: 0.69216, 31: 0.896589, 32: 0.162107, 33: 0.67583, 34: 0.813104, 35: 0.045328, 36: 0.795822, 37: 0.334201, 38: 0.181445, 39: 0.9394749999999999, 40: 0.092621, 41: 0.446774, 42: 0.633572, 43: 0.529162, 44: 0.928536, 45: 0.218831, 46: 0.474208, 47: 0.154894, 48: 0.399137, 49: 0.516209, 50: 0.985773, 51: 0.14782, 52: 0.400929, 53: 0.353199, 54: 0.930329, 55: 0.64678, 56: 0.111188, 57: 0.319515, 58: 0.318409, 59: 0.573556, 60: 0.440497, 61: 0.069221, 62: 0.881932, 63: 0.311154, 64: 0.146617, 65: 0.128542, 66: 0.381396, 67: 0.753256, 68: 0.498301, 69: 0.329726, 70: 0.520906, 71: 0.248362, 72: 0.766186, 73: 0.925603, 74: 0.243985, 75: 0.46345, 76: 0.8178840000000001, 77: 0.391907, 78: 0.628463, 79: 0.23613, 80: 0.055277, 81: 0.08653, 82: 0.868637, 83: 1.6e-05, 84: 0.990397, 85: 0.123847, 86: 0.500298, 87: 0.354656, 88: 0.085074, 89: 0.221377, 90: 0.211165, 91: 0.211216, 92: 0.217323, 93: 0.953962, 94: 0.086883, 95: 0.972071];
soc = [0: 10.729065, 1: 10.670534, 2: 12.628022, 3: 12.232736, 4: 12.024355, 5: 8.628292999999999, 6: 14.965374, 7: 7.838451, 8: 14.23891, 9: 13.091998, 10: 5.458156, 11: 6.563001, 12: 14.45933, 13: 6.422917, 14: 8.374504, 15: 5.172165, 16: 12.298209, 17: 5.373124, 18: 7.089489, 19: 7.427506, 20: 13.142792, 21: 3.199082, 22: 4.37769, 23: 5.612212, 24: 2.845128, 25: 5.006297, 26: 12.931522, 27: 4.095342, 28: 10.941088, 29: 5.798211, 30: 13.801228, 31: 8.911239999999999, 32: 10.816095, 33: 6.601866, 34: 14.12783, 35: 4.152517, 36: 11.926181, 37: 12.313322, 38: 12.277656, 39: 6.991405, 40: 10.526695, 41: 14.699735, 42: 5.888675, 43: 11.726972, 44: 11.41813, 45: 15.131098, 46: 14.092183, 47: 13.508848, 48: 13.777399, 49: 10.458123, 50: 6.207594, 51: 8.809754999999999, 52: 2.859492, 53: 14.463194, 54: 4.279706, 55: 4.756721, 56: 6.165332, 57: 2.924505, 58: 9.359444, 59: 8.994114, 60: 8.510202, 61: 14.590218, 62: 15.178949, 63: 10.953621, 64: 5.612804, 65: 5.439398, 66: 8.258127, 67: 2.711093, 68: 3.050362, 69: 13.114283, 70: 15.667999, 71: 11.212547, 72: 12.695056, 73: 7.056701, 74: 14.217022, 75: 4.261587, 76: 14.484851, 77: 11.049915, 78: 4.050981, 79: 6.048066, 80: 14.692101, 81: 10.130632, 82: 5.491095, 83: 6.566071, 84: 8.037248, 85: 8.978869, 86: 15.083074, 87: 14.129618, 88: 10.536594, 89: 13.540122, 90: 12.353167, 91: 12.122431, 92: 7.015725, 93: 10.630552, 94: 3.234464, 95: 15.211456];
cost = [0: 33.497203, 1: 159.828483, 2: 104.783945, 3: 47.527272, 4: 207.482221, 5: 210.418618, 6: 583.164586, 7: 188.81475, 8: 492.445109, 9: 479.194762, 10: 67.586529, 11: 297.734073, 12: 207.965709, 13: 195.100846, 14: 181.891358, 15: 15.939875, 16: 103.76506, 17: 32.179734, 18: 200.538443, 19: 609.240129, 20: 399.631277, 21: 87.597159, 22: 189.948748, 23: 325.286738, 24: 328.36463, 25: 971.497308, 26: 343.055991, 27: 1066.425442, 28: 799.622057, 29: 190.755921, 30: 1065.866692, 31: 1174.472057, 32: 856.636452, 33: 794.856191, 34: 1111.767171, 35: 479.959106, 36: 625.681586, 37: 861.2157580000001, 38: 19.854561, 39: 867.639538, 40: 478.465981, 41: 3.968559, 42: 737.842936, 43: 227.315844, 44: 658.60121, 45: 528.187077, 46: 677.660466, 47: 145.533166, 48: 599.639509, 49: 979.999646, 50: 1088.312029, 51: 1073.648579, 52: 499.444073, 53: 405.929563, 54: 308.352574, 55: 82.454983, 56: 520.7452060000001, 57: 390.470693, 58: 452.811754, 59: 498.705357, 60: 384.541283, 61: 734.197418, 62: 538.744942, 63: 340.097779, 64: 675.311821, 65: 44.28738, 66: 780.12157, 67: 13.302696, 68: 972.076361, 69: 1065.643571, 70: 434.63264, 71: 64.954041, 72: 386.737165, 73: 984.829834, 74: 892.98227, 75: 758.005502, 76: 529.37269, 77: 845.122665, 78: 930.908682, 79: 726.587532, 80: 287.552107, 81: 689.692796, 82: 489.520213, 83: 457.228584, 84: 256.643558, 85: 168.439519, 86: 330.200266, 87: 693.5292020000001, 88: 403.180668, 89: 322.312302, 90: 21.467292, 91: 277.120743, 92: 243.941947, 93: 356.542525, 94: 519.589976, 95: 351.396475];
earn = [0: 0.280351, 1: 2.366561, 2: 1.6574, 3: 1.30979, 4: 1.994626, 5: 1.011815, 6: 0.448866, 7: 0.98637, 8: 1.887123, 9: 1.28168, 10: 1.49431, 11: 1.572689, 12: 1.651261, 13: 0.744591, 14: 1.414267, 15: 0.7919349999999999, 16: 1.17492, 17: 2.033954, 18: 0.8489719999999999, 19: 1.710426, 20: 0.253672, 21: 0.666578, 22: 1.503164, 23: 0.527743, 24: 1.224724, 25: 0.20808, 26: 0.777816, 27: 1.879261, 28: 0.366102, 29: 0.010212, 30: 0.504138, 31: 0.705301, 32: 0.587201, 33: 0.787127, 34: 1.206089, 35: 0.006304, 36: 1.058899, 37: 0.946257, 38: 0.567716, 39: 0.042292, 40: 0.49475, 41: 0.184972, 42: 0.186175, 43: 0.041812, 44: 0.030335, 45: 0.073602, 46: 0.136834, 47: 0.09664399999999999, 48: 0.023609, 49: 0.07668999999999999, 50: 0.037416, 51: 0.048768, 52: 0.203945, 53: 0.030165, 54: 0.002933, 55: 0.139903, 56: 0.356988, 57: 0.23318, 58: 0.245385, 59: 0.6742629999999999, 60: 0.995166, 61: 0.78278, 62: 0.012444, 63: 1.339432, 64: 2.045606, 65: 0.069761, 66: 1.711592, 67: 1.66202, 68: 1.781849, 69: 0.238522, 70: 0.68214, 71: 2.59029, 72: 0.443467, 73: 0.16409, 74: 1.149288, 75: 3.06295, 76: 1.470647, 77: 2.253883, 78: 1.63828, 79: 0.383764, 80: 2.641366, 81: 0.520018, 82: 2.129605, 83: 1.591892, 84: 0.345983, 85: 0.610505, 86: 0.950762, 87: 1.635523, 88: 2.200835, 89: 2.532957, 90: 1.437864, 91: 0.7728739999999999, 92: 1.216232, 93: 2.174557, 94: 0.09544900000000001, 95: 1.177996];
total_cost = 38.73841358038469;
total_earn = 11.89229829154611;
