production = [0: 0.0, 1: 0.0, 2: 0.0, 3: 0.0, 4: 0.0, 5: 0.0, 6: 0.0, 7: 0.0, 8: 0.0, 9: 0.0, 10: 0.0, 11: 0.0, 12: 0.0, 13: 0.0, 14: 0.0, 15: 0.0, 16: 0.0, 17: 0.0, 18: 0.0, 19: 0.0, 20: 0.0, 21: 0.0, 22: 0.000926, 23: 0.006474, 24: 0.046267, 25: 0.07098599999999999, 26: 0.023376, 27: 0.077733, 28: 0.181832, 29: 0.095072, 30: 0.175802, 31: 0.618479, 32: 0.260119, 33: 0.5514250000000001, 34: 0.008972000000000001, 35: 0.922233, 36: 0.619656, 37: 0.8109960000000001, 38: 0.499155, 39: 0.545504, 40: 0.24762, 41: 1.590801, 42: 0.622139, 43: 0.502618, 44: 0.244027, 45: 0.050161, 46: 0.877239, 47: 0.958163, 48: 0.140612, 49: 0.727297, 50: 0.588822, 51: 0.371247, 52: 0.09965499999999999, 53: 1.60844, 54: 0.838225, 55: 0.926515, 56: 0.165458, 57: 0.279323, 58: 0.069921, 59: 0.189296, 60: 0.426468, 61: 0.542539, 62: 0.495244, 63: 0.210572, 64: 0.164038, 65: 0.281917, 66: 0.140294, 67: 0.032714, 68: 0.019296, 69: 0.0043, 70: 0.026853, 71: 0.014339, 72: 0.000462, 73: 0.001191, 74: 0.0, 75: 0.000145, 76: 0.0, 77: 0.0, 78: 0.0, 79: 0.0, 80: 0.0, 81: 0.0, 82: 0.0, 83: 0.0, 84: 0.0, 85: 0.0, 86: 0.0, 87: 0.0, 88: 0.0, 89: 0.0, 90: 0.0, 91: 0.0, 92: 0.0, 93: 0.0, 94: 0.0, 95: 0.0];
buy = [0: 532.7999579999999, 1: 389.602925, 2: 916.8372000000001, 3: 516.501073, 4: 548.457903, 5: 827.77346, 6: 615.6938709999999, 7: 373.822061, 8: 828.743476, 9: 731.150528, 10: 832.978248, 11: 362.876692, 12: 755.998916, 13: 832.867024, 14: 349.880884, 15: 844.262447, 16: 958.146749, 17: 657.609193, 18: 111.545079, 19: 845.252222, 20: 486.429093, 21: 380.069186, 22: 380.763615, 23: 815.35681, 24: 605.9160429999999, 25: 690.416374, 26: 617.478509, 27: 209.123166, 28: 604.044956, 29: 478.419266, 30: 413.371949, 31: 679.935157, 32: 854.315155, 33: 16.109466, 34: 247.238972, 35: 661.106486, 36: 951.658738, 37: 882.293545, 38: 455.365043, 39: 186.42981, 40: 333.657821, 41: 948.265792, 42: 141.301236, 43: 264.796814, 44: 294.661752, 45: 33.111527, 46: 562.251219, 47: 787.905489, 48: 25.476211, 49: 604.50014, 50: 287.751989, 51: 455.594728, 52: 969.030335, 53: 256.18712, 54: 843.142304, 55: 912.986259, 56: 596.342499, 57: 4.102658, 58: 680.471218, 59: 86.173681, 60: 467.766252, 61: 804.455841, 62: 667.402784, 63: 644.514211, 64: 345.612833, 65: 359.085452, 66: 653.587264, 67: 535.286255, 68: 795.293785, 69: 288.134407, 70: 251.376562, 71: 399.843409, 72: 934.993768, 73: 114.642315, 74: 850.250285, 75: 162.829151, 76: 120.197503, 77: 905.410837, 78: 740.487815, 79: 145.142497, 80: 806.773719, 81: 94.976116, 82: 85.802181, 83: 787.013326, 84: 573.807989, 85: 585.921103, 86: 309.760789, 87: 884.92006, 88: 984.385529, 89: 662.278373, 90: 899.620575, 91: 758.467551, 92: 426.719282, 93: 136.470661, 94: 880.419086, 95: 66.876237];
sell = [0: 3.838602, 1: 3.74468, 2: 0.774145, 3: 3.869935, 4: 2.692991, 5: 1.060664, 6: 0.120877, 7: 2.580153, 8: 0.586427, 9: 3.862083, 10: 1.32824, 11: 2.916208, 12: 2.124487, 13: 0.439163, 14: 0.327661, 15: 2.382054, 16: 1.867873, 17: 3.989265, 18: 3.659183, 19: 2.198558, 20: 1.556775, 21: 2.354593, 22: 2.322276, 23: 1.582955, 24: 1.962079, 25: 3.8021, 26: 3.845718, 27: 3.004408, 28: 0.781099, 29: 2.3136, 30: 0.6966639999999999, 31: 3.235474, 32: 1.437805, 33: 2.419169, 34: 2.051872, 35: 2.672544, 36: 2.880653, 37: 1.496495, 38: 1.298249, 39: 0.14675, 40: 3.217332, 41: 2.480298, 42: 3.630183, 43: 1.453898, 44: 2.388723, 45: 0.60428, 46: 1.826097, 47: 2.357191, 48: 3.095987, 49: 3.246459, 50: 0.304458, 51: 3.106587, 52: 2.398896, 53: 2.001529, 54: 2.177805, 55: 3.444235, 56: 3.429067, 57: 0.087043, 58: 0.285471, 59: 2.154249, 60: 0.760798, 61: 3.655364, 62: 1.776531, 63: 2.986287, 64: 2.150863, 65: 3.062699, 66: 3.881202, 67: 3.997804, 68: 2.951906, 69: 1.591336, 70: 2.080516, 71: 1.053052, 72: 3.499031, 73: 1.783783, 74: 0.567945, 75: 0.733057, 76: 3.806352, 77: 3.09412, 78: 0.587221, 79: 3.548872, 80: 1.511582, 81: 3.781602, 82: 3.610766, 83: 1.378286, 84: 3.404446, 85: 0.382584, 86: 3.846655, 87: 2.114496, 88: 1.819825, 89: 2.850008, 90: 0.810706, 91: 2.363105, 92: 0.597866, 93: 0.60943, 94: 0.96082, 95: 2.613758];
charge = [0: 0.641143, 1: 0.010099, 2: 0.302984, 3: 0.079239, 4: 0.598176, 5: 0.842658, 6: 0.91779, 7: 0.99377, 8: 0.516765, 9: 0.185659, 10: 0.157303, 11: 0.343355, 12: 0.830739, 13: 0.400653, 14: 0.298446, 15: 0.565862, 16: 0.202577, 17: 0.931539, 18: 0.177738, 19: 0.697701, 20: 0.872501, 21: 0.367818, 22: 0.499113, 23: 0.621053, 24: 0.728768, 25: 0.25383, 26: 0.6544, 27: 0.548562, 28: 0.963297, 29: 0.415932, 30: 0.925976, 31: 0.269147, 32: 0.422472, 33: 0.469671, 34: 0.8446939999999999, 35: 0.202945, 36: 0.280822, 37: 0.102073, 38: 0.952529, 39: 0.181682, 40: 0.261232, 41: 0.07523000000000001, 42: 0.779971, 43: 0.575956, 44: 0.408664, 45: 0.449918, 46: 0.626969, 47: 0.670895, 48: 0.741241, 49: 0.223194, 50: 0.929118, 51: 0.420216, 52: 0.393664, 53: 0.198599, 54: 0.712791, 55: 0.7398, 56: 0.324644, 57: 0.350008, 58: 0.831947, 59: 0.806624, 60: 0.249439, 61: 0.800507, 62: 0.522851, 63: 0.59385, 64: 0.84878, 65: 0.984667, 66: 0.96493, 67: 0.578983, 68: 0.858244, 69: 0.249548, 70: 0.631387, 71: 0.138395, 72: 0.6678460000000001, 73: 0.881687, 74: 0.686212, 75: 0.695477, 76: 0.256509, 77: 0.515633, 78: 0.586983, 79: 0.187746, 80: 0.795408, 81: 0.100321, 82: 0.20014, 83: 0.37301, 84: 0.545068, 85: 0.87383, 86: 0.706155, 87: 0.841368, 88: 0.049665, 89: 0.424378, 90: 0.233547, 91: 0.338827, 92: 0.001651, 93: 0.682243, 94: 0.260141, 95: 0.937341];
discharge = [0: 0.673588, 1: 0.397476, 2: 0.874883, 3: 0.370408, 4: 0.239785, 5: 0.7989039999999999, 6: 0.560495, 7: 0.581029, 8: 0.017198, 9: 0.571509, 10: 0.512522, 11: 0.165982, 12: 0.930491, 13: 0.833001, 14: 0.957518, 15: 0.573225, 16: 0.256788, 17: 0.805488, 18: 0.577832, 19: 0.001157, 20: 0.554198, 21: 0.024303, 22: 0.164521, 23: 0.066775, 24: 0.299698, 25: 0.279622, 26: 0.506595, 27: 0.33437, 28: 0.874817, 29: 0.345544, 30: 0.541243, 31: 0.283479, 32: 0.909539, 33: 0.419413, 34: 0.750478, 35: 0.6586340000000001, 36: 0.093177, 37: 0.521281, 38: 0.247823, 39: 0.641395, 40: 0.749318, 41: 0.67136, 42: 0.61786, 43: 0.011703, 44: 0.500745, 45: 0.402329, 46: 0.897237, 47: 0.35139, 48: 0.688837, 49: 0.3934, 50: 0.323966, 51: 0.705496, 52: 0.720473, 53: 0.191937, 54: 0.238706, 55: 0.739758, 56: 0.446805, 57: 0.103299, 58: 0.51256, 59: 0.026612, 60: 0.885825, 61: 0.383083, 62: 0.973335, 63: 0.49742, 64: 0.220912, 65: 0.621736, 66: 0.381989, 67: 0.287586, 68: 0.239173, 69: 0.250877, 70: 0.9809909999999999, 71: 0.031622, 72: 0.158278, 73: 0.084845, 74: 0.257261, 75: 0.663917, 76: 0.362494, 77: 0.879073, 78: 0.056042, 79: 0.26091, 80: 0.012725, 81: 0.321322, 82: 0.985883, 83: 0.464557, 84: 0.9867629999999999, 85: 0.661815, 86: 0.452716, 87: 0.026341, 88: 0.271657, 89: 0.516803, 90: 0.13578, 91: 0.197082, 92: 0.929418, 93: 0.856338, 94: 0.901616, 95: 0.792665];
soc = [0: 10.189397, 1: 10.152381, 2: 12.54467, 3: 7.968946, 4: 14.075576, 5: 10.020839, 6: 12.262862, 7: 15.181107, 8: 11.80597, 9: 10.242469, 10: 6.151372, 11: 5.567798, 12: 3.597409, 13: 10.202255, 14: 11.062181, 15: 12.613131, 16: 5.452312, 17: 11.542929, 18: 10.121264, 19: 6.425105, 20: 14.930778, 21: 14.520596, 22: 9.778319, 23: 14.041741, 24: 10.793576, 25: 13.047516, 26: 7.790308, 27: 11.359103, 28: 9.931699999999999, 29: 12.891493, 30: 13.072214, 31: 12.094585, 32: 13.100192, 33: 4.430302, 34: 9.946623000000001, 35: 4.549684, 36: 8.056842, 37: 3.804787, 38: 11.975076, 39: 10.987283, 40: 8.602672, 41: 13.678227, 42: 10.741181, 43: 9.262620999999999, 44: 6.633407, 45: 8.501742, 46: 8.477862999999999, 47: 15.033733, 48: 15.282804, 49: 11.47365, 50: 6.746494, 51: 12.01547, 52: 4.370086, 53: 14.670438, 54: 4.849698, 55: 5.496953, 56: 9.608029, 57: 4.819739, 58: 2.738523, 59: 14.286255, 60: 4.785878, 61: 6.644257, 62: 9.871179, 63: 9.947448, 64: 5.59632, 65: 14.645591, 66: 14.449909, 67: 10.929068, 68: 7.413228, 69: 4.188186, 70: 8.471731999999999, 71: 14.453142, 72: 3.302282, 73: 3.606858, 74: 6.072783, 75: 8.098058999999999, 76: 4.381976, 77: 13.646473, 78: 3.182835, 79: 15.58086, 80: 7.774989, 81: 12.120351, 82: 3.954652, 83: 2.730145, 84: 10.906691, 85: 2.907479, 86: 12.237177, 87: 7.572283, 88: 9.310086999999999, 89: 3.311818, 90: 4.30882, 91: 5.592565, 92: 7.711252, 93: 3.093919, 94: 9.409076000000001, 95: 14.554616];
cost = [0: 19.607082, 1: 7.382938, 2: 253.91575, 3: 512.532294, 4: 373.653691, 5: 416.973368, 6: 551.16903, 7: 357.488514, 8: 167.174743, 9: 43.528245, 10: 535.611576, 11: 45.877199, 12: 263.245833, 13: 11.85993, 14: 30.804739, 15: 438.939804, 16: 345.474248, 17: 435.17972, 18: 170.957915, 19: 127.470245, 20: 48.06217, 21: 38.278423, 22: 387.569948, 23: 76.00699899999999, 24: 268.756874, 25: 1171.000321, 26: 1142.075576, 27: 994.089037, 28: 1156.332137, 29: 623.676734, 30: 579.506588, 31: 537.649372, 32: 777.4289690000001, 33: 194.327116, 34: 996.629988, 35: 167.710207, 36: 104.150331, 37: 887.284615, 38: 12.668995, 39: 550.877571, 40: 463.043994, 41: 1115.098569, 42: 179.962918, 43: 720.604247, 44: 772.107045, 45: 337.659741, 46: 1129.122177, 47: 454.878531, 48: 235.966263, 49: 280.640493, 50: 240.879858, 51: 558.4143319999999, 52: 247.12182, 53: 335.345707, 54: 342.480283, 55: 481.387444, 56: 100.117206, 57: 20.150391, 58: 179.986819, 59: 343.758144, 60: 1069.443168, 61: 379.741268, 62: 627.106325, 63: 541.441569, 64: 801.167346, 65: 1162.113868, 66: 945.680067, 67: 363.127431, 68: 343.512962, 69: 691.4313509999999, 70: 590.190956, 71: 440.702991, 72: 818.66859, 73: 659.350431, 74: 124.49354, 75: 326.688102, 76: 957.515517, 77: 1011.37878, 78: 815.772369, 79: 581.23348, 80: 856.516649, 81: 276.407465, 82: 323.355195, 83: 1180.316124, 84: 178.499331, 85: 189.695994, 86: 293.232876, 87: 1127.213667, 88: 361.793133, 89: 208.301804, 90: 584.302523, 91: 169.729295, 92: 282.274297, 93: 107.14142, 94: 313.884418, 95: 268.414478];
earn = [0: 1.434275, 1: 0.794333, 2: 0.679576, 3: 0.796979, 4: 2.04177, 5: 0.147636, 6: 2.254581, 7: 1.50156, 8: 1.8297, 9: 0.125816, 10: 1.638242, 11: 2.273641, 12: 0.7108409999999999, 13: 0.183396, 14: 1.030979, 15: 0.870116, 16: 1.080057, 17: 0.237209, 18: 1.826722, 19: 0.653244, 20: 0.369018, 21: 0.229791, 22: 0.745163, 23: 1.578301, 24: 1.67226, 25: 1.913506, 26: 1.050062, 27: 0.674928, 28: 0.990861, 29: 1.518337, 30: 0.559728, 31: 1.232495, 32: 0.13092, 33: 0.716127, 34: 1.460687, 35: 0.41441, 36: 0.313786, 37: 0.052852, 38: 0.597201, 39: 0.377897, 40: 0.378835, 41: 0.312416, 42: 0.225213, 43: 0.080736, 44: 0.027841, 45: 0.047898, 46: 0.109562, 47: 0.031952, 48: 0.117384, 49: 0.031639, 50: 0.000789, 51: 0.033767, 52: 0.16659, 53: 0.033599, 54: 0.042735, 55: 0.223254, 56: 0.046554, 57: 0.550032, 58: 0.685898, 59: 0.7914600000000001, 60: 0.799892, 61: 1.196118, 62: 0.8693109999999999, 63: 1.496558, 64: 1.559568, 65: 0.762303, 66: 2.191287, 67: 1.918627, 68: 1.339186, 69: 2.393153, 70: 1.070541, 71: 0.481525, 72: 2.519488, 73: 2.138445, 74: 0.767733, 75: 0.178401, 76: 2.674936, 77: 2.918112, 78: 1.754564, 79: 2.527841, 80: 1.553915, 81: 2.278486, 82: 2.846602, 83: 2.487314, 84: 2.105495, 85: 0.048541, 86: 1.068188, 87: 1.762987, 88: 0.751376, 89: 1.630282, 90: 1.488625, 91: 1.083937, 92: 2.105663, 93: 0.721835, 94: 0.227384, 95: 1.912264];
total_cost = 41.49487947012494;
total_earn = 13.72412030702367;
