production = [0: 0.0, 1: 0.0, 2: 0.0, 3: 0.0, 4: 0.0, 5: 0.0, 6: 0.0, 7: 0.0, 8: 0.0, 9: 0.0, 10: 0.0, 11: 0.0, 12: 0.0, 13: 0.0, 14: 0.0, 15: 0.0, 16: 0.0, 17: 0.0, 18: 0.0, 19: 0.0, 20: 0.0, 21: 0.0, 22: 0.000955, 23: 0.007549, 24: 0.024183, 25: 0.008894000000000001, 26: 0.035719, 27: 0.183542, 28: 0.214854, 29: 0.09336899999999999, 30: 0.379633, 31: 0.053533, 32: 0.420338, 33: 0.052352, 34: 0.308546, 35: 0.36546, 36: 0.835124, 37: 0.279951, 38: 0.56301, 39: 0.401429, 40: 1.382046, 41: 0.20567, 42: 1.336662, 43: 1.214016, 44: 1.286132, 45: 0.434875, 46: 0.411033, 47: 0.266327, 48: 0.552858, 49: 0.715129, 50: 1.820558, 51: 0.647349, 52: 1.309212, 53: 1.141936, 54: 0.547767, 55: 1.232298, 56: 1.301107, 57: 1.006232, 58: 0.959908, 59: 0.492419, 60: 1.205328, 61: 0.629343, 62: 0.6151759999999999, 63: 0.713085, 64: 0.262243, 65: 0.1937, 66: 0.146978, 67: 0.008754, 68: 0.001037, 69: 0.012882, 70: 0.019995, 71: 0.008685999999999999, 72: 0.000859, 73: 0.001046, 74: 0.0, 75: 0.000182, 76: 0.0, 77: 0.0, 78: 0.0, 79: 0.0, 80: 0.0, 81: 0.0, 82: 0.0, 83: 0.0, 84: 0.0, 85: 0.0, 86: 0.0, 87: 0.0, 88: 0.0, 89: 0.0, 90: 0.0, 91: 0.0, 92: 0.0, 93: 0.0, 94: 0.0, 95: 0.0];
buy = [0: 390.385601, 1: 522.3308919999999, 2: 515.0229859999999, 3: 733.191209, 4: 184.920234, 5: 13.174382, 6: 777.533551, 7: 129.491848, 8: 127.278249, 9: 736.926453, 10: 634.041022, 11: 594.067105, 12: 146.796363, 13: 184.067956, 14: 978.635447, 15: 889.912993, 16: 243.24424, 17: 36.188219, 18: 165.304113, 19: 558.681044, 20: 854.536262, 21: 79.091506, 22: 45.619034, 23: 607.6168290000001, 24: 217.995183, 25: 533.465519, 26: 958.8538569999999, 27: 18.87212, 28: 295.921404, 29: 966.8726830000001, 30: 206.749952, 31: 391.787005, 32: 143.427926, 33: 790.104647, 34: 75.79300000000001, 35: 682.679673, 36: 504.206845, 37: 561.637558, 38: 982.86272, 39: 211.777222, 40: 590.787108, 41: 969.537662, 42: 386.472245, 43: 351.290583, 44: 73.638564, 45: 113.834647, 46: 66.041921, 47: 902.142969, 48: 794.022432, 49: 723.063751, 50: 459.760429, 51: 853.923032, 52: 601.613333, 53: 466.074184, 54: 250.399418, 55: 828.48207, 56: 782.795741, 57: 649.139813, 58: 720.540561, 59: 463.66649, 60: 353.401917, 61: 821.92997, 62: 509.138562, 63: 82.494107, 64: 699.710843, 65: 859.709604, 66: 481.301199, 67: 671.376648, 68: 820.530481, 69: 989.323056, 70: 528.1529399999999, 71: 937.755345, 72: 816.379598, 73: 363.609288, 74: 820.65845, 75: 443.921769, 76: 611.088602, 77: 568.469839, 78: 130.500801, 79: 64.22465200000001, 80: 157.372994, 81: 217.595138, 82: 125.963052, 83: 92.014892, 84: 208.072383, 85: 167.525042, 86: 606.657513, 87: 675.165912, 88: 207.648368, 89: 279.862069, 90: 606.611886, 91: 220.096559, 92: 836.009573, 93: 734.931516, 94: 684.378162, 95: 885.865886];
sell = [0: 3.245097, 1: 0.013607, 2: 2.411402, 3: 3.523162, 4: 2.91495, 5: 0.0005910000000000001, 6: 1.222182, 7: 1.961748, 8: 1.015098, 9: 3.512211, 10: 1.364158, 11: 2.807553, 12: 1.073107, 13: 0.004218, 14: 2.361269, 15: 2.073575, 16: 3.51351, 17: 1.868965, 18: 1.797321, 19: 3.112769, 20: 2.9177, 21: 1.725105, 22: 0.552602, 23: 2.397145, 24: 3.241561, 25: 3.024904, 26: 0.069662, 27: 0.815917, 28: 2.684468, 29: 2.709339, 30: 1.227763, 31: 3.227987, 32: 1.53627, 33: 0.951412, 34: 2.722025, 35: 0.098049, 36: 0.441439, 37: 3.132647, 38: 1.794778, 39: 3.976218, 40: 3.094319, 41: 3.139957, 42: 1.928372, 43: 1.283591, 44: 3.762651, 45: 0.089367, 46: 2.577313, 47: 0.281196, 48: 2.190299, 49: 0.591212, 50: 2.354411, 51: 2.225879, 52: 2.603205, 53: 3.493804, 54: 0.941074, 55: 1.271999, 56: 1.106322, 57: 0.287997, 58: 2.873963, 59: 0.016774, 60: 0.857791, 61: 2.022709, 62: 2.128157, 63: 2.388519, 64: 3.614364, 65: 1.549297, 66: 3.152531, 67: 3.843784, 68: 1.682835, 69: 0.333401, 70: 1.943242, 71: 1.760154, 72: 1.353092, 73: 0.112745, 74: 0.233539, 75: 3.482651, 76: 0.163303, 77: 2.121519, 78: 1.898024, 79: 0.362925, 80: 1.190757, 81: 1.178651, 82: 1.110975, 83: 3.491113, 84: 0.648664, 85: 0.758049, 86: 2.457564, 87: 3.438971, 88: 0.316976, 89: 1.896113, 90: 1.63637, 91: 3.33969, 92: 0.490464, 93: 3.0473, 94: 2.416266, 95: 0.214311];
charge = [0: 0.008631, 1: 0.789069, 2: 0.286157, 3: 0.746332, 4: 0.740596, 5: 0.675049, 6: 0.9608409999999999, 7: 0.994377, 8: 0.884965, 9: 0.208826, 10: 0.654459, 11: 0.368442, 12: 0.20556, 13: 0.370567, 14: 0.5922230000000001, 15: 0.538714, 16: 0.6646260000000001, 17: 0.467335, 18: 0.489602, 19: 0.144639, 20: 0.498978, 21: 0.210142, 22: 0.09669800000000001, 23: 0.835253, 24: 0.281709, 25: 0.416612, 26: 0.593869, 27: 0.485206, 28: 0.757723, 29: 0.13831, 30: 0.99146, 31: 0.116469, 32: 0.17909, 33: 0.585697, 34: 0.705806, 35: 0.974642, 36: 0.520559, 37: 0.323925, 38: 0.310464, 39: 0.761871, 40: 0.5099320000000001, 41: 0.346456, 42: 0.09259199999999999, 43: 0.420463, 44: 0.773044, 45: 0.819229, 46: 0.173302, 47: 0.521427, 48: 0.418868, 49: 0.812612, 50: 0.7381490000000001, 51: 0.042666, 52: 0.477668, 53: 0.522517, 54: 0.689298, 55: 0.371294, 56: 0.8583, 57: 0.393232, 58: 0.365854, 59: 0.426348, 60: 0.765398, 61: 0.946337, 62: 0.7893289999999999, 63: 0.141575, 64: 0.601531, 65: 0.743187, 66: 0.430742, 67: 0.231743, 68: 0.27287, 69: 0.476105, 70: 0.8250690000000001, 71: 0.975309, 72: 0.291396, 73: 0.746905, 74: 0.056378, 75: 0.444117, 76: 0.269316, 77: 0.463416, 78: 0.284667, 79: 0.927996, 80: 0.165449, 81: 0.442381, 82: 0.92739, 83: 0.8876849999999999, 84: 0.176566, 85: 0.648621, 86: 0.422041, 87: 0.054725, 88: 0.263396, 89: 0.921315, 90: 0.137988, 91: 0.4981, 92: 0.676503, 93: 0.247449, 94: 0.411391, 95: 0.968041];
discharge = [0: 0.340259, 1: 0.856273, 2: 0.006506, 3: 0.727091, 4: 0.149456, 5: 0.584301, 6: 0.600185, 7: 0.014984, 8: 0.370359, 9: 0.812702, 10: 0.8007030000000001, 11: 0.368747, 12: 0.638558, 13: 0.846762, 14: 0.624013, 15: 0.07875699999999999, 16: 0.462227, 17: 0.517102, 18: 0.569879, 19: 0.054034, 20: 0.024499, 21: 0.340156, 22: 0.067968, 23: 0.9739950000000001, 24: 0.24537, 25: 0.939602, 26: 0.709742, 27: 0.272232, 28: 0.852503, 29: 0.845339, 30: 0.287639, 31: 0.307296, 32: 0.350237, 33: 0.461742, 34: 0.882293, 35: 0.6606109999999999, 36: 0.386084, 37: 0.5966900000000001, 38: 0.996538, 39: 0.895189, 40: 0.109252, 41: 0.434038, 42: 0.273095, 43: 0.506759, 44: 0.242393, 45: 0.452611, 46: 0.209732, 47: 0.31827, 48: 0.7874060000000001, 49: 0.207868, 50: 0.524724, 51: 0.454835, 52: 0.097571, 53: 0.466963, 54: 0.394904, 55: 0.83124, 56: 0.232752, 57: 0.164461, 58: 0.791891, 59: 0.836214, 60: 0.779682, 61: 0.188651, 62: 0.292501, 63: 0.422889, 64: 0.253972, 65: 0.242144, 66: 0.230452, 67: 0.814955, 68: 0.405862, 69: 0.21574, 70: 0.309766, 71: 0.939072, 72: 0.059324, 73: 0.997588, 74: 0.495592, 75: 0.360244, 76: 0.824924, 77: 0.884659, 78: 0.739955, 79: 0.147613, 80: 0.537714, 81: 0.323757, 82: 0.396889, 83: 0.794037, 84: 0.9394479999999999, 85: 0.777022, 86: 0.496309, 87: 0.816152, 88: 0.849239, 89: 0.930707, 90: 0.5634, 91: 0.858156, 92: 0.754691, 93: 0.00159, 94: 0.607162, 95: 0.442691];
soc = [0: 10.206843, 1: 9.106959, 2: 7.496178, 3: 9.058287999999999, 4: 6.594684, 5: 6.53784, 6: 11.385021, 7: 13.818789, 8: 12.797852, 9: 9.085376999999999, 10: 11.818249, 11: 10.232606, 12: 12.093871, 13: 9.083899000000001, 14: 4.1116, 15: 13.228284, 16: 5.513376, 17: 4.021062, 18: 12.922792, 19: 3.362578, 20: 11.897637, 21: 3.770337, 22: 5.201401, 23: 7.83417, 24: 12.489351, 25: 8.987237, 26: 10.32844, 27: 7.80298, 28: 12.078481, 29: 4.848748, 30: 14.877755, 31: 7.451159, 32: 10.656993, 33: 9.943724, 34: 12.240497, 35: 15.112525, 36: 3.56765, 37: 8.648324000000001, 38: 11.715636, 39: 8.753811000000001, 40: 11.426434, 41: 9.736029, 42: 12.31996, 43: 11.933424, 44: 15.053304, 45: 6.214595, 46: 7.100675, 47: 15.211687, 48: 7.883137, 49: 7.057117, 50: 11.765205, 51: 5.781247, 52: 14.383626, 53: 12.89817, 54: 9.942397, 55: 14.284621, 56: 14.668371, 57: 9.368767999999999, 58: 9.091089, 59: 11.976592, 60: 15.513185, 61: 6.955383, 62: 3.187579, 63: 5.77502, 64: 13.218374, 65: 5.69793, 66: 4.227464, 67: 13.638291, 68: 14.94591, 69: 15.553602, 70: 7.62123, 71: 7.611191, 72: 9.141225, 73: 4.484381, 74: 10.058059, 75: 15.257495, 76: 6.068109, 77: 13.206649, 78: 7.248706, 79: 5.365527, 80: 5.541323, 81: 7.773293, 82: 4.146184, 83: 9.115732, 84: 15.483061, 85: 10.557463, 86: 8.075067000000001, 87: 13.79926, 88: 11.020655, 89: 14.069032, 90: 5.960423, 91: 2.67316, 92: 13.225754, 93: 15.477202, 94: 13.943259, 95: 13.379951];
cost = [0: 367.142687, 1: 152.7713, 2: 329.75849, 3: 518.943461, 4: 164.440285, 5: 387.624907, 6: 167.900702, 7: 172.392895, 8: 292.84571, 9: 275.494257, 10: 398.378148, 11: 283.82468, 12: 579.387221, 13: 361.058787, 14: 396.465596, 15: 495.028674, 16: 328.747858, 17: 370.506786, 18: 512.406872, 19: 19.689413, 20: 258.051406, 21: 355.760599, 22: 130.257972, 23: 555.64523, 24: 227.962897, 25: 1161.818721, 26: 141.067453, 27: 1035.034228, 28: 997.532931, 29: 10.858264, 30: 392.174455, 31: 569.747271, 32: 657.2848279999999, 33: 402.127206, 34: 312.450907, 35: 288.809553, 36: 946.083207, 37: 768.207191, 38: 540.379356, 39: 144.789895, 40: 465.413147, 41: 993.339394, 42: 1100.257141, 43: 803.412315, 44: 652.257368, 45: 778.639002, 46: 544.686333, 47: 82.80038, 48: 1045.272315, 49: 863.391905, 50: 534.213331, 51: 642.3824969999999, 52: 427.931738, 53: 139.726166, 54: 577.375081, 55: 535.86601, 56: 323.839326, 57: 136.403073, 58: 380.52954, 59: 203.015133, 60: 226.823316, 61: 732.437554, 62: 671.427765, 63: 125.300791, 64: 1087.494499, 65: 328.321231, 66: 805.165353, 67: 810.676696, 68: 127.525117, 69: 492.491226, 70: 556.164794, 71: 1123.621869, 72: 1088.057384, 73: 703.018645, 74: 307.931616, 75: 555.861753, 76: 1153.860302, 77: 1.169857, 78: 423.269798, 79: 858.2622249999999, 80: 857.749876, 81: 1166.928917, 82: 420.922674, 83: 67.587373, 84: 1098.964301, 85: 838.264674, 86: 528.649499, 87: 1120.064567, 88: 279.083911, 89: 465.672585, 90: 309.679839, 91: 246.718855, 92: 13.761398, 93: 201.797792, 94: 175.143875, 95: 178.745523];
earn = [0: 1.56294, 1: 1.521302, 2: 2.117909, 3: 1.871252, 4: 1.301577, 5: 1.824045, 6: 1.107037, 7: 1.266205, 8: 1.45433, 9: 1.429347, 10: 1.62349, 11: 0.718778, 12: 1.059795, 13: 0.396162, 14: 0.055082, 15: 1.042327, 16: 0.874355, 17: 0.868687, 18: 0.388115, 19: 0.248798, 20: 0.409821, 21: 2.191693, 22: 2.244145, 23: 1.298782, 24: 0.982187, 25: 1.329096, 26: 1.537723, 27: 0.540385, 28: 1.952539, 29: 0.54583, 30: 1.330189, 31: 0.775829, 32: 0.853537, 33: 1.031895, 34: 0.711102, 35: 0.07462299999999999, 36: 0.696482, 37: 0.026328, 38: 0.86794, 39: 0.597691, 40: 0.227295, 41: 0.202454, 42: 0.291607, 43: 0.280828, 44: 0.053335, 45: 0.064015, 46: 0.067667, 47: 0.117298, 48: 0.069935, 49: 0.054371, 50: 0.111463, 51: 0.019559, 52: 0.0287, 53: 0.093663, 54: 0.214499, 55: 0.162092, 56: 0.500147, 57: 0.194922, 58: 0.69531, 59: 0.154888, 60: 1.087801, 61: 0.827457, 62: 1.660024, 63: 1.614995, 64: 0.298079, 65: 2.272408, 66: 1.690379, 67: 0.615367, 68: 1.375535, 69: 0.488716, 70: 1.008266, 71: 2.408516, 72: 0.314773, 73: 2.123991, 74: 1.802663, 75: 3.113073, 76: 0.33153, 77: 3.24555, 78: 1.993596, 79: 2.786281, 80: 2.117226, 81: 2.161791, 82: 2.106202, 83: 2.341456, 84: 2.167885, 85: 2.302903, 86: 0.645169, 87: 0.132461, 88: 1.00655, 89: 1.929961, 90: 0.117398, 91: 2.276657, 92: 2.200503, 93: 1.422572, 94: 0.359886, 95: 1.224784];
total_cost = 42.5611129729752;
total_earn = 14.28849350616668;
