production = [0: 0.0, 1: 0.0, 2: 0.0, 3: 0.0, 4: 0.0, 5: 0.0, 6: 0.0, 7: 0.0, 8: 0.0, 9: 0.0, 10: 0.0, 11: 0.0, 12: 0.0, 13: 0.0, 14: 0.0, 15: 0.0, 16: 0.0, 17: 0.0, 18: 0.0, 19: 0.0, 20: 0.0, 21: 0.0, 22: 0.000508, 23: 0.011753, 24: 0.041611, 25: 0.08096, 26: 0.00692, 27: 0.036712, 28: 0.088048, 29: 0.275693, 30: 0.186105, 31: 0.199034, 32: 0.683938, 33: 0.38278, 34: 0.013973, 35: 0.797587, 36: 0.357275, 37: 1.056881, 38: 0.144107, 39: 0.091654, 40: 0.056046, 41: 0.976338, 42: 0.111146, 43: 1.260953, 44: 0.173931, 45: 0.511276, 46: 0.090421, 47: 0.890363, 48: 0.646446, 49: 0.859886, 50: 1.727412, 51: 0.70083, 52: 1.60773, 53: 0.210479, 54: 1.600123, 55: 0.942926, 56: 0.761452, 57: 1.293797, 58: 0.945786, 59: 0.668502, 60: 0.565311, 61: 0.207909, 62: 0.754148, 63: 0.578485, 64: 0.217503, 65: 0.18423, 66: 0.033091, 67: 0.046893, 68: 0.018857, 69: 8.1e-05, 70: 0.009227000000000001, 71: 0.009209, 72: 0.000954, 73: 0.000821, 74: 0.0, 75: 0.00023, 76: 0.0, 77: 0.0, 78: 0.0, 79: 0.0, 80: 0.0, 81: 0.0, 82: 0.0, 83: 0.0, 84: 0.0, 85: 0.0, 86: 0.0, 87: 0.0, 88: 0.0, 89: 0.0, 90: 0.0, 91: 0.0, 92: 0.0, 93: 0.0, 94: 0.0, 95: 0.0];
buy = [0: 954.607887, 1: 510.670773, 2: 242.87998, 3: 713.569073, 4: 592.436683, 5: 204.134473, 6: 610.214981, 7: 146.156975, 8: 915.556117, 9: 369.562916, 10: 591.2733490000001, 11: 814.979257, 12: 120.352768, 13: 762.123369, 14: 693.358081, 15: 215.662656, 16: 951.26582, 17: 760.1618580000001, 18: 58.329696, 19: 333.411633, 20: 283.833259, 21: 394.235815, 22: 720.696422, 23: 134.164404, 24: 102.384148, 25: 735.872877, 26: 281.371589, 27: 129.393343, 28: 851.300489, 29: 855.629537, 30: 934.572676, 31: 295.71746, 32: 678.675608, 33: 63.803874, 34: 801.84775, 35: 955.90254, 36: 105.38901, 37: 937.649793, 38: 550.894711, 39: 244.148692, 40: 67.773757, 41: 404.7759, 42: 58.297286, 43: 376.742585, 44: 76.55667699999999, 45: 168.215486, 46: 312.020187, 47: 839.526091, 48: 277.207944, 49: 209.358578, 50: 876.268026, 51: 819.8194109999999, 52: 548.095759, 53: 854.6646909999999, 54: 130.148407, 55: 448.698065, 56: 476.440652, 57: 305.537643, 58: 942.788917, 59: 415.814559, 60: 867.965153, 61: 951.031277, 62: 132.480486, 63: 248.962016, 64: 7.781155, 65: 595.985338, 66: 854.374651, 67: 509.267297, 68: 749.7060739999999, 69: 543.756668, 70: 408.136132, 71: 117.04202, 72: 68.26410300000001, 73: 79.613692, 74: 458.982222, 75: 600.0002950000001, 76: 377.465211, 77: 872.008432, 78: 533.458861, 79: 310.584738, 80: 76.971739, 81: 693.512837, 82: 727.961276, 83: 426.842682, 84: 473.723774, 85: 41.120967, 86: 263.897235, 87: 751.064544, 88: 938.160967, 89: 686.4718810000001, 90: 639.6205639999999, 91: 484.350283, 92: 623.546979, 93: 113.949, 94: 419.842084, 95: 813.3455310000001];
sell = [0: 3.650743, 1: 3.101141, 2: 3.731383, 3: 2.335396, 4: 1.197005, 5: 0.6192879999999999, 6: 3.551582, 7: 3.364607, 8: 2.677946, 9: 3.870169, 10: 3.209053, 11: 2.600425, 12: 1.947979, 13: 3.992222, 14: 1.239108, 15: 3.713959, 16: 0.6208, 17: 1.490548, 18: 2.576269, 19: 2.238957, 20: 1.346132, 21: 2.196999, 22: 0.561784, 23: 1.812065, 24: 2.850472, 25: 0.908813, 26: 3.10546, 27: 2.291979, 28: 3.951216, 29: 2.967503, 30: 3.13074, 31: 3.57687, 32: 1.248357, 33: 0.407207, 34: 0.987751, 35: 2.917136, 36: 3.124622, 37: 0.159076, 38: 0.915524, 39: 2.11664, 40: 0.899338, 41: 3.451879, 42: 3.797278, 43: 0.745605, 44: 0.654672, 45: 0.005896, 46: 2.297251, 47: 0.360524, 48: 2.673013, 49: 2.829185, 50: 0.79282, 51: 1.257035, 52: 3.42456, 53: 1.700802, 54: 2.345315, 55: 3.964159, 56: 2.448088, 57: 0.303486, 58: 0.141731, 59: 0.21002, 60: 2.928481, 61: 0.678322, 62: 0.48235, 63: 0.339608, 64: 0.5768760000000001, 65: 0.18406, 66: 0.384433, 67: 2.652082, 68: 0.684288, 69: 0.865541, 70: 3.133751, 71: 2.536345, 72: 2.700423, 73: 3.949596, 74: 1.546392, 75: 1.217889, 76: 3.402149, 77: 2.694299, 78: 0.760444, 79: 3.102694, 80: 2.222751, 81: 1.974937, 82: 0.877571, 83: 1.780109, 84: 2.274728, 85: 3.811393, 86: 2.781354, 87: 0.834412, 88: 2.854605, 89: 0.162998, 90: 0.722475, 91: 2.310849, 92: 2.010193, 93: 3.795972, 94: 2.009679, 95: 2.255913];
charge = [0: 0.12636, 1: 0.505526, 2: 0.675975, 3: 0.422677, 4: 0.028608, 5: 0.8365590000000001, 6: 0.30768, 7: 0.798111, 8: 0.015914, 9: 0.058987, 10: 0.65462, 11: 0.7292689999999999, 12: 0.817392, 13: 0.527681, 14: 0.328739, 15: 0.157303, 16: 0.121843, 17: 0.901189, 18: 0.288505, 19: 0.648749, 20: 0.434438, 21: 0.528528, 22: 0.042488, 23: 0.771501, 24: 0.133836, 25: 0.486933, 26: 0.83084, 27: 0.640993, 28: 0.568085, 29: 0.552617, 30: 0.52737, 31: 0.963607, 32: 0.7091, 33: 0.164266, 34: 0.06679599999999999, 35: 0.934485, 36: 0.289367, 37: 0.944553, 38: 0.808744, 39: 0.93843, 40: 0.981328, 41: 0.006047, 42: 0.371937, 43: 0.622449, 44: 0.856332, 45: 0.00559, 46: 0.139333, 47: 0.470741, 48: 0.26879, 49: 0.308825, 50: 0.8516550000000001, 51: 0.481429, 52: 0.181748, 53: 0.448919, 54: 0.325542, 55: 0.181235, 56: 0.884229, 57: 0.664749, 58: 0.255609, 59: 0.182671, 60: 0.656618, 61: 0.315737, 62: 0.310448, 63: 0.016081, 64: 0.23398, 65: 0.75047, 66: 0.727679, 67: 0.90296, 68: 0.472271, 69: 0.605339, 70: 0.857474, 71: 0.85029, 72: 0.417727, 73: 0.824334, 74: 0.441666, 75: 0.230949, 76: 0.899384, 77: 0.423216, 78: 0.984928, 79: 0.308819, 80: 0.574942, 81: 0.136829, 82: 0.247736, 83: 0.406394, 84: 0.07950400000000001, 85: 0.231721, 86: 0.8094519999999999, 87: 0.423708, 88: 0.83109, 89: 0.391087, 90: 0.235571, 91: 0.256378, 92: 0.103267, 93: 0.097492, 94: 0.334862, 95: 0.08513800000000001];
discharge = [0: 0.378985, 1: 0.000907, 2: 0.464179, 3: 0.732282, 4: 0.602649, 5: 0.327361, 6: 0.172229, 7: 0.066412, 8: 0.223452, 9: 0.332956, 10: 0.921879, 11: 0.746098, 12: 0.997054, 13: 0.047861, 14: 0.760032, 15: 0.788096, 16: 0.687771, 17: 0.432867, 18: 0.92497, 19: 0.313789, 20: 0.561144, 21: 0.191613, 22: 0.665882, 23: 0.691762, 24: 0.747035, 25: 0.7660400000000001, 26: 0.449921, 27: 0.951565, 28: 0.211775, 29: 0.172471, 30: 0.4132, 31: 0.393446, 32: 0.409494, 33: 0.309556, 34: 0.679853, 35: 0.51786, 36: 0.9962760000000001, 37: 0.535668, 38: 0.567187, 39: 0.763769, 40: 0.521402, 41: 0.90454, 42: 0.547587, 43: 0.284496, 44: 0.86863, 45: 0.253877, 46: 0.895972, 47: 0.84663, 48: 0.352737, 49: 0.634373, 50: 0.386458, 51: 0.232728, 52: 0.961715, 53: 0.094946, 54: 0.752617, 55: 0.097442, 56: 0.225825, 57: 0.918459, 58: 0.88132, 59: 0.346642, 60: 0.588187, 61: 0.038791, 62: 0.598504, 63: 0.346349, 64: 0.747947, 65: 0.124551, 66: 0.097007, 67: 0.420678, 68: 0.09059, 69: 0.993991, 70: 0.305233, 71: 0.7034629999999999, 72: 0.44815, 73: 0.26459, 74: 0.342008, 75: 0.322115, 76: 0.247356, 77: 0.222366, 78: 0.079447, 79: 0.591523, 80: 0.22647, 81: 0.782816, 82: 0.05593, 83: 0.543369, 84: 0.244256, 85: 0.23525, 86: 0.697099, 87: 0.016609, 88: 0.82629, 89: 0.799606, 90: 0.733355, 91: 0.68471, 92: 0.508517, 93: 0.376723, 94: 0.470471, 95: 0.92602];
soc = [0: 10.565275, 1: 10.44473, 2: 10.024186, 3: 13.718512, 4: 8.355948, 5: 6.820784, 6: 15.281946, 7: 7.021691, 8: 9.362916, 9: 11.130493, 10: 9.209998000000001, 11: 5.086518, 12: 12.569785, 13: 7.05405, 14: 7.690902, 15: 12.957222, 16: 5.346723, 17: 15.173552, 18: 3.338696, 19: 5.267237, 20: 9.281879, 21: 3.870645, 22: 7.888123, 23: 8.468453, 24: 9.055002, 25: 5.525032, 26: 6.158901, 27: 5.095149, 28: 13.73488, 29: 7.517599, 30: 3.916098, 31: 9.890001, 32: 14.993948, 33: 6.125004, 34: 9.126086000000001, 35: 4.875825, 36: 13.713843, 37: 11.862733, 38: 4.885146, 39: 13.44627, 40: 7.664217, 41: 14.100946, 42: 3.192195, 43: 8.946006000000001, 44: 6.669626, 45: 4.139289, 46: 13.867879, 47: 9.425046999999999, 48: 11.649014, 49: 13.027913, 50: 4.395425, 51: 12.706894, 52: 8.261945000000001, 53: 6.292878, 54: 11.306185, 55: 4.465798, 56: 13.690854, 57: 10.10167, 58: 13.252756, 59: 12.333013, 60: 4.812695, 61: 4.843932, 62: 10.82222, 63: 15.547484, 64: 2.968402, 65: 3.070355, 66: 13.697178, 67: 6.528996, 68: 9.065168, 69: 10.629197, 70: 2.952545, 71: 5.766963, 72: 6.940841, 73: 8.399133000000001, 74: 4.226287, 75: 7.555406, 76: 13.325431, 77: 4.957098, 78: 9.566789999999999, 79: 11.260098, 80: 13.81685, 81: 12.739586, 82: 8.405483, 83: 3.909187, 84: 9.711900999999999, 85: 7.591559, 86: 4.7052, 87: 13.565024, 88: 12.688449, 89: 14.506281, 90: 5.86025, 91: 2.72834, 92: 7.915209, 93: 10.365724, 94: 14.812676, 95: 13.61567];
cost = [0: 282.934906, 1: 445.499642, 2: 534.475882, 3: 185.441095, 4: 58.103916, 5: 28.616405, 6: 210.416391, 7: 377.284448, 8: 118.769048, 9: 277.273531, 10: 528.406161, 11: 556.536638, 12: 300.462573, 13: 430.977181, 14: 393.6485, 15: 233.658967, 16: 406.559836, 17: 144.51653, 18: 562.657065, 19: 564.864521, 20: 248.704131, 21: 359.628261, 22: 221.250318, 23: 572.1262410000001, 24: 1134.45829, 25: 294.858975, 26: 376.284418, 27: 235.941972, 28: 403.129917, 29: 25.999546, 30: 753.379459, 31: 1109.277212, 32: 338.546373, 33: 1070.007714, 34: 965.293951, 35: 509.88093, 36: 275.992829, 37: 1094.754966, 38: 973.1123689999999, 39: 1104.020032, 40: 534.520935, 41: 619.143072, 42: 389.626143, 43: 607.717255, 44: 239.28002, 45: 921.556522, 46: 793.856836, 47: 707.260658, 48: 295.018561, 49: 260.905876, 50: 1019.224806, 51: 4.744841, 52: 422.876218, 53: 607.756995, 54: 351.648442, 55: 222.970663, 56: 29.75827, 57: 504.253964, 58: 132.196453, 59: 44.785019, 60: 690.341078, 61: 503.171759, 62: 864.257369, 63: 219.537343, 64: 741.017275, 65: 260.788623, 66: 788.65148, 67: 991.07525, 68: 163.413184, 69: 896.111865, 70: 566.252708, 71: 551.96137, 72: 310.409639, 73: 49.794243, 74: 390.737048, 75: 830.115923, 76: 755.562892, 77: 472.397876, 78: 1047.325533, 79: 1111.846269, 80: 1083.755277, 81: 59.379777, 82: 1178.274705, 83: 936.808871, 84: 300.691922, 85: 838.577475, 86: 251.286631, 87: 786.2773570000001, 88: 500.393187, 89: 102.169307, 90: 184.563004, 91: 535.774896, 92: 165.295306, 93: 168.886024, 94: 147.168219, 95: 243.511143];
earn = [0: 0.016203, 1: 1.448297, 2: 0.543619, 3: 1.971274, 4: 0.825798, 5: 2.104355, 6: 1.978986, 7: 0.260864, 8: 0.439373, 9: 0.382341, 10: 1.813501, 11: 0.082149, 12: 2.070517, 13: 0.873763, 14: 0.890074, 15: 0.509057, 16: 0.132694, 17: 1.050589, 18: 0.242068, 19: 1.199754, 20: 2.233251, 21: 0.120572, 22: 0.003424, 23: 0.125243, 24: 1.282693, 25: 1.186112, 26: 1.433908, 27: 0.786691, 28: 1.879732, 29: 1.651977, 30: 1.499596, 31: 1.823543, 32: 1.353008, 33: 0.374198, 34: 0.926149, 35: 0.554509, 36: 0.170592, 37: 0.865859, 38: 0.147387, 39: 0.308449, 40: 0.271032, 41: 0.269472, 42: 0.241846, 43: 0.100248, 44: 0.060037, 45: 0.024204, 46: 0.011711, 47: 0.072092, 48: 0.025845, 49: 0.023153, 50: 0.06250600000000001, 51: 0.026093, 52: 0.054501, 53: 0.018763, 54: 0.23306, 55: 0.025712, 56: 0.213714, 57: 0.08058800000000001, 58: 0.648883, 59: 0.198782, 60: 0.6926060000000001, 61: 0.829789, 62: 0.556517, 63: 1.790283, 64: 0.104115, 65: 1.559135, 66: 1.38326, 67: 0.468048, 68: 0.506734, 69: 0.06399199999999999, 70: 0.000465, 71: 0.068067, 72: 1.091829, 73: 0.865518, 74: 2.920114, 75: 0.678608, 76: 0.112501, 77: 1.40042, 78: 1.462232, 79: 2.642657, 80: 0.705584, 81: 0.55248, 82: 0.005011, 83: 1.065556, 84: 0.866282, 85: 2.04913, 86: 0.188093, 87: 1.81061, 88: 0.129591, 89: 1.200586, 90: 2.492115, 91: 0.741513, 92: 0.252469, 93: 0.109108, 94: 0.197333, 95: 1.501463];
total_cost = 53.51419594543864;
total_earn = 12.2452583685;
