buy = 
[| 296.410634, 82.07627599999999,  49.586136,  53.705135
 | 240.646251,         99.117255, 187.860881,  184.90919
 | 257.604595,        226.947174, 186.136769,  67.023048
 | 386.758229,        145.982299,  26.203152, 308.003066
 |];
amount = 
[| 37.005588, 72.34286400000001,         26.636756,         18.402511
 | 96.812583, 86.86031800000001,         33.433485,          0.797697
 | 66.196748,         33.026053,          1.110607, 81.88078299999999
 |   70.1815,         24.145768, 78.03669600000001,         32.496141
 |];
stock = 
[|        115.632141, 91.01786300000001, 113.577939, 137.014504
 |         88.548636,         49.771858,   67.46114,  52.517217
 | 83.59618500000001,         23.459939,   1.988393,  14.666802
 |         51.717169,         48.429771, 149.037938,   3.674176
 |];
% _objective = 75297.98889519999;
