production = [0: 0.0, 1: 0.0, 2: 0.0, 3: 0.0, 4: 0.0, 5: 0.0, 6: 0.0, 7: 0.0, 8: 0.0, 9: 0.0, 10: 0.0, 11: 0.0, 12: 0.0, 13: 0.0, 14: 0.0, 15: 0.0, 16: 0.0, 17: 0.0, 18: 0.0, 19: 0.0, 20: 0.0, 21: 0.0, 22: 0.0, 23: 0.0008229999999999999, 24: 0.003016, 25: 0.043767, 26: 0.043657, 27: 0.102182, 28: 0.121213, 29: 0.060042, 30: 0.016512, 31: 0.347572, 32: 0.39333, 33: 0.430626, 34: 0.39955, 35: 0.301693, 36: 0.300877, 37: 0.711218, 38: 0.834992, 39: 0.607808, 40: 0.6071800000000001, 41: 0.654547, 42: 0.263202, 43: 0.390881, 44: 0.034981, 45: 1.114065, 46: 0.912282, 47: 0.77417, 48: 1.519398, 49: 1.331386, 50: 0.283071, 51: 1.09549, 52: 0.22754, 53: 0.497459, 54: 0.195197, 55: 0.609672, 56: 0.08158700000000001, 57: 0.06843, 58: 0.610777, 59: 0.058026, 60: 0.515853, 61: 0.079136, 62: 0.131285, 63: 0.410057, 64: 0.247653, 65: 0.284441, 66: 0.013309, 67: 0.084277, 68: 0.069201, 69: 0.10842, 70: 0.08537699999999999, 71: 0.062917, 72: 0.006086, 73: 0.006138, 74: 0.000116, 75: 3.7e-05, 76: 0.0, 77: 0.0, 78: 0.0, 79: 0.0, 80: 0.0, 81: 0.0, 82: 0.0, 83: 0.0, 84: 0.0, 85: 0.0, 86: 0.0, 87: 0.0, 88: 0.0, 89: 0.0, 90: 0.0, 91: 0.0, 92: 0.0, 93: 0.0, 94: 0.0, 95: 0.0, 96: 0.0, 97: 0.0, 98: 0.0, 99: 0.0, 100: 0.0, 101: 0.0, 102: 0.0, 103: 0.0, 104: 0.0, 105: 0.0, 106: 0.0, 107: 0.0, 108: 0.0, 109: 0.0, 110: 0.0, 111: 0.0, 112: 0.0, 113: 0.0, 114: 0.0, 115: 0.0, 116: 0.0, 117: 0.000216, 118: 0.000178, 119: 0.008163999999999999, 120: 0.010895, 121: 0.059002, 122: 0.08210000000000001, 123: 0.124524, 124: 0.052377, 125: 0.148219, 126: 0.06740400000000001, 127: 0.267923, 128: 0.329569, 129: 0.386338, 130: 0.225974, 131: 0.7642409999999999, 132: 0.496412, 133: 0.606084, 134: 1.229109, 135: 1.359254, 136: 0.5945510000000001, 137: 1.702677, 138: 0.68437, 139: 1.574207, 140: 0.155418, 141: 0.478006, 142: 0.864295, 143: 0.425646, 144: 1.1919, 145: 0.169927, 146: 0.776533, 147: 1.671423, 148: 0.243007, 149: 0.395595, 150: 1.162769, 151: 0.421139, 152: 0.646926, 153: 1.287322, 154: 0.671608, 155: 0.041191, 156: 0.784925, 157: 0.5963580000000001, 158: 0.005743, 159: 0.404986, 160: 0.330791, 161: 0.431677, 162: 0.362441, 163: 0.218947, 164: 0.215944, 165: 0.02697, 166: 0.053337, 167: 0.019874, 168: 0.018848, 169: 0.003393, 170: 0.000425, 171: 0.0, 172: 0.0, 173: 0.0, 174: 0.0, 175: 0.0, 176: 0.0, 177: 0.0, 178: 0.0, 179: 0.0, 180: 0.0, 181: 0.0, 182: 0.0, 183: 0.0, 184: 0.0, 185: 0.0, 186: 0.0, 187: 0.0, 188: 0.0, 189: 0.0, 190: 0.0, 191: 0.0];
buy = [0: 909.359015, 1: 991.0561740000001, 2: 632.025337, 3: 224.493128, 4: 775.678422, 5: 118.707613, 6: 57.055876, 7: 153.775159, 8: 510.515536, 9: 716.186269, 10: 701.4756609999999, 11: 499.171364, 12: 25.005337, 13: 346.088482, 14: 412.493558, 15: 412.029834, 16: 872.486805, 17: 993.254985, 18: 148.230849, 19: 731.258361, 20: 72.989428, 21: 138.964544, 22: 570.733641, 23: 124.867029, 24: 369.044642, 25: 398.495228, 26: 284.448835, 27: 99.94389700000001, 28: 496.277645, 29: 178.873458, 30: 62.855871, 31: 273.16903, 32: 907.361088, 33: 924.986276, 34: 561.119675, 35: 99.95242, 36: 881.383287, 37: 600.887794, 38: 626.6585, 39: 554.313298, 40: 260.276136, 41: 848.196716, 42: 78.067278, 43: 566.6306970000001, 44: 244.843872, 45: 816.455526, 46: 545.08668, 47: 673.948081, 48: 736.722828, 49: 216.955222, 50: 358.886118, 51: 852.524088, 52: 41.289558, 53: 8.695632, 54: 369.839154, 55: 752.861833, 56: 564.7664109999999, 57: 901.919379, 58: 330.146932, 59: 23.888087, 60: 224.530622, 61: 403.407418, 62: 96.657259, 63: 670.066851, 64: 228.476227, 65: 797.704756, 66: 270.347844, 67: 230.933074, 68: 182.311805, 69: 366.914177, 70: 215.246622, 71: 583.872566, 72: 291.110455, 73: 528.219874, 74: 900.502883, 75: 771.699791, 76: 678.2456069999999, 77: 854.159523, 78: 640.938203, 79: 545.212476, 80: 376.165722, 81: 892.313568, 82: 721.801605, 83: 953.171397, 84: 584.016628, 85: 79.11487200000001, 86: 296.223075, 87: 576.084854, 88: 427.47704, 89: 513.449418, 90: 617.462484, 91: 120.535122, 92: 582.400623, 93: 89.64533, 94: 767.6727540000001, 95: 530.003243, 96: 411.408008, 97: 237.30689, 98: 208.874825, 99: 309.163259, 100: 470.363554, 101: 210.363762, 102: 760.061906, 103: 544.363501, 104: 408.208039, 105: 375.055985, 106: 274.490433, 107: 41.27798, 108: 243.736892, 109: 609.146918, 110: 306.856914, 111: 453.44204, 112: 81.252628, 113: 951.000842, 114: 919.242126, 115: 189.382485, 116: 959.600882, 117: 968.696255, 118: 460.275132, 119: 206.982373, 120: 775.94556, 121: 658.665308, 122: 721.432515, 123: 251.500111, 124: 599.994806, 125: 641.048921, 126: 32.760667, 127: 387.254542, 128: 736.784458, 129: 69.850183, 130: 426.034802, 131: 790.83277, 132: 570.2406539999999, 133: 582.020202, 134: 565.237666, 135: 418.042715, 136: 583.971224, 137: 599.472387, 138: 127.816058, 139: 172.625498, 140: 34.51708, 141: 846.689211, 142: 285.939613, 143: 357.5836, 144: 946.690601, 145: 651.493909, 146: 945.25942, 147: 739.946323, 148: 396.444334, 149: 874.309482, 150: 24.115942, 151: 66.26390499999999, 152: 843.513344, 153: 231.840432, 154: 656.5270850000001, 155: 933.3825419999999, 156: 251.288135, 157: 522.265845, 158: 17.734385, 159: 977.5250559999999, 160: 720.737398, 161: 807.0086219999999, 162: 614.005219, 163: 699.5375770000001, 164: 763.364831, 165: 544.8705670000001, 166: 861.247915, 167: 195.522761, 168: 894.9307690000001, 169: 416.911369, 170: 256.372802, 171: 301.868054, 172: 194.684029, 173: 909.014458, 174: 126.10513, 175: 332.605578, 176: 978.773602, 177: 347.031399, 178: 260.806775, 179: 115.765445, 180: 656.239159, 181: 236.492969, 182: 741.673013, 183: 829.835513, 184: 130.94878, 185: 281.043197, 186: 807.58672, 187: 739.890405, 188: 581.8059, 189: 913.838464, 190: 854.355642, 191: 800.556203];
sell = [0: 3.011996, 1: 1.781705, 2: 2.283408, 3: 1.940794, 4: 0.129911, 5: 3.336982, 6: 2.951431, 7: 3.184125, 8: 1.231494, 9: 1.463881, 10: 3.825616, 11: 0.661466, 12: 0.287503, 13: 1.335623, 14: 0.384489, 15: 3.12002, 16: 2.602115, 17: 2.041806, 18: 1.280944, 19: 2.23258, 20: 0.993532, 21: 1.204402, 22: 3.331181, 23: 3.087954, 24: 2.788256, 25: 3.204705, 26: 3.722011, 27: 1.962494, 28: 2.061698, 29: 3.095729, 30: 1.898706, 31: 1.370031, 32: 1.490681, 33: 1.718865, 34: 2.739375, 35: 2.961783, 36: 1.088002, 37: 2.658019, 38: 2.484743, 39: 1.752377, 40: 0.451529, 41: 2.261597, 42: 3.296636, 43: 1.516972, 44: 1.687022, 45: 2.915962, 46: 0.813976, 47: 0.71126, 48: 0.816717, 49: 3.480836, 50: 3.244655, 51: 2.927068, 52: 3.134329, 53: 2.202313, 54: 3.524305, 55: 1.664241, 56: 1.535206, 57: 2.903971, 58: 3.945093, 59: 2.182501, 60: 2.30923, 61: 1.277459, 62: 1.613081, 63: 1.596356, 64: 1.487331, 65: 2.64135, 66: 2.113495, 67: 3.893255, 68: 3.487651, 69: 2.537478, 70: 1.902533, 71: 0.908195, 72: 0.032523, 73: 1.39487, 74: 1.341901, 75: 0.560821, 76: 3.058231, 77: 2.082335, 78: 3.288924, 79: 2.585104, 80: 1.634758, 81: 1.931384, 82: 3.266747, 83: 0.504619, 84: 2.748399, 85: 3.454744, 86: 1.612002, 87: 2.769565, 88: 0.97772, 89: 2.040719, 90: 0.421032, 91: 3.181269, 92: 0.549017, 93: 0.815137, 94: 0.65564, 95: 2.438539, 96: 1.679787, 97: 3.240957, 98: 2.287614, 99: 2.569851, 100: 1.155601, 101: 3.318697, 102: 3.996605, 103: 3.092403, 104: 3.655242, 105: 1.99631, 106: 3.946929, 107: 1.029334, 108: 2.882432, 109: 0.452784, 110: 0.160722, 111: 2.016774, 112: 2.755472, 113: 1.629048, 114: 2.341278, 115: 2.91769, 116: 1.736998, 117: 0.210008, 118: 0.259979, 119: 0.480427, 120: 2.656509, 121: 2.450954, 122: 1.056647, 123: 2.603165, 124: 0.797505, 125: 3.568294, 126: 2.321407, 127: 3.509007, 128: 0.671436, 129: 3.558842, 130: 2.243512, 131: 0.292127, 132: 1.990037, 133: 2.274634, 134: 2.167813, 135: 1.79582, 136: 0.785091, 137: 0.399655, 138: 3.71002, 139: 3.003643, 140: 2.895072, 141: 2.690486, 142: 3.256038, 143: 2.455353, 144: 1.993661, 145: 2.418965, 146: 3.77077, 147: 0.84315, 148: 3.600819, 149: 0.255709, 150: 1.892684, 151: 1.294712, 152: 3.698765, 153: 0.211904, 154: 1.458979, 155: 2.776006, 156: 3.522824, 157: 0.30163, 158: 1.915939, 159: 2.104105, 160: 3.098282, 161: 2.914094, 162: 3.173251, 163: 1.428151, 164: 0.096993, 165: 0.68964, 166: 2.588562, 167: 2.475682, 168: 2.062762, 169: 2.380469, 170: 3.117168, 171: 3.882408, 172: 0.019202, 173: 1.925468, 174: 0.518635, 175: 1.271832, 176: 3.637599, 177: 1.093862, 178: 0.387301, 179: 3.324924, 180: 2.321157, 181: 2.739278, 182: 3.20864, 183: 0.159263, 184: 0.048485, 185: 1.992515, 186: 0.198828, 187: 3.875943, 188: 0.365309, 189: 0.761912, 190: 0.687647, 191: 2.771676];
charge = [0: 0.188527, 1: 0.6400749999999999, 2: 0.545033, 3: 0.375842, 4: 0.350849, 5: 0.129114, 6: 0.699379, 7: 0.686067, 8: 0.385917, 9: 0.628485, 10: 0.393344, 11: 0.672829, 12: 0.915605, 13: 0.656218, 14: 0.751629, 15: 0.797862, 16: 0.410347, 17: 0.089365, 18: 0.124574, 19: 0.26333, 20: 0.265061, 21: 0.018345, 22: 0.278088, 23: 0.548359, 24: 0.932528, 25: 0.045425, 26: 0.006804, 27: 0.401616, 28: 0.781208, 29: 0.340356, 30: 0.068269, 31: 0.671413, 32: 0.008095, 33: 0.870351, 34: 0.133099, 35: 0.5907289999999999, 36: 0.866106, 37: 0.506873, 38: 0.515792, 39: 0.03712, 40: 0.878455, 41: 0.574061, 42: 0.08709799999999999, 43: 0.044106, 44: 0.240882, 45: 0.393935, 46: 0.883554, 47: 0.336542, 48: 0.59916, 49: 0.986436, 50: 0.6766529999999999, 51: 0.557079, 52: 0.098539, 53: 0.610391, 54: 0.104702, 55: 0.637049, 56: 0.840296, 57: 0.939009, 58: 0.18274, 59: 0.100215, 60: 0.62385, 61: 0.506298, 62: 0.526259, 63: 0.801528, 64: 0.679221, 65: 0.917613, 66: 0.7731170000000001, 67: 0.445878, 68: 0.585704, 69: 0.087219, 70: 0.573559, 71: 0.707555, 72: 0.624812, 73: 0.566468, 74: 0.974787, 75: 0.390671, 76: 0.922008, 77: 0.858868, 78: 0.336323, 79: 0.48344, 80: 0.797955, 81: 0.271954, 82: 0.550434, 83: 0.304847, 84: 0.6112570000000001, 85: 0.672553, 86: 0.479687, 87: 0.325649, 88: 0.668311, 89: 0.269917, 90: 0.342819, 91: 0.737181, 92: 0.244029, 93: 0.546517, 94: 0.450627, 95: 0.368713, 96: 0.164819, 97: 0.084345, 98: 0.129528, 99: 0.81098, 100: 0.679026, 101: 0.943055, 102: 0.719722, 103: 0.838858, 104: 0.731162, 105: 0.831434, 106: 0.604396, 107: 0.05589, 108: 0.011924, 109: 0.169178, 110: 0.011807, 111: 0.45867, 112: 0.254146, 113: 0.220025, 114: 0.350443, 115: 0.80694, 116: 0.850364, 117: 0.844755, 118: 0.543608, 119: 0.035945, 120: 0.844518, 121: 0.875893, 122: 0.8699210000000001, 123: 0.060126, 124: 0.814404, 125: 0.196262, 126: 0.435288, 127: 0.548122, 128: 0.872032, 129: 0.492147, 130: 0.960626, 131: 0.062251, 132: 0.01118, 133: 0.669562, 134: 0.794281, 135: 0.606786, 136: 0.950421, 137: 0.093125, 138: 0.068104, 139: 0.640792, 140: 0.827187, 141: 0.347591, 142: 0.677136, 143: 0.151558, 144: 0.654093, 145: 0.70733, 146: 0.61416, 147: 0.609667, 148: 0.6582209999999999, 149: 0.474131, 150: 0.598371, 151: 0.05569, 152: 0.342322, 153: 0.343729, 154: 0.719959, 155: 0.480183, 156: 0.959139, 157: 0.669988, 158: 0.015071, 159: 0.79924, 160: 0.166408, 161: 0.9323, 162: 0.738943, 163: 0.109967, 164: 0.926064, 165: 0.366989, 166: 0.212294, 167: 0.027474, 168: 0.833017, 169: 0.973726, 170: 0.41304, 171: 0.890582, 172: 0.428485, 173: 0.320266, 174: 0.6863320000000001, 175: 0.266891, 176: 0.57222, 177: 0.016635, 178: 0.660539, 179: 0.881623, 180: 0.959948, 181: 0.7841630000000001, 182: 0.098367, 183: 0.840283, 184: 0.177079, 185: 0.352278, 186: 0.561409, 187: 0.953743, 188: 0.78904, 189: 0.08491700000000001, 190: 0.551763, 191: 0.796435];
discharge = [0: 0.152158, 1: 0.9221200000000001, 2: 0.7631790000000001, 3: 0.872954, 4: 0.741341, 5: 0.982843, 6: 0.327944, 7: 0.446388, 8: 0.8566859999999999, 9: 0.410002, 10: 0.020207, 11: 0.07679800000000001, 12: 0.322625, 13: 0.375098, 14: 0.547687, 15: 0.211011, 16: 0.7422260000000001, 17: 0.454819, 18: 0.711959, 19: 0.410614, 20: 0.951691, 21: 0.609093, 22: 0.003457, 23: 0.904924, 24: 0.933171, 25: 0.9451270000000001, 26: 0.26272, 27: 0.476157, 28: 0.435653, 29: 0.920874, 30: 0.565642, 31: 0.518226, 32: 0.812356, 33: 0.397446, 34: 0.310363, 35: 0.907009, 36: 0.106072, 37: 0.591594, 38: 0.9060550000000001, 39: 0.530233, 40: 0.17364, 41: 0.307496, 42: 0.858506, 43: 0.321118, 44: 0.22985, 45: 0.735776, 46: 0.890475, 47: 0.468211, 48: 0.068221, 49: 0.167663, 50: 0.938495, 51: 0.6394300000000001, 52: 0.835606, 53: 0.708955, 54: 0.656726, 55: 0.040942, 56: 0.147474, 57: 0.7049339999999999, 58: 0.467779, 59: 0.82992, 60: 0.307172, 61: 0.189889, 62: 0.6745139999999999, 63: 0.758586, 64: 0.708834, 65: 0.816708, 66: 0.926481, 67: 0.378206, 68: 0.415673, 69: 0.697645, 70: 0.952815, 71: 0.837372, 72: 0.04294, 73: 0.345969, 74: 0.93231, 75: 0.835824, 76: 0.423937, 77: 0.365092, 78: 0.004625, 79: 0.747466, 80: 0.772033, 81: 0.235972, 82: 0.747858, 83: 0.018822, 84: 0.745479, 85: 0.8497670000000001, 86: 0.404066, 87: 0.860537, 88: 0.096884, 89: 0.698145, 90: 0.508746, 91: 0.721301, 92: 0.951371, 93: 0.355794, 94: 0.243638, 95: 0.9563199999999999, 96: 0.638009, 97: 0.085898, 98: 0.402808, 99: 0.263955, 100: 0.943209, 101: 0.535288, 102: 0.734359, 103: 0.509846, 104: 0.225465, 105: 0.666702, 106: 0.930292, 107: 0.41984, 108: 0.436228, 109: 0.985281, 110: 0.070413, 111: 0.375729, 112: 0.5304219999999999, 113: 0.977165, 114: 0.20974, 115: 0.705162, 116: 0.615177, 117: 0.422767, 118: 0.509898, 119: 0.657312, 120: 0.118842, 121: 0.291531, 122: 0.374176, 123: 0.637317, 124: 0.570389, 125: 0.119724, 126: 0.455495, 127: 0.958474, 128: 0.602063, 129: 0.416251, 130: 0.018501, 131: 0.6445149999999999, 132: 0.760298, 133: 0.368165, 134: 0.07879800000000001, 135: 0.892261, 136: 0.353379, 137: 0.314813, 138: 0.841931, 139: 0.14663, 140: 0.844215, 141: 0.421343, 142: 0.584216, 143: 0.338191, 144: 0.37521, 145: 0.039741, 146: 0.842185, 147: 0.25539, 148: 0.672459, 149: 0.783981, 150: 0.824885, 151: 0.713704, 152: 0.898153, 153: 0.7037910000000001, 154: 0.512151, 155: 0.971221, 156: 0.998277, 157: 0.992612, 158: 0.888706, 159: 0.747296, 160: 0.339244, 161: 0.80408, 162: 0.39778, 163: 0.887931, 164: 0.190878, 165: 0.015799, 166: 0.082121, 167: 0.502462, 168: 0.872854, 169: 0.61578, 170: 0.263375, 171: 0.320858, 172: 0.728491, 173: 0.368105, 174: 0.633562, 175: 0.256789, 176: 0.19829, 177: 0.789281, 178: 0.838116, 179: 0.416483, 180: 0.787242, 181: 0.093627, 182: 0.036186, 183: 0.085173, 184: 0.727163, 185: 0.623853, 186: 0.820013, 187: 0.200406, 188: 0.461447, 189: 0.731205, 190: 0.769458, 191: 0.192503];
soc = [0: 3.243381, 1: 5.394253, 2: 6.373117, 3: 3.042735, 4: 7.495251, 5: 7.383068, 6: 6.541981, 7: 3.117514, 8: 8.518874, 9: 11.930231, 10: 11.755436, 11: 3.661223, 12: 15.317592, 13: 13.61148, 14: 7.327031, 15: 9.439455000000001, 16: 7.129207, 17: 13.705993, 18: 10.314935, 19: 5.641234, 20: 13.760081, 21: 6.772742, 22: 9.646691000000001, 23: 4.2637, 24: 8.127253, 25: 8.970003999999999, 26: 12.152534, 27: 5.266209, 28: 14.036609, 29: 2.721142, 30: 13.889937, 31: 9.102204, 32: 5.677954, 33: 4.483113, 34: 11.458983, 35: 13.595476, 36: 13.92917, 37: 4.079666, 38: 12.02729, 39: 9.188376999999999, 40: 15.597224, 41: 4.462209, 42: 2.712788, 43: 3.687989, 44: 14.705035, 45: 4.937645, 46: 12.956839, 47: 11.276939, 48: 3.287745, 49: 3.209442, 50: 6.575169, 51: 9.456993000000001, 52: 6.789092, 53: 8.972102, 54: 15.399406, 55: 11.664423, 56: 15.134446, 57: 13.084615, 58: 9.440811, 59: 3.257651, 60: 4.160567, 61: 14.859987, 62: 9.559559999999999, 63: 14.532845, 64: 11.113578, 65: 12.070176, 66: 5.442295, 67: 14.191962, 68: 11.610123, 69: 12.023106, 70: 6.08837, 71: 5.304211, 72: 6.720102, 73: 9.340498, 74: 15.648032, 75: 4.707129, 76: 6.335177, 77: 9.694792, 78: 3.164713, 79: 8.309015, 80: 11.348776, 81: 14.687119, 82: 2.987368, 83: 5.049119, 84: 4.96036, 85: 8.405514, 86: 13.351655, 87: 12.36172, 88: 4.839208, 89: 3.835897, 90: 4.363339, 91: 10.978999, 92: 7.343847, 93: 12.8553, 94: 5.500104, 95: 4.090531, 96: 8.945608, 97: 7.274551, 98: 4.965936, 99: 6.17862, 100: 3.393034, 101: 10.251561, 102: 4.1314, 103: 11.174797, 104: 11.467116, 105: 4.14982, 106: 8.280625000000001, 107: 11.05702, 108: 15.341704, 109: 4.088305, 110: 13.946288, 111: 14.857477, 112: 6.411048, 113: 13.177908, 114: 12.833378, 115: 6.899097, 116: 8.514011999999999, 117: 12.754787, 118: 9.079044, 119: 7.979189, 120: 3.857073, 121: 12.486236, 122: 2.910947, 123: 9.793434, 124: 4.680752, 125: 3.074476, 126: 14.278063, 127: 15.572295, 128: 6.642869, 129: 15.358812, 130: 3.111323, 131: 13.081523, 132: 3.781023, 133: 8.064984000000001, 134: 9.655722000000001, 135: 6.545485, 136: 8.932473, 137: 9.510778, 138: 6.931587, 139: 7.610279, 140: 3.676185, 141: 6.190344, 142: 6.697143, 143: 10.267573, 144: 10.236328, 145: 10.80261, 146: 13.992453, 147: 12.329045, 148: 6.707198, 149: 4.923402, 150: 9.847733, 151: 2.687773, 152: 9.821208, 153: 5.663869, 154: 9.60223, 155: 3.279126, 156: 4.52538, 157: 14.313316, 158: 6.771351, 159: 14.218887, 160: 7.05821, 161: 3.105793, 162: 6.533864, 163: 11.279836, 164: 13.323188, 165: 12.739048, 166: 6.406553, 167: 10.70647, 168: 14.884163, 169: 14.491904, 170: 9.712539, 171: 11.7549, 172: 6.067068, 173: 10.930998, 174: 14.605697, 175: 5.4952, 176: 10.314467, 177: 14.737848, 178: 6.612147, 179: 11.641187, 180: 5.731846, 181: 3.312754, 182: 11.936361, 183: 3.179546, 184: 8.408649, 185: 5.153164, 186: 4.316096, 187: 7.754729, 188: 9.951261000000001, 189: 2.941273, 190: 8.207615000000001, 191: 15.054506];
cost = [0: 148.383216, 1: 438.132546, 2: 227.743638, 3: 510.699963, 4: 590.556051, 5: 324.788408, 6: 168.479309, 7: 104.500709, 8: 513.515341, 9: 155.52299, 10: 239.396031, 11: 275.962024, 12: 316.768698, 13: 282.529867, 14: 430.507562, 15: 547.3980780000001, 16: 419.05321, 17: 416.090363, 18: 363.845597, 19: 518.266724, 20: 339.539061, 21: 292.667773, 22: 131.767094, 23: 283.253282, 24: 303.160083, 25: 259.456014, 26: 507.12829, 27: 1091.324478, 28: 1067.663338, 29: 108.259925, 30: 145.230246, 31: 740.105645, 32: 1006.107495, 33: 592.260612, 34: 399.935205, 35: 620.268582, 36: 1081.931769, 37: 53.775636, 38: 808.456826, 39: 875.857789, 40: 463.376392, 41: 1102.674162, 42: 1153.7344, 43: 422.381417, 44: 55.479847, 45: 575.094619, 46: 772.6014249999999, 47: 596.859907, 48: 967.5857099999999, 49: 166.11069, 50: 113.956443, 51: 924.8706110000001, 52: 566.905091, 53: 105.740304, 54: 73.47272599999999, 55: 79.412334, 56: 121.701562, 57: 288.916136, 58: 303.375792, 59: 303.186982, 60: 863.6417269999999, 61: 318.573396, 62: 278.587687, 63: 1058.592876, 64: 524.2262449999999, 65: 640.513138, 66: 856.106485, 67: 53.970994, 68: 565.312561, 69: 555.051465, 70: 1046.120659, 71: 179.16445, 72: 1022.573687, 73: 947.62183, 74: 713.3285959999999, 75: 137.656469, 76: 877.249091, 77: 486.511085, 78: 389.861995, 79: 178.905185, 80: 913.064973, 81: 312.103764, 82: 221.924711, 83: 69.850514, 84: 1027.18046, 85: 509.884086, 86: 763.5514889999999, 87: 430.44012, 88: 580.188171, 89: 179.818347, 90: 520.215856, 91: 342.580074, 92: 21.40923, 93: 429.560103, 94: 30.227908, 95: 473.070077, 96: 116.325759, 97: 594.85849, 98: 34.88109, 99: 495.916773, 100: 53.950598, 101: 454.25401, 102: 34.306036, 103: 372.317448, 104: 263.362822, 105: 181.261755, 106: 592.1525810000001, 107: 410.189693, 108: 187.209827, 109: 396.439913, 110: 272.777345, 111: 54.796128, 112: 493.882634, 113: 157.731721, 114: 130.212869, 115: 334.61387, 116: 482.167694, 117: 284.42901, 118: 121.057473, 119: 67.761928, 120: 906.303667, 121: 883.318463, 122: 73.115121, 123: 888.093378, 124: 48.867976, 125: 771.169224, 126: 145.303632, 127: 1099.960644, 128: 502.321669, 129: 219.681436, 130: 482.038946, 131: 801.8658380000001, 132: 195.596666, 133: 185.23653, 134: 705.973135, 135: 774.545646, 136: 58.491417, 137: 992.06413, 138: 964.786647, 139: 773.544933, 140: 36.560075, 141: 903.382168, 142: 903.743648, 143: 1061.270559, 144: 699.703672, 145: 180.246264, 146: 947.533126, 147: 213.236528, 148: 43.391743, 149: 249.255518, 150: 567.536057, 151: 483.806355, 152: 395.805812, 153: 165.146011, 154: 370.365346, 155: 293.563734, 156: 1117.434013, 157: 733.509157, 158: 779.937416, 159: 98.19628299999999, 160: 243.529988, 161: 165.743555, 162: 930.59384, 163: 908.576384, 164: 456.367074, 165: 508.809764, 166: 232.915635, 167: 581.188026, 168: 657.476123, 169: 1006.438751, 170: 828.787692, 171: 795.029279, 172: 1183.916806, 173: 1113.777668, 174: 1057.180928, 175: 255.658772, 176: 384.029507, 177: 911.437553, 178: 702.071704, 179: 443.338388, 180: 759.566267, 181: 481.699909, 182: 815.162949, 183: 432.481899, 184: 520.298369, 185: 142.594074, 186: 598.612827, 187: 228.157066, 188: 96.892948, 189: 220.014676, 190: 328.053596, 191: 94.838497];
earn = [0: 1.661013, 1: 0.492559, 2: 2.078911, 3: 1.884664, 4: 1.897743, 5: 1.754679, 6: 0.07241, 7: 1.826716, 8: 1.598487, 9: 1.084149, 10: 1.244174, 11: 0.875736, 12: 0.008352999999999999, 13: 1.402505, 14: 1.256479, 15: 0.5506529999999999, 16: 0.272895, 17: 1.82948, 18: 1.257118, 19: 0.625006, 20: 0.723365, 21: 0.013331, 22: 1.438111, 23: 0.897658, 24: 2.212073, 25: 0.7983789999999999, 26: 1.385603, 27: 1.41166, 28: 1.701827, 29: 1.956734, 30: 0.967247, 31: 1.861066, 32: 0.541567, 33: 0.160189, 34: 0.124329, 35: 1.921217, 36: 1.885313, 37: 0.291694, 38: 0.18836, 39: 1.909381, 40: 1.401679, 41: 0.12682, 42: 0.331076, 43: 0.405093, 44: 1.460897, 45: 0.473938, 46: 0.683558, 47: 0.179368, 48: 1.12465, 49: 0.193409, 50: 0.08051700000000001, 51: 0.299065, 52: 1.463795, 53: 0.248213, 54: 1.511885, 55: 0.190028, 56: 0.213439, 57: 1.848461, 58: 0.256909, 59: 1.663974, 60: 1.682057, 61: 0.15756, 62: 1.273222, 63: 0.386605, 64: 1.508672, 65: 0.986446, 66: 1.879256, 67: 0.664571, 68: 2.368544, 69: 1.419428, 70: 1.405326, 71: 0.053611, 72: 1.162582, 73: 2.138433, 74: 0.117707, 75: 0.015848, 76: 0.596056, 77: 2.251168, 78: 2.5841, 79: 2.308757, 80: 1.20831, 81: 2.639368, 82: 1.698738, 83: 1.719458, 84: 0.900755, 85: 1.559159, 86: 0.035011, 87: 1.75724, 88: 0.471761, 89: 1.916406, 90: 1.741493, 91: 1.339204, 92: 1.938154, 93: 1.560438, 94: 0.589707, 95: 0.367088, 96: 2.161972, 97: 0.938519, 98: 1.987283, 99: 2.281449, 100: 0.021007, 101: 1.19346, 102: 0.870109, 103: 2.137384, 104: 1.982054, 105: 0.370225, 106: 1.415846, 107: 0.642805, 108: 1.169084, 109: 2.090193, 110: 0.167527, 111: 0.9378300000000001, 112: 0.537816, 113: 1.747801, 114: 0.026171, 115: 2.030455, 116: 0.489706, 117: 1.336736, 118: 2.496372, 119: 0.845306, 120: 1.839582, 121: 3.078317, 122: 0.8244939999999999, 123: 1.323665, 124: 0.038073, 125: 1.492126, 126: 2.662152, 127: 0.25357, 128: 2.129851, 129: 1.560808, 130: 0.167491, 131: 2.066119, 132: 0.399515, 133: 1.165827, 134: 0.378422, 135: 0.9335869999999999, 136: 0.744071, 137: 0.838367, 138: 0.636249, 139: 0.958121, 140: 0.722936, 141: 0.737919, 142: 0.770413, 143: 0.150886, 144: 0.308533, 145: 0.629919, 146: 0.189256, 147: 0.066622, 148: 0.620581, 149: 0.497768, 150: 0.794753, 151: 0.164871, 152: 1.005258, 153: 0.615286, 154: 0.75092, 155: 0.998285, 156: 0.702176, 157: 1.875178, 158: 2.024501, 159: 0.656413, 160: 1.231737, 161: 0.680994, 162: 0.344065, 163: 0.535038, 164: 1.107841, 165: 0.201992, 166: 1.332838, 167: 0.07198, 168: 3.101859, 169: 0.428923, 170: 0.874611, 171: 0.428148, 172: 1.221891, 173: 2.960475, 174: 0.780482, 175: 1.575052, 176: 2.879867, 177: 1.958916, 178: 1.3812, 179: 0.797586, 180: 1.145881, 181: 2.38942, 182: 1.608614, 183: 1.819726, 184: 1.213905, 185: 2.104855, 186: 0.162583, 187: 1.476088, 188: 0.278, 189: 1.75459, 190: 1.031337, 191: 0.452352];
total_cost = 91.14372926469595;
total_earn = 40.67904764545778;
