production = [0: 0.0, 1: 0.0, 2: 0.0, 3: 0.0, 4: 0.0, 5: 0.0, 6: 0.0, 7: 0.0, 8: 0.0, 9: 0.0, 10: 0.0, 11: 0.0, 12: 0.0, 13: 0.0, 14: 0.0, 15: 0.0, 16: 0.0, 17: 0.0, 18: 0.0, 19: 0.0, 20: 0.0, 21: 0.0, 22: 0.0, 23: 0.00258, 24: 0.007495, 25: 0.039074, 26: 0.072953, 27: 0.113422, 28: 0.045885, 29: 0.22544, 30: 0.090847, 31: 0.112188, 32: 0.190315, 33: 0.379384, 34: 0.34673, 35: 0.257267, 36: 0.532358, 37: 0.339328, 38: 0.847456, 39: 0.314112, 40: 0.724793, 41: 0.307167, 42: 0.085497, 43: 0.400118, 44: 0.553142, 45: 1.055189, 46: 0.749023, 47: 0.077376, 48: 1.511804, 49: 1.779822, 50: 0.380331, 51: 1.714011, 52: 0.183244, 53: 0.731693, 54: 0.569435, 55: 1.128063, 56: 0.006905, 57: 0.517182, 58: 0.347125, 59: 0.346547, 60: 0.504354, 61: 0.429554, 62: 0.247623, 63: 0.542592, 64: 0.244923, 65: 0.030314, 66: 0.09324499999999999, 67: 0.202419, 68: 0.080777, 69: 0.126581, 70: 0.130087, 71: 0.059014, 72: 0.001117, 73: 0.004615, 74: 0.000304, 75: 0.000187, 76: 0.0, 77: 0.0, 78: 0.0, 79: 0.0, 80: 0.0, 81: 0.0, 82: 0.0, 83: 0.0, 84: 0.0, 85: 0.0, 86: 0.0, 87: 0.0, 88: 0.0, 89: 0.0, 90: 0.0, 91: 0.0, 92: 0.0, 93: 0.0, 94: 0.0, 95: 0.0, 96: 0.0, 97: 0.0, 98: 0.0, 99: 0.0, 100: 0.0, 101: 0.0, 102: 0.0, 103: 0.0, 104: 0.0, 105: 0.0, 106: 0.0, 107: 0.0, 108: 0.0, 109: 0.0, 110: 0.0, 111: 0.0, 112: 0.0, 113: 0.0, 114: 0.0, 115: 0.0, 116: 0.0, 117: 0.000229, 118: 0.000691, 119: 0.006125, 120: 0.030807, 121: 0.044847, 122: 0.005425, 123: 0.125225, 124: 0.175433, 125: 0.015565, 126: 0.207734, 127: 0.576542, 128: 0.027657, 129: 0.196612, 130: 0.433967, 131: 0.8096989999999999, 132: 0.108028, 133: 0.864368, 134: 1.449236, 135: 0.93303, 136: 1.613749, 137: 0.72383, 138: 0.607951, 139: 1.310689, 140: 0.892339, 141: 1.210822, 142: 0.531926, 143: 0.040832, 144: 0.801084, 145: 0.311597, 146: 0.048916, 147: 1.068971, 148: 1.136841, 149: 1.696711, 150: 0.531619, 151: 1.06525, 152: 0.804152, 153: 0.52088, 154: 1.358456, 155: 0.752269, 156: 0.996682, 157: 1.086388, 158: 0.098625, 159: 0.492994, 160: 0.721131, 161: 0.079252, 162: 0.441031, 163: 0.286041, 164: 0.23941, 165: 0.072812, 166: 0.09773999999999999, 167: 0.000531, 168: 0.011896, 169: 0.002746, 170: 0.000292, 171: 0.0, 172: 0.0, 173: 0.0, 174: 0.0, 175: 0.0, 176: 0.0, 177: 0.0, 178: 0.0, 179: 0.0, 180: 0.0, 181: 0.0, 182: 0.0, 183: 0.0, 184: 0.0, 185: 0.0, 186: 0.0, 187: 0.0, 188: 0.0, 189: 0.0, 190: 0.0, 191: 0.0];
buy = [0: 556.668006, 1: 779.235152, 2: 702.874946, 3: 215.245701, 4: 449.662847, 5: 389.025865, 6: 686.9358130000001, 7: 878.053738, 8: 674.43809, 9: 317.353493, 10: 681.52886, 11: 393.502816, 12: 776.3166660000001, 13: 649.548633, 14: 598.146606, 15: 735.281609, 16: 725.00211, 17: 289.692188, 18: 395.656733, 19: 780.5531539999999, 20: 68.560813, 21: 607.565334, 22: 39.124138, 23: 504.439795, 24: 559.994098, 25: 777.232288, 26: 69.037898, 27: 396.35369, 28: 242.882226, 29: 636.370188, 30: 7.913668, 31: 737.735505, 32: 665.204488, 33: 459.302177, 34: 722.160708, 35: 651.455657, 36: 459.419419, 37: 830.845495, 38: 243.275161, 39: 419.642913, 40: 165.308282, 41: 886.91204, 42: 513.575269, 43: 819.744517, 44: 250.872696, 45: 945.73688, 46: 292.044926, 47: 951.188221, 48: 59.293895, 49: 621.250958, 50: 238.961708, 51: 265.572815, 52: 364.912649, 53: 610.608192, 54: 331.972694, 55: 980.269734, 56: 530.543735, 57: 344.10435, 58: 383.256939, 59: 171.266857, 60: 474.645351, 61: 156.655077, 62: 333.677517, 63: 776.793783, 64: 363.011997, 65: 966.394015, 66: 297.906583, 67: 851.274862, 68: 945.440339, 69: 93.62835, 70: 75.665199, 71: 307.152631, 72: 127.589671, 73: 754.796031, 74: 563.116766, 75: 931.6985120000001, 76: 798.792587, 77: 976.094902, 78: 432.456158, 79: 528.063985, 80: 39.105303, 81: 436.620923, 82: 112.78698, 83: 748.2248959999999, 84: 434.384171, 85: 156.584716, 86: 694.2975290000001, 87: 892.310132, 88: 543.663673, 89: 763.633508, 90: 573.6903620000001, 91: 230.957868, 92: 976.755399, 93: 673.014651, 94: 493.220394, 95: 58.707871, 96: 759.199302, 97: 803.41111, 98: 451.658705, 99: 257.86326, 100: 792.440372, 101: 184.716068, 102: 382.386878, 103: 911.230039, 104: 530.332823, 105: 454.555297, 106: 985.955995, 107: 637.45865, 108: 737.772029, 109: 780.64233, 110: 494.478372, 111: 898.067063, 112: 267.22738, 113: 256.285847, 114: 343.278587, 115: 570.33528, 116: 332.051692, 117: 438.686714, 118: 991.189159, 119: 610.439825, 120: 53.323671, 121: 563.946324, 122: 133.642109, 123: 814.763294, 124: 821.104591, 125: 375.696948, 126: 844.756705, 127: 315.263365, 128: 879.078188, 129: 641.157388, 130: 958.0136209999999, 131: 223.129078, 132: 601.651105, 133: 936.196195, 134: 548.803864, 135: 669.153144, 136: 185.259149, 137: 995.04844, 138: 623.481713, 139: 942.883836, 140: 922.300016, 141: 278.743406, 142: 12.926983, 143: 697.472885, 144: 922.496997, 145: 95.83311500000001, 146: 878.765115, 147: 417.539215, 148: 715.312871, 149: 745.239523, 150: 138.350202, 151: 28.882153, 152: 819.784254, 153: 114.94719, 154: 301.123527, 155: 255.05633, 156: 247.822016, 157: 710.085778, 158: 522.930281, 159: 664.7909100000001, 160: 802.502934, 161: 545.7507859999999, 162: 150.539618, 163: 360.843641, 164: 559.758215, 165: 488.817534, 166: 298.954936, 167: 928.691308, 168: 845.728664, 169: 671.05558, 170: 832.894846, 171: 831.262462, 172: 90.610336, 173: 522.957647, 174: 703.073723, 175: 880.993194, 176: 31.112412, 177: 642.426332, 178: 925.8203999999999, 179: 667.306148, 180: 851.137774, 181: 307.989398, 182: 514.877911, 183: 109.305722, 184: 987.236262, 185: 578.662552, 186: 835.216359, 187: 405.038595, 188: 888.255539, 189: 380.500599, 190: 30.483954, 191: 850.106429];
sell = [0: 3.242502, 1: 1.903026, 2: 1.877419, 3: 2.280809, 4: 1.051851, 5: 2.014696, 6: 1.189775, 7: 3.031975, 8: 1.221731, 9: 1.444784, 10: 3.268268, 11: 3.4376, 12: 1.32691, 13: 0.219414, 14: 3.408863, 15: 2.173238, 16: 2.20354, 17: 0.375285, 18: 0.516348, 19: 1.581842, 20: 0.381317, 21: 2.275896, 22: 3.458759, 23: 3.380137, 24: 3.034693, 25: 3.391745, 26: 0.545901, 27: 3.141752, 28: 3.532155, 29: 1.145679, 30: 3.022133, 31: 0.285058, 32: 0.470528, 33: 2.365975, 34: 2.30168, 35: 1.183513, 36: 3.482015, 37: 3.135844, 38: 0.386211, 39: 2.273748, 40: 0.869988, 41: 1.865787, 42: 0.859819, 43: 3.741826, 44: 1.027916, 45: 3.58955, 46: 3.449741, 47: 1.146257, 48: 0.686868, 49: 1.420009, 50: 2.048864, 51: 2.22819, 52: 0.975913, 53: 1.206323, 54: 1.921661, 55: 3.274574, 56: 1.979996, 57: 1.193431, 58: 0.610105, 59: 0.425424, 60: 2.77686, 61: 0.052609, 62: 1.598576, 63: 3.440706, 64: 2.207563, 65: 0.801406, 66: 2.228783, 67: 2.323963, 68: 0.120956, 69: 2.496949, 70: 3.318132, 71: 1.571827, 72: 2.931393, 73: 3.89293, 74: 3.529214, 75: 0.608216, 76: 2.532085, 77: 0.472337, 78: 2.796749, 79: 2.195057, 80: 1.206741, 81: 2.177654, 82: 1.809329, 83: 0.175727, 84: 2.670871, 85: 3.642939, 86: 1.855634, 87: 1.904854, 88: 0.027226, 89: 0.162686, 90: 2.099127, 91: 1.645195, 92: 1.711024, 93: 3.420811, 94: 2.444642, 95: 3.289457, 96: 1.870478, 97: 3.183115, 98: 3.069392, 99: 3.095304, 100: 0.532909, 101: 3.472509, 102: 1.46078, 103: 3.328885, 104: 0.869062, 105: 2.731992, 106: 0.11382, 107: 2.950548, 108: 1.037348, 109: 2.987655, 110: 0.765692, 111: 1.636871, 112: 0.863527, 113: 3.372569, 114: 1.36953, 115: 3.84076, 116: 0.103381, 117: 1.704006, 118: 1.88809, 119: 2.328541, 120: 3.591541, 121: 0.840937, 122: 0.942865, 123: 1.006559, 124: 2.673162, 125: 0.755374, 126: 3.556203, 127: 1.524173, 128: 0.78555, 129: 3.730749, 130: 1.84892, 131: 0.774471, 132: 0.291443, 133: 0.248523, 134: 3.854369, 135: 0.451277, 136: 3.015543, 137: 3.867157, 138: 2.132359, 139: 3.880644, 140: 1.25501, 141: 3.552541, 142: 2.010339, 143: 0.161637, 144: 0.219603, 145: 0.07154099999999999, 146: 2.521389, 147: 1.971658, 148: 2.511672, 149: 2.199192, 150: 3.885658, 151: 1.74339, 152: 2.553891, 153: 0.533409, 154: 0.394367, 155: 2.156905, 156: 3.612254, 157: 1.177484, 158: 3.40753, 159: 2.941979, 160: 0.763937, 161: 1.711506, 162: 3.23864, 163: 2.275922, 164: 2.047153, 165: 3.919127, 166: 1.052788, 167: 1.67533, 168: 0.855032, 169: 0.496152, 170: 0.386958, 171: 0.18835, 172: 0.067873, 173: 3.18721, 174: 1.534374, 175: 1.341152, 176: 0.479614, 177: 3.674453, 178: 3.033948, 179: 2.670328, 180: 0.073687, 181: 3.62392, 182: 0.6147280000000001, 183: 3.554705, 184: 0.377357, 185: 3.735855, 186: 3.390416, 187: 0.287825, 188: 0.434891, 189: 3.197325, 190: 1.616038, 191: 2.506836];
charge = [0: 0.796526, 1: 0.838954, 2: 0.177414, 3: 0.408544, 4: 0.110499, 5: 0.162916, 6: 0.927517, 7: 0.8879359999999999, 8: 0.281752, 9: 0.409188, 10: 0.028628, 11: 0.518911, 12: 0.107842, 13: 0.868296, 14: 0.583491, 15: 0.193359, 16: 0.815096, 17: 0.628201, 18: 0.971471, 19: 0.598245, 20: 0.284519, 21: 0.180562, 22: 0.8300920000000001, 23: 0.527598, 24: 0.626455, 25: 0.365983, 26: 0.409117, 27: 0.735473, 28: 0.956356, 29: 0.552908, 30: 0.485306, 31: 0.950308, 32: 0.47017, 33: 0.131258, 34: 0.9089930000000001, 35: 0.765118, 36: 0.18812, 37: 0.684469, 38: 0.474271, 39: 0.962311, 40: 0.819227, 41: 0.875556, 42: 0.261264, 43: 0.007218, 44: 0.313243, 45: 0.703622, 46: 0.206594, 47: 0.489347, 48: 0.047529, 49: 0.122539, 50: 0.333912, 51: 0.727009, 52: 0.153777, 53: 0.811362, 54: 0.578564, 55: 0.110226, 56: 0.931157, 57: 0.917219, 58: 0.922417, 59: 0.77943, 60: 0.471655, 61: 0.722751, 62: 0.553099, 63: 0.937603, 64: 0.44244, 65: 0.302567, 66: 0.3378, 67: 0.537146, 68: 0.050811, 69: 0.185656, 70: 0.649798, 71: 0.629302, 72: 0.655094, 73: 0.594408, 74: 0.395612, 75: 0.435235, 76: 0.7983170000000001, 77: 0.853067, 78: 0.58421, 79: 0.287341, 80: 0.8894609999999999, 81: 0.891705, 82: 0.871886, 83: 0.042169, 84: 0.868487, 85: 0.33337, 86: 0.357168, 87: 0.958419, 88: 0.138121, 89: 0.574146, 90: 0.731364, 91: 0.418409, 92: 0.445739, 93: 0.906029, 94: 0.712989, 95: 0.77029, 96: 0.593187, 97: 0.114275, 98: 0.523559, 99: 0.722674, 100: 0.335202, 101: 0.7652369999999999, 102: 0.223894, 103: 0.506771, 104: 0.431032, 105: 0.506325, 106: 0.533869, 107: 0.119979, 108: 0.875131, 109: 0.342633, 110: 0.422984, 111: 0.687064, 112: 0.664594, 113: 0.117944, 114: 0.421995, 115: 0.737231, 116: 0.405156, 117: 0.862751, 118: 0.391493, 119: 0.6869420000000001, 120: 0.5096540000000001, 121: 0.950977, 122: 0.6318859999999999, 123: 0.489387, 124: 0.986413, 125: 0.633788, 126: 0.87622, 127: 0.566998, 128: 0.034696, 129: 0.398559, 130: 0.220861, 131: 0.431553, 132: 0.212073, 133: 0.485236, 134: 0.154309, 135: 0.65484, 136: 0.019063, 137: 0.875475, 138: 0.790156, 139: 0.735396, 140: 0.07151, 141: 0.815141, 142: 0.619191, 143: 0.446815, 144: 0.290689, 145: 0.08024299999999999, 146: 0.666588, 147: 0.017884, 148: 0.563209, 149: 0.986661, 150: 0.289322, 151: 0.604492, 152: 0.024666, 153: 0.219099, 154: 0.746224, 155: 0.207452, 156: 0.820126, 157: 0.289214, 158: 0.162886, 159: 0.9461850000000001, 160: 0.152444, 161: 0.404128, 162: 0.07469199999999999, 163: 0.189338, 164: 0.6641049999999999, 165: 0.469414, 166: 0.700745, 167: 0.665775, 168: 0.438751, 169: 0.298321, 170: 0.148838, 171: 0.243783, 172: 0.819437, 173: 0.278105, 174: 0.955115, 175: 0.076403, 176: 0.560653, 177: 0.866822, 178: 0.524433, 179: 0.664175, 180: 0.438163, 181: 0.017577, 182: 0.16872, 183: 0.220785, 184: 0.155231, 185: 0.289163, 186: 0.084963, 187: 0.020912, 188: 0.146133, 189: 0.604918, 190: 0.39992, 191: 0.37169];
discharge = [0: 0.663155, 1: 0.127931, 2: 0.971607, 3: 0.549287, 4: 0.458946, 5: 0.177446, 6: 0.206663, 7: 0.990859, 8: 0.683253, 9: 0.6480050000000001, 10: 0.485148, 11: 0.132722, 12: 0.52123, 13: 0.78193, 14: 0.246367, 15: 0.7583530000000001, 16: 0.366947, 17: 0.243118, 18: 0.835628, 19: 0.68376, 20: 0.898349, 21: 0.404912, 22: 0.924964, 23: 0.35264, 24: 0.200435, 25: 0.375639, 26: 0.084594, 27: 0.117636, 28: 0.218185, 29: 0.722975, 30: 0.621651, 31: 0.108762, 32: 0.669551, 33: 0.888026, 34: 0.143373, 35: 0.54129, 36: 0.180604, 37: 0.411305, 38: 0.045909, 39: 0.082965, 40: 0.955526, 41: 0.296655, 42: 0.974426, 43: 0.494378, 44: 0.130928, 45: 0.275096, 46: 0.268052, 47: 0.553746, 48: 0.7695149999999999, 49: 0.018933, 50: 0.403377, 51: 0.428202, 52: 0.768701, 53: 0.469122, 54: 0.401044, 55: 0.222203, 56: 0.13895, 57: 0.80319, 58: 0.249342, 59: 0.17305, 60: 0.381381, 61: 0.974667, 62: 0.023753, 63: 0.169518, 64: 0.97017, 65: 0.857887, 66: 0.950843, 67: 0.504121, 68: 0.71204, 69: 0.623732, 70: 0.365445, 71: 0.317911, 72: 0.969449, 73: 0.158008, 74: 0.214491, 75: 0.647798, 76: 0.848777, 77: 0.904134, 78: 0.981205, 79: 0.828529, 80: 0.943198, 81: 0.357426, 82: 0.459171, 83: 0.624592, 84: 0.273693, 85: 0.41574, 86: 0.763037, 87: 0.562569, 88: 0.091277, 89: 0.844787, 90: 0.943128, 91: 0.785469, 92: 0.905888, 93: 0.285748, 94: 0.299535, 95: 0.442867, 96: 0.598131, 97: 0.530807, 98: 0.450601, 99: 0.292943, 100: 0.382649, 101: 0.070788, 102: 0.661713, 103: 0.621113, 104: 0.058136, 105: 0.570016, 106: 0.310881, 107: 0.618391, 108: 0.228819, 109: 0.743561, 110: 0.593102, 111: 0.715934, 112: 0.436448, 113: 0.173089, 114: 0.830043, 115: 0.414727, 116: 0.609312, 117: 0.783738, 118: 0.233031, 119: 0.15448, 120: 0.5474909999999999, 121: 0.345994, 122: 0.732903, 123: 0.368591, 124: 0.925492, 125: 0.828402, 126: 0.671848, 127: 0.160181, 128: 0.469688, 129: 0.229567, 130: 0.549644, 131: 0.146175, 132: 0.907253, 133: 0.180899, 134: 0.860932, 135: 0.7232150000000001, 136: 0.077878, 137: 0.99042, 138: 0.219324, 139: 0.28007, 140: 0.086419, 141: 0.927405, 142: 0.644832, 143: 0.539292, 144: 0.030349, 145: 0.060827, 146: 0.45443, 147: 0.4299, 148: 0.026569, 149: 0.385366, 150: 0.50417, 151: 0.9026690000000001, 152: 0.151172, 153: 0.729484, 154: 0.249269, 155: 0.182361, 156: 0.011106, 157: 0.31131, 158: 0.412391, 159: 0.852052, 160: 0.001737, 161: 0.414474, 162: 0.29429, 163: 0.89141, 164: 0.380661, 165: 0.650967, 166: 0.348786, 167: 0.458181, 168: 0.243214, 169: 0.886421, 170: 0.5275069999999999, 171: 0.068714, 172: 0.287249, 173: 0.690816, 174: 0.545493, 175: 0.331618, 176: 0.764609, 177: 0.827636, 178: 0.008566000000000001, 179: 0.900499, 180: 0.91926, 181: 0.35655, 182: 0.5041909999999999, 183: 0.645571, 184: 0.115329, 185: 0.956712, 186: 0.405272, 187: 0.697597, 188: 0.50388, 189: 0.595654, 190: 0.615895, 191: 0.85675];
soc = [0: 2.791132, 1: 5.498186, 2: 4.88677, 3: 4.982201, 4: 5.320854, 5: 5.993328, 6: 5.57746, 7: 4.801959, 8: 2.841525, 9: 10.499201, 10: 12.846664, 11: 12.434467, 12: 10.908653, 13: 3.640461, 14: 4.336514, 15: 5.710717, 16: 7.625519, 17: 4.034086, 18: 3.640409, 19: 8.706773999999999, 20: 6.185481, 21: 6.245469, 22: 5.554861, 23: 8.456999, 24: 8.490712, 25: 5.382654, 26: 6.224013, 27: 8.183714, 28: 11.711508, 29: 10.751212, 30: 7.226147, 31: 5.001787, 32: 9.347792999999999, 33: 6.027479, 34: 2.746679, 35: 5.794645, 36: 10.570618, 37: 14.150113, 38: 8.040177999999999, 39: 12.383633, 40: 9.477379000000001, 41: 7.761955, 42: 7.830175, 43: 8.885775000000001, 44: 11.071687, 45: 13.620142, 46: 7.912322, 47: 13.409785, 48: 7.16251, 49: 9.979142, 50: 5.523158, 51: 3.671271, 52: 12.821419, 53: 14.944161, 54: 15.242503, 55: 4.211557, 56: 13.249928, 57: 7.424218, 58: 7.02239, 59: 8.839577999999999, 60: 8.996492999999999, 61: 2.75444, 62: 13.927456, 63: 8.946495000000001, 64: 11.352418, 65: 11.604885, 66: 2.718747, 67: 11.710936, 68: 15.197266, 69: 8.172561, 70: 7.420677, 71: 3.731672, 72: 12.228014, 73: 3.646225, 74: 7.567161, 75: 8.511312999999999, 76: 6.954822, 77: 6.131089, 78: 6.494938, 79: 13.275783, 80: 15.268297, 81: 3.14705, 82: 15.597082, 83: 14.658519, 84: 14.029996, 85: 9.911182, 86: 3.899584, 87: 11.875361, 88: 8.268131, 89: 12.128571, 90: 6.240215, 91: 12.492079, 92: 12.39008, 93: 5.901195, 94: 6.378241, 95: 4.137337, 96: 4.735163, 97: 7.377998, 98: 14.661101, 99: 5.957668, 100: 6.476153, 101: 15.274479, 102: 14.752406, 103: 13.672369, 104: 7.776608, 105: 6.875565, 106: 13.44678, 107: 5.962202, 108: 4.648508, 109: 4.919543, 110: 13.05676, 111: 13.587865, 112: 5.019082, 113: 4.531763, 114: 12.189426, 115: 13.947319, 116: 10.369933, 117: 7.58645, 118: 12.208377, 119: 10.37712, 120: 10.096205, 121: 12.535909, 122: 5.508872, 123: 15.305244, 124: 7.552176, 125: 7.349809, 126: 13.084479, 127: 14.519485, 128: 10.109257, 129: 8.025292, 130: 5.48377, 131: 4.076616, 132: 14.349184, 133: 6.664767, 134: 12.866804, 135: 7.433348, 136: 11.587653, 137: 6.334404, 138: 11.261948, 139: 11.864344, 140: 5.610959, 141: 3.873783, 142: 12.666879, 143: 9.046158999999999, 144: 14.994993, 145: 13.81889, 146: 5.079648, 147: 15.254547, 148: 9.184739, 149: 6.862252, 150: 10.177766, 151: 4.903225, 152: 11.172647, 153: 11.481855, 154: 10.163777, 155: 8.940631, 156: 12.307983, 157: 7.675555, 158: 15.582504, 159: 8.523624, 160: 11.176803, 161: 10.639659, 162: 11.100154, 163: 8.050718, 164: 4.285024, 165: 5.549155, 166: 3.365687, 167: 13.874311, 168: 4.522138, 169: 5.311485, 170: 6.471609, 171: 9.771597, 172: 3.292665, 173: 10.869857, 174: 8.754943000000001, 175: 5.133351, 176: 4.707262, 177: 11.316562, 178: 3.194534, 179: 14.737949, 180: 11.006064, 181: 11.984881, 182: 3.589821, 183: 3.58005, 184: 11.162534, 185: 13.594871, 186: 12.427485, 187: 10.263116, 188: 11.184606, 189: 5.078444, 190: 3.198029, 191: 13.011114];
cost = [0: 111.567859, 1: 54.241122, 2: 521.770392, 3: 328.854455, 4: 501.102756, 5: 348.869239, 6: 610.36119, 7: 111.834317, 8: 401.240084, 9: 501.572443, 10: 338.674683, 11: 308.589121, 12: 409.788823, 13: 166.064592, 14: 504.36694, 15: 295.19572, 16: 524.7563720000001, 17: 239.242567, 18: 23.602922, 19: 510.854438, 20: 168.716014, 21: 20.911453, 22: 33.00688, 23: 377.791241, 24: 251.701932, 25: 521.1660429999999, 26: 285.117703, 27: 1001.377985, 28: 946.3249039999999, 29: 1020.325596, 30: 431.37634, 31: 772.602099, 32: 834.105024, 33: 721.46453, 34: 415.746956, 35: 77.836083, 36: 863.391827, 37: 384.591714, 38: 568.300956, 39: 177.877056, 40: 1132.562811, 41: 76.128297, 42: 15.651052, 43: 740.448355, 44: 1112.241811, 45: 492.178869, 46: 588.494993, 47: 717.687103, 48: 618.181701, 49: 685.180702, 50: 169.547364, 51: 1170.228316, 52: 109.738243, 53: 502.362368, 54: 233.387175, 55: 63.595715, 56: 84.17656700000001, 57: 185.623595, 58: 87.540701, 59: 367.45702, 60: 317.552391, 61: 1156.807775, 62: 205.771752, 63: 944.708435, 64: 270.928705, 65: 1187.339239, 66: 1089.838368, 67: 137.13814, 68: 133.158275, 69: 404.369433, 70: 113.909448, 71: 1102.272492, 72: 369.465194, 73: 1016.910843, 74: 516.161299, 75: 54.644545, 76: 935.6622589999999, 77: 522.185443, 78: 880.634204, 79: 356.334947, 80: 1123.243423, 81: 32.421809, 82: 963.675476, 83: 731.108838, 84: 262.485741, 85: 380.010057, 86: 548.574014, 87: 611.868684, 88: 301.648011, 89: 508.371286, 90: 190.389114, 91: 463.226766, 92: 557.0585610000001, 93: 1.741225, 94: 52.374934, 95: 157.824915, 96: 424.90774, 97: 372.073328, 98: 386.37192, 99: 503.047167, 100: 190.518828, 101: 597.551014, 102: 483.89643, 103: 231.033634, 104: 308.949279, 105: 312.920798, 106: 261.263822, 107: 21.931411, 108: 179.719854, 109: 35.873824, 110: 79.61035, 111: 113.33669, 112: 538.105425, 113: 183.883113, 114: 344.471378, 115: 12.256787, 116: 535.374831, 117: 604.9191, 118: 238.143822, 119: 370.970169, 120: 178.271089, 121: 975.073928, 122: 62.714065, 123: 657.494603, 124: 302.977339, 125: 181.016691, 126: 918.203424, 127: 121.217737, 128: 1071.485557, 129: 346.910053, 130: 793.827884, 131: 656.838498, 132: 708.649728, 133: 496.993602, 134: 457.720493, 135: 138.76339, 136: 383.135598, 137: 426.195423, 138: 435.849096, 139: 287.528233, 140: 335.825201, 141: 204.052064, 142: 1023.419609, 143: 992.922307, 144: 768.98509, 145: 1114.804012, 146: 1052.123339, 147: 143.879778, 148: 168.701946, 149: 335.608341, 150: 58.697005, 151: 144.251198, 152: 125.339995, 153: 332.808856, 154: 386.87148, 155: 527.5390609999999, 156: 1051.01555, 157: 910.8906490000001, 158: 871.755085, 159: 685.901514, 160: 128.382881, 161: 984.32816, 162: 72.651529, 163: 987.715044, 164: 341.573016, 165: 784.121714, 166: 564.549784, 167: 586.581274, 168: 779.074069, 169: 94.416932, 170: 1113.296735, 171: 393.168087, 172: 222.376608, 173: 1187.293671, 174: 529.297158, 175: 450.833113, 176: 986.587338, 177: 329.469788, 178: 25.852367, 179: 403.845462, 180: 542.640544, 181: 996.932104, 182: 309.50505, 183: 557.307145, 184: 234.814539, 185: 259.788597, 186: 254.119288, 187: 23.356243, 188: 348.751861, 189: 8.076527, 190: 230.60968, 191: 557.411423];
earn = [0: 0.569478, 1: 0.120505, 2: 1.320021, 3: 1.210612, 4: 0.878422, 5: 0.916095, 6: 0.06168, 7: 0.882406, 8: 0.368407, 9: 0.334775, 10: 0.312565, 11: 0.849071, 12: 0.291484, 13: 0.712101, 14: 1.553915, 15: 0.303544, 16: 0.490774, 17: 1.169429, 18: 0.591981, 19: 1.113269, 20: 0.864247, 21: 0.411761, 22: 1.141004, 23: 2.140619, 24: 1.071483, 25: 1.142865, 26: 0.871704, 27: 2.392079, 28: 0.981347, 29: 0.23458, 30: 1.128937, 31: 0.767524, 32: 1.22128, 33: 0.907653, 34: 0.204569, 35: 0.56382, 36: 0.770199, 37: 1.162897, 38: 0.246308, 39: 1.507891, 40: 1.192643, 41: 1.196851, 42: 0.339983, 43: 0.6001840000000001, 44: 0.463139, 45: 1.828359, 46: 1.2592, 47: 1.426266, 48: 1.677431, 49: 1.890527, 50: 1.608169, 51: 2.020288, 52: 1.570795, 53: 0.391138, 54: 0.359175, 55: 0.431816, 56: 0.755561, 57: 1.814727, 58: 0.819238, 59: 2.009484, 60: 2.067928, 61: 0.111292, 62: 0.711081, 63: 0.188684, 64: 0.181417, 65: 1.933125, 66: 0.68713, 67: 1.766554, 68: 1.982148, 69: 0.464216, 70: 1.83396, 71: 2.225722, 72: 0.228247, 73: 2.565844, 74: 3.48276, 75: 2.464595, 76: 0.720092, 77: 2.956186, 78: 0.965514, 79: 2.679275, 80: 0.8095909999999999, 81: 1.6492, 82: 0.003245, 83: 2.465313, 84: 1.870452, 85: 2.426099, 86: 0.546658, 87: 1.618261, 88: 1.382326, 89: 0.8090810000000001, 90: 0.85577, 91: 1.370161, 92: 0.138345, 93: 0.121842, 94: 0.255643, 95: 0.620367, 96: 0.499739, 97: 1.944029, 98: 0.468868, 99: 1.744585, 100: 2.280649, 101: 0.8228490000000001, 102: 1.943236, 103: 0.84758, 104: 2.011627, 105: 1.878599, 106: 1.935192, 107: 2.251231, 108: 2.161371, 109: 0.727946, 110: 0.321466, 111: 1.021438, 112: 0.13639, 113: 1.999528, 114: 1.240663, 115: 0.96493, 116: 0.232413, 117: 1.320168, 118: 2.589628, 119: 2.960834, 120: 2.381747, 121: 1.69202, 122: 3.051414, 123: 0.74377, 124: 1.778014, 125: 2.333941, 126: 1.449155, 127: 1.598423, 128: 1.44191, 129: 1.432658, 130: 2.170692, 131: 2.187185, 132: 2.060856, 133: 1.006244, 134: 0.421796, 135: 1.205534, 136: 1.085343, 137: 1.059033, 138: 0.034776, 139: 0.76087, 140: 0.241093, 141: 0.952561, 142: 0.291063, 143: 0.210422, 144: 0.740812, 145: 0.779115, 146: 0.833169, 147: 0.445037, 148: 0.711994, 149: 0.590022, 150: 0.580382, 151: 0.408713, 152: 0.529102, 153: 0.407792, 154: 1.123031, 155: 0.953659, 156: 1.072366, 157: 0.438808, 158: 2.041718, 159: 0.568048, 160: 1.992038, 161: 2.068146, 162: 1.651177, 163: 0.430741, 164: 2.386349, 165: 1.206754, 166: 1.267911, 167: 2.76811, 168: 1.069385, 169: 2.737705, 170: 2.141086, 171: 2.057225, 172: 2.864129, 173: 0.417697, 174: 0.230645, 175: 0.7715109999999999, 176: 1.759999, 177: 1.431743, 178: 2.28397, 179: 1.429312, 180: 1.631006, 181: 0.570401, 182: 0.696916, 183: 1.325199, 184: 1.182047, 185: 2.358468, 186: 1.576042, 187: 0.037258, 188: 0.997345, 189: 0.861839, 190: 0.228166, 191: 1.466979];
total_cost = 97.48957548762817;
total_earn = 37.73063715450359;
