production = [0.0, 0.0, 0.0, 0.0, 0.0, 0.0, 0.0, 0.0, 0.0, 0.0, 0.0, 0.0, 0.0, 0.0, 0.0, 0.0, 0.0, 0.0, 0.0, 0.0, 0.0, 0.0, 0.0, 0.001348, 0.015875, 0.007284, 0.042857, 0.146006, 0.098215, 0.161484, 0.137942, 0.22684, 0.450257, 0.547673, 0.382236, 0.342914, 0.125016, 0.034573, 1.089182, 1.045424, 0.782542, 1.375933, 0.34313, 0.155007, 0.053912, 0.323484, 0.229991, 0.680967, 0.09310599999999999, 0.524099, 1.064835, 0.547528, 0.721979, 0.698312, 0.854329, 0.922896, 0.523043, 0.457887, 0.591489, 0.03952, 0.493602, 0.138701, 0.17135, 0.212326, 0.321317, 0.144749, 0.041276, 0.148928, 0.073546, 0.109131, 0.133071, 0.056, 0.000137, 0.000499, 0.000487, 0.000129, 0.0, 0.0, 0.0, 0.0, 0.0, 0.0, 0.0, 0.0, 0.0, 0.0, 0.0, 0.0, 0.0, 0.0, 0.0, 0.0, 0.0, 0.0, 0.0, 0.0, 0.0, 0.0, 0.0, 0.0, 0.0, 0.0, 0.0, 0.0, 0.0, 0.0, 0.0, 0.0, 0.0, 0.0, 0.0, 0.0, 0.0, 0.0, 0.0, 0.0, 0.0, 0.000254, 0.000324, 0.006005, 0.028245, 0.052144, 0.014872, 0.073143, 0.090924, 0.182007, 0.036031, 0.445543, 0.006617, 0.335886, 0.659751, 0.760694, 0.400778, 0.710269, 1.41882, 0.751323, 1.109068, 0.485809, 1.534413, 1.312819, 1.630069, 1.092598, 0.878485, 1.718418, 0.972278, 1.011424, 1.56564, 0.78104, 1.484409, 0.341396, 1.20642, 1.585507, 1.072219, 0.328477, 1.264974, 0.478698, 0.466944, 0.681575, 0.180789, 0.329296, 0.087058, 0.091124, 0.194531, 0.018078, 0.035935, 0.03023, 0.09665799999999999, 0.026067, 0.001129, 0.000929, 0.000454, 0.0, 0.0, 0.0, 0.0, 0.0, 0.0, 0.0, 0.0, 0.0, 0.0, 0.0, 0.0, 0.0, 0.0, 0.0, 0.0, 0.0, 0.0, 0.0, 0.0, 0.0];
buy = [376.684953, 794.8607469999999, 390.259995, 33.160124, 178.019533, 849.727815, 781.036373, 923.016248, 184.266812, 844.5531989999999, 781.754516, 228.141548, 407.019485, 696.589906, 340.802953, 409.694429, 776.490581, 407.466631, 615.974411, 738.015073, 104.357647, 969.42864, 71.30036200000001, 104.832201, 889.3234169999999, 670.246116, 678.28214, 178.188905, 27.26456, 169.367667, 829.882026, 118.701876, 475.482514, 720.014951, 644.96114, 143.921877, 956.311922, 972.264196, 125.232447, 596.343218, 429.420183, 110.488451, 484.818112, 703.761065, 251.412523, 846.518039, 110.768512, 362.816337, 570.524796, 31.520844, 116.05006, 698.496427, 9.027164000000001, 939.834391, 898.373875, 370.749456, 172.366664, 591.996175, 29.838177, 845.383906, 577.802309, 862.853843, 113.566201, 382.806741, 626.9708000000001, 566.587456, 882.837624, 363.33843, 709.135532, 247.235333, 430.84333, 962.5407279999999, 936.354899, 112.668225, 151.009489, 906.5430689999999, 515.006594, 590.975289, 506.122481, 695.727322, 968.150711, 502.457657, 606.618129, 171.398076, 872.145369, 512.6205210000001, 504.876394, 757.907539, 882.041564, 371.574987, 242.718265, 846.1237589999999, 447.970606, 636.2186400000001, 862.7240430000001, 531.41856, 479.599635, 18.337619, 736.392704, 585.972155, 222.157431, 547.210618, 17.499005, 413.321674, 414.583146, 709.520297, 262.582377, 638.495034, 339.527349, 51.270196, 63.670541, 216.783556, 243.215031, 212.073349, 448.13373, 745.753049, 678.052883, 646.7382270000001, 998.941148, 494.897542, 565.525246, 570.017625, 577.645346, 102.992928, 29.327302, 596.9975439999999, 362.356968, 219.080854, 674.792695, 919.543301, 985.90984, 888.388277, 464.060838, 244.590058, 593.759699, 749.940599, 88.258644, 648.4884029999999, 582.337713, 0.036063, 242.521717, 916.212943, 795.885132, 306.257104, 36.305054, 789.459311, 438.897748, 480.297222, 878.0321750000001, 997.319446, 249.269723, 201.184089, 19.558073, 778.387205, 72.457324, 182.092587, 832.683971, 309.025701, 680.2417380000001, 673.463615, 299.197893, 118.666638, 33.663158, 913.529891, 194.219105, 81.02365500000001, 463.3039, 350.039181, 224.451302, 119.462647, 194.967078, 653.244886, 13.315107, 570.763772, 89.591942, 364.632353, 587.019739, 151.689247, 531.933317, 578.4360349999999, 858.383494, 480.90253, 268.413944, 202.405529, 590.785084, 534.712144, 713.685244, 340.070029, 451.695124, 802.550021, 289.594215, 187.575392];
sell = [0.431714, 2.827241, 0.6596109999999999, 2.55009, 0.280931, 1.702857, 0.960859, 0.475501, 2.646791, 3.751354, 0.316838, 3.504495, 2.365889, 2.485201, 3.278134, 0.882921, 2.26593, 0.14832, 0.789189, 3.818343, 0.783324, 2.068661, 0.575206, 2.82686, 1.668245, 2.911627, 1.159917, 0.573456, 2.019804, 1.700493, 0.518763, 3.223054, 2.259324, 1.659939, 0.898739, 0.886713, 3.996689, 2.729588, 0.641199, 2.101586, 1.392536, 0.25171, 1.725566, 3.19727, 1.817406, 0.89724, 2.294657, 3.578463, 0.602926, 3.596476, 2.866633, 2.110144, 3.492092, 0.611937, 3.254643, 1.618233, 0.717159, 1.091849, 1.321969, 1.047565, 0.546894, 1.782094, 0.084393, 0.671258, 1.072179, 2.30788, 0.321673, 1.881112, 3.067282, 0.503256, 2.198397, 1.800378, 3.288249, 3.55192, 1.345317, 3.875779, 3.490549, 1.830574, 3.094731, 3.740273, 3.882539, 3.747046, 1.035311, 1.827337, 2.7331, 0.179355, 0.879041, 3.428985, 3.566143, 0.478156, 1.00058, 0.746772, 3.20978, 3.428563, 0.346456, 2.619315, 3.989824, 0.514205, 2.595546, 0.147322, 2.913995, 2.185851, 0.810434, 3.334156, 2.764514, 2.968268, 3.214421, 2.179733, 2.567135, 0.129957, 3.095508, 2.945841, 1.971984, 1.628778, 0.633155, 1.977989, 2.894025, 0.956515, 2.899124, 2.895416, 3.645723, 3.451558, 1.934763, 2.929633, 0.447875, 0.24067, 2.275688, 1.33395, 3.236755, 1.382973, 0.37904, 0.690145, 3.889059, 0.373845, 3.114968, 0.837181, 3.765651, 0.634367, 1.435342, 0.978963, 2.020385, 0.434336, 1.533789, 0.117758, 0.818011, 2.650905, 2.044624, 2.351036, 2.38667, 1.633881, 1.513725, 2.474608, 1.860817, 3.304381, 0.248559, 2.89807, 3.79688, 1.467824, 1.981065, 1.860695, 2.287034, 1.455, 3.424706, 3.540606, 0.90025, 2.746268, 3.847287, 1.234801, 3.325224, 1.79438, 3.19402, 3.311615, 2.660768, 2.971965, 3.28204, 1.6448, 1.493375, 0.969218, 3.049368, 0.251595, 3.275926, 1.304261, 1.720105, 1.838627, 3.396827, 1.111352, 1.918343, 2.80131, 1.882697, 2.94198, 3.076327, 3.317908];
charge = [0.692822, 0.085276, 0.889061, 0.413848, 0.397733, 0.940856, 0.05975, 0.897515, 0.286689, 0.547978, 0.9458220000000001, 0.683374, 0.404826, 0.701151, 0.015184, 0.817179, 0.22054, 0.8612570000000001, 0.37137, 0.371467, 0.02021, 0.132419, 0.878707, 0.352021, 0.255613, 0.189452, 0.023346, 0.188675, 0.209873, 0.641246, 0.317101, 0.87195, 0.331285, 0.529586, 0.444679, 0.069172, 0.362813, 0.486094, 0.438445, 0.189167, 0.511983, 0.200231, 0.627051, 0.426588, 0.006419, 0.044661, 0.048193, 0.57845, 0.947677, 0.07317700000000001, 0.9757479999999999, 0.469593, 0.09944799999999999, 0.396556, 0.608806, 0.974476, 0.123936, 0.387108, 0.521119, 0.318808, 0.363122, 0.100583, 0.792466, 0.529396, 0.341975, 0.732205, 0.765192, 0.283831, 0.205503, 0.433984, 0.771357, 0.00302, 0.337968, 0.937707, 0.9033060000000001, 0.478452, 0.281592, 0.38102, 0.006894, 0.5322440000000001, 0.056937, 0.071662, 0.7839699999999999, 0.5398500000000001, 0.6089290000000001, 0.724231, 0.014875, 0.571638, 0.120542, 1.6e-05, 0.99093, 0.045279, 0.662162, 0.402972, 0.442351, 0.376523, 0.20462, 0.415412, 0.266992, 0.818627, 0.121099, 0.786465, 0.111598, 0.682055, 0.667816, 0.522886, 0.308461, 0.89456, 0.6503139999999999, 0.99352, 0.09368899999999999, 0.552057, 0.608952, 0.679558, 0.08722299999999999, 0.495835, 0.381947, 0.320006, 0.719538, 0.908171, 0.012556, 0.403649, 0.08359, 0.727163, 0.030066, 0.745672, 0.474952, 0.626254, 0.70652, 0.734904, 0.195721, 0.161128, 0.039828, 0.957122, 0.177807, 0.141811, 0.873879, 0.12186, 0.841916, 0.631835, 0.150151, 0.513259, 0.055759, 0.501047, 0.899585, 0.454379, 0.7230490000000001, 0.390237, 0.8905380000000001, 0.88878, 0.094967, 0.289301, 0.0009810000000000001, 0.276864, 0.783092, 0.685786, 0.904228, 0.028119, 0.421033, 0.40638, 0.123356, 0.452498, 0.727426, 0.69472, 0.592218, 0.027136, 0.919116, 0.040872, 0.406311, 0.704825, 0.713557, 0.555459, 0.039443, 0.805682, 0.161403, 0.7913829999999999, 0.198123, 0.509366, 0.080777, 0.353499, 0.840847, 0.327185, 0.7499670000000001, 0.195908, 0.299292, 0.1014, 0.485943, 0.014955, 0.277533, 0.82983, 0.945063, 0.949813];
discharge = [0.90047, 0.7092619999999999, 0.535323, 0.788834, 0.103358, 0.305019, 0.465679, 0.312788, 0.245423, 0.041817, 0.146198, 0.199892, 0.912722, 0.282168, 0.492956, 0.722869, 0.827188, 0.025247, 0.152552, 0.2536, 0.873085, 0.527195, 0.245301, 0.434795, 0.115761, 0.060923, 0.592703, 0.416248, 0.835607, 0.6798110000000001, 0.683348, 0.131596, 0.246902, 0.024902, 0.706877, 0.086287, 0.021637, 0.088117, 0.857248, 0.974035, 0.705951, 0.45838, 0.634135, 0.740115, 0.168632, 0.823148, 0.960172, 0.804161, 0.882879, 0.253637, 0.451503, 0.607878, 0.735921, 0.330466, 0.412672, 0.221303, 0.440493, 0.307943, 0.285165, 0.288988, 0.244755, 0.89785, 0.715664, 0.659274, 0.496925, 0.002404, 0.7083, 0.918324, 0.245422, 0.24652, 0.355708, 0.504149, 0.3353, 0.566372, 0.735125, 0.562562, 0.334742, 0.403601, 0.1817, 0.76907, 0.013229, 0.031573, 0.765182, 0.858129, 0.126125, 0.5912230000000001, 0.072535, 0.289894, 0.128471, 0.524462, 0.6625799999999999, 0.106909, 0.193918, 0.551807, 0.434477, 0.020667, 0.449981, 0.111618, 0.028979, 0.433734, 0.491514, 0.888368, 0.9063290000000001, 0.804405, 0.215626, 0.167672, 0.254449, 0.491916, 0.08794299999999999, 0.127926, 0.140145, 0.17383, 0.967601, 0.183177, 0.8894030000000001, 0.239752, 0.11075, 0.856386, 0.994124, 0.613451, 0.196901, 0.432784, 0.882539, 0.231576, 0.110099, 0.473961, 0.699891, 0.035103, 0.735101, 0.191521, 0.411839, 0.498916, 0.540216, 0.462162, 0.883664, 0.399523, 0.619022, 0.89882, 0.447153, 0.070602, 0.925741, 0.875128, 0.5316070000000001, 0.805333, 0.209324, 0.6652169999999999, 0.8135289999999999, 0.761805, 0.189367, 0.886773, 0.711101, 0.120657, 0.80606, 0.340679, 0.802809, 0.131997, 0.7618549999999999, 0.313255, 0.122723, 0.014462, 0.707444, 0.089643, 0.464344, 0.543973, 0.314448, 0.766819, 0.878095, 0.661814, 0.022338, 0.6305460000000001, 0.060128, 0.70569, 0.889342, 0.070745, 0.345255, 0.770523, 0.091747, 0.547574, 0.60865, 0.030113, 0.819446, 0.287469, 0.671621, 0.947834, 0.534339, 0.653979, 0.312601, 0.307234, 0.680729, 0.585807, 0.265717, 0.194508];
soc = [2.761277, 5.512807, 4.257863, 3.8879, 7.525494, 7.358405, 5.974818, 8.491908, 8.601921000000001, 7.43226, 8.061067, 11.56567, 4.219104, 4.8776, 13.97964, 9.438234, 9.937939, 5.788486, 10.532227, 4.650899, 15.450037, 15.501022, 13.656146, 10.493401, 5.29676, 7.27473, 4.439672, 13.12114, 3.721574, 6.1436, 8.595408000000001, 10.722296, 14.735489, 14.537162, 7.037602, 9.092923000000001, 11.461979, 13.084573, 3.549843, 7.794175, 7.020813, 10.816172, 3.388709, 3.769371, 5.035623, 3.207843, 4.735096, 7.797624, 4.44703, 9.467851, 9.538989000000001, 7.715676, 6.453763, 9.113127, 7.850415, 4.906506, 2.906331, 13.787202, 10.460279, 6.999747, 9.565918999999999, 10.817471, 11.790802, 9.068227, 9.127141, 11.961228, 14.106635, 5.516608, 13.050312, 2.801279, 13.526253, 3.068916, 4.363329, 10.53321, 3.477013, 3.448027, 14.332742, 9.423678000000001, 7.663937, 10.271731, 4.959311, 11.107503, 13.521409, 14.936138, 9.985407, 7.481534, 12.752404, 10.878919, 8.52304, 8.640606, 4.205011, 5.858744, 5.371288, 11.780236, 11.786521, 13.669404, 9.481097999999999, 15.176865, 3.538777, 3.533343, 13.26602, 3.373107, 9.03059, 11.858003, 8.071063000000001, 13.062501, 6.351977, 6.81458, 7.501934, 7.43517, 10.633077, 3.690144, 4.533856, 8.532348000000001, 8.609187, 8.634814, 15.583913, 5.561452, 12.758684, 11.078058, 11.670829, 10.570401, 3.53147, 14.003064, 3.907362, 6.540678, 7.097651, 10.674505, 5.825439, 15.02282, 12.903866, 13.912708, 11.407653, 11.024887, 3.753088, 4.652942, 3.167886, 8.38819, 15.548909, 4.739933, 15.495001, 11.753684, 10.892512, 12.851849, 12.418772, 6.837477, 9.524742, 6.697838, 5.234928, 2.711662, 3.570123, 15.536233, 10.891695, 8.995348, 15.480985, 10.230186, 6.359943, 4.40419, 12.952143, 6.110576, 6.293666, 10.386056, 6.669711, 10.103937, 13.275958, 15.503093, 5.449812, 7.442696, 15.66944, 14.904222, 12.350695, 3.548019, 6.257626, 12.7179, 4.637519, 11.274005, 3.758474, 12.91618, 3.032037, 14.10521, 8.710315, 13.71402, 8.347217000000001, 13.536086, 10.845967, 14.265736, 9.597682000000001, 11.403376, 13.589291, 3.645959, 5.236092, 12.839631];
cost = [335.80017, 342.131532, 401.397793, 135.254637, 356.466512, 297.859573, 14.513247, 414.505028, 161.798502, 370.616644, 346.868637, 82.280348, 48.937363, 442.187312, 237.988459, 513.4141080000001, 118.680768, 271.36053, 67.75218700000001, 569.202855, 327.376676, 192.655795, 403.500654, 455.358121, 598.024121, 295.544103, 588.225719, 400.273229, 874.569161, 621.560875, 715.57588, 54.556774, 929.08223, 720.420327, 518.057994, 831.592415, 474.938153, 1082.33074, 57.072605, 157.560489, 836.592231, 174.138522, 522.541774, 45.016015, 1029.017665, 1107.230997, 410.937376, 225.817735, 812.209732, 507.628192, 1088.615651, 609.1674829999999, 526.77122, 23.914671, 604.753135, 176.249052, 518.499039, 414.476813, 270.246244, 224.61243, 206.976889, 745.205479, 876.3222950000001, 266.090347, 948.639726, 625.172128, 693.882253, 566.100015, 180.257904, 619.112536, 178.035727, 2.648577, 626.367013, 910.314449, 873.097257, 771.056215, 197.540077, 106.474384, 158.226589, 628.004736, 1183.345728, 731.402119, 505.165984, 273.55072, 857.401281, 965.6081830000001, 123.063118, 288.664396, 3.645746, 512.898811, 136.46517, 317.185357, 580.565612, 422.500053, 136.100873, 565.926876, 6.39252, 527.607295, 427.570781, 500.188329, 201.956483, 430.6802, 239.62434, 381.316798, 582.177875, 609.6730679999999, 128.935301, 531.721727, 205.223261, 28.609552, 331.265175, 511.924937, 372.587437, 440.183674, 508.928572, 297.599062, 65.766378, 492.646313, 39.110883, 422.130381, 33.537268, 336.339313, 236.096765, 852.624426, 761.914477, 1138.013167, 717.044502, 615.280534, 347.183478, 283.814167, 217.997776, 53.621013, 34.492065, 969.161889, 1140.435768, 1104.704225, 471.857595, 258.463794, 981.377984, 316.958021, 931.491216, 4.824022, 859.121153, 893.018834, 438.575943, 610.917491, 664.612199, 670.643119, 472.707218, 66.590558, 10.397291, 67.2743, 180.275419, 590.983171, 84.11930700000001, 9.590197999999999, 598.943528, 1043.177659, 430.645651, 1011.34724, 1010.860682, 681.337404, 97.72936, 144.831205, 3.654815, 2.645627, 295.982604, 930.739653, 1180.195168, 332.327478, 262.53121, 1025.465049, 911.909592, 848.075026, 8.941312, 380.341316, 227.132108, 414.112604, 643.369423, 632.012019, 703.038776, 125.568302, 323.017471, 1084.52162, 86.496453, 183.579949, 168.035586, 89.76457499999999, 449.630187, 456.500811, 72.144729, 73.28278400000001];
earn = [0.76298, 0.600041, 1.304558, 0.218717, 1.376294, 0.396841, 0.528513, 0.116722, 1.887876, 0.646895, 1.097572, 0.586999, 0.321529, 1.510082, 1.939664, 0.736687, 0.849617, 1.973731, 1.934916, 1.451324, 1.683828, 1.31756, 2.05134, 1.888763, 2.191592, 0.477709, 1.077576, 0.520678, 2.150269, 2.278901, 2.385816, 1.261348, 0.710997, 0.65374, 1.976595, 1.463979, 1.119635, 1.698055, 1.470903, 1.181185, 0.769892, 0.020982, 0.007684, 1.81979, 1.710845, 0.646899, 0.734241, 0.087003, 0.89158, 1.569378, 0.394128, 0.260578, 1.590719, 1.53998, 1.888011, 0.74319, 0.175435, 1.784499, 1.465669, 0.937526, 1.838111, 0.975758, 0.057544, 1.258984, 2.701566, 1.460113, 0.461949, 1.015873, 1.982272, 0.366937, 0.660764, 1.511254, 1.562083, 2.211569, 1.963728, 0.08017100000000001, 0.298093, 0.788687, 1.690891, 1.694427, 0.71802, 1.54718, 1.467231, 1.257389, 0.343074, 0.299018, 0.304655, 2.48047, 2.293892, 1.000983, 0.487655, 1.828227, 0.126094, 1.544266, 0.103315, 1.531483, 0.648515, 1.138209, 0.929662, 1.22344, 1.508883, 1.193345, 2.197584, 0.920808, 1.320934, 0.988501, 1.123177, 0.904266, 1.113604, 0.729214, 0.72332, 0.467795, 2.383428, 2.065455, 0.011537, 0.504992, 0.5721850000000001, 1.250894, 1.904653, 1.726267, 2.621909, 1.248059, 1.789871, 1.465854, 2.400079, 0.758724, 1.977309, 1.455408, 0.4171, 0.981374, 1.551007, 0.30311, 0.264445, 1.469479, 1.748672, 0.512072, 0.467827, 1.140877, 0.820075, 0.454683, 0.604294, 0.177023, 0.692825, 0.07911899999999999, 0.437942, 0.826002, 0.530529, 0.148673, 0.08949799999999999, 0.722269, 0.831654, 0.311272, 0.896026, 0.549127, 0.183505, 0.311994, 0.699256, 0.502183, 0.949241, 0.352561, 0.912349, 1.085492, 1.102652, 2.234468, 0.401404, 1.564835, 0.860589, 2.916822, 2.546344, 1.756408, 2.091583, 3.014949, 1.049093, 2.898625, 2.483043, 1.244487, 2.575716, 2.95001, 2.662945, 2.531532, 0.760574, 0.2982, 1.841485, 2.102366, 0.482831, 0.235991, 2.396234, 1.742989, 1.998399, 0.745949, 0.330569, 0.081291];
total_cost = 92.21555793115759;
total_earn = 40.42339132613723;
