production = [0: 0.0, 1: 0.0, 2: 0.0, 3: 0.0, 4: 0.0, 5: 0.0, 6: 0.0, 7: 0.0, 8: 0.0, 9: 0.0, 10: 0.0, 11: 0.0, 12: 0.0, 13: 0.0, 14: 0.0, 15: 0.0, 16: 0.0, 17: 0.0, 18: 0.0, 19: 0.0, 20: 0.0, 21: 0.0, 22: 0.0, 23: 0.000563, 24: 0.009813000000000001, 25: 0.037432, 26: 0.025779, 27: 0.100708, 28: 0.131833, 29: 0.004453, 30: 0.155138, 31: 0.359358, 32: 0.087018, 33: 0.465358, 34: 0.100242, 35: 0.254432, 36: 0.374386, 37: 0.844882, 38: 0.301481, 39: 1.108474, 40: 0.982765, 41: 1.409596, 42: 0.93751, 43: 0.600882, 44: 0.144058, 45: 0.929469, 46: 0.280844, 47: 0.550426, 48: 1.308034, 49: 1.768636, 50: 1.6365, 51: 0.770173, 52: 0.05313, 53: 0.315706, 54: 0.231044, 55: 1.082298, 56: 0.40519, 57: 0.311981, 58: 0.345281, 59: 0.1468, 60: 0.6038790000000001, 61: 0.452544, 62: 0.06603199999999999, 63: 0.479665, 64: 0.403238, 65: 0.044681, 66: 0.22208, 67: 0.07424, 68: 0.085314, 69: 0.031451, 70: 0.14292, 71: 0.056667, 72: 0.011861, 73: 0.007198, 74: 0.000141, 75: 0.000218, 76: 0.0, 77: 0.0, 78: 0.0, 79: 0.0, 80: 0.0, 81: 0.0, 82: 0.0, 83: 0.0, 84: 0.0, 85: 0.0, 86: 0.0, 87: 0.0, 88: 0.0, 89: 0.0, 90: 0.0, 91: 0.0, 92: 0.0, 93: 0.0, 94: 0.0, 95: 0.0, 96: 0.0, 97: 0.0, 98: 0.0, 99: 0.0, 100: 0.0, 101: 0.0, 102: 0.0, 103: 0.0, 104: 0.0, 105: 0.0, 106: 0.0, 107: 0.0, 108: 0.0, 109: 0.0, 110: 0.0, 111: 0.0, 112: 0.0, 113: 0.0, 114: 0.0, 115: 0.0, 116: 0.0, 117: 0.000108, 118: 0.000396, 119: 0.003249, 120: 0.000554, 121: 0.045876, 122: 0.092877, 123: 0.03885, 124: 0.143595, 125: 0.173593, 126: 0.008085, 127: 0.655297, 128: 0.059323, 129: 0.381175, 130: 1.047943, 131: 0.444914, 132: 0.8543809999999999, 133: 0.137205, 134: 0.944931, 135: 1.079057, 136: 0.03911, 137: 1.638179, 138: 1.587641, 139: 0.904735, 140: 0.20898, 141: 1.847609, 142: 0.654753, 143: 0.464524, 144: 0.787137, 145: 0.248818, 146: 0.36737, 147: 0.737917, 148: 0.543971, 149: 1.290483, 150: 0.748142, 151: 1.43005, 152: 1.205743, 153: 0.751067, 154: 1.239817, 155: 0.634327, 156: 0.07532800000000001, 157: 0.482244, 158: 0.702566, 159: 0.310174, 160: 0.247175, 161: 0.003426, 162: 0.466281, 163: 0.035475, 164: 0.112261, 165: 0.047115, 166: 0.071488, 167: 0.034196, 168: 0.008723, 169: 0.004586, 170: 0.0002, 171: 0.0, 172: 0.0, 173: 0.0, 174: 0.0, 175: 0.0, 176: 0.0, 177: 0.0, 178: 0.0, 179: 0.0, 180: 0.0, 181: 0.0, 182: 0.0, 183: 0.0, 184: 0.0, 185: 0.0, 186: 0.0, 187: 0.0, 188: 0.0, 189: 0.0, 190: 0.0, 191: 0.0];
buy = [0: 755.552549, 1: 951.74011, 2: 20.478822, 3: 660.7747879999999, 4: 839.365875, 5: 228.847548, 6: 262.099302, 7: 277.038947, 8: 806.43953, 9: 35.983779, 10: 39.784491, 11: 132.610897, 12: 436.410855, 13: 245.400399, 14: 12.402291, 15: 758.976556, 16: 929.242068, 17: 196.065938, 18: 534.207497, 19: 716.892377, 20: 571.756052, 21: 779.8814609999999, 22: 996.277269, 23: 227.06158, 24: 171.042629, 25: 251.544836, 26: 607.591211, 27: 916.3378729999999, 28: 202.492917, 29: 524.21368, 30: 544.180105, 31: 621.440011, 32: 63.439356, 33: 874.650455, 34: 196.682761, 35: 465.410574, 36: 281.638818, 37: 213.929442, 38: 532.854071, 39: 473.064433, 40: 3.02767, 41: 373.909158, 42: 284.938054, 43: 93.819338, 44: 454.982086, 45: 384.12913, 46: 176.413821, 47: 882.833656, 48: 758.3200419999999, 49: 246.408704, 50: 821.262954, 51: 691.664323, 52: 73.714885, 53: 409.827491, 54: 265.321473, 55: 911.780577, 56: 545.895728, 57: 612.3325599999999, 58: 387.412455, 59: 552.88229, 60: 668.319767, 61: 616.411417, 62: 178.714674, 63: 75.32327100000001, 64: 481.141543, 65: 469.279665, 66: 920.45249, 67: 40.581561, 68: 751.201328, 69: 821.8672340000001, 70: 254.738868, 71: 361.957772, 72: 891.922658, 73: 920.289136, 74: 234.800388, 75: 576.204149, 76: 899.687128, 77: 849.9182049999999, 78: 858.890173, 79: 941.0208270000001, 80: 286.246197, 81: 845.341346, 82: 579.296887, 83: 804.993956, 84: 674.775086, 85: 993.500353, 86: 216.857612, 87: 422.401387, 88: 260.403709, 89: 624.669921, 90: 774.772857, 91: 471.058918, 92: 502.958498, 93: 841.40326, 94: 922.151085, 95: 174.226489, 96: 317.305143, 97: 603.191291, 98: 670.719541, 99: 7.589236, 100: 788.075797, 101: 536.580402, 102: 987.101362, 103: 404.861262, 104: 366.277371, 105: 549.251026, 106: 371.653428, 107: 240.075863, 108: 254.220071, 109: 16.508925, 110: 795.052994, 111: 354.853401, 112: 560.832374, 113: 850.738577, 114: 995.632484, 115: 378.825407, 116: 173.26555, 117: 617.953905, 118: 51.982341, 119: 372.738654, 120: 937.542326, 121: 906.874091, 122: 761.128245, 123: 133.575946, 124: 368.439829, 125: 242.978454, 126: 903.201175, 127: 750.624297, 128: 778.849306, 129: 931.437046, 130: 998.644093, 131: 28.1263, 132: 911.428487, 133: 324.647951, 134: 132.168703, 135: 195.343004, 136: 435.518741, 137: 320.458251, 138: 486.517769, 139: 791.6748260000001, 140: 17.264729, 141: 325.615955, 142: 438.602115, 143: 585.274393, 144: 324.259086, 145: 474.96708, 146: 773.961227, 147: 495.559367, 148: 157.620474, 149: 771.920134, 150: 148.81157, 151: 134.150325, 152: 784.338407, 153: 123.04939, 154: 858.585657, 155: 443.422255, 156: 347.377686, 157: 369.249522, 158: 292.008417, 159: 152.785154, 160: 843.286111, 161: 463.550466, 162: 553.262691, 163: 683.1202500000001, 164: 732.95457, 165: 639.085494, 166: 872.108559, 167: 920.528442, 168: 694.654796, 169: 904.601723, 170: 88.92167499999999, 171: 228.347304, 172: 877.301728, 173: 14.056085, 174: 681.045884, 175: 997.298096, 176: 694.357029, 177: 404.482845, 178: 156.422639, 179: 384.800263, 180: 684.894658, 181: 957.725337, 182: 72.905715, 183: 228.807755, 184: 238.222634, 185: 581.436637, 186: 144.165776, 187: 723.780424, 188: 74.90973, 189: 378.247585, 190: 432.764399, 191: 907.703108];
sell = [0: 3.809406, 1: 1.36117, 2: 0.101508, 3: 1.283043, 4: 1.709246, 5: 0.777608, 6: 0.159524, 7: 1.676296, 8: 0.024158, 9: 3.886987, 10: 1.801311, 11: 1.140141, 12: 1.190985, 13: 0.704027, 14: 2.295698, 15: 2.079567, 16: 1.759682, 17: 1.671659, 18: 2.032684, 19: 1.752131, 20: 3.229913, 21: 1.383024, 22: 1.064568, 23: 2.042637, 24: 1.210478, 25: 3.414466, 26: 1.443908, 27: 0.806741, 28: 3.613248, 29: 1.219362, 30: 0.345839, 31: 1.661507, 32: 0.38747, 33: 1.359273, 34: 1.115438, 35: 2.991816, 36: 3.325549, 37: 1.54484, 38: 3.681701, 39: 0.193125, 40: 3.73508, 41: 0.287908, 42: 3.958686, 43: 2.102577, 44: 1.042611, 45: 3.027534, 46: 0.154475, 47: 2.357206, 48: 1.030626, 49: 3.887041, 50: 0.316195, 51: 3.136348, 52: 1.802153, 53: 3.274351, 54: 2.795713, 55: 1.752145, 56: 1.833605, 57: 1.03076, 58: 2.500765, 59: 3.434834, 60: 3.984392, 61: 1.84042, 62: 3.111915, 63: 1.882986, 64: 2.796993, 65: 0.446971, 66: 0.7796380000000001, 67: 0.993196, 68: 1.231019, 69: 1.638685, 70: 2.481534, 71: 2.824332, 72: 2.679607, 73: 3.88633, 74: 0.9099390000000001, 75: 3.517086, 76: 0.643142, 77: 2.693641, 78: 3.612137, 79: 3.596943, 80: 2.074662, 81: 3.79008, 82: 0.244497, 83: 2.300357, 84: 3.28625, 85: 2.253709, 86: 2.305675, 87: 1.820145, 88: 2.069416, 89: 2.040896, 90: 0.563603, 91: 1.112493, 92: 2.397047, 93: 3.603402, 94: 1.474905, 95: 1.707087, 96: 2.643441, 97: 2.389383, 98: 3.029322, 99: 0.897118, 100: 0.400288, 101: 2.728042, 102: 1.228284, 103: 2.703155, 104: 1.794612, 105: 3.230221, 106: 1.339335, 107: 2.517095, 108: 1.052251, 109: 3.084958, 110: 1.743519, 111: 1.722333, 112: 2.792086, 113: 0.008782999999999999, 114: 3.335798, 115: 2.423996, 116: 0.777284, 117: 2.694914, 118: 0.822643, 119: 2.451794, 120: 3.058495, 121: 1.345929, 122: 1.475222, 123: 1.445615, 124: 0.187489, 125: 0.016195, 126: 2.16542, 127: 0.364977, 128: 0.49729, 129: 1.494682, 130: 3.915598, 131: 2.272826, 132: 0.026133, 133: 3.889794, 134: 1.971194, 135: 1.996696, 136: 2.728784, 137: 2.457613, 138: 1.036275, 139: 3.519295, 140: 1.380841, 141: 1.727439, 142: 1.024294, 143: 2.18993, 144: 0.187309, 145: 0.5358309999999999, 146: 1.307487, 147: 1.889819, 148: 3.140057, 149: 1.110555, 150: 3.294087, 151: 1.476566, 152: 3.055354, 153: 1.032625, 154: 3.530773, 155: 2.63305, 156: 1.142349, 157: 0.255213, 158: 2.430991, 159: 2.569138, 160: 0.541592, 161: 3.108353, 162: 1.959211, 163: 1.152875, 164: 0.977952, 165: 2.847794, 166: 3.47585, 167: 3.401435, 168: 1.798523, 169: 2.480192, 170: 0.792287, 171: 1.502969, 172: 3.972737, 173: 3.91863, 174: 0.649802, 175: 1.490456, 176: 2.894799, 177: 0.009247, 178: 3.395273, 179: 1.673921, 180: 3.331207, 181: 3.788337, 182: 3.097679, 183: 1.734548, 184: 2.197061, 185: 1.490854, 186: 3.408061, 187: 1.33336, 188: 0.530836, 189: 3.220729, 190: 0.218926, 191: 0.793183];
charge = [0: 0.691655, 1: 0.750816, 2: 0.653803, 3: 0.080237, 4: 0.031162, 5: 0.574456, 6: 0.47062, 7: 0.413135, 8: 0.95889, 9: 0.005978, 10: 0.490653, 11: 0.18329, 12: 0.070008, 13: 0.048174, 14: 0.34119, 15: 0.286797, 16: 0.51502, 17: 0.6608579999999999, 18: 0.187708, 19: 0.488518, 20: 0.484601, 21: 0.645722, 22: 0.249158, 23: 0.682945, 24: 0.421723, 25: 0.177175, 26: 0.46031, 27: 0.088757, 28: 0.182569, 29: 0.207264, 30: 0.147127, 31: 0.842371, 32: 0.260325, 33: 0.562823, 34: 0.494904, 35: 0.645031, 36: 0.9634470000000001, 37: 0.253295, 38: 0.7808890000000001, 39: 0.750705, 40: 0.263116, 41: 0.272957, 42: 0.020016, 43: 0.187868, 44: 0.974008, 45: 0.864147, 46: 0.100637, 47: 0.271802, 48: 0.508111, 49: 0.902872, 50: 0.9642770000000001, 51: 0.262367, 52: 0.589948, 53: 0.08251699999999999, 54: 0.194938, 55: 0.562853, 56: 0.29159, 57: 0.9495, 58: 0.272768, 59: 0.035095, 60: 0.937173, 61: 0.649424, 62: 0.521532, 63: 0.70525, 64: 0.217012, 65: 0.64427, 66: 0.777847, 67: 0.743988, 68: 0.6448739999999999, 69: 0.716584, 70: 0.968282, 71: 0.430871, 72: 0.500393, 73: 0.7830240000000001, 74: 0.85006, 75: 0.828474, 76: 0.401489, 77: 0.453306, 78: 0.596917, 79: 0.322592, 80: 0.9890910000000001, 81: 0.298268, 82: 0.515475, 83: 0.586286, 84: 0.13429, 85: 0.709545, 86: 0.233467, 87: 0.211407, 88: 0.162629, 89: 0.833709, 90: 0.216104, 91: 0.6928609999999999, 92: 0.146888, 93: 0.9859830000000001, 94: 0.156074, 95: 0.956784, 96: 0.381868, 97: 0.651469, 98: 0.898076, 99: 0.740001, 100: 0.013357, 101: 0.385414, 102: 0.732007, 103: 0.923009, 104: 0.409981, 105: 0.87991, 106: 0.853788, 107: 0.017621, 108: 0.75231, 109: 0.7324310000000001, 110: 0.411246, 111: 0.262709, 112: 0.751265, 113: 0.594456, 114: 0.08398899999999999, 115: 0.05505, 116: 0.5467070000000001, 117: 0.083435, 118: 0.951591, 119: 0.621668, 120: 0.997737, 121: 0.059191, 122: 0.83873, 123: 0.670335, 124: 0.645165, 125: 0.663274, 126: 0.753873, 127: 0.054347, 128: 0.194637, 129: 0.562183, 130: 0.397907, 131: 0.292066, 132: 0.972834, 133: 0.607517, 134: 0.318159, 135: 0.458339, 136: 0.48178, 137: 0.5120440000000001, 138: 0.860026, 139: 0.15187, 140: 0.182436, 141: 0.87017, 142: 0.493363, 143: 0.983957, 144: 0.437196, 145: 0.580296, 146: 0.741282, 147: 0.450241, 148: 0.922304, 149: 0.951578, 150: 0.284665, 151: 0.164992, 152: 0.300023, 153: 0.539364, 154: 0.043448, 155: 0.876413, 156: 0.313142, 157: 0.475681, 158: 0.860633, 159: 0.118038, 160: 0.240351, 161: 0.402588, 162: 0.8617, 163: 0.826088, 164: 0.751491, 165: 0.333444, 166: 0.332447, 167: 0.890154, 168: 0.7612640000000001, 169: 0.752472, 170: 0.93684, 171: 0.10161, 172: 0.95826, 173: 0.489717, 174: 0.165658, 175: 0.386347, 176: 0.919292, 177: 0.678717, 178: 0.071102, 179: 0.919232, 180: 0.908117, 181: 0.458078, 182: 0.596035, 183: 0.015306, 184: 0.40351, 185: 0.421641, 186: 0.23339, 187: 0.267826, 188: 0.908094, 189: 0.555497, 190: 0.159606, 191: 0.226185];
discharge = [0: 0.573485, 1: 0.512397, 2: 0.181184, 3: 0.720801, 4: 0.004834, 5: 0.441809, 6: 0.749358, 7: 0.623359, 8: 0.448201, 9: 0.682198, 10: 0.565129, 11: 0.413163, 12: 0.08028, 13: 0.6244420000000001, 14: 0.062779, 15: 0.330133, 16: 0.907215, 17: 0.315146, 18: 0.89092, 19: 0.036017, 20: 0.391144, 21: 0.521815, 22: 0.145927, 23: 0.99825, 24: 0.86544, 25: 0.7325199999999999, 26: 0.008253, 27: 0.506632, 28: 0.619707, 29: 0.811325, 30: 0.00765, 31: 0.476548, 32: 0.097716, 33: 0.387235, 34: 0.029952, 35: 0.361684, 36: 0.662265, 37: 0.756772, 38: 0.238587, 39: 0.225618, 40: 0.403036, 41: 0.957021, 42: 0.801374, 43: 0.745877, 44: 0.470874, 45: 0.600263, 46: 0.350399, 47: 0.094387, 48: 0.755274, 49: 0.360793, 50: 0.384477, 51: 0.171259, 52: 0.207932, 53: 0.781933, 54: 0.909111, 55: 0.347442, 56: 0.452853, 57: 0.959545, 58: 0.8001239999999999, 59: 0.260756, 60: 0.752504, 61: 0.455187, 62: 0.529543, 63: 0.943186, 64: 0.437659, 65: 0.245047, 66: 0.53771, 67: 0.724503, 68: 0.430178, 69: 0.512329, 70: 0.979474, 71: 0.61746, 72: 0.910005, 73: 0.792832, 74: 0.8976420000000001, 75: 0.078823, 76: 0.592055, 77: 0.452284, 78: 0.098096, 79: 0.46545, 80: 0.057607, 81: 0.303361, 82: 0.337181, 83: 0.93515, 84: 0.688689, 85: 0.06549000000000001, 86: 0.552324, 87: 0.652486, 88: 0.553742, 89: 0.758114, 90: 0.337411, 91: 0.156194, 92: 0.7984059999999999, 93: 0.314948, 94: 0.057612, 95: 0.795446, 96: 0.983402, 97: 0.42672, 98: 0.257298, 99: 0.631822, 100: 0.472819, 101: 0.135881, 102: 0.035372, 103: 0.957392, 104: 0.174869, 105: 0.48223, 106: 0.647232, 107: 0.865731, 108: 0.89057, 109: 0.9043060000000001, 110: 0.7674800000000001, 111: 0.415952, 112: 0.8187720000000001, 113: 0.759981, 114: 0.380757, 115: 0.822736, 116: 0.687619, 117: 0.654849, 118: 0.107313, 119: 0.510537, 120: 0.138698, 121: 0.830001, 122: 0.379382, 123: 0.197089, 124: 0.062309, 125: 0.155505, 126: 0.110109, 127: 0.674171, 128: 0.892268, 129: 0.778054, 130: 0.623332, 131: 0.085534, 132: 0.308039, 133: 0.154929, 134: 0.891485, 135: 0.070369, 136: 0.781509, 137: 0.470016, 138: 0.255779, 139: 0.070164, 140: 0.532448, 141: 0.6247779999999999, 142: 0.868198, 143: 0.375632, 144: 0.6896949999999999, 145: 0.09032900000000001, 146: 0.701115, 147: 0.6497230000000001, 148: 0.942895, 149: 0.153294, 150: 0.056214, 151: 0.178981, 152: 0.090118, 153: 0.8838240000000001, 154: 0.518786, 155: 0.7098, 156: 0.7814410000000001, 157: 0.771011, 158: 0.314945, 159: 0.847746, 160: 0.78124, 161: 0.806549, 162: 0.399992, 163: 0.453876, 164: 0.647098, 165: 0.908126, 166: 0.835516, 167: 0.684387, 168: 0.933043, 169: 0.863758, 170: 0.075305, 171: 0.418679, 172: 0.208092, 173: 0.629985, 174: 0.061092, 175: 0.7361839999999999, 176: 0.9337220000000001, 177: 0.047949, 178: 0.734511, 179: 0.358113, 180: 0.414623, 181: 0.954166, 182: 0.557552, 183: 0.792529, 184: 0.278139, 185: 0.364748, 186: 0.206979, 187: 0.60594, 188: 0.486408, 189: 0.240757, 190: 0.529967, 191: 0.238133];
soc = [0: 3.523408, 1: 3.232565, 2: 4.022883, 3: 4.887305, 4: 3.920054, 5: 7.792983, 6: 9.574107, 7: 6.706657, 8: 3.029966, 9: 3.573417, 10: 7.05773, 11: 10.722009, 12: 3.51063, 13: 5.854721, 14: 10.083247, 15: 11.462792, 16: 4.803938, 17: 6.444558, 18: 12.431605, 19: 11.31287, 20: 3.24364, 21: 10.320002, 22: 4.318154, 23: 15.106842, 24: 14.56826, 25: 13.469262, 26: 15.587956, 27: 5.969802, 28: 12.496617, 29: 14.210216, 30: 12.251879, 31: 15.115485, 32: 6.73146, 33: 8.857367999999999, 34: 4.409677, 35: 11.707282, 36: 3.138961, 37: 4.624668, 38: 14.5429, 39: 4.97979, 40: 6.222535, 41: 5.493481, 42: 8.656886, 43: 11.474559, 44: 3.197964, 45: 13.857899, 46: 11.46099, 47: 7.522861, 48: 6.623507, 49: 11.438784, 50: 14.899358, 51: 8.08722, 52: 10.05057, 53: 12.776502, 54: 5.786283, 55: 7.415316, 56: 8.197779000000001, 57: 8.159350999999999, 58: 13.513401, 59: 7.29437, 60: 3.733777, 61: 3.476414, 62: 3.396166, 63: 3.207987, 64: 3.811189, 65: 10.050337, 66: 11.239271, 67: 9.52449, 68: 8.883737999999999, 69: 12.488609, 70: 6.777103, 71: 9.783601000000001, 72: 4.132709, 73: 8.956072000000001, 74: 11.014048, 75: 10.605804, 76: 15.1945, 77: 4.84596, 78: 3.009936, 79: 7.9156, 80: 9.84334, 81: 7.610688, 82: 5.178227, 83: 6.561175, 84: 12.5972, 85: 15.454067, 86: 4.362428, 87: 8.454236, 88: 4.185931, 89: 15.560114, 90: 14.391701, 91: 4.615962, 92: 6.781653, 93: 12.232414, 94: 3.608289, 95: 7.999857, 96: 6.926747, 97: 5.950927, 98: 14.368625, 99: 3.689414, 100: 4.706137, 101: 5.27206, 102: 7.468846, 103: 5.861369, 104: 12.619144, 105: 14.711965, 106: 11.036805, 107: 15.190523, 108: 4.262694, 109: 3.137724, 110: 11.635421, 111: 9.364001, 112: 7.185687, 113: 11.855189, 114: 13.96508, 115: 5.023368, 116: 14.216239, 117: 14.812688, 118: 12.295469, 119: 12.712151, 120: 5.791479, 121: 6.484463, 122: 8.500343000000001, 123: 3.690759, 124: 12.010073, 125: 13.013605, 126: 5.052493, 127: 11.489005, 128: 2.774654, 129: 14.077755, 130: 13.401832, 131: 10.862515, 132: 12.474921, 133: 13.202633, 134: 11.09475, 135: 15.194491, 136: 15.473582, 137: 6.635402, 138: 12.735756, 139: 12.604296, 140: 10.01216, 141: 14.277955, 142: 4.719435, 143: 6.054081, 144: 9.03111, 145: 12.377008, 146: 7.236169, 147: 4.227854, 148: 8.591358, 149: 15.539579, 150: 7.343017, 151: 8.342795000000001, 152: 14.381496, 153: 11.41237, 154: 6.56588, 155: 9.519892, 156: 2.883124, 157: 9.340525, 158: 3.406757, 159: 7.376203, 160: 5.789061, 161: 5.739822, 162: 3.653665, 163: 15.502741, 164: 4.403048, 165: 2.866212, 166: 4.308124, 167: 13.31717, 168: 7.112252, 169: 5.123205, 170: 6.143511, 171: 3.171006, 172: 7.754813, 173: 7.561468, 174: 10.975527, 175: 15.391442, 176: 9.996138999999999, 177: 4.351346, 178: 4.011312, 179: 7.149352, 180: 12.518202, 181: 11.185102, 182: 7.482271, 183: 4.641767, 184: 13.737035, 185: 9.203689000000001, 186: 9.759422000000001, 187: 3.943273, 188: 15.43149, 189: 9.579821000000001, 190: 15.000778, 191: 11.827811];
cost = [0: 232.082905, 1: 151.049509, 2: 27.711692, 3: 373.831304, 4: 246.738557, 5: 595.951159, 6: 183.999389, 7: 96.16664, 8: 526.347728, 9: 136.500771, 10: 523.331194, 11: 399.349282, 12: 112.378788, 13: 603.084004, 14: 182.016281, 15: 293.605181, 16: 362.500268, 17: 220.91189, 18: 530.16867, 19: 93.912513, 20: 421.984871, 21: 517.045333, 22: 229.92164, 23: 412.411004, 24: 822.380174, 25: 699.0753539999999, 26: 515.671115, 27: 1016.543848, 28: 473.29553, 29: 163.569794, 30: 506.742472, 31: 451.189692, 32: 978.365857, 33: 1015.836415, 34: 290.12934, 35: 429.347336, 36: 300.558889, 37: 286.331911, 38: 496.257, 39: 1127.655331, 40: 1128.021988, 41: 153.01771, 42: 950.917822, 43: 267.866861, 44: 1132.282272, 45: 440.621287, 46: 667.584105, 47: 181.137004, 48: 968.526307, 49: 176.446708, 50: 501.404043, 51: 496.511855, 52: 258.852843, 53: 190.224739, 54: 183.246258, 55: 126.882947, 56: 303.080503, 57: 195.2956, 58: 368.774682, 59: 203.152234, 60: 525.0407729999999, 61: 160.122, 62: 984.0776049999999, 63: 240.273325, 64: 624.693209, 65: 147.325942, 66: 712.247968, 67: 330.790797, 68: 859.65063, 69: 789.723082, 70: 794.102067, 71: 886.749118, 72: 649.193521, 73: 273.615331, 74: 495.516232, 75: 932.277718, 76: 530.121949, 77: 27.884271, 78: 16.955067, 79: 916.249006, 80: 222.694161, 81: 301.803279, 82: 116.333591, 83: 561.8534059999999, 84: 616.177059, 85: 980.682013, 86: 874.820318, 87: 1102.96349, 88: 398.553275, 89: 318.89079, 90: 516.360468, 91: 407.933376, 92: 173.291532, 93: 333.715175, 94: 330.64775, 95: 107.11462, 96: 469.092136, 97: 271.975395, 98: 499.002926, 99: 19.01617, 100: 254.619215, 101: 445.075814, 102: 402.113683, 103: 605.902796, 104: 77.18621899999999, 105: 55.14692, 106: 549.758054, 107: 301.408016, 108: 37.90325, 109: 442.667461, 110: 439.344265, 111: 17.366643, 112: 197.683932, 113: 499.106882, 114: 49.957318, 115: 264.612939, 116: 95.695728, 117: 43.842414, 118: 75.179005, 119: 48.923493, 120: 962.266281, 121: 573.768972, 122: 245.402183, 123: 569.883026, 124: 49.999276, 125: 984.280617, 126: 691.625481, 127: 477.073016, 128: 1038.199185, 129: 394.184516, 130: 861.316624, 131: 1090.427545, 132: 244.153996, 133: 596.622022, 134: 710.0833270000001, 135: 410.143214, 136: 1040.286397, 137: 568.151258, 138: 358.564358, 139: 21.94113, 140: 1090.512165, 141: 121.208461, 142: 680.764712, 143: 736.119319, 144: 493.077745, 145: 719.774462, 146: 435.012791, 147: 863.283724, 148: 99.318912, 149: 433.943832, 150: 268.572998, 151: 26.955914, 152: 529.972441, 153: 46.766768, 154: 200.431978, 155: 603.959023, 156: 1157.479879, 157: 594.931966, 158: 1153.313759, 159: 1005.452547, 160: 184.766994, 161: 139.489644, 162: 485.860178, 163: 20.663875, 164: 300.495065, 165: 109.127056, 166: 458.908557, 167: 1141.930139, 168: 14.258074, 169: 174.622058, 170: 1134.122375, 171: 213.8357, 172: 687.063193, 173: 277.067682, 174: 551.186349, 175: 306.357847, 176: 577.937333, 177: 1054.710193, 178: 202.947904, 179: 1017.361692, 180: 870.990316, 181: 738.822993, 182: 1091.948495, 183: 1133.585169, 184: 266.532255, 185: 375.272769, 186: 337.688986, 187: 191.634515, 188: 306.608718, 189: 213.150823, 190: 457.106695, 191: 292.051476];
earn = [0: 1.160328, 1: 0.052642, 2: 1.419918, 3: 1.374176, 4: 1.569599, 5: 0.910853, 6: 1.704659, 7: 1.413447, 8: 1.70587, 9: 0.996478, 10: 0.044782, 11: 0.800413, 12: 0.494837, 13: 1.785103, 14: 1.816838, 15: 0.274888, 16: 1.480059, 17: 1.677089, 18: 1.6419, 19: 0.93821, 20: 1.041222, 21: 1.493059, 22: 1.960867, 23: 0.949702, 24: 1.494504, 25: 1.861833, 26: 1.987823, 27: 1.145697, 28: 0.305771, 29: 1.9022, 30: 0.627897, 31: 1.912058, 32: 1.25077, 33: 1.120254, 34: 1.261627, 35: 1.116793, 36: 0.7371180000000001, 37: 0.214828, 38: 0.654761, 39: 1.892282, 40: 0.601951, 41: 1.415979, 42: 0.9693850000000001, 43: 0.622713, 44: 1.126657, 45: 0.519001, 46: 1.689813, 47: 0.973566, 48: 1.432686, 49: 1.65687, 50: 0.794341, 51: 1.041332, 52: 0.887628, 53: 1.155852, 54: 1.26026, 55: 0.560638, 56: 1.979702, 57: 0.043598, 58: 1.194833, 59: 1.020729, 60: 1.099316, 61: 0.325084, 62: 1.926543, 63: 1.931387, 64: 1.694623, 65: 0.8783260000000001, 66: 2.111447, 67: 0.314137, 68: 2.218204, 69: 1.858432, 70: 1.468093, 71: 0.233847, 72: 0.603777, 73: 1.374181, 74: 0.541997, 75: 2.00743, 76: 1.148087, 77: 2.37497, 78: 1.907656, 79: 1.378436, 80: 0.143224, 81: 1.476008, 82: 1.539076, 83: 1.934678, 84: 2.241399, 85: 2.262091, 86: 1.440597, 87: 0.255671, 88: 0.341843, 89: 2.082882, 90: 1.91582, 91: 0.7777849999999999, 92: 0.641442, 93: 0.533415, 94: 0.758785, 95: 1.715401, 96: 0.913327, 97: 1.374806, 98: 1.499171, 99: 1.693699, 100: 0.052772, 101: 1.632336, 102: 1.052233, 103: 1.147607, 104: 0.435668, 105: 2.281742, 106: 1.190134, 107: 0.726001, 108: 2.050417, 109: 1.933113, 110: 0.508688, 111: 0.067484, 112: 1.240442, 113: 1.405233, 114: 0.108019, 115: 0.402023, 116: 0.111611, 117: 1.329228, 118: 2.447791, 119: 1.334772, 120: 2.845076, 121: 1.676751, 122: 1.307213, 123: 0.499476, 124: 2.094769, 125: 0.012703, 126: 1.711517, 127: 1.85591, 128: 0.055714, 129: 1.406064, 130: 2.167405, 131: 1.504382, 132: 1.267996, 133: 1.587272, 134: 0.314392, 135: 1.224443, 136: 0.735694, 137: 0.803769, 138: 0.607418, 139: 0.643455, 140: 0.11262, 141: 0.495667, 142: 0.750665, 143: 0.6826410000000001, 144: 0.163656, 145: 0.38575, 146: 0.483527, 147: 0.435751, 148: 0.023459, 149: 0.580044, 150: 0.995391, 151: 0.827584, 152: 0.265743, 153: 0.065861, 154: 0.271907, 155: 0.976696, 156: 0.5376840000000001, 157: 0.930603, 158: 1.933729, 159: 0.975595, 160: 2.253744, 161: 1.736387, 162: 1.006201, 163: 1.155241, 164: 0.137821, 165: 0.384779, 166: 1.616839, 167: 1.613985, 168: 3.131753, 169: 3.123913, 170: 1.089496, 171: 1.58688, 172: 2.833649, 173: 1.975497, 174: 1.007024, 175: 0.446822, 176: 0.366687, 177: 1.713646, 178: 1.254969, 179: 1.118385, 180: 2.182924, 181: 0.782646, 182: 1.933772, 183: 1.614834, 184: 0.774406, 185: 1.640988, 186: 1.37387, 187: 0.782968, 188: 0.669123, 189: 1.77017, 190: 1.670658, 191: 1.555965];
total_cost = 89.14666854642222;
total_earn = 38.61235550847967;
