production = [0: 0.0, 1: 0.0, 2: 0.0, 3: 0.0, 4: 0.0, 5: 0.0, 6: 0.0, 7: 0.0, 8: 0.0, 9: 0.0, 10: 0.0, 11: 0.0, 12: 0.0, 13: 0.0, 14: 0.0, 15: 0.0, 16: 0.0, 17: 0.0, 18: 0.0, 19: 0.0, 20: 0.0, 21: 0.0, 22: 0.0, 23: 0.004, 24: 0.0, 25: 0.06, 26: 0.118, 27: 0.159, 28: 0.2005, 29: 0.2555, 30: 0.2865, 31: 0.0, 32: 0.4665, 33: 0.5847, 34: 0.0, 35: 0.0, 36: 0.0, 37: 0.0, 38: 1.1407, 39: 0.0, 40: 0.0, 41: 1.587, 42: 0.0, 43: 0.753, 44: 0.7027, 45: 1.5228, 46: 1.556, 47: 0.8165, 48: 1.5693, 49: 0.0, 50: 1.9235, 51: 0.0, 52: 0.8448, 53: 1.598, 54: 0.0, 55: 1.278, 56: 0.6587, 57: 0.0, 58: 0.0, 59: 0.6595, 60: 0.652, 61: 0.0, 62: 0.0, 63: 0.6899999999999999, 64: 0.0, 65: 0.0, 66: 0.0, 67: 0.2092, 68: 0.0, 69: 0.0, 70: 0.1435, 71: 0.0, 72: 0.0367, 73: 0.0095, 74: 0.0, 75: 0.0003, 76: 0.0, 77: 0.0, 78: 0.0, 79: 0.0, 80: 0.0, 81: 0.0, 82: 0.0, 83: 0.0, 84: 0.0, 85: 0.0, 86: 0.0, 87: 0.0, 88: 0.0, 89: 0.0, 90: 0.0, 91: 0.0, 92: 0.0, 93: 0.0, 94: 0.0, 95: 0.0];
buy = [0: 0.0, 1: 1.226366667, 2: 0.0, 3: 1.237166667, 4: 1.235366667, 5: 0.230866667, 6: 0.0, 7: 1.238166667, 8: 0.0, 9: 1.239166667, 10: 0.227166667, 11: 1.227366667, 12: 0.0, 13: 1.240166667, 14: 1.229166667, 15: 0.0, 16: 1.110466667, 17: 1.117966667, 18: 0.117666667, 19: 0.518666667, 20: 1.379666667, 21: 0.334366667, 22: 1.338966667, 23: 0.0, 24: 0.0, 25: 0.163466667, 26: 0.982866667, 27: 0.0, 28: 0.908466667, 29: 0.0, 30: 0.816166667, 31: 0.0, 32: 0.642666667, 33: 0.523666667, 34: 1.099866667, 35: 0.0, 36: 1.107866667, 37: 1.116166667, 38: 0.0, 39: 1.102966667, 40: 1.107666667, 41: 0.0, 42: 0.0, 43: 0.355166667, 44: 0.0, 45: 0.0, 46: 0.0, 47: 0.0, 48: 0.0, 49: 1.093966667, 50: 0.0, 51: 1.104166667, 52: 0.0, 53: 0.0, 54: 0.441866667, 55: 0.494166667, 56: 0.0, 57: 1.836866667, 58: 1.445866667, 59: 0.0, 60: 0.460166667, 61: 0.0, 62: 0.110966667, 63: 0.0, 64: 0.0, 65: 0.107666667, 66: 0.0, 67: 0.0, 68: 1.101966667, 69: 0.0, 70: 0.965966667, 71: 1.112866667, 72: 0.0, 73: 1.080866667, 74: 1.090166667, 75: 1.099366667, 76: 0.0, 77: 0.113166667, 78: 0.0, 79: 1.106866667, 80: 1.422666667, 81: 1.363466667, 82: 0.0, 83: 0.0, 84: 0.600833218, 85: 1.325866667, 86: 1.247666667, 87: 0.233666667, 88: 0.0, 89: 0.0, 90: 1.233166667, 91: 0.0, 92: 0.0, 93: 1.224666667, 94: 0.227166667, 95: 0.0];
sell = [0: 0.0, 1: 0.0, 2: 0.0, 3: 0.0, 4: 0.0, 5: 0.0, 6: 0.668833333, 7: 0.0, 8: 0.662133333, 9: 0.0, 10: 0.0, 11: 0.0, 12: 0.661833333, 13: 0.0, 14: 0.0, 15: 0.669333333, 16: 0.0, 17: 0.0, 18: 0.0, 19: 0.0, 20: 0.0, 21: 0.0, 22: 0.0, 23: 0.6121333329999999, 24: 0.0, 25: 0.0, 26: 0.0, 27: 0.0, 28: 0.0, 29: 1.053833333, 30: 0.0, 31: 0.800133333, 32: 0.0, 33: 0.0, 34: 0.0, 35: 0.799833333, 36: 0.0, 37: 0.0, 38: 1.029233333, 39: 0.0, 40: 0.0, 41: 2.374533333, 42: 0.787133333, 43: 0.0, 44: 1.503033333, 45: 1.060067051, 46: 0.444533333, 47: 0.708333333, 48: 0.472333333, 49: 0.0, 50: 2.727833333, 51: 0.0, 52: 1.632333333, 53: 2.067833333, 54: 0.0, 55: 0.0, 56: 0.998333333, 57: 0.0, 58: 0.0, 59: 1.107333333, 60: 0.0, 61: 0.789833333, 62: 0.0, 63: 1.485333333, 64: 0.250576293, 65: 0.0, 66: 0.0, 67: 0.9992333329999999, 68: 0.0, 69: 0.798533333, 70: 0.0, 71: 0.0, 72: 0.825533333, 73: 0.0, 74: 0.0, 75: 0.0, 76: 0.784833333, 77: 0.0, 78: 0.7916333330000001, 79: 0.0, 80: 0.0, 81: 0.0, 82: 0.541033333, 83: 0.538833333, 84: 0.0, 85: 0.0, 86: 0.0, 87: 0.0, 88: 0.673133333, 89: 0.675533333, 90: 0.0, 91: 0.6666333330000001, 92: 0.673333333, 93: 0.0, 94: 0.0, 95: 0.665633333];
charge = [0: 0.0, 1: 1.0, 2: 0.0, 3: 1.0, 4: 1.0, 5: 0.0, 6: 0.0, 7: 1.0, 8: 0.0, 9: 1.0, 10: 0.0, 11: 1.0, 12: 0.0, 13: 1.0, 14: 1.0, 15: 0.0, 16: 1.0, 17: 1.0, 18: 0.0, 19: 0.0, 20: 1.0, 21: 0.0, 22: 1.0, 23: 0.0, 24: 0.0, 25: 0.0, 26: 1.0, 27: 0.050833333, 28: 1.0, 29: 0.0, 30: 1.0, 31: 0.0, 32: 1.0, 33: 1.0, 34: 1.0, 35: 0.0, 36: 1.0, 37: 1.0, 38: 0.0, 39: 1.0, 40: 1.0, 41: 0.0, 42: 0.0, 43: 1.0, 44: 0.0, 45: 0.360266283, 46: 1.0, 47: 0.0, 48: 1.0, 49: 1.0, 50: 0.0, 51: 1.0, 52: 0.0, 53: 0.0, 54: 0.0, 55: 1.0, 56: 0.0, 57: 1.0, 58: 1.0, 59: 0.0, 60: 1.0, 61: 0.0, 62: 0.0, 63: 0.0, 64: 0.0, 65: 0.0, 66: 0.0, 67: 0.0, 68: 1.0, 69: 0.0, 70: 1.0, 71: 1.0, 72: 0.0, 73: 1.0, 74: 1.0, 75: 1.0, 76: 0.0, 77: 0.0, 78: 0.0, 79: 1.0, 80: 1.0, 81: 1.0, 82: 0.0, 83: 0.0, 84: 0.238366552, 85: 1.0, 86: 1.0, 87: 0.0, 88: 0.0, 89: 0.0, 90: 1.0, 91: 0.0, 92: 0.0, 93: 1.0, 94: 0.0, 95: 0.0];
discharge = [0: 0.253185185, 1: 0.0, 2: 0.263518519, 3: 0.0, 4: 0.0, 5: 0.0, 6: 1.0, 7: 0.0, 8: 1.0, 9: 0.0, 10: 0.0, 11: 0.0, 12: 1.0, 13: 0.0, 14: 0.0, 15: 1.0, 16: 0.0, 17: 0.0, 18: 0.0, 19: 0.0, 20: 0.0, 21: 0.0, 22: 0.0, 23: 1.0, 24: 0.251518519, 25: 0.0, 26: 0.0, 27: 0.0, 28: 0.0, 29: 1.0, 30: 0.0, 31: 1.0, 32: 0.0, 33: 0.0, 34: 0.0, 35: 1.0, 36: 0.0, 37: 0.0, 38: 0.0, 39: 0.0, 40: 0.0, 41: 1.0, 42: 1.0, 43: 0.0, 44: 1.0, 45: 0.0, 46: 0.0, 47: 0.0, 48: 0.0, 49: 0.0, 50: 1.0, 51: 0.0, 52: 1.0, 53: 1.0, 54: 0.0, 55: 0.0, 56: 1.0, 57: 0.0, 58: 0.0, 59: 1.0, 60: 0.0, 61: 1.0, 62: 0.0, 63: 1.0, 64: 0.390492177, 65: 0.0, 66: 0.12162963, 67: 1.0, 68: 0.0, 69: 1.0, 70: 0.0, 71: 0.0, 72: 1.0, 73: 0.0, 74: 0.0, 75: 0.0, 76: 1.0, 77: 0.0, 78: 1.0, 79: 0.0, 80: 0.0, 81: 0.0, 82: 1.0, 83: 1.0, 84: 0.0, 85: 0.0, 86: 0.0, 87: 0.0, 88: 1.0, 89: 1.0, 90: 0.0, 91: 1.0, 92: 1.0, 93: 0.0, 94: 0.0, 95: 1.0];
soc = [0: 3.506062815, 1: 4.405361602, 2: 4.140962011, 3: 5.040133819, 4: 5.939125792, 5: 5.937937967, 6: 4.936750379, 7: 5.835763029, 8: 4.834595877, 9: 5.733628958, 10: 5.732482232, 11: 6.631335735, 12: 5.630009468, 13: 6.528883466, 14: 7.42757769, 15: 6.426092174, 16: 7.324806956, 17: 8.223341994, 18: 8.221697325999999, 19: 8.220052986000001, 20: 9.118408976, 21: 9.116585294, 22: 10.014761977, 23: 9.012759024999999, 24: 8.759437953999999, 25: 8.757686067, 26: 9.655934529, 27: 9.699753342999999, 28: 10.597813392, 29: 9.595693829, 30: 10.49377469, 31: 9.491675936, 32: 10.3897776, 33: 11.287699645, 34: 12.185442105, 35: 11.183005016, 36: 12.080768415, 37: 12.978352262, 38: 12.975756591, 39: 13.87316144, 40: 14.770386808, 41: 13.76743273, 42: 12.764679244, 43: 13.662126308, 44: 12.659393883, 45: 12.981101658, 46: 13.878505438, 47: 13.875729737, 48: 14.772954591, 49: 15.67, 50: 14.666866, 51: 15.563932627, 52: 14.56081984, 53: 13.557907676, 54: 13.555196095, 55: 14.452485056, 56: 13.449594559, 57: 14.34690464, 58: 15.244035259, 59: 14.240986452, 60: 15.138138254, 61: 14.135110627, 62: 14.132283605, 63: 13.129457148, 64: 12.736339079, 65: 12.733791811, 66: 12.609615423, 67: 11.6070935, 68: 12.504772081, 69: 11.502271127, 70: 12.399970673, 71: 13.297490679, 72: 12.294831181, 73: 13.192372214, 74: 14.08973374, 75: 14.986915793, 76: 13.98391841, 77: 13.981121626, 78: 12.978325402, 79: 13.875729737, 80: 14.772954591, 81: 15.67, 82: 14.666866, 83: 13.663932627, 84: 13.875729737, 85: 14.772954591, 86: 15.67, 87: 15.666866, 88: 14.663732627, 89: 13.66079988, 90: 14.55806772, 91: 13.555156107, 92: 12.552445076, 93: 13.449934587, 94: 13.4472446, 95: 12.444555151];
cost = [0: 0.0, 1: 0.867365562, 2: 0.0, 3: 0.873963282, 4: 0.872863662, 5: 0.141036447, 6: 0.0, 7: 0.874574182, 8: 0.0, 9: 0.875185082, 10: 0.138776117, 11: 0.867976462, 12: 0.0, 13: 0.875795982, 14: 0.869076082, 15: 0.0, 16: 0.796562252, 17: 0.801144002, 18: 0.07188256699999999, 19: 0.316853467, 20: 0.961016532, 21: 0.204264597, 22: 0.936152902, 23: 0.0, 24: 0.0, 25: 0.194459947, 26: 1.287396352, 27: 0.00600739, 28: 1.198890112, 29: 0.0, 30: 1.089090032, 31: 0.0, 32: 0.882694432, 33: 0.741132032, 34: 1.426579552, 35: 0.0, 36: 1.436096352, 37: 1.445970032, 38: 0.0, 39: 1.430267312, 40: 1.435858432, 41: 0.0, 42: 0.0, 43: 0.540684432, 44: 0.0, 45: 0.042575608, 46: 0.118178165, 47: 0.0, 48: 0.118178165, 49: 1.419560912, 50: 0.0, 51: 1.431694832, 52: 0.0, 53: 0.0, 54: 0.269936347, 55: 0.420064582, 56: 0.0, 57: 1.240320012, 58: 1.001458112, 59: 0.0, 60: 0.665592432, 61: 0.0, 62: 0.132005947, 63: 0.0, 64: 0.0, 65: 0.128080267, 66: 0.0, 67: 0.0, 68: 1.429077712, 69: 0.0, 70: 1.267292112, 71: 1.442044352, 72: 0.0, 73: 1.403977152, 74: 1.415040432, 75: 1.425984752, 76: 0.0, 77: 0.134623067, 78: 0.0, 79: 1.434906752, 80: 1.810582432, 81: 1.740158112, 82: 0.0, 83: 0.0, 84: 0.742920918, 85: 1.695429152, 86: 1.602402432, 87: 0.277969867, 88: 0.0, 89: 0.0, 90: 0.871519682, 91: 0.0, 92: 0.0, 93: 0.8663270320000001, 94: 0.138776117, 95: 0.0];
earn = [0: 0.0, 1: 0.0, 2: 0.0, 3: 0.0, 4: 0.0, 5: 0.0, 6: 0.34050305, 7: 0.0, 8: 0.318684773, 9: 0.0, 10: 0.0, 11: 0.0, 12: 0.327475133, 13: 0.0, 14: 0.0, 15: 0.335402933, 16: 0.0, 17: 0.0, 18: 0.0, 19: 0.0, 20: 0.0, 21: 0.0, 22: 0.0, 23: 0.331592627, 24: 0.0, 25: 0.0, 26: 0.0, 27: 0.0, 28: 0.0, 29: 0.6891016170000001, 30: 0.0, 31: 0.49304216, 32: 0.0, 33: 0.0, 34: 0.0, 35: 0.42351175, 36: 0.0, 37: 0.0, 38: 0.514307897, 39: 0.0, 40: 0.0, 41: 1.120779733, 42: 0.373258627, 43: 0.0, 44: 0.76835064, 45: 0.54211829, 46: 0.227289893, 47: 0.365570833, 48: 0.252320467, 49: 0.0, 50: 1.45748135, 51: 0.0, 52: 0.9113317, 53: 1.154264567, 54: 0.0, 55: 0.0, 56: 0.553476, 57: 0.0, 58: 0.0, 59: 0.622764267, 60: 0.0, 61: 0.457392483, 62: 0.0, 63: 0.876198133, 64: 0.169414632, 65: 0.0, 66: 0.0, 67: 0.700662413, 68: 0.0, 69: 0.568316173, 70: 0.0, 71: 0.0, 72: 0.711196967, 73: 0.0, 74: 0.0, 75: 0.0, 76: 0.6489786829999999, 77: 0.0, 78: 0.68254626, 79: 0.0, 80: 0.0, 81: 0.0, 82: 0.361572577, 83: 0.346954783, 84: 0.0, 85: 0.0, 86: 0.0, 87: 0.0, 88: 0.42993026, 89: 0.403023187, 90: 0.0, 91: 0.387847273, 92: 0.404134667, 93: 0.0, 94: 0.0, 95: 0.371356837];
total_cost = 51.146293045;
total_earn = 19.642153635;
% _objective = 31.50413941;