production = [0: 0.0, 1: 0.0, 2: 0.0, 3: 0.0, 4: 0.0, 5: 0.0, 6: 0.0, 7: 0.0, 8: 0.0, 9: 0.0, 10: 0.0, 11: 0.0, 12: 0.0, 13: 0.0, 14: 0.0, 15: 0.0, 16: 0.0, 17: 0.0, 18: 0.0, 19: 0.0, 20: 0.0, 21: 0.0, 22: 0.0, 23: 0.0, 24: 0.0208, 25: 0.0, 26: 0.0, 27: 0.159, 28: 0.2005, 29: 0.2555, 30: 0.2865, 31: 0.0, 32: 0.0, 33: 0.5847, 34: 0.0, 35: 0.589, 36: 0.0, 37: 1.098, 38: 1.1407, 39: 1.102966667, 40: 1.0292, 41: 1.587, 42: 0.0, 43: 0.753, 44: 0.0, 45: 0.0, 46: 0.0, 47: 0.8165, 48: 0.0, 49: 0.0, 50: 1.9235, 51: 1.7167, 52: 0.0, 53: 0.0, 54: 1.4545, 55: 1.278, 56: 0.6587, 57: 0.7222, 58: 0.0, 59: 0.6595, 60: 0.0, 61: 0.0, 62: 0.5475, 63: 0.0, 64: 0.0, 65: 0.0, 66: 0.0, 67: 0.0, 68: 0.1477, 69: 0.1633, 70: 0.1435, 71: 0.0, 72: 0.0, 73: 0.0, 74: 0.0005, 75: 0.0, 76: 0.0, 77: 0.0, 78: 0.0, 79: 0.0, 80: 0.0, 81: 0.0, 82: 0.0, 83: 0.0, 84: 0.0, 85: 0.0, 86: 0.0, 87: 0.0, 88: 0.0, 89: 0.0, 90: 0.0, 91: 0.0, 92: 0.0, 93: 0.0, 94: 0.0, 95: 0.0];
buy = [0: 0.227866667, 1: 0.0, 2: 1.237166667, 3: 1.237166667, 4: 0.235366667, 5: 1.230866667, 6: 1.231166667, 7: 0.0, 8: 1.237866667, 9: 1.239166667, 10: 1.227166667, 11: 1.227366667, 12: 0.238166667, 13: 0.240166667, 14: 0.229166667, 15: 0.230666667, 16: 0.0, 17: 0.117966667, 18: 0.117666667, 19: 1.518666667, 20: 0.379666667, 21: 0.0, 22: 0.0, 23: 0.0, 24: 0.0, 25: 0.0, 26: 1.100866667, 27: 0.0, 28: 0.0, 29: 0.0, 30: 0.0, 31: 0.09986666700000001, 32: 0.109166667, 33: 0.523666667, 34: 0.09986666700000001, 35: 0.511166667, 36: 1.107866667, 37: 0.0, 38: 0.0, 39: 0.0, 40: 0.0, 41: 0.0, 42: 0.112866667, 43: 0.0, 44: 1.099666667, 45: 1.102466667, 46: 0.0, 47: 0.0, 48: 0.0, 49: 0.093966667, 50: 0.0, 51: 0.0, 52: 1.112466667, 53: 0.430166667, 54: 0.0, 55: 0.494166667, 56: 0.0, 57: 0.114666667, 58: 0.445866667, 59: 0.0, 60: 1.112166667, 61: 0.0, 62: 0.563466667, 63: 1.104666667, 64: 1.100866667, 65: 1.107666667, 66: 0.0, 67: 0.0, 68: 0.0, 69: 0.0, 70: 0.0, 71: 0.0, 72: 0.45351008, 73: 1.090366667, 74: 0.08966666700000001, 75: 0.099666667, 76: 0.0, 77: 0.113166667, 78: 1.108366667, 79: 0.106866667, 80: 0.422666667, 81: 0.0, 82: 1.358966667, 83: 0.0, 84: 1.362466667, 85: 1.325866667, 86: 0.0, 87: 1.233666667, 88: 0.226866667, 89: 1.224466667, 90: 1.233166667, 91: 1.233366667, 92: 1.226666667, 93: 0.505899836, 94: 0.227166667, 95: 1.234366667];
sell = [0: 0.0, 1: 0.6736333329999999, 2: 0.0, 3: 0.0, 4: 0.0, 5: 0.0, 6: 0.0, 7: 0.661833333, 8: 0.0, 9: 0.0, 10: 0.0, 11: 0.0, 12: 0.0, 13: 0.0, 14: 0.0, 15: 0.0, 16: 0.0, 17: 0.0, 18: 0.0, 19: 0.0, 20: 0.0, 21: 0.565633333, 22: 0.5116047379999999, 23: 0.6081333330000001, 24: 0.694433333, 25: 0.676533333, 26: 0.0, 27: 0.050833333, 28: 0.991533333, 29: 1.053833333, 30: 1.083833333, 31: 0.0, 32: 0.0, 33: 0.0, 34: 0.0, 35: 0.0, 36: 0.0, 37: 1.881833333, 38: 0.029233333, 39: 0.0, 40: 1.821533333, 41: 2.374533333, 42: 0.0, 43: 1.544833333, 44: 0.0, 45: 0.0, 46: 0.7885333329999999, 47: 0.708333333, 48: 0.209643138, 49: 0.0, 50: 1.827833333, 51: 0.612533333, 52: 0.0, 53: 0.0, 54: 1.912633333, 55: 0.0, 56: 0.998333333, 57: 0.0, 58: 0.0, 59: 1.107333333, 60: 0.0, 61: 0.789833333, 62: 0.0, 63: 0.0, 64: 0.0, 65: 0.0, 66: 0.7905333329999999, 67: 0.790033333, 68: 0.945733333, 69: 0.961833333, 70: 0.034033333, 71: 0.0, 72: 0.0, 73: 0.0, 74: 0.0, 75: 0.0, 76: 0.784833333, 77: 0.0, 78: 0.0, 79: 0.0, 80: 0.0, 81: 0.5365333329999999, 82: 0.0, 83: 0.538833333, 84: 0.0, 85: 0.0, 86: 0.652333333, 87: 0.0, 88: 0.0, 89: 0.0, 90: 0.0, 91: 0.0, 92: 0.0, 93: 0.0, 94: 0.0, 95: 0.0];
charge = [0: 0.0, 1: 0.0, 2: 1.0, 3: 1.0, 4: 0.0, 5: 1.0, 6: 1.0, 7: 0.0, 8: 1.0, 9: 1.0, 10: 1.0, 11: 1.0, 12: 0.0, 13: 0.0, 14: 0.0, 15: 0.0, 16: 0.0, 17: 0.0, 18: 0.0, 19: 1.0, 20: 0.0, 21: 0.0, 22: 0.0, 23: 0.0, 24: 0.0, 25: 0.0, 26: 1.0, 27: 0.0, 28: 0.0, 29: 0.0, 30: 0.0, 31: 0.0, 32: 0.0, 33: 1.0, 34: 0.0, 35: 1.0, 36: 1.0, 37: 0.0, 38: 1.0, 39: 1.0, 40: 0.0, 41: 0.0, 42: 0.0, 43: 0.0, 44: 1.0, 45: 1.0, 46: 0.0, 47: 0.0, 48: 0.0, 49: 0.0, 50: 0.0, 51: 1.0, 52: 1.0, 53: 0.0, 54: 0.0, 55: 1.0, 56: 0.0, 57: 0.0, 58: 0.0, 59: 0.0, 60: 1.0, 61: 0.0, 62: 1.0, 63: 1.0, 64: 1.0, 65: 1.0, 66: 0.0, 67: 0.0, 68: 0.0, 69: 0.0, 70: 0.0, 71: 0.0, 72: 0.342343413, 73: 1.0, 74: 0.0, 75: 0.0, 76: 0.0, 77: 0.0, 78: 1.0, 79: 0.0, 80: 0.0, 81: 0.0, 82: 1.0, 83: 0.0, 84: 1.0, 85: 1.0, 86: 0.0, 87: 1.0, 88: 0.0, 89: 1.0, 90: 1.0, 91: 1.0, 92: 1.0, 93: 0.281233169, 94: 0.0, 95: 1.0];
discharge = [0: 0.0, 1: 1.0, 2: 0.0, 3: 0.0, 4: 0.0, 5: 0.0, 6: 0.0, 7: 1.0, 8: 0.0, 9: 0.0, 10: 0.0, 11: 0.0, 12: 0.0, 13: 0.0, 14: 0.0, 15: 0.0, 16: 0.122740741, 17: 0.0, 18: 0.0, 19: 0.0, 20: 0.0, 21: 1.0, 22: 0.945079338, 23: 1.0, 24: 1.0, 25: 1.0, 26: 0.0, 27: 0.0, 28: 1.0, 29: 1.0, 30: 1.0, 31: 0.0, 32: 0.0, 33: 0.0, 34: 0.0, 35: 0.0, 36: 0.0, 37: 1.0, 38: 0.0, 39: 0.0, 40: 1.0, 41: 1.0, 42: 0.0, 43: 1.0, 44: 0.0, 45: 0.0, 46: 1.0, 47: 0.0, 48: 0.34067756, 49: 0.0, 50: 0.0, 51: 0.0, 52: 0.0, 53: 0.0, 54: 1.0, 55: 0.0, 56: 1.0, 57: 0.0, 58: 0.0, 59: 1.0, 60: 0.0, 61: 1.0, 62: 0.0, 63: 0.0, 64: 0.0, 65: 0.0, 66: 1.0, 67: 1.0, 68: 1.0, 69: 1.0, 70: 0.0, 71: 0.125407407, 72: 0.0, 73: 0.0, 74: 0.0, 75: 0.0, 76: 1.0, 77: 0.0, 78: 0.0, 79: 0.0, 80: 0.0, 81: 1.0, 82: 0.0, 83: 1.0, 84: 0.0, 85: 0.0, 86: 1.0, 87: 0.0, 88: 0.0, 89: 0.0, 90: 0.0, 91: 0.0, 92: 0.0, 93: 0.0, 94: 0.0, 95: 0.0];
soc = [0: 3.759248, 1: 2.75849615, 2: 3.657944451, 3: 4.557212862, 4: 4.55630142, 5: 5.455390159, 6: 6.354299081, 7: 5.353028222, 8: 6.251957616, 9: 7.150707224, 10: 8.049277083, 11: 8.947667228, 12: 8.945877694, 13: 8.944088518999999, 14: 8.942299701, 15: 8.940511240999999, 16: 8.815982397999999, 17: 8.814219201, 18: 8.812456358, 19: 9.710693866, 20: 9.708751727999999, 21: 8.706809977000001, 22: 7.759989277, 23: 6.758437279, 24: 5.757085591, 25: 4.755934174, 26: 5.654982987, 27: 5.653851991, 28: 4.65272122, 29: 3.651790676, 30: 2.651060318, 31: 2.650530106, 32: 2.65, 33: 3.54947, 34: 3.548760106, 35: 4.448050354, 36: 5.347160744, 37: 4.346091312, 38: 5.245222093, 39: 6.144173049, 40: 5.142944214, 41: 4.141915626, 42: 4.141087243, 43: 3.140259025, 44: 4.039630973, 45: 4.938823047, 46: 3.937835282, 47: 3.937047715, 48: 3.595582746, 49: 3.594863629, 50: 3.594144656, 51: 4.493425827, 52: 5.392527142, 53: 5.391448637, 54: 4.390370347, 55: 5.289492273, 56: 4.288434374, 57: 4.287576688, 58: 4.286719172, 59: 3.285861828, 60: 4.185204656, 61: 3.184367615, 62: 4.083730742, 63: 4.982913995, 64: 5.881917413, 65: 6.780741029, 66: 5.779384881, 67: 4.778229004, 68: 3.777273358, 69: 2.776517904, 70: 2.7759626, 71: 2.65, 72: 2.957579072, 73: 3.856987556, 74: 3.856216159, 75: 3.855444915, 76: 2.854673826, 77: 2.854102892, 78: 3.753532071, 79: 3.752781365, 80: 3.752030808, 81: 2.751280402, 82: 3.650730146, 83: 2.65, 84: 3.54947, 85: 4.448760106, 86: 3.447870354, 87: 4.34718078, 88: 4.346311344, 89: 5.245442081, 90: 6.144392993, 91: 7.043164114, 92: 7.941755482, 93: 8.193276983000001, 94: 8.191638328, 95: 9.09];
cost = [0: 0.139203747, 1: 0.0, 2: 0.873963282, 3: 0.873963282, 4: 0.143785497, 5: 0.870114612, 6: 0.870297882, 7: 0.0, 8: 0.874390912, 9: 0.875185082, 10: 0.867854282, 11: 0.867976462, 12: 0.145496017, 13: 0.146717817, 14: 0.139997917, 15: 0.140914267, 16: 0.0, 17: 0.07206583699999999, 18: 0.07188256699999999, 19: 1.045931632, 20: 0.231938367, 21: 0.0, 22: 0.0, 23: 0.0, 24: 0.0, 25: 0.0, 26: 1.427769152, 27: 0.0, 28: 0.0, 29: 0.0, 30: 0.0, 31: 0.118801387, 32: 0.129864667, 33: 0.741132032, 34: 0.118801387, 35: 0.7262620319999999, 36: 1.436096352, 37: 0.0, 38: 0.118178165, 39: 0.118178165, 40: 0.0, 41: 0.0, 42: 0.134266187, 43: 0.0, 44: 1.426341632, 45: 1.429672512, 46: 0.0, 47: 0.0, 48: 0.0, 49: 0.111782747, 50: 0.0, 51: 0.118178165, 52: 0.797784052, 53: 0.262788817, 54: 0.0, 55: 0.420064582, 56: 0.0, 57: 0.070049867, 58: 0.272379947, 59: 0.0, 60: 1.441211632, 61: 0.0, 62: 0.788478112, 63: 1.432289632, 64: 1.427769152, 65: 1.435858432, 66: 0.0, 67: 0.0, 68: 0.0, 69: 0.0, 70: 0.0, 71: 0.0, 72: 0.579953107, 73: 1.415278352, 74: 0.106667467, 75: 0.118563467, 76: 0.0, 77: 0.134623067, 78: 1.436691152, 79: 0.127128587, 80: 0.502804267, 81: 0.0, 82: 1.734804912, 83: 0.0, 84: 1.738968512, 85: 1.695429152, 86: 0.0, 87: 1.585748032, 88: 0.138592847, 89: 0.866204852, 90: 0.871519682, 91: 0.871641862, 92: 0.867548832, 93: 0.34228983, 94: 0.138776117, 95: 0.872252762];
earn = [0: 0.0, 1: 0.36194319, 2: 0.0, 3: 0.0, 4: 0.0, 5: 0.0, 6: 0.0, 7: 0.335284767, 8: 0.0, 9: 0.0, 10: 0.0, 11: 0.0, 12: 0.0, 13: 0.0, 14: 0.0, 15: 0.0, 16: 0.0, 17: 0.0, 18: 0.0, 19: 0.0, 20: 0.0, 21: 0.29950285, 22: 0.276982805, 23: 0.329425827, 24: 0.41207674, 25: 0.4069348, 26: 0.0, 27: 0.031160833, 28: 0.6454882, 29: 0.6891016170000001, 30: 0.692027583, 31: 0.0, 32: 0.0, 33: 0.0, 34: 0.0, 35: 0.0, 36: 0.0, 37: 0.923791983, 38: 0.014607897, 39: 0.0, 40: 0.881804287, 41: 1.120779733, 42: 0.0, 43: 0.7929629500000001, 44: 0.0, 45: 0.0, 46: 0.403177093, 47: 0.365570833, 48: 0.111991364, 49: 0.0, 50: 0.97661135, 51: 0.329604187, 52: 0.0, 53: 0.0, 54: 1.066866873, 55: 0.0, 56: 0.553476, 57: 0.0, 58: 0.0, 59: 0.622764267, 60: 0.0, 61: 0.457392483, 62: 0.0, 63: 0.0, 64: 0.0, 65: 0.0, 66: 0.551713213, 67: 0.553971373, 68: 0.650475387, 69: 0.684536783, 70: 0.02507576, 71: 0.0, 72: 0.0, 73: 0.0, 74: 0.0, 75: 0.0, 76: 0.6489786829999999, 77: 0.0, 78: 0.0, 79: 0.0, 80: 0.0, 81: 0.365271893, 82: 0.0, 83: 0.346954783, 84: 0.0, 85: 0.0, 86: 0.418145667, 87: 0.0, 88: 0.0, 89: 0.0, 90: 0.0, 91: 0.0, 92: 0.0, 93: 0.0, 94: 0.0, 95: 0.0];
total_cost = 41.901165122;
total_earn = 17.346454056;
% _objective = 24.554711066;