production = [0: 0.0, 1: 0.0, 2: 0.0, 3: 0.0, 4: 0.0, 5: 0.0, 6: 0.0, 7: 0.0, 8: 0.0, 9: 0.0, 10: 0.0, 11: 0.0, 12: 0.0, 13: 0.0, 14: 0.0, 15: 0.0, 16: 0.0, 17: 0.0, 18: 0.0, 19: 0.0, 20: 0.0, 21: 0.0, 22: 0.0, 23: 0.0006089999999999999, 24: 0.002816, 25: 0.039902, 26: 0.058016, 27: 0.060816, 28: 0.109792, 29: 0.236843, 30: 0.203626, 31: 0.035854, 32: 0.135518, 33: 0.347056, 34: 0.053542, 35: 0.112862, 36: 0.852453, 37: 0.234562, 38: 0.119907, 39: 0.406032, 40: 0.063329, 41: 0.25675, 42: 0.293156, 43: 0.992329, 44: 1.341419, 45: 1.434022, 46: 0.128113, 47: 1.208752, 48: 0.707368, 49: 1.630008, 50: 0.398701, 51: 0.296751, 52: 0.026115, 53: 1.109157, 54: 0.175406, 55: 1.152784, 56: 0.168994, 57: 0.31784, 58: 0.683675, 59: 0.958884, 60: 0.710645, 61: 0.352503, 62: 0.36101, 63: 0.57797, 64: 0.318239, 65: 0.026179, 66: 0.31494, 67: 0.216047, 68: 0.059023, 69: 0.058758, 70: 0.01332, 71: 0.01064, 72: 0.002736, 73: 0.000188, 74: 0.0, 75: 0.0, 76: 0.0, 77: 0.0, 78: 0.0, 79: 0.0, 80: 0.0, 81: 0.0, 82: 0.0, 83: 0.0, 84: 0.0, 85: 0.0, 86: 0.0, 87: 0.0, 88: 0.0, 89: 0.0, 90: 0.0, 91: 0.0, 92: 0.0, 93: 0.0, 94: 0.0, 95: 0.0];
buy = [0: 471.605724, 1: 328.524748, 2: 435.8677, 3: 170.296798, 4: 875.8797029999999, 5: 704.012006, 6: 90.237388, 7: 915.1117389999999, 8: 177.388139, 9: 288.153522, 10: 340.059405, 11: 255.503296, 12: 243.683172, 13: 751.6496529999999, 14: 945.146965, 15: 809.132617, 16: 185.848808, 17: 722.679031, 18: 500.906181, 19: 493.32447, 20: 954.296702, 21: 817.011986, 22: 693.9288790000001, 23: 323.1804, 24: 558.115833, 25: 256.383804, 26: 495.018053, 27: 959.082043, 28: 123.818216, 29: 655.02128, 30: 232.376973, 31: 796.017016, 32: 368.256758, 33: 22.537061, 34: 50.403322, 35: 87.30588400000001, 36: 175.50363, 37: 431.953357, 38: 623.720369, 39: 676.762561, 40: 658.6835610000001, 41: 38.993656, 42: 397.719093, 43: 980.408682, 44: 947.6547890000001, 45: 871.833695, 46: 987.4625129999999, 47: 281.632924, 48: 651.162332, 49: 702.03823, 50: 172.135359, 51: 661.520225, 52: 980.538235, 53: 198.796717, 54: 575.429096, 55: 656.995724, 56: 562.283538, 57: 95.576528, 58: 740.220064, 59: 348.191752, 60: 929.895731, 61: 515.449444, 62: 86.559676, 63: 721.23109, 64: 361.275632, 65: 936.606803, 66: 765.542114, 67: 27.684677, 68: 952.493801, 69: 327.533486, 70: 866.82221, 71: 927.514632, 72: 38.6575, 73: 577.817548, 74: 603.7888, 75: 426.44204, 76: 364.418388, 77: 818.653462, 78: 692.555348, 79: 861.0906670000001, 80: 4.041422, 81: 870.547361, 82: 74.286404, 83: 60.063372, 84: 116.332161, 85: 895.736642, 86: 566.353523, 87: 31.000531, 88: 249.333397, 89: 456.916425, 90: 419.960889, 91: 681.033801, 92: 146.372625, 93: 918.161004, 94: 496.397495, 95: 427.155219];
sell = [0: 3.863073, 1: 1.55693, 2: 2.577569, 3: 0.806528, 4: 1.724399, 5: 3.743701, 6: 1.190257, 7: 1.971054, 8: 2.155427, 9: 1.92546, 10: 0.765772, 11: 3.404238, 12: 3.899666, 13: 2.212569, 14: 2.149406, 15: 1.626686, 16: 2.171065, 17: 2.487106, 18: 3.062186, 19: 1.777407, 20: 2.600116, 21: 3.807246, 22: 0.306908, 23: 2.726627, 24: 0.632292, 25: 1.749048, 26: 2.13691, 27: 3.521267, 28: 1.359313, 29: 2.453082, 30: 0.566045, 31: 1.122494, 32: 1.589822, 33: 3.319781, 34: 2.034547, 35: 0.225571, 36: 2.472306, 37: 0.011452, 38: 0.478273, 39: 0.421749, 40: 2.071723, 41: 2.982851, 42: 0.832582, 43: 3.807294, 44: 3.962338, 45: 2.194924, 46: 0.457592, 47: 3.469563, 48: 1.069897, 49: 3.893565, 50: 3.053328, 51: 0.777417, 52: 3.771383, 53: 3.584375, 54: 2.001844, 55: 0.062027, 56: 0.03329, 57: 3.248752, 58: 1.893225, 59: 2.591798, 60: 1.546348, 61: 1.145249, 62: 1.247088, 63: 3.623784, 64: 3.517479, 65: 3.418673, 66: 3.936533, 67: 0.381475, 68: 2.704698, 69: 0.547665, 70: 2.407108, 71: 1.245289, 72: 1.515398, 73: 3.119027, 74: 2.806455, 75: 3.361048, 76: 1.898308, 77: 0.304448, 78: 1.495827, 79: 3.969235, 80: 2.576242, 81: 1.327834, 82: 0.482634, 83: 2.22203, 84: 1.225468, 85: 3.773299, 86: 0.393646, 87: 0.213435, 88: 1.52315, 89: 2.404114, 90: 3.041172, 91: 0.337012, 92: 0.181673, 93: 3.232642, 94: 3.122937, 95: 3.27906];
charge = [0: 0.79052, 1: 0.036541, 2: 0.248474, 3: 0.9688099999999999, 4: 0.404635, 5: 0.589745, 6: 0.4945, 7: 0.909305, 8: 0.011678, 9: 0.5078009999999999, 10: 0.752296, 11: 0.272172, 12: 0.404548, 13: 0.816789, 14: 0.692486, 15: 0.289194, 16: 0.07659100000000001, 17: 0.067411, 18: 0.84751, 19: 0.313888, 20: 0.770104, 21: 0.125801, 22: 0.671774, 23: 0.5924509999999999, 24: 0.085281, 25: 0.479655, 26: 0.595888, 27: 0.275441, 28: 0.525088, 29: 0.333515, 30: 0.441863, 31: 0.899889, 32: 0.8640139999999999, 33: 0.447865, 34: 0.558489, 35: 0.475274, 36: 0.509454, 37: 0.627869, 38: 0.633151, 39: 0.656174, 40: 0.809492, 41: 0.53389, 42: 0.803939, 43: 0.345712, 44: 0.6511940000000001, 45: 0.957763, 46: 0.740474, 47: 0.603902, 48: 0.309157, 49: 0.323215, 50: 0.527044, 51: 0.688426, 52: 0.642873, 53: 0.041683, 54: 0.933963, 55: 0.560794, 56: 0.298935, 57: 0.592145, 58: 0.383022, 59: 0.046233, 60: 0.145323, 61: 0.899442, 62: 0.717425, 63: 0.521307, 64: 0.838398, 65: 0.9087460000000001, 66: 0.901702, 67: 0.297022, 68: 0.220028, 69: 0.860249, 70: 0.986229, 71: 0.243583, 72: 0.096668, 73: 0.194377, 74: 0.499587, 75: 0.199222, 76: 0.134464, 77: 0.85102, 78: 0.584961, 79: 0.682315, 80: 0.533451, 81: 0.036455, 82: 0.192498, 83: 0.532034, 84: 0.671436, 85: 0.546737, 86: 0.463245, 87: 0.74155, 88: 0.183669, 89: 0.565016, 90: 0.06002, 91: 0.2988, 92: 0.286851, 93: 0.169052, 94: 0.936029, 95: 0.977406];
discharge = [0: 0.732274, 1: 0.986946, 2: 0.185961, 3: 0.772935, 4: 0.607495, 5: 0.454533, 6: 0.316116, 7: 0.508359, 8: 0.206467, 9: 0.969091, 10: 0.132586, 11: 0.304725, 12: 0.121212, 13: 0.448947, 14: 0.49839, 15: 0.109996, 16: 0.865527, 17: 0.397429, 18: 0.696817, 19: 0.239903, 20: 0.908458, 21: 0.010116, 22: 0.307708, 23: 0.577495, 24: 0.100126, 25: 0.397727, 26: 0.926745, 27: 0.749604, 28: 0.428399, 29: 0.756448, 30: 0.715041, 31: 0.889868, 32: 0.6671, 33: 0.937662, 34: 0.250816, 35: 0.457442, 36: 0.696689, 37: 0.355847, 38: 0.652742, 39: 0.001187, 40: 0.646739, 41: 0.9989170000000001, 42: 0.173807, 43: 0.355399, 44: 0.979398, 45: 0.916044, 46: 0.091459, 47: 0.165824, 48: 0.960414, 49: 0.863974, 50: 0.150358, 51: 0.093844, 52: 0.126637, 53: 0.399793, 54: 0.168717, 55: 0.296596, 56: 0.942941, 57: 0.815268, 58: 0.865078, 59: 0.971102, 60: 0.6115620000000001, 61: 0.9970830000000001, 62: 0.985411, 63: 0.246467, 64: 0.482517, 65: 0.436232, 66: 0.780767, 67: 0.843964, 68: 0.52604, 69: 0.714637, 70: 0.352851, 71: 0.643878, 72: 0.707381, 73: 0.804792, 74: 0.092865, 75: 0.917079, 76: 0.324423, 77: 0.234937, 78: 0.63811, 79: 0.69097, 80: 0.431772, 81: 0.249527, 82: 0.750988, 83: 0.874099, 84: 0.011669, 85: 0.86368, 86: 0.711162, 87: 0.098344, 88: 0.228528, 89: 0.152034, 90: 0.506811, 91: 0.008067, 92: 0.878485, 93: 0.639583, 94: 0.241547, 95: 0.351618];
soc = [0: 8.329097000000001, 1: 7.553635, 2: 9.89531, 3: 10.208479, 4: 7.216453, 5: 8.817076999999999, 6: 14.715063, 7: 14.819486, 8: 10.909638, 9: 6.11886, 10: 12.246341, 11: 5.16197, 12: 15.349992, 13: 6.728258, 14: 11.95169, 15: 4.165361, 16: 15.474584, 17: 11.161496, 18: 9.118646999999999, 19: 10.249391, 20: 12.292595, 21: 6.975705, 22: 12.254656, 23: 6.520185, 24: 7.905468, 25: 6.212073, 26: 7.688664, 27: 8.52234, 28: 3.756348, 29: 5.478321, 30: 10.91515, 31: 8.909020999999999, 32: 15.621385, 33: 8.122892999999999, 34: 7.83767, 35: 3.116839, 36: 3.13543, 37: 14.493356, 38: 14.075579, 39: 5.956202, 40: 8.988638, 41: 14.675966, 42: 7.588489, 43: 3.486365, 44: 11.211982, 45: 5.115099, 46: 10.00039, 47: 8.612937000000001, 48: 9.314584, 49: 2.738145, 50: 7.222181, 51: 4.564561, 52: 6.280338, 53: 14.576618, 54: 7.01056, 55: 11.419648, 56: 4.227186, 57: 6.142017, 58: 11.987118, 59: 13.250259, 60: 8.212762, 61: 8.714489, 62: 14.225737, 63: 15.449681, 64: 12.017921, 65: 10.376276, 66: 7.136755, 67: 12.643555, 68: 12.792256, 69: 7.748873, 70: 3.499324, 71: 11.08007, 72: 15.293611, 73: 10.84344, 74: 15.248754, 75: 9.00667, 76: 8.64579, 77: 4.345558, 78: 14.727246, 79: 2.969398, 80: 4.029159, 81: 3.646094, 82: 5.239927, 83: 14.004374, 84: 13.790847, 85: 14.129447, 86: 7.002118, 87: 5.848496, 88: 10.389767, 89: 12.804738, 90: 12.098879, 91: 6.128623, 92: 4.975706, 93: 9.273623000000001, 94: 4.3336, 95: 14.56386];
cost = [0: 555.738299, 1: 562.892487, 2: 57.839675, 3: 334.100062, 4: 520.627654, 5: 520.903022, 6: 454.063159, 7: 336.347861, 8: 561.62099, 9: 20.23479, 10: 457.25301, 11: 166.147722, 12: 95.537178, 13: 244.654287, 14: 236.423988, 15: 77.6857, 16: 20.718542, 17: 38.643085, 18: 488.295748, 19: 517.933276, 20: 355.465251, 21: 90.825264, 22: 382.892633, 23: 571.292736, 24: 125.298634, 25: 534.475084, 26: 81.628666, 27: 87.97734199999999, 28: 26.865674, 29: 554.938486, 30: 401.067091, 31: 435.376841, 32: 466.210161, 33: 1075.465775, 34: 307.948187, 35: 55.070283, 36: 89.40226699999999, 37: 286.675437, 38: 484.632446, 39: 1064.01882, 40: 405.045572, 41: 584.394675, 42: 433.286574, 43: 398.219166, 44: 722.46559, 45: 999.012838, 46: 1049.9976, 47: 670.296954, 48: 1176.935054, 49: 824.876753, 50: 365.377518, 51: 823.1755470000001, 52: 121.881915, 53: 15.399698, 54: 44.46554, 55: 583.690074, 56: 91.301079, 57: 375.571404, 58: 368.176036, 59: 537.152296, 60: 71.169544, 61: 602.31402, 62: 1106.022189, 63: 479.682534, 64: 952.3564730000001, 65: 798.265631, 66: 808.448388, 67: 1068.789633, 68: 51.439174, 69: 498.556597, 70: 1163.604634, 71: 1128.899471, 72: 203.473856, 73: 577.769401, 74: 883.229328, 75: 992.936021, 76: 890.798693, 77: 1079.475277, 78: 561.8372869999999, 79: 531.045093, 80: 1009.685541, 81: 1168.576958, 82: 252.737547, 83: 1096.756841, 84: 857.239227, 85: 434.825259, 86: 315.833848, 87: 1070.1245, 88: 563.858894, 89: 507.375879, 90: 196.833069, 91: 511.342446, 92: 300.261851, 93: 6.29429, 94: 323.435811, 95: 597.543314];
earn = [0: 0.718148, 1: 0.723039, 2: 1.808799, 3: 0.578263, 4: 0.33629, 5: 0.002874, 6: 1.721596, 7: 1.703943, 8: 0.344589, 9: 0.558837, 10: 0.806202, 11: 2.201798, 12: 0.058756, 13: 1.072613, 14: 0.8665, 15: 0.763529, 16: 2.381252, 17: 0.21535, 18: 0.952765, 19: 2.465466, 20: 1.906925, 21: 0.453043, 22: 2.704025, 23: 1.397715, 24: 2.863417, 25: 2.130338, 26: 1.409499, 27: 3.24696, 28: 1.506078, 29: 2.886948, 30: 2.219779, 31: 2.010263, 32: 1.277443, 33: 1.230618, 34: 0.990362, 35: 1.011375, 36: 1.290599, 37: 1.539693, 38: 0.840232, 39: 0.765158, 40: 0.60415, 41: 0.162869, 42: 0.194884, 43: 0.041163, 44: 0.19463, 45: 0.016328, 46: 0.023157, 47: 0.047209, 48: 0.011095, 49: 0.024491, 50: 0.015189, 51: 0.061875, 52: 0.068956, 53: 0.07864699999999999, 54: 0.089699, 55: 0.290717, 56: 0.078849, 57: 0.102624, 58: 1.306111, 59: 1.58365, 60: 0.737814, 61: 1.175654, 62: 1.539815, 63: 0.524161, 64: 1.975784, 65: 0.65302, 66: 0.388981, 67: 1.811001, 68: 0.169471, 69: 1.057052, 70: 3.181781, 71: 2.476924, 72: 1.408571, 73: 1.634139, 74: 0.745385, 75: 0.926561, 76: 0.691126, 77: 1.476286, 78: 4.064964, 79: 2.467728, 80: 0.457407, 81: 0.06033, 82: 0.810105, 83: 3.085166, 84: 0.169909, 85: 2.002486, 86: 0.188434, 87: 1.800151, 88: 0.883231, 89: 1.643641, 90: 1.594144, 91: 0.553679, 92: 0.68572, 93: 0.98548, 94: 0.492772, 95: 0.345151];
total_cost = 44.51930652297118;
total_earn = 20.94274970083729;
