t_strength = 
[|    UNSKILLED: SEMI_SKILLED: SKILLED: 
 | 0:      1800,         1200,     800
 | 1:      1200,         1320,    1022
 | 2:       700,         1605,    1515
 | 3:       320,         1800,    1920
 |];
u_recruit = 
[| UNSKILLED: SEMI_SKILLED: SKILLED: 
 |       400,          600,       0
 |       400,          600,     600
 |         0,          600,      92
 |];
v_US_SS = [0, 250, 250];
v_SS_SK = [275, 453, 401];
v_SK_SS = [0, 451, 4];
v_SK_US = [10, 1, 0];
v_SS_US = [0, 149, 0];
w_redundancy = 
[| UNSKILLED: SEMI_SKILLED: SKILLED: 
 |       616,            1,       0
 |       440,            0,       1
 |        25,            0,       0
 |];
x_short = 
[| UNSKILLED: SEMI_SKILLED: SKILLED: 
 |         0,            0,       0
 |         0,            0,       0
 |         0,            0,      40
 |];
y_overmanning = 
[| UNSKILLED: SEMI_SKILLED: SKILLED: 
 |         0,           20,      22
 |         0,            5,     115
 |       120,            0,       0
 |];
% _objective = 1083.0;
