t_strength = 
[|    UNSKILLED: SEMI_SKILLED: SKILLED: 
 | 0:      1800,         1200,     800
 | 1:      1200,         1420,    1000
 | 2:       812,         1624,    1424
 | 3:       200,         1800,    1900
 |];
u_recruit = 
[| UNSKILLED: SEMI_SKILLED: SKILLED: 
 |         2,          600,       0
 |         0,          390,     600
 |       400,          600,     600
 |];
v_US_SS = [250, 0, 1];
v_SS_SK = [275, 0, 1];
v_SK_SS = [30, 3, 20];
v_SK_US = [2, 81, 0];
v_SS_US = [149, 4, 198];
w_redundancy = 
[| UNSKILLED: SEMI_SKILLED: SKILLED: 
 |       172,            0,       0
 |       259,            0,       4
 |       888,            0,       0
 |];
x_short = 
[| UNSKILLED: SEMI_SKILLED: SKILLED: 
 |         0,            0,       0
 |        40,           40,       0
 |         0,            0,       0
 |];
y_overmanning = 
[| UNSKILLED: SEMI_SKILLED: SKILLED: 
 |         0,          120,       0
 |        92,            4,      24
 |         0,            0,       0
 |];
% _objective = 1323.0;
