production = [0: 0.0, 1: 0.0, 2: 0.0, 3: 0.0, 4: 0.0, 5: 0.0, 6: 0.0, 7: 0.0, 8: 0.0, 9: 0.0, 10: 0.0, 11: 0.0, 12: 0.0, 13: 0.0, 14: 0.0, 15: 0.0, 16: 0.0, 17: 0.0, 18: 0.0, 19: 0.0, 20: 0.0, 21: 0.0, 22: 0.0, 23: 0.000232, 24: 0.000146, 25: 0.000238, 26: 0.002233, 27: 0.008657, 28: 0.005723, 29: 0.042856, 30: 0.068704, 31: 0.094606, 32: 0.098495, 33: 0.044416, 34: 0.133356, 35: 0.179734, 36: 0.351643, 37: 0.171193, 38: 0.167583, 39: 0.01536, 40: 0.477473, 41: 0.533126, 42: 0.213394, 43: 0.5162910000000001, 44: 0.439656, 45: 0.523401, 46: 0.551859, 47: 0.553827, 48: 0.184951, 49: 0.229202, 50: 1.513343, 51: 0.376802, 52: 0.1452, 53: 0.49832, 54: 1.350319, 55: 0.076363, 56: 0.02863, 57: 0.433646, 58: 0.625958, 59: 0.114125, 60: 0.102701, 61: 0.516797, 62: 0.029791, 63: 0.258836, 64: 0.028312, 65: 0.977989, 66: 0.511911, 67: 0.254432, 68: 0.074937, 69: 0.366713, 70: 0.288764, 71: 0.275864, 72: 0.041591, 73: 0.142522, 74: 0.055547, 75: 0.02507, 76: 0.009825, 77: 0.012558, 78: 0.00182, 79: 0.0, 80: 0.0, 81: 0.0, 82: 0.0, 83: 0.0, 84: 0.0, 85: 0.0, 86: 0.0, 87: 0.0, 88: 0.0, 89: 0.0, 90: 0.0, 91: 0.0, 92: 0.0, 93: 0.0, 94: 0.0, 95: 0.0, 96: 0.0, 97: 0.0, 98: 0.0, 99: 0.0, 100: 0.0, 101: 0.0, 102: 0.0, 103: 0.0, 104: 0.0, 105: 0.0, 106: 0.0, 107: 0.0, 108: 0.0, 109: 0.0, 110: 0.0, 111: 0.0, 112: 0.0, 113: 0.0, 114: 0.0, 115: 0.0, 116: 0.0, 117: 0.0, 118: 0.0, 119: 0.000214, 120: 0.0, 121: 0.00083, 122: 0.005905, 123: 0.0134, 124: 0.047946, 125: 0.02047, 126: 0.052695, 127: 0.032176, 128: 0.033314, 129: 0.100058, 130: 0.052939, 131: 0.002854, 132: 0.134932, 133: 0.10571, 134: 0.065496, 135: 0.153914, 136: 0.47443, 137: 0.183362, 138: 0.223379, 139: 0.344455, 140: 0.272529, 141: 0.224463, 142: 0.444893, 143: 0.492125, 144: 0.277398, 145: 0.614211, 146: 0.833755, 147: 0.77279, 148: 0.414365, 149: 0.533052, 150: 1.039635, 151: 0.487897, 152: 0.244948, 153: 0.613841, 154: 0.225638, 155: 1.201045, 156: 0.191195, 157: 0.081285, 158: 0.133, 159: 0.353235, 160: 0.014185, 161: 0.700047, 162: 0.696837, 163: 0.178397, 164: 0.288622, 165: 0.392121, 166: 0.060627, 167: 0.313036, 168: 0.196135, 169: 0.133102, 170: 0.038099, 171: 0.04988, 172: 0.001118, 173: 0.002846, 174: 0.000237, 175: 0.000606, 176: 0.00034, 177: 0.0, 178: 0.0, 179: 0.0, 180: 0.0, 181: 0.0, 182: 0.0, 183: 0.0, 184: 0.0, 185: 0.0, 186: 0.0, 187: 0.0, 188: 0.0, 189: 0.0, 190: 0.0, 191: 0.0];
buy = [0: 953.788842, 1: 339.722101, 2: 666.286724, 3: 90.753775, 4: 577.384496, 5: 281.473034, 6: 801.313445, 7: 174.841812, 8: 489.79058, 9: 691.277905, 10: 137.792066, 11: 483.292489, 12: 590.852379, 13: 73.711956, 14: 503.934696, 15: 208.584363, 16: 72.448396, 17: 868.054387, 18: 716.324174, 19: 632.195456, 20: 648.0761199999999, 21: 922.615525, 22: 15.454959, 23: 247.082992, 24: 611.711581, 25: 308.804536, 26: 633.756031, 27: 675.51626, 28: 582.077399, 29: 470.57377, 30: 155.330819, 31: 459.469964, 32: 727.474073, 33: 292.051995, 34: 219.699072, 35: 503.956996, 36: 865.2734369999999, 37: 600.744945, 38: 855.932168, 39: 321.163073, 40: 300.199922, 41: 748.853295, 42: 474.175924, 43: 377.037169, 44: 518.180691, 45: 445.044858, 46: 540.267833, 47: 409.451111, 48: 80.39649799999999, 49: 383.500658, 50: 375.210554, 51: 905.59145, 52: 707.519433, 53: 22.455252, 54: 504.381036, 55: 778.858193, 56: 787.3148190000001, 57: 293.060896, 58: 176.367039, 59: 13.488911, 60: 364.247915, 61: 840.907774, 62: 899.598306, 63: 954.769704, 64: 159.702768, 65: 796.296996, 66: 11.515774, 67: 506.789869, 68: 166.067095, 69: 537.594885, 70: 941.522779, 71: 223.814656, 72: 915.892288, 73: 583.402725, 74: 725.104788, 75: 147.511197, 76: 177.799692, 77: 901.971044, 78: 422.924935, 79: 474.5517, 80: 73.36729800000001, 81: 11.062864, 82: 593.155317, 83: 172.024785, 84: 92.92027400000001, 85: 87.02357000000001, 86: 466.72348, 87: 949.081903, 88: 116.580626, 89: 568.5591879999999, 90: 685.351303, 91: 975.637492, 92: 486.744787, 93: 660.9969170000001, 94: 978.698075, 95: 912.852133, 96: 299.169103, 97: 458.841906, 98: 966.719181, 99: 386.258102, 100: 141.579307, 101: 898.742642, 102: 934.463185, 103: 385.944324, 104: 892.306936, 105: 79.00073999999999, 106: 119.325349, 107: 414.010095, 108: 701.044685, 109: 294.290465, 110: 14.543852, 111: 853.813901, 112: 666.0108300000001, 113: 441.365265, 114: 409.129033, 115: 438.488577, 116: 193.434411, 117: 174.528956, 118: 848.017278, 119: 293.419957, 120: 344.137681, 121: 662.454125, 122: 165.349749, 123: 111.182088, 124: 308.70123, 125: 155.248637, 126: 307.353468, 127: 404.346291, 128: 486.951639, 129: 662.701695, 130: 357.684812, 131: 433.966458, 132: 771.673012, 133: 33.366172, 134: 429.36338, 135: 179.301204, 136: 623.613048, 137: 396.590395, 138: 878.998752, 139: 406.120341, 140: 862.554182, 141: 176.892809, 142: 480.61032, 143: 725.361946, 144: 640.933434, 145: 40.414329, 146: 744.22262, 147: 651.673957, 148: 704.557138, 149: 360.552453, 150: 561.010304, 151: 818.524481, 152: 622.4298680000001, 153: 889.917458, 154: 689.54452, 155: 504.859869, 156: 909.531127, 157: 269.8927, 158: 101.237445, 159: 399.549851, 160: 939.2394870000001, 161: 565.285003, 162: 56.911793, 163: 973.8105870000001, 164: 653.787166, 165: 998.758468, 166: 38.404617, 167: 469.54569, 168: 464.336372, 169: 969.23149, 170: 72.820069, 171: 947.65418, 172: 175.120705, 173: 633.178803, 174: 270.590857, 175: 375.962726, 176: 895.393691, 177: 25.144081, 178: 782.742118, 179: 362.030116, 180: 378.720021, 181: 99.70022299999999, 182: 112.848529, 183: 975.779592, 184: 334.403832, 185: 474.139441, 186: 448.97209, 187: 552.076835, 188: 814.235487, 189: 662.740196, 190: 482.864888, 191: 594.136084];
sell = [0: 3.325711, 1: 0.466944, 2: 1.784608, 3: 2.138617, 4: 2.615683, 5: 3.175131, 6: 0.598785, 7: 3.071573, 8: 0.623482, 9: 2.660391, 10: 2.288012, 11: 2.610782, 12: 2.937873, 13: 2.125656, 14: 1.25341, 15: 2.89006, 16: 1.971765, 17: 1.476456, 18: 0.53249, 19: 3.97331, 20: 2.259101, 21: 3.74348, 22: 1.0985, 23: 1.747119, 24: 1.9738, 25: 0.792482, 26: 2.406612, 27: 0.057422, 28: 2.73119, 29: 0.693171, 30: 1.611034, 31: 1.378988, 32: 3.096797, 33: 2.642825, 34: 2.142673, 35: 2.0289, 36: 0.567984, 37: 0.076056, 38: 2.206626, 39: 2.422749, 40: 0.47423, 41: 0.925264, 42: 2.701112, 43: 3.538971, 44: 1.185311, 45: 0.414827, 46: 2.024249, 47: 2.707394, 48: 1.375154, 49: 3.407157, 50: 2.71141, 51: 1.75711, 52: 2.735544, 53: 1.84935, 54: 1.881487, 55: 2.349781, 56: 1.994246, 57: 2.963739, 58: 3.234651, 59: 2.230128, 60: 2.718749, 61: 0.073531, 62: 0.03529, 63: 1.097863, 64: 2.982692, 65: 2.33721, 66: 2.64765, 67: 3.134932, 68: 0.432014, 69: 3.98726, 70: 3.8062, 71: 2.685686, 72: 0.93523, 73: 3.018995, 74: 1.3812, 75: 1.803931, 76: 3.877091, 77: 1.217037, 78: 1.153589, 79: 2.17094, 80: 1.951741, 81: 1.662117, 82: 3.923308, 83: 1.311843, 84: 0.448179, 85: 2.571389, 86: 1.698926, 87: 0.47563, 88: 3.618702, 89: 1.928996, 90: 2.550249, 91: 1.023927, 92: 2.298716, 93: 0.679943, 94: 1.758503, 95: 1.768826, 96: 1.911616, 97: 0.561519, 98: 3.664117, 99: 1.754334, 100: 3.013825, 101: 2.740598, 102: 2.37214, 103: 1.153457, 104: 1.94006, 105: 1.741211, 106: 2.345688, 107: 0.589336, 108: 2.585716, 109: 3.21087, 110: 1.170165, 111: 2.971344, 112: 2.02362, 113: 3.153617, 114: 0.059514, 115: 1.912276, 116: 1.663091, 117: 0.126985, 118: 2.782034, 119: 1.539363, 120: 3.054311, 121: 0.67996, 122: 3.364511, 123: 2.266652, 124: 1.466985, 125: 2.385866, 126: 2.021026, 127: 0.799778, 128: 3.103065, 129: 3.46927, 130: 1.332187, 131: 1.681238, 132: 2.25042, 133: 1.264087, 134: 1.709784, 135: 3.313265, 136: 1.160189, 137: 0.323022, 138: 2.077388, 139: 0.888992, 140: 1.682893, 141: 0.345237, 142: 3.080106, 143: 1.479672, 144: 2.70179, 145: 1.482594, 146: 3.343533, 147: 3.671622, 148: 3.00387, 149: 0.259281, 150: 1.266401, 151: 1.014959, 152: 1.619008, 153: 1.677614, 154: 1.659445, 155: 2.198848, 156: 1.568192, 157: 2.84034, 158: 1.423917, 159: 1.030026, 160: 3.565032, 161: 1.238032, 162: 3.812711, 163: 0.719004, 164: 0.767883, 165: 3.939944, 166: 2.307422, 167: 3.942907, 168: 0.682483, 169: 3.925491, 170: 2.455871, 171: 1.584761, 172: 2.467284, 173: 3.397349, 174: 3.274963, 175: 1.353253, 176: 3.258383, 177: 1.634502, 178: 2.043201, 179: 2.997875, 180: 2.439203, 181: 2.949785, 182: 2.835801, 183: 0.466663, 184: 2.724972, 185: 0.245315, 186: 3.253137, 187: 3.291031, 188: 3.588558, 189: 3.585535, 190: 1.592169, 191: 3.72732];
charge = [0: 0.204087, 1: 0.71535, 2: 0.798598, 3: 0.57562, 4: 0.607075, 5: 0.042799, 6: 0.288684, 7: 0.620574, 8: 0.432751, 9: 0.544175, 10: 0.09189600000000001, 11: 0.807662, 12: 0.474707, 13: 0.415137, 14: 0.658659, 15: 0.918554, 16: 0.226666, 17: 0.865386, 18: 0.192638, 19: 0.454894, 20: 0.135601, 21: 0.910232, 22: 0.7088449999999999, 23: 0.155035, 24: 0.997707, 25: 0.06479799999999999, 26: 0.755349, 27: 0.843131, 28: 0.543872, 29: 0.919372, 30: 0.9695589999999999, 31: 0.250445, 32: 0.35586, 33: 0.186724, 34: 0.128749, 35: 0.681821, 36: 0.78838, 37: 0.002958, 38: 0.189706, 39: 0.7977, 40: 0.726947, 41: 0.211241, 42: 0.319892, 43: 0.469735, 44: 0.495118, 45: 0.650541, 46: 0.228281, 47: 0.759533, 48: 0.017457, 49: 0.967068, 50: 0.955446, 51: 0.914609, 52: 0.914528, 53: 0.76707, 54: 0.143093, 55: 0.982753, 56: 0.95614, 57: 0.047113, 58: 0.28742, 59: 0.031743, 60: 0.209323, 61: 0.720231, 62: 0.766335, 63: 0.089338, 64: 0.938253, 65: 0.973312, 66: 0.329931, 67: 0.178972, 68: 0.337923, 69: 0.330197, 70: 0.071954, 71: 0.156753, 72: 0.552843, 73: 0.65383, 74: 0.583613, 75: 0.720699, 76: 0.005981, 77: 0.323093, 78: 0.140131, 79: 0.746322, 80: 0.642698, 81: 0.689282, 82: 0.75683, 83: 0.330491, 84: 0.317187, 85: 0.538973, 86: 0.408046, 87: 0.674959, 88: 0.790963, 89: 0.265699, 90: 0.045554, 91: 0.878161, 92: 0.247394, 93: 0.533532, 94: 0.254979, 95: 0.807601, 96: 0.355696, 97: 0.328859, 98: 0.697762, 99: 0.960657, 100: 0.254237, 101: 0.04555, 102: 0.921803, 103: 0.415385, 104: 0.811174, 105: 0.562304, 106: 0.942936, 107: 0.806546, 108: 0.596579, 109: 0.78854, 110: 0.653374, 111: 0.33027, 112: 0.052967, 113: 0.722743, 114: 0.952349, 115: 0.299315, 116: 0.027618, 117: 0.023131, 118: 0.982607, 119: 0.797204, 120: 0.798127, 121: 0.205308, 122: 0.914786, 123: 0.301526, 124: 0.346486, 125: 0.08173900000000001, 126: 0.058061, 127: 0.62731, 128: 0.538185, 129: 0.031468, 130: 0.133126, 131: 0.95791, 132: 0.195916, 133: 0.109925, 134: 0.6251, 135: 0.93404, 136: 0.294592, 137: 0.778038, 138: 0.609341, 139: 0.169002, 140: 0.237399, 141: 0.644157, 142: 0.256036, 143: 0.854974, 144: 0.954097, 145: 0.276333, 146: 0.746309, 147: 0.508159, 148: 0.889145, 149: 0.870146, 150: 0.328843, 151: 0.340297, 152: 0.989189, 153: 0.7353460000000001, 154: 0.189911, 155: 0.015184, 156: 0.973835, 157: 0.25421, 158: 0.329079, 159: 0.21366, 160: 0.501418, 161: 0.69342, 162: 0.350867, 163: 0.342582, 164: 0.938538, 165: 0.16413, 166: 0.164547, 167: 0.889038, 168: 0.661135, 169: 0.886458, 170: 0.960221, 171: 0.103668, 172: 0.573002, 173: 0.545469, 174: 0.303309, 175: 0.785644, 176: 0.695381, 177: 0.319295, 178: 0.576803, 179: 0.827152, 180: 0.443126, 181: 0.250582, 182: 0.231952, 183: 0.736935, 184: 0.666331, 185: 0.320233, 186: 0.7132039999999999, 187: 0.119518, 188: 0.610448, 189: 0.633237, 190: 0.011824, 191: 0.014129];
discharge = [0: 0.155545, 1: 0.806461, 2: 0.513128, 3: 0.438502, 4: 0.186391, 5: 0.151587, 6: 0.125817, 7: 0.9245719999999999, 8: 0.167094, 9: 0.920713, 10: 0.639718, 11: 0.241536, 12: 0.570475, 13: 0.162137, 14: 0.79703, 15: 0.61714, 16: 0.729845, 17: 0.671498, 18: 0.547436, 19: 0.362716, 20: 0.940571, 21: 0.268901, 22: 0.501408, 23: 0.21867, 24: 0.221526, 25: 0.041632, 26: 0.64262, 27: 0.990749, 28: 0.547654, 29: 0.79271, 30: 0.310035, 31: 0.756281, 32: 0.224118, 33: 0.33928, 34: 0.655423, 35: 0.989531, 36: 0.427249, 37: 0.010974, 38: 0.926709, 39: 0.02237, 40: 0.523513, 41: 0.763456, 42: 0.625784, 43: 0.641462, 44: 0.431152, 45: 0.357803, 46: 0.762978, 47: 0.287369, 48: 0.933608, 49: 0.410214, 50: 0.483508, 51: 0.5879760000000001, 52: 0.149738, 53: 0.937821, 54: 0.182065, 55: 0.466807, 56: 0.518353, 57: 0.815121, 58: 0.417362, 59: 0.603626, 60: 0.190191, 61: 0.987673, 62: 0.396166, 63: 0.903679, 64: 0.283053, 65: 0.525597, 66: 0.058404, 67: 0.804078, 68: 0.275193, 69: 0.76186, 70: 0.904897, 71: 0.049853, 72: 0.529407, 73: 0.888642, 74: 0.048777, 75: 0.985467, 76: 0.023478, 77: 0.762821, 78: 0.748969, 79: 0.158849, 80: 0.8925999999999999, 81: 0.699987, 82: 0.367041, 83: 0.760594, 84: 0.882727, 85: 0.254189, 86: 0.06830600000000001, 87: 0.056033, 88: 0.392196, 89: 0.73858, 90: 0.083036, 91: 0.439602, 92: 0.781073, 93: 0.944306, 94: 0.249074, 95: 0.8504930000000001, 96: 0.312776, 97: 0.203229, 98: 0.679291, 99: 0.752096, 100: 0.243675, 101: 0.993322, 102: 0.24995, 103: 0.132969, 104: 0.362953, 105: 0.349036, 106: 0.583228, 107: 0.285163, 108: 0.483984, 109: 0.063916, 110: 0.828243, 111: 0.746405, 112: 0.564912, 113: 0.89814, 114: 0.638433, 115: 0.228556, 116: 0.903668, 117: 0.13814, 118: 0.488701, 119: 0.847487, 120: 0.115935, 121: 0.413185, 122: 0.499893, 123: 0.859812, 124: 0.819726, 125: 0.40612, 126: 0.917486, 127: 0.974159, 128: 0.060091, 129: 0.429791, 130: 0.287907, 131: 0.913783, 132: 0.788469, 133: 0.600855, 134: 0.805225, 135: 0.92867, 136: 0.742857, 137: 0.972665, 138: 0.516136, 139: 0.335941, 140: 0.672829, 141: 0.265251, 142: 0.06890400000000001, 143: 0.759476, 144: 0.029967, 145: 0.726393, 146: 0.026821, 147: 0.159734, 148: 0.505834, 149: 0.99576, 150: 0.50324, 151: 0.729751, 152: 0.243456, 153: 0.123634, 154: 0.682043, 155: 0.478305, 156: 0.819707, 157: 0.638621, 158: 0.334244, 159: 0.483548, 160: 0.08906699999999999, 161: 0.117896, 162: 0.118395, 163: 0.073227, 164: 0.739997, 165: 0.278664, 166: 0.160522, 167: 0.24018, 168: 0.231139, 169: 0.283768, 170: 0.81946, 171: 0.747052, 172: 0.152684, 173: 0.179364, 174: 0.271079, 175: 0.965106, 176: 0.299409, 177: 0.408959, 178: 0.358284, 179: 0.78116, 180: 0.7399250000000001, 181: 0.91857, 182: 0.95567, 183: 0.34845, 184: 0.148436, 185: 0.252096, 186: 0.118304, 187: 0.062071, 188: 0.867568, 189: 0.415299, 190: 0.826476, 191: 0.833972];
soc = [0: 7.342578, 1: 7.289127, 2: 10.238311, 3: 6.902404, 4: 11.977252, 5: 12.136628, 6: 6.068696, 7: 10.22924, 8: 4.364389, 9: 10.157091, 10: 4.219292, 11: 13.150604, 12: 5.007163, 13: 3.281768, 14: 15.570669, 15: 9.309279999999999, 16: 8.625351999999999, 17: 5.252896, 18: 5.125087, 19: 14.003854, 20: 10.633017, 21: 6.452832, 22: 13.398588, 23: 10.364252, 24: 6.16882, 25: 3.073742, 26: 5.347608, 27: 12.763676, 28: 5.231369, 29: 4.062127, 30: 2.715694, 31: 5.471649, 32: 11.683617, 33: 6.628727, 34: 5.769997, 35: 14.254309, 36: 14.056156, 37: 13.367244, 38: 11.558676, 39: 13.315229, 40: 7.824209, 41: 9.570467000000001, 42: 9.422727, 43: 6.862299, 44: 2.927434, 45: 15.634842, 46: 7.431415, 47: 7.05045, 48: 4.345023, 49: 5.00732, 50: 3.013364, 51: 15.085845, 52: 6.015512, 53: 2.824702, 54: 5.342683, 55: 3.159545, 56: 9.635946000000001, 57: 14.365547, 58: 3.023882, 59: 10.321761, 60: 10.940649, 61: 3.563241, 62: 8.73343, 63: 10.012933, 64: 5.688155, 65: 8.01796, 66: 14.389984, 67: 7.405284, 68: 10.18741, 69: 13.452619, 70: 9.804698, 71: 12.831946, 72: 6.628937, 73: 10.393184, 74: 4.754675, 75: 10.51199, 76: 3.835208, 77: 6.620252, 78: 11.398751, 79: 10.451963, 80: 4.114848, 81: 14.065917, 82: 7.165509, 83: 7.717496, 84: 6.467034, 85: 7.047777, 86: 7.298541, 87: 2.791381, 88: 6.2129, 89: 15.032107, 90: 12.311538, 91: 9.010339999999999, 92: 13.249824, 93: 14.684073, 94: 11.924069, 95: 9.632396999999999, 96: 9.634841, 97: 13.416826, 98: 10.075009, 99: 12.372156, 100: 10.123363, 101: 9.205360000000001, 102: 9.855983999999999, 103: 6.356095, 104: 12.125402, 105: 6.558744, 106: 2.837758, 107: 4.750527, 108: 3.522976, 109: 3.397403, 110: 5.063367, 111: 9.608879, 112: 12.288661, 113: 11.731098, 114: 11.144604, 115: 7.421965, 116: 3.311132, 117: 4.95045, 118: 14.371881, 119: 10.422203, 120: 12.226599, 121: 8.491383000000001, 122: 9.662743000000001, 123: 3.408304, 124: 7.285284, 125: 7.716501, 126: 2.868331, 127: 13.856433, 128: 7.405566, 129: 12.208373, 130: 10.686735, 131: 4.79954, 132: 15.260246, 133: 10.980438, 134: 7.30441, 135: 3.700933, 136: 4.979663, 137: 8.672533, 138: 4.265225, 139: 4.755618, 140: 12.433264, 141: 2.912948, 142: 6.38211, 143: 7.705367, 144: 9.623827, 145: 4.301437, 146: 3.935845, 147: 7.294783, 148: 7.902915, 149: 8.864470000000001, 150: 11.890064, 151: 7.149714, 152: 9.811023, 153: 2.913782, 154: 7.361363, 155: 4.187663, 156: 8.530101, 157: 7.532227, 158: 11.236097, 159: 12.605066, 160: 6.702855, 161: 11.240473, 162: 9.996331, 163: 7.611717, 164: 7.730925, 165: 9.229569, 166: 10.145023, 167: 14.265277, 168: 10.872059, 169: 14.5968, 170: 13.31318, 171: 7.369601, 172: 12.308242, 173: 13.385105, 174: 2.977539, 175: 10.728175, 176: 15.058814, 177: 8.682651999999999, 178: 10.724185, 179: 6.027803, 180: 8.747764999999999, 181: 4.318125, 182: 9.566461, 183: 8.216139999999999, 184: 13.586183, 185: 10.330687, 186: 12.40893, 187: 11.96425, 188: 8.944651, 189: 13.280681, 190: 2.986323, 191: 15.227003];
cost = [0: 201.390725, 1: 543.747555, 2: 34.694077, 3: 157.474546, 4: 392.492474, 5: 316.945162, 6: 574.974787, 7: 382.600335, 8: 588.177899, 9: 32.851062, 10: 452.936549, 11: 281.130528, 12: 372.993818, 13: 591.311333, 14: 348.890535, 15: 573.310592, 16: 12.347832, 17: 41.429757, 18: 389.168098, 19: 448.373506, 20: 343.372316, 21: 63.819748, 22: 105.231678, 23: 503.825401, 24: 724.792992, 25: 683.421333, 26: 729.477988, 27: 655.767413, 28: 384.970574, 29: 372.830732, 30: 683.388633, 31: 157.178292, 32: 1101.042716, 33: 113.469092, 34: 500.305613, 35: 1085.210571, 36: 285.543689, 37: 307.549081, 38: 1037.064813, 39: 218.772816, 40: 229.607717, 41: 1124.042014, 42: 568.775529, 43: 696.36717, 44: 801.475679, 45: 383.667439, 46: 473.641962, 47: 1158.78307, 48: 1097.796664, 49: 14.827875, 50: 120.336076, 51: 745.9472469999999, 52: 390.546029, 53: 599.964212, 54: 444.556842, 55: 119.320696, 56: 18.698702, 57: 554.115149, 58: 590.38455, 59: 557.386753, 60: 984.47489, 61: 60.007005, 62: 725.133425, 63: 440.307573, 64: 1127.03026, 65: 24.962856, 66: 346.079637, 67: 959.368235, 68: 1047.277072, 69: 15.43795, 70: 745.835495, 71: 442.958015, 72: 793.741446, 73: 91.782348, 74: 671.066321, 75: 179.663549, 76: 302.212659, 77: 225.195472, 78: 802.412118, 79: 822.567707, 80: 526.945346, 81: 756.841629, 82: 287.919565, 83: 1035.586159, 84: 1096.980237, 85: 422.715502, 86: 65.986315, 87: 940.925603, 88: 553.4330629999999, 89: 197.60259, 90: 458.834457, 91: 423.497784, 92: 290.478394, 93: 5.175294, 94: 275.473601, 95: 193.673438, 96: 88.41720599999999, 97: 213.249945, 98: 358.910362, 99: 406.010769, 100: 519.5451880000001, 101: 416.7548, 102: 24.723277, 103: 609.740338, 104: 537.412432, 105: 539.052408, 106: 342.900361, 107: 357.620236, 108: 150.520743, 109: 336.835903, 110: 177.009715, 111: 189.30752, 112: 522.8385, 113: 52.001844, 114: 322.983287, 115: 411.973553, 116: 276.501234, 117: 467.896148, 118: 136.480964, 119: 45.120593, 120: 122.533091, 121: 687.697447, 122: 931.604496, 123: 20.840683, 124: 43.632053, 125: 330.003791, 126: 119.253628, 127: 252.217165, 128: 490.106501, 129: 128.537055, 130: 51.873875, 131: 304.706566, 132: 1070.185746, 133: 1100.978358, 134: 910.403014, 135: 989.0418529999999, 136: 386.964698, 137: 956.253619, 138: 189.280522, 139: 4.932643, 140: 854.432223, 141: 183.668473, 142: 185.336314, 143: 1070.359548, 144: 855.751529, 145: 372.261782, 146: 705.274089, 147: 904.008236, 148: 76.012173, 149: 215.521831, 150: 453.742785, 151: 289.755769, 152: 66.309242, 153: 259.927489, 154: 337.123899, 155: 17.480927, 156: 1169.156714, 157: 155.145915, 158: 907.425574, 159: 975.427309, 160: 1097.965922, 161: 42.341747, 162: 351.339393, 163: 314.49367, 164: 509.081254, 165: 623.947914, 166: 833.6705459999999, 167: 555.812503, 168: 543.048578, 169: 1067.727771, 170: 68.689322, 171: 287.123408, 172: 203.714174, 173: 673.506812, 174: 1094.015349, 175: 637.060689, 176: 890.2328199999999, 177: 756.352909, 178: 605.789715, 179: 1153.969437, 180: 644.596733, 181: 1007.999729, 182: 5.39261, 183: 914.418234, 184: 172.424053, 185: 21.377875, 186: 239.543559, 187: 505.22858, 188: 381.497285, 189: 358.858179, 190: 353.409041, 191: 404.344327];
earn = [0: 1.894826, 1: 1.816911, 2: 1.115171, 3: 1.381509, 4: 2.402925, 5: 0.06005, 6: 0.344221, 7: 0.727813, 8: 1.776316, 9: 1.072417, 10: 1.287282, 11: 1.238762, 12: 0.122188, 13: 1.592131, 14: 0.763262, 15: 1.01399, 16: 0.060225, 17: 1.335128, 18: 0.821926, 19: 1.770561, 20: 1.190163, 21: 0.512908, 22: 0.290967, 23: 1.113458, 24: 1.576166, 25: 1.56108, 26: 1.457848, 27: 1.130318, 28: 1.099026, 29: 0.924978, 30: 0.54442, 31: 1.545923, 32: 1.915119, 33: 1.409617, 34: 1.935392, 35: 1.240532, 36: 2.226158, 37: 0.793079, 38: 1.311949, 39: 0.667794, 40: 0.566715, 41: 0.114182, 42: 1.281798, 43: 0.21154, 44: 0.604952, 45: 0.7113699999999999, 46: 0.107473, 47: 0.273501, 48: 0.174366, 49: 0.053675, 50: 0.167903, 51: 0.040466, 52: 0.060743, 53: 0.025066, 54: 0.027827, 55: 0.007313, 56: 0.006497, 57: 0.011212, 58: 0.025186, 59: 0.022727, 60: 0.161646, 61: 0.023597, 62: 0.040768, 63: 0.009997000000000001, 64: 0.079886, 65: 0.540564, 66: 0.475208, 67: 1.088617, 68: 1.785064, 69: 0.424736, 70: 0.974024, 71: 2.074895, 72: 1.380276, 73: 2.071039, 74: 0.959429, 75: 0.658945, 76: 2.710474, 77: 0.633154, 78: 0.636418, 79: 0.182217, 80: 0.717276, 81: 2.19727, 82: 0.18477, 83: 2.165304, 84: 0.523089, 85: 1.621464, 86: 0.98999, 87: 1.748877, 88: 1.746507, 89: 1.276767, 90: 1.877838, 91: 0.311383, 92: 1.993381, 93: 1.818248, 94: 2.042694, 95: 0.306366, 96: 0.140752, 97: 0.104004, 98: 1.340733, 99: 1.557169, 100: 1.103991, 101: 1.361542, 102: 0.081943, 103: 1.439034, 104: 0.655595, 105: 1.085289, 106: 1.025919, 107: 0.953224, 108: 1.32306, 109: 0.435074, 110: 0.318233, 111: 0.308574, 112: 0.658343, 113: 0.841602, 114: 0.528955, 115: 1.219549, 116: 0.721907, 117: 0.390431, 118: 0.455103, 119: 0.819223, 120: 0.156435, 121: 0.8245980000000001, 122: 0.073378, 123: 0.575202, 124: 0.07273300000000001, 125: 0.273084, 126: 0.305761, 127: 0.520722, 128: 0.675504, 129: 0.409536, 130: 0.47954, 131: 0.207088, 132: 0.404653, 133: 0.124177, 134: 0.211552, 135: 0.166036, 136: 0.010251, 137: 0.002536, 138: 0.000401, 139: 0.019342, 140: 0.024199, 141: 0.010661, 142: 0.001852, 143: 0.001716, 144: 0.006138, 145: -0.000998, 146: -0.000731, 147: -0.002072, 148: -0.001187, 149: -0.0029, 150: -0.004022, 151: -0.005131, 152: -0.005799, 153: -0.013003, 154: -0.00754, 155: -0.004601, 156: -0.000162, 157: -6.9e-05, 158: -0.003121, 159: -0.002066, 160: 0.000465, 161: 0.012437, 162: 0.024758, 163: 0.241533, 164: 0.604443, 165: 0.476219, 166: 0.846811, 167: 0.520383, 168: 0.805771, 169: 0.424984, 170: 2.095363, 171: 0.281265, 172: 2.032525, 173: 1.421158, 174: 2.160408, 175: 1.769422, 176: 3.049972, 177: 2.789158, 178: 0.662117, 179: 0.488818, 180: 1.450552, 181: 1.586149, 182: 1.981559, 183: 0.301125, 184: 0.437255, 185: 1.372896, 186: 1.877943, 187: 0.61648, 188: 0.14073, 189: 1.312684, 190: 0.436705, 191: 0.690204];
total_cost = 98.92563504592958;
total_earn = 18.92266761393991;
