production = [0: 0.0, 1: 0.0, 2: 0.0, 3: 0.0, 4: 0.0, 5: 0.0, 6: 0.0, 7: 0.0, 8: 0.0, 9: 0.0, 10: 0.0, 11: 0.0, 12: 0.0, 13: 0.0, 14: 0.0, 15: 0.0, 16: 0.0, 17: 0.0, 18: 0.0, 19: 0.0, 20: 0.0, 21: 0.0, 22: 0.0, 23: 0.00027, 24: 3.2e-05, 25: 0.000228, 26: 0.00261, 27: 0.006232, 28: 0.009166000000000001, 29: 0.019462, 30: 0.074779, 31: 0.054802, 32: 0.015802, 33: 0.003226, 34: 0.238949, 35: 0.126482, 36: 0.063739, 37: 0.004741, 38: 0.046567, 39: 0.307075, 40: 0.083603, 41: 0.107509, 42: 0.37403, 43: 0.763135, 44: 0.10555, 45: 0.2799, 46: 0.317407, 47: 0.454936, 48: 0.15684, 49: 0.335216, 50: 0.416244, 51: 0.053216, 52: 0.44274, 53: 0.735633, 54: 2.20053, 55: 0.126703, 56: 0.06822599999999999, 57: 0.077486, 58: 0.133308, 59: 0.053488, 60: 0.09275799999999999, 61: 0.507931, 62: 0.491734, 63: 0.5300859999999999, 64: 0.05717, 65: 0.116145, 66: 0.349756, 67: 0.675156, 68: 0.488059, 69: 0.424704, 70: 0.195181, 71: 0.408964, 72: 0.068854, 73: 0.004306, 74: 0.07742300000000001, 75: 0.0541, 76: 0.009157999999999999, 77: 0.002968, 78: 0.00077, 79: 0.0, 80: 0.0, 81: 0.0, 82: 0.0, 83: 0.0, 84: 0.0, 85: 0.0, 86: 0.0, 87: 0.0, 88: 0.0, 89: 0.0, 90: 0.0, 91: 0.0, 92: 0.0, 93: 0.0, 94: 0.0, 95: 0.0, 96: 0.0, 97: 0.0, 98: 0.0, 99: 0.0, 100: 0.0, 101: 0.0, 102: 0.0, 103: 0.0, 104: 0.0, 105: 0.0, 106: 0.0, 107: 0.0, 108: 0.0, 109: 0.0, 110: 0.0, 111: 0.0, 112: 0.0, 113: 0.0, 114: 0.0, 115: 0.0, 116: 0.0, 117: 0.0, 118: 0.0, 119: 0.00049, 120: 0.0, 121: 0.001177, 122: 0.004044, 123: 0.006797, 124: 0.063809, 125: 0.005098, 126: 0.002779, 127: 0.028257, 128: 0.07918799999999999, 129: 0.04557, 130: 0.061265, 131: 0.092195, 132: 0.146043, 133: 0.148016, 134: 0.023996, 135: 0.059187, 136: 0.419518, 137: 0.438137, 138: 0.055374, 139: 0.036172, 140: 0.170596, 141: 0.125058, 142: 0.564436, 143: 0.370221, 144: 0.256302, 145: 0.8807120000000001, 146: 0.126816, 147: 0.709695, 148: 0.664185, 149: 0.231142, 150: 0.008937, 151: 1.582232, 152: 0.312303, 153: 1.20423, 154: 0.536007, 155: 0.283142, 156: 0.968178, 157: 0.417643, 158: 0.402659, 159: 0.018763, 160: 0.926677, 161: 0.346197, 162: 0.374942, 163: 0.052092, 164: 0.025698, 165: 0.151792, 166: 0.6057670000000001, 167: 0.347678, 168: 0.182363, 169: 0.147976, 170: 0.053948, 171: 0.016922, 172: 0.039697, 173: 0.016452, 174: 0.000858, 175: 0.000771, 176: 0.000465, 177: 0.0, 178: 0.0, 179: 0.0, 180: 0.0, 181: 0.0, 182: 0.0, 183: 0.0, 184: 0.0, 185: 0.0, 186: 0.0, 187: 0.0, 188: 0.0, 189: 0.0, 190: 0.0, 191: 0.0];
buy = [0: 906.362541, 1: 233.558554, 2: 742.262525, 3: 987.382295, 4: 619.407663, 5: 517.101762, 6: 926.903716, 7: 735.555846, 8: 235.875763, 9: 869.6899539999999, 10: 649.548685, 11: 398.674687, 12: 86.570825, 13: 252.337131, 14: 932.033563, 15: 334.84335, 16: 275.070162, 17: 297.385006, 18: 265.462212, 19: 936.755619, 20: 10.58157, 21: 239.335985, 22: 521.35679, 23: 443.640595, 24: 323.531634, 25: 997.2153980000001, 26: 506.135485, 27: 378.616519, 28: 40.3104, 29: 733.333604, 30: 322.477557, 31: 536.1389799999999, 32: 330.331568, 33: 332.403142, 34: 164.911519, 35: 719.606115, 36: 663.080682, 37: 103.267045, 38: 903.491213, 39: 826.8235519999999, 40: 34.954534, 41: 713.283311, 42: 674.623712, 43: 570.867246, 44: 559.294835, 45: 196.638756, 46: 311.132308, 47: 524.780271, 48: 609.276265, 49: 406.472972, 50: 147.328596, 51: 803.031573, 52: 424.737434, 53: 243.712552, 54: 155.917456, 55: 809.569352, 56: 778.707467, 57: 879.959692, 58: 340.164426, 59: 796.217251, 60: 134.38016, 61: 274.854798, 62: 884.715723, 63: 385.238509, 64: 621.845414, 65: 642.510025, 66: 385.219178, 67: 835.9594939999999, 68: 300.190634, 69: 735.528395, 70: 421.092774, 71: 635.108961, 72: 106.260118, 73: 595.788811, 74: 934.637234, 75: 969.206393, 76: 80.974508, 77: 67.973859, 78: 220.876812, 79: 800.572379, 80: 841.58222, 81: 251.382952, 82: 490.041101, 83: 886.067608, 84: 637.992581, 85: 300.094103, 86: 298.185996, 87: 913.2486, 88: 48.308631, 89: 404.772302, 90: 159.082608, 91: 882.689225, 92: 923.423983, 93: 788.9747609999999, 94: 253.471233, 95: 773.172671, 96: 140.887297, 97: 442.520819, 98: 462.722993, 99: 821.007748, 100: 704.229593, 101: 483.130106, 102: 580.126828, 103: 195.633153, 104: 775.861383, 105: 424.553319, 106: 420.099542, 107: 198.274411, 108: 298.540659, 109: 449.549071, 110: 4.320503, 111: 78.937619, 112: 354.959999, 113: 611.616179, 114: 50.983543, 115: 110.118755, 116: 205.597565, 117: 947.558477, 118: 797.174981, 119: 222.608213, 120: 867.92495, 121: 240.368812, 122: 6.749403, 123: 769.111353, 124: 133.254603, 125: 364.221772, 126: 34.402428, 127: 214.316075, 128: 827.788645, 129: 276.51458, 130: 115.291403, 131: 490.337639, 132: 123.91344, 133: 232.421724, 134: 349.156536, 135: 259.583815, 136: 850.8174770000001, 137: 930.633234, 138: 57.106906, 139: 477.35101, 140: 242.500018, 141: 481.85588, 142: 787.723178, 143: 483.916868, 144: 892.889537, 145: 719.2954130000001, 146: 892.005521, 147: 68.081563, 148: 853.0156019999999, 149: 570.249406, 150: 197.261274, 151: 607.699667, 152: 546.477426, 153: 570.127302, 154: 956.276607, 155: 103.598077, 156: 972.1225910000001, 157: 286.195293, 158: 808.773568, 159: 454.914611, 160: 848.458769, 161: 95.47906500000001, 162: 446.280737, 163: 110.026815, 164: 270.781661, 165: 136.597665, 166: 817.725358, 167: 932.288648, 168: 748.204657, 169: 801.928195, 170: 468.444627, 171: 87.57612399999999, 172: 186.287274, 173: 324.57479, 174: 988.786126, 175: 952.030491, 176: 197.991989, 177: 98.648712, 178: 145.521418, 179: 379.001527, 180: 636.922238, 181: 18.439256, 182: 540.436649, 183: 563.474964, 184: 741.618839, 185: 937.59325, 186: 337.948661, 187: 186.205261, 188: 497.404089, 189: 206.815537, 190: 525.842178, 191: 944.903459];
sell = [0: 3.295766, 1: 3.843305, 2: 2.608762, 3: 0.825869, 4: 0.19385, 5: 1.622047, 6: 0.9184870000000001, 7: 1.752294, 8: 3.925971, 9: 1.514088, 10: 0.357531, 11: 0.434709, 12: 3.457317, 13: 0.334036, 14: 1.914543, 15: 0.03356, 16: 0.593661, 17: 1.855482, 18: 2.734605, 19: 3.833278, 20: 3.406824, 21: 1.08474, 22: 2.104692, 23: 2.607527, 24: 1.716948, 25: 3.876776, 26: 1.789943, 27: 1.677399, 28: 0.39142, 29: 0.720851, 30: 0.787474, 31: 1.900419, 32: 2.921336, 33: 1.457624, 34: 0.946258, 35: 3.166007, 36: 0.659917, 37: 2.053869, 38: 3.999689, 39: 0.534025, 40: 1.161012, 41: 1.255627, 42: 2.53314, 43: 3.207457, 44: 0.604228, 45: 0.989291, 46: 1.539062, 47: 0.128644, 48: 3.331684, 49: 2.073555, 50: 3.688909, 51: 2.406891, 52: 1.582713, 53: 1.303086, 54: 1.33028, 55: 1.057948, 56: 1.221329, 57: 2.794377, 58: 3.908058, 59: 3.26425, 60: 3.493423, 61: 2.624462, 62: 3.892889, 63: 2.348991, 64: 0.5545020000000001, 65: 0.627883, 66: 0.491683, 67: 3.456483, 68: 2.168833, 69: 3.8443, 70: 1.172595, 71: 0.624054, 72: 0.218527, 73: 3.151123, 74: 0.75319, 75: 3.999341, 76: 1.519303, 77: 2.791178, 78: 0.02834, 79: 3.224231, 80: 1.513544, 81: 2.149687, 82: 2.379057, 83: 2.542941, 84: 0.058452, 85: 2.247294, 86: 2.423138, 87: 1.274376, 88: 3.606488, 89: 0.045932, 90: 3.605613, 91: 0.573798, 92: 3.143215, 93: 1.51764, 94: 3.044801, 95: 1.142582, 96: 0.036319, 97: 2.078974, 98: 0.224273, 99: 3.575417, 100: 1.779465, 101: 3.015574, 102: 1.499179, 103: 1.295649, 104: 2.993941, 105: 2.11779, 106: 0.850512, 107: 1.800931, 108: 3.804993, 109: 1.899853, 110: 0.677322, 111: 0.378791, 112: 2.945318, 113: 1.150451, 114: 1.449667, 115: 1.098183, 116: 1.000887, 117: 1.958526, 118: 2.807863, 119: 1.13165, 120: 1.050879, 121: 3.445876, 122: 2.217373, 123: 0.291016, 124: 2.259007, 125: 0.27422, 126: 3.260142, 127: 0.839114, 128: 0.382289, 129: 3.696724, 130: 2.448885, 131: 2.739904, 132: 3.946677, 133: 2.345246, 134: 0.021162, 135: 0.850728, 136: 1.246626, 137: 3.534691, 138: 1.305383, 139: 3.899349, 140: 1.999187, 141: 2.162226, 142: 0.373783, 143: 1.921724, 144: 2.513981, 145: 2.731828, 146: 2.79653, 147: 2.925586, 148: 1.412927, 149: 1.418784, 150: 0.725643, 151: 2.210798, 152: 1.126689, 153: 0.457364, 154: 2.77635, 155: 0.137515, 156: 0.473761, 157: 0.559357, 158: 1.279594, 159: 3.112041, 160: 1.623619, 161: 0.789392, 162: 2.922491, 163: 1.556366, 164: 1.862225, 165: 1.443148, 166: 1.528108, 167: 3.824355, 168: 3.374155, 169: 2.975159, 170: 0.521239, 171: 2.700186, 172: 0.668178, 173: 0.376477, 174: 0.6675219999999999, 175: 2.729763, 176: 1.420991, 177: 0.467517, 178: 2.765876, 179: 2.639025, 180: 1.182681, 181: 2.046089, 182: 0.219186, 183: 0.668373, 184: 2.95343, 185: 3.249065, 186: 1.061756, 187: 0.546675, 188: 2.231547, 189: 0.194707, 190: 0.926084, 191: 2.758416];
charge = [0: 0.530331, 1: 0.495696, 2: 0.686894, 3: 0.782709, 4: 0.840546, 5: 0.321537, 6: 0.594579, 7: 0.730089, 8: 0.439552, 9: 0.03967, 10: 0.783158, 11: 0.09957100000000001, 12: 0.9000359999999999, 13: 0.887245, 14: 0.233813, 15: 0.223938, 16: 0.429041, 17: 0.294053, 18: 0.836436, 19: 0.520821, 20: 0.197307, 21: 0.748548, 22: 0.143674, 23: 0.866939, 24: 0.382255, 25: 0.47754, 26: 0.555441, 27: 0.927502, 28: 0.061303, 29: 0.137763, 30: 0.24602, 31: 0.157199, 32: 0.121745, 33: 0.7869969999999999, 34: 0.875008, 35: 0.496102, 36: 0.454123, 37: 0.337478, 38: 0.391285, 39: 0.186351, 40: 0.753319, 41: 0.29258, 42: 0.150601, 43: 0.478997, 44: 0.631622, 45: 0.8385359999999999, 46: 0.121398, 47: 0.249118, 48: 0.853842, 49: 0.768007, 50: 0.219191, 51: 0.299338, 52: 0.619855, 53: 0.732455, 54: 0.914026, 55: 0.8009770000000001, 56: 0.210168, 57: 0.9864000000000001, 58: 0.880331, 59: 0.608145, 60: 0.804276, 61: 0.609137, 62: 0.571534, 63: 0.405348, 64: 0.788999, 65: 0.09739200000000001, 66: 0.678708, 67: 0.7551369999999999, 68: 0.964093, 69: 0.07024, 70: 0.722146, 71: 0.741752, 72: 0.257902, 73: 0.168833, 74: 0.7149219999999999, 75: 0.133613, 76: 0.44205, 77: 0.484904, 78: 0.277885, 79: 0.148116, 80: 0.411968, 81: 0.436374, 82: 0.508275, 83: 0.962296, 84: 0.643369, 85: 0.466609, 86: 0.8615429999999999, 87: 0.598637, 88: 0.026841, 89: 0.5976, 90: 0.768129, 91: 0.720938, 92: 0.048731, 93: 0.914652, 94: 0.258739, 95: 0.383008, 96: 0.070811, 97: 0.553782, 98: 0.617467, 99: 0.951699, 100: 0.530579, 101: 0.9888439999999999, 102: 0.949011, 103: 0.474563, 104: 0.692509, 105: 0.663454, 106: 0.802021, 107: 0.568757, 108: 0.204042, 109: 0.985098, 110: 0.914948, 111: 0.967163, 112: 0.890497, 113: 0.331637, 114: 0.795416, 115: 0.035646, 116: 0.66995, 117: 0.363471, 118: 0.870497, 119: 0.120169, 120: 0.468697, 121: 0.352381, 122: 0.063587, 123: 0.882656, 124: 0.915157, 125: 0.511331, 126: 0.083479, 127: 0.040825, 128: 0.173682, 129: 0.415641, 130: 0.615602, 131: 0.747857, 132: 0.483432, 133: 0.940816, 134: 0.159637, 135: 0.817919, 136: 0.210293, 137: 0.568949, 138: 0.435019, 139: 0.526708, 140: 0.886617, 141: 0.117708, 142: 0.264205, 143: 0.288859, 144: 0.025074, 145: 0.957703, 146: 0.476643, 147: 0.258626, 148: 0.710431, 149: 0.548103, 150: 0.173459, 151: 0.746999, 152: 0.9342780000000001, 153: 0.171231, 154: 0.420946, 155: 0.309435, 156: 0.742515, 157: 0.340097, 158: 0.043908, 159: 0.015711, 160: 0.7788310000000001, 161: 0.7605690000000001, 162: 0.990997, 163: 0.159989, 164: 0.100812, 165: 0.932288, 166: 0.482019, 167: 0.637144, 168: 0.767112, 169: 0.53269, 170: 0.823489, 171: 0.456599, 172: 0.883089, 173: 0.498025, 174: 0.765873, 175: 0.629562, 176: 0.996587, 177: 0.635296, 178: 0.548982, 179: 0.479489, 180: 0.983893, 181: 0.498959, 182: 0.239372, 183: 0.527433, 184: 0.5584209999999999, 185: 0.5047779999999999, 186: 0.952309, 187: 0.985128, 188: 0.338521, 189: 0.422836, 190: 0.183103, 191: 0.121886];
discharge = [0: 0.372057, 1: 0.184749, 2: 0.258119, 3: 0.676296, 4: 0.853667, 5: 0.235751, 6: 0.993071, 7: 0.596626, 8: 0.294971, 9: 0.549722, 10: 0.754703, 11: 0.504864, 12: 0.291761, 13: 0.410759, 14: 0.049098, 15: 0.217, 16: 0.742213, 17: 0.91649, 18: 0.429581, 19: 0.727193, 20: 0.139324, 21: 0.775515, 22: 0.880513, 23: 0.6626030000000001, 24: 0.634871, 25: 0.059898, 26: 0.104135, 27: 0.398615, 28: 0.957735, 29: 0.918581, 30: 0.74098, 31: 0.949302, 32: 0.34717, 33: 0.689975, 34: 0.008616, 35: 0.238932, 36: 0.977908, 37: 0.9884849999999999, 38: 0.76227, 39: 0.583145, 40: 0.631836, 41: 0.190635, 42: 0.8857930000000001, 43: 0.318065, 44: 0.214056, 45: 0.04318, 46: 0.020331, 47: 0.895631, 48: 0.327379, 49: 0.887946, 50: 0.428974, 51: 0.6281910000000001, 52: 0.784788, 53: 0.021899, 54: 0.490234, 55: 0.946426, 56: 0.106752, 57: 0.953713, 58: 0.542067, 59: 0.929857, 60: 0.072461, 61: 0.056381, 62: 0.937379, 63: 0.180627, 64: 0.972183, 65: 0.592311, 66: 0.893993, 67: 0.465845, 68: 0.830446, 69: 0.281754, 70: 0.625295, 71: 0.6913550000000001, 72: 0.124685, 73: 0.591232, 74: 0.12868, 75: 0.5309430000000001, 76: 0.086115, 77: 0.429694, 78: 0.910412, 79: 0.934482, 80: 0.364445, 81: 0.944069, 82: 0.995139, 83: 0.967986, 84: 0.406636, 85: 0.001034, 86: 0.7830819999999999, 87: 0.06816800000000001, 88: 0.864108, 89: 0.239516, 90: 0.249637, 91: 0.693991, 92: 0.568796, 93: 0.832078, 94: 0.126696, 95: 0.155871, 96: 0.847562, 97: 0.514338, 98: 0.627704, 99: 0.363463, 100: 0.23809, 101: 0.861003, 102: 0.453566, 103: 0.123529, 104: 0.716836, 105: 0.258388, 106: 0.888697, 107: 0.520661, 108: 0.06732, 109: 0.517012, 110: 0.466095, 111: 0.525708, 112: 0.672482, 113: 0.124602, 114: 0.951535, 115: 0.542278, 116: 0.854553, 117: 0.892051, 118: 0.292579, 119: 0.547126, 120: 0.121364, 121: 0.013628, 122: 0.87814, 123: 0.262066, 124: 0.91613, 125: 0.478208, 126: 0.226722, 127: 0.254963, 128: 0.482639, 129: 0.814311, 130: 0.677206, 131: 0.864944, 132: 0.283312, 133: 0.342586, 134: 0.084422, 135: 0.71979, 136: 0.762366, 137: 0.585921, 138: 0.764589, 139: 0.478074, 140: 0.83688, 141: 0.643353, 142: 0.8570449999999999, 143: 0.429252, 144: 0.8448, 145: 0.607087, 146: 0.156608, 147: 0.746516, 148: 0.626319, 149: 0.999013, 150: 0.354881, 151: 0.782703, 152: 0.278377, 153: 0.731999, 154: 0.002064, 155: 0.007738, 156: 0.655334, 157: 0.285152, 158: 0.147425, 159: 0.803373, 160: 0.622851, 161: 0.859413, 162: 0.923616, 163: 0.410229, 164: 0.8164400000000001, 165: 0.754452, 166: 0.254056, 167: 0.688167, 168: 0.131894, 169: 0.727457, 170: 0.418523, 171: 0.770423, 172: 0.860486, 173: 0.347377, 174: 0.496618, 175: 0.071951, 176: 0.134044, 177: 0.460228, 178: 0.70555, 179: 0.424102, 180: 0.101605, 181: 0.214592, 182: 0.173141, 183: 0.49661, 184: 0.430329, 185: 0.106578, 186: 0.953064, 187: 0.256073, 188: 0.556301, 189: 0.830105, 190: 0.7575190000000001, 191: 0.19618];
soc = [0: 7.612367, 1: 6.34476, 2: 10.337632, 3: 10.952475, 4: 12.267287, 5: 9.534902000000001, 6: 11.110006, 7: 11.29305, 8: 12.993817, 9: 8.232999, 10: 14.545544, 11: 6.386009, 12: 3.44215, 13: 10.709516, 14: 11.93256, 15: 8.43516, 16: 13.757147, 17: 3.238279, 18: 4.89105, 19: 3.161945, 20: 7.705988, 21: 10.336157, 22: 8.060637, 23: 11.413013, 24: 12.084364, 25: 14.093986, 26: 6.316189, 27: 13.127581, 28: 7.2705, 29: 9.070456, 30: 15.31119, 31: 10.188552, 32: 3.432926, 33: 15.421389, 34: 14.184699, 35: 9.163207999999999, 36: 5.083553, 37: 8.062302000000001, 38: 10.86976, 39: 10.934316, 40: 11.527235, 41: 13.582052, 42: 14.659429, 43: 8.706013, 44: 10.607617, 45: 4.497296, 46: 8.981033999999999, 47: 8.621992000000001, 48: 12.61455, 49: 13.292028, 50: 8.862009, 51: 7.271662, 52: 9.912993999999999, 53: 11.728665, 54: 2.698683, 55: 3.095078, 56: 10.872335, 57: 6.91958, 58: 13.448425, 59: 11.319469, 60: 10.09759, 61: 4.732956, 62: 10.876915, 63: 11.81764, 64: 2.85644, 65: 8.395987, 66: 3.149678, 67: 10.192478, 68: 7.83281, 69: 12.162532, 70: 14.657887, 71: 3.076354, 72: 15.288837, 73: 10.857879, 74: 5.137882, 75: 12.281202, 76: 11.618755, 77: 12.342504, 78: 12.738486, 79: 4.957178, 80: 14.517818, 81: 2.775898, 82: 7.642278, 83: 15.010634, 84: 12.136243, 85: 8.69735, 86: 12.282477, 87: 12.815619, 88: 11.715717, 89: 5.538939, 90: 14.738588, 91: 8.096746, 92: 12.94698, 93: 7.038493, 94: 7.139544, 95: 4.728739, 96: 4.786375, 97: 5.907067, 98: 15.344809, 99: 11.382236, 100: 12.976925, 101: 12.985121, 102: 14.195567, 103: 4.790828, 104: 15.085337, 105: 11.702049, 106: 9.431777, 107: 9.148693, 108: 14.992021, 109: 14.266835, 110: 4.884065, 111: 5.824847, 112: 8.826085000000001, 113: 13.775122, 114: 11.92813, 115: 11.875304, 116: 14.784478, 117: 10.191989, 118: 3.638942, 119: 14.923216, 120: 9.211755, 121: 10.027455, 122: 6.713323, 123: 13.87195, 124: 12.685542, 125: 7.067626, 126: 13.963996, 127: 2.849201, 128: 13.484442, 129: 4.845358, 130: 9.982048000000001, 131: 14.136563, 132: 14.533173, 133: 11.084812, 134: 2.947092, 135: 9.919456, 136: 4.182092, 137: 3.52154, 138: 2.806429, 139: 3.149331, 140: 10.190064, 141: 9.156874999999999, 142: 5.284303, 143: 14.73603, 144: 10.704422, 145: 4.409554, 146: 14.376787, 147: 6.296481, 148: 3.549745, 149: 8.304492, 150: 3.909989, 151: 6.231434, 152: 7.448603, 153: 14.194592, 154: 10.57083, 155: 5.644913, 156: 13.236373, 157: 4.69993, 158: 14.558521, 159: 4.755519, 160: 11.247493, 161: 13.866405, 162: 6.570679, 163: 10.24634, 164: 9.054864, 165: 6.127338, 166: 6.368744, 167: 7.383402, 168: 3.299864, 169: 13.807156, 170: 9.406566, 171: 13.342015, 172: 7.396237, 173: 11.877335, 174: 15.442684, 175: 8.480594, 176: 3.087027, 177: 14.684285, 178: 11.675864, 179: 12.439178, 180: 4.84232, 181: 4.961655, 182: 12.193702, 183: 6.137534, 184: 11.090178, 185: 7.699234, 186: 8.540922, 187: 13.658982, 188: 15.52645, 189: 10.796149, 190: 13.583557, 191: 13.450185];
cost = [0: 260.724381, 1: 521.372373, 2: 452.126907, 3: 529.818462, 4: 479.953048, 5: 338.833348, 6: 529.050221, 7: 336.802939, 8: 150.584688, 9: 497.499908, 10: 542.563145, 11: 136.511288, 12: 339.889305, 13: 521.622314, 14: 144.495598, 15: 357.211377, 16: 378.670028, 17: 35.857306, 18: 426.648152, 19: 478.315117, 20: 455.117449, 21: 400.714973, 22: 213.41205, 23: 289.461213, 24: 493.574676, 25: 741.061628, 26: 987.608952, 27: 709.212216, 28: 284.514003, 29: 638.8622800000001, 30: 662.095363, 31: 1172.219887, 32: 576.485745, 33: 163.149427, 34: 978.569874, 35: 1119.561118, 36: 77.81486599999999, 37: 74.23356200000001, 38: 528.589612, 39: 1033.517907, 40: 340.571788, 41: 257.965381, 42: 772.846555, 43: 1027.321847, 44: 565.512707, 45: 309.373333, 46: 914.40083, 47: 538.833149, 48: 248.770385, 49: 960.749508, 50: 162.515689, 51: 484.926727, 52: 452.724255, 53: 249.787034, 54: 208.043588, 55: 270.83897, 56: 255.903987, 57: 291.052226, 58: 511.760812, 59: 154.292496, 60: 58.892427, 61: 844.5631530000001, 62: 317.559736, 63: 151.534922, 64: 502.506972, 65: 1183.433755, 66: 379.351184, 67: 469.395456, 68: 485.673711, 69: 485.750413, 70: 486.915229, 71: 107.936722, 72: 307.937897, 73: 256.419236, 74: 392.786141, 75: 63.187575, 76: 875.175593, 77: 749.656526, 78: 608.074913, 79: 1121.360448, 80: 1075.840274, 81: 1093.076704, 82: 311.017427, 83: 990.3173860000001, 84: 721.055954, 85: 481.541783, 86: 185.642308, 87: 1025.798057, 88: 581.420698, 89: 71.994912, 90: 150.406012, 91: 577.5383399999999, 92: 371.347865, 93: 249.776462, 94: 69.565511, 95: 120.866183, 96: 340.770245, 97: 414.762553, 98: 60.816172, 99: 225.268411, 100: 272.907676, 101: 502.139393, 102: 109.816948, 103: 225.681453, 104: 137.571609, 105: 74.353503, 106: 451.189234, 107: 581.2740659999999, 108: 235.028598, 109: 189.42488, 110: 291.905931, 111: 56.396526, 112: 452.324268, 113: 334.40974, 114: 31.341561, 115: 233.694446, 116: 8.269501999999999, 117: 473.344066, 118: 144.558482, 119: 520.886339, 120: 1093.469048, 121: 1010.393504, 122: 786.001944, 123: 357.960685, 124: 1120.81061, 125: 7.080536, 126: 606.730647, 127: 973.68614, 128: 1074.705825, 129: 243.079297, 130: 929.310036, 131: 946.431181, 132: 1185.906044, 133: 223.130679, 134: 1185.693325, 135: 12.061476, 136: 133.50537, 137: 835.4137040000001, 138: 755.7567759999999, 139: 717.3534540000001, 140: 578.064883, 141: 753.316048, 142: 168.846847, 143: 1176.580594, 144: 972.458208, 145: 756.589619, 146: 1183.613126, 147: 215.636077, 148: 592.257548, 149: 453.331333, 150: 85.469432, 151: 61.74766, 152: 501.786504, 153: 386.683346, 154: 14.233884, 155: 555.709248, 156: 234.361714, 157: 457.95044, 158: 708.931292, 159: 312.670734, 160: 1125.923314, 161: 293.442974, 162: 163.615595, 163: 214.291904, 164: 834.835609, 165: 820.900771, 166: 608.849154, 167: 613.795541, 168: 822.140844, 169: 459.35352, 170: 1078.967608, 171: 484.87198, 172: 798.3143250000001, 173: 295.469134, 174: 1156.513227, 175: 959.942946, 176: 590.842366, 177: 1052.327198, 178: 0.721029, 179: 1150.228513, 180: 181.439914, 181: 819.451373, 182: 1139.378431, 183: 577.419496, 184: 450.971286, 185: 290.274439, 186: 564.081866, 187: 396.896218, 188: 237.417599, 189: 468.815379, 190: 516.787779, 191: 200.390311];
earn = [0: 1.063206, 1: 0.674854, 2: 2.568969, 3: 1.947521, 4: 0.910428, 5: 0.716351, 6: 2.298319, 7: 1.480849, 8: 0.933909, 9: 2.134479, 10: 0.774793, 11: 0.870852, 12: 1.743538, 13: 0.935907, 14: 1.389299, 15: 1.044954, 16: 1.209342, 17: 0.940527, 18: 2.327848, 19: 2.250135, 20: 2.014429, 21: 1.003819, 22: 1.489177, 23: 1.786483, 24: 1.367121, 25: 0.200672, 26: 0.303905, 27: 2.444605, 28: 2.589259, 29: 1.734891, 30: 1.006433, 31: 1.42979, 32: 0.151236, 33: 2.031098, 34: 1.289524, 35: 0.275348, 36: 2.319953, 37: 0.71565, 38: 0.977232, 39: 0.752067, 40: 1.117394, 41: 1.45394, 42: 0.563402, 43: 0.111397, 44: 0.326917, 45: 0.17193, 46: 0.433731, 47: 0.190005, 48: 0.190736, 49: 0.09012199999999999, 50: 0.043372, 51: 0.029094, 52: 0.130947, 53: 0.067816, 54: 0.024857, 55: 0.011155, 56: 0.0046, 57: 0.001852, 58: 0.008460000000000001, 59: 0.017092, 60: 0.088412, 61: 0.129922, 62: 0.160068, 63: 0.109646, 64: 0.340021, 65: 0.771192, 66: 0.684763, 67: 0.174085, 68: 0.942724, 69: 1.47891, 70: 1.848039, 71: 0.60525, 72: 1.877547, 73: 1.102474, 74: 0.223684, 75: 0.743827, 76: 1.399093, 77: 1.701003, 78: 0.100377, 79: 2.442434, 80: 1.278488, 81: 1.782937, 82: 2.31651, 83: 2.203786, 84: 0.242815, 85: 0.365811, 86: 1.296761, 87: 0.509217, 88: 1.294941, 89: 1.463027, 90: 0.80258, 91: 1.467781, 92: 1.903664, 93: 2.149541, 94: 1.595142, 95: 2.136369, 96: 2.04118, 97: 0.253822, 98: 1.694188, 99: 1.603664, 100: 1.750687, 101: 1.025299, 102: 0.382206, 103: 0.424282, 104: 0.803463, 105: 1.016285, 106: 0.42528, 107: 0.82099, 108: 0.401705, 109: 1.202438, 110: 1.123695, 111: 0.113476, 112: 0.913788, 113: 1.180335, 114: 0.901308, 115: 0.391309, 116: 0.5709610000000001, 117: 0.363829, 118: 0.48063, 119: 0.61831, 120: 0.496042, 121: 0.172413, 122: 0.650469, 123: 0.67983, 124: 0.361567, 125: 0.563781, 126: 0.922681, 127: 0.760148, 128: 0.171361, 129: 0.651706, 130: 0.372651, 131: 0.005875, 132: 0.115019, 133: 0.188586, 134: 0.003572, 135: 0.042153, 136: 0.02986, 137: 0.052707, 138: 0.013772, 139: 0.01655, 140: 0.022573, 141: 0.009105, 142: 0.007933000000000001, 143: 0.003415, 144: 0.000401, 145: -0.004285, 146: -0.000679, 147: -0.001557, 148: -0.000862, 149: -0.0003, 150: -0.004245, 151: -0.002406, 152: -0.00381, 153: -0.003618, 154: -0.010533, 155: -0.005611, 156: -0.0009879999999999999, 157: -0.001059, 158: -0.000212, 159: -0.002037, 160: 0.001271, 161: 0.007368, 162: 0.056218, 163: 0.041719, 164: 0.603752, 165: 0.927047, 166: 0.780603, 167: 0.245546, 168: 0.008944000000000001, 169: 1.837291, 170: 1.846557, 171: 0.259312, 172: 2.485834, 173: 0.68719, 174: 0.627197, 175: 1.88743, 176: 1.57067, 177: 2.731836, 178: 1.616131, 179: 1.544374, 180: 1.259143, 181: 0.368439, 182: 0.527582, 183: 0.520734, 184: 1.477347, 185: 0.97758, 186: 1.147413, 187: 1.487555, 188: 1.603146, 189: 0.650405, 190: 0.115895, 191: 0.831886];
total_cost = 101.5117115470287;
total_earn = 24.35283580035733;
