production = [0: 0.0, 1: 0.0, 2: 0.0, 3: 0.0, 4: 0.0, 5: 0.0, 6: 0.0, 7: 0.0, 8: 0.0, 9: 0.0, 10: 0.0, 11: 0.0, 12: 0.0, 13: 0.0, 14: 0.0, 15: 0.0, 16: 0.0, 17: 0.0, 18: 0.0, 19: 0.0, 20: 0.0, 21: 0.0, 22: 0.0, 23: 0.000108, 24: 0.0, 25: 0.00032, 26: 5.6e-05, 27: 0.011911, 28: 0.007477, 29: 0.06990300000000001, 30: 0.101961, 31: 0.03515, 32: 0.103293, 33: 0.306517, 34: 0.293126, 35: 0.412434, 36: 0.8859089999999999, 37: 0.940593, 38: 1.10265, 39: 0.408747, 40: 0.466005, 41: 0.521486, 42: 0.894012, 43: 0.793176, 44: 0.804635, 45: 0.40057, 46: 1.422586, 47: 0.685217, 48: 0.433291, 49: 1.641986, 50: 0.947244, 51: 0.130702, 52: 1.297924, 53: 0.713636, 54: 0.323666, 55: 0.833333, 56: 1.217335, 57: 0.038611, 58: 0.400628, 59: 1.729502, 60: 1.17796, 61: 1.516279, 62: 1.311515, 63: 0.7137559999999999, 64: 0.648203, 65: 0.583862, 66: 0.6669349999999999, 67: 0.354068, 68: 0.367629, 69: 0.471003, 70: 0.375326, 71: 0.35592, 72: 0.051564, 73: 0.07613399999999999, 74: 0.102907, 75: 0.032122, 76: 0.000274, 77: 0.000623, 78: 0.002038, 79: 0.0, 80: 0.000161, 81: 0.0, 82: 0.0, 83: 0.0, 84: 0.0, 85: 0.0, 86: 0.0, 87: 0.0, 88: 0.0, 89: 0.0, 90: 0.0, 91: 0.0, 92: 0.0, 93: 0.0, 94: 0.0, 95: 0.0, 96: 0.0, 97: 0.0, 98: 0.0, 99: 0.0, 100: 0.0, 101: 0.0, 102: 0.0, 103: 0.0, 104: 0.0, 105: 0.0, 106: 0.0, 107: 0.0, 108: 0.0, 109: 0.0, 110: 0.0, 111: 0.0, 112: 0.0, 113: 0.0, 114: 0.0, 115: 0.0, 116: 0.0, 117: 0.0, 118: 0.0, 119: 0.000122, 120: 5.7e-05, 121: 0.000224, 122: 1.9e-05, 123: 0.005432, 124: 0.007607, 125: 0.005545, 126: 0.044797, 127: 0.125998, 128: 0.061138, 129: 0.058685, 130: 0.226811, 131: 0.240529, 132: 0.051474, 133: 0.156684, 134: 0.049801, 135: 0.531253, 136: 0.357978, 137: 0.12573, 138: 0.309576, 139: 0.198779, 140: 0.675712, 141: 0.202263, 142: 0.275806, 143: 0.06472600000000001, 144: 0.543865, 145: 0.498291, 146: 1.901468, 147: 0.6183959999999999, 148: 0.482156, 149: 0.854291, 150: 0.044661, 151: 0.116188, 152: 0.608038, 153: 0.619123, 154: 0.384105, 155: 0.71132, 156: 0.3173, 157: 0.06721199999999999, 158: 0.057113, 159: 0.106004, 160: 0.550632, 161: 0.563083, 162: 0.349811, 163: 0.516804, 164: 0.046343, 165: 0.017863, 166: 0.398823, 167: 0.324648, 168: 0.156198, 169: 0.109199, 170: 0.076789, 171: 0.020433, 172: 0.004327, 173: 0.01046, 174: 0.001875, 175: 0.0, 176: 0.0, 177: 0.0, 178: 0.0, 179: 0.0, 180: 0.0, 181: 0.0, 182: 0.0, 183: 0.0, 184: 0.0, 185: 0.0, 186: 0.0, 187: 0.0, 188: 0.0, 189: 0.0, 190: 0.0, 191: 0.0];
buy = [0: 780.963118, 1: 913.867348, 2: 455.372756, 3: 335.086621, 4: 281.436955, 5: 722.962183, 6: 91.237562, 7: 940.480892, 8: 358.679536, 9: 453.394665, 10: 117.430847, 11: 67.73419199999999, 12: 307.153862, 13: 645.781674, 14: 108.418959, 15: 382.093583, 16: 361.23585, 17: 635.760807, 18: 348.343582, 19: 53.615446, 20: 706.343919, 21: 496.160939, 22: 441.125, 23: 869.8257599999999, 24: 831.237854, 25: 921.31655, 26: 974.877355, 27: 697.028711, 28: 716.4200959999999, 29: 74.40796899999999, 30: 464.02671, 31: 357.691968, 32: 368.89591, 33: 309.505963, 34: 779.382037, 35: 874.939239, 36: 313.393395, 37: 808.547131, 38: 795.509985, 39: 915.098243, 40: 805.321783, 41: 228.95895, 42: 892.77077, 43: 712.513165, 44: 942.50652, 45: 758.519593, 46: 61.930059, 47: 705.767728, 48: 410.228402, 49: 7.981718, 50: 581.351583, 51: 292.527228, 52: 454.912164, 53: 464.263547, 54: 93.934721, 55: 331.563382, 56: 195.922334, 57: 550.444158, 58: 972.031344, 59: 9.068550999999999, 60: 4.105777, 61: 940.9215819999999, 62: 70.24555599999999, 63: 469.545853, 64: 729.27272, 65: 453.230016, 66: 718.274166, 67: 877.863077, 68: 726.175699, 69: 686.91794, 70: 654.559218, 71: 748.704742, 72: 138.052282, 73: 665.778646, 74: 914.065941, 75: 51.162055, 76: 515.126247, 77: 99.84421500000001, 78: 799.454638, 79: 796.4017710000001, 80: 629.695141, 81: 398.060698, 82: 903.1385320000001, 83: 440.349345, 84: 553.860262, 85: 732.3645299999999, 86: 389.120094, 87: 360.148161, 88: 394.089349, 89: 914.164734, 90: 486.485516, 91: 13.044338, 92: 773.008117, 93: 945.827438, 94: 799.807441, 95: 470.38669, 96: 802.418914, 97: 745.1654119999999, 98: 152.928935, 99: 502.095782, 100: 70.860046, 101: 551.961576, 102: 518.955496, 103: 715.40742, 104: 469.568953, 105: 533.387603, 106: 612.662979, 107: 374.475681, 108: 127.83877, 109: 169.770443, 110: 160.169372, 111: 57.040411, 112: 983.216355, 113: 326.054471, 114: 446.734099, 115: 943.4498610000001, 116: 612.380707, 117: 650.150004, 118: 820.888393, 119: 6.983112, 120: 230.433914, 121: 499.501841, 122: 311.985192, 123: 675.683575, 124: 310.047945, 125: 572.3606590000001, 126: 376.052788, 127: 385.666097, 128: 432.27982, 129: 987.900936, 130: 14.634461, 131: 416.846961, 132: 89.110569, 133: 596.80805, 134: 597.570111, 135: 664.91848, 136: 96.59036, 137: 411.999944, 138: 310.101244, 139: 820.929257, 140: 32.327899, 141: 882.436882, 142: 798.26741, 143: 143.056295, 144: 195.199252, 145: 774.4281130000001, 146: 84.813455, 147: 507.951248, 148: 229.924081, 149: 242.362135, 150: 331.809725, 151: 319.411784, 152: 333.207299, 153: 749.442042, 154: 604.0826970000001, 155: 28.168215, 156: 383.769141, 157: 614.226802, 158: 18.556682, 159: 201.348122, 160: 645.349573, 161: 115.306106, 162: 121.472137, 163: 105.209971, 164: 266.092488, 165: 909.51348, 166: 860.588799, 167: 181.09826, 168: 866.573992, 169: 391.744732, 170: 782.226889, 171: 340.931333, 172: 529.123294, 173: 408.509864, 174: 395.779353, 175: 930.017993, 176: 815.839782, 177: 377.27849, 178: 904.420305, 179: 888.882042, 180: 691.909575, 181: 28.062769, 182: 823.247857, 183: 243.683888, 184: 713.714381, 185: 182.629352, 186: 974.989093, 187: 198.890601, 188: 234.89529, 189: 450.849569, 190: 774.794924, 191: 474.912212];
sell = [0: 2.582192, 1: 0.506205, 2: 1.689027, 3: 3.116608, 4: 2.443877, 5: 0.917651, 6: 0.958009, 7: 2.238125, 8: 1.000763, 9: 0.734102, 10: 1.541006, 11: 3.264275, 12: 0.729979, 13: 1.548518, 14: 3.963892, 15: 0.566479, 16: 0.339298, 17: 3.023871, 18: 3.053916, 19: 3.852458, 20: 0.815907, 21: 1.652559, 22: 3.75019, 23: 2.378261, 24: 2.365699, 25: 2.551772, 26: 0.024171, 27: 1.554661, 28: 0.221114, 29: 2.065532, 30: 0.582817, 31: 0.311652, 32: 3.079064, 33: 2.09966, 34: 1.357541, 35: 2.04896, 36: 3.302373, 37: 2.539286, 38: 3.592917, 39: 3.484895, 40: 2.420724, 41: 1.015608, 42: 1.343613, 43: 1.346052, 44: 1.648376, 45: 0.085212, 46: 0.572452, 47: 1.752093, 48: 0.384664, 49: 0.009441, 50: 2.868172, 51: 3.660635, 52: 0.391245, 53: 2.012749, 54: 1.962501, 55: 3.908071, 56: 0.86295, 57: 0.855386, 58: 1.719983, 59: 0.048313, 60: 3.670829, 61: 2.452733, 62: 1.617814, 63: 0.428491, 64: 0.495742, 65: 0.412784, 66: 3.201145, 67: 1.151368, 68: 3.410187, 69: 2.615351, 70: 3.337294, 71: 2.724371, 72: 3.665272, 73: 3.450949, 74: 3.857073, 75: 0.252062, 76: 1.341843, 77: 1.825551, 78: 0.82038, 79: 3.725071, 80: 1.018373, 81: 0.984233, 82: 0.706761, 83: 0.142464, 84: 1.060177, 85: 0.957058, 86: 0.652714, 87: 3.063222, 88: 3.160806, 89: 2.458412, 90: 1.307193, 91: 2.583399, 92: 1.260028, 93: 2.05221, 94: 3.632597, 95: 0.047016, 96: 1.087529, 97: 1.140926, 98: 2.116635, 99: 0.304665, 100: 3.299978, 101: 3.417853, 102: 0.5781500000000001, 103: 1.414453, 104: 0.818313, 105: 1.911134, 106: 3.030386, 107: 1.607186, 108: 0.039146, 109: 1.989856, 110: 3.159297, 111: 3.515845, 112: 0.706298, 113: 3.695796, 114: 3.864114, 115: 2.571152, 116: 3.153709, 117: 0.027717, 118: 2.959914, 119: 1.408209, 120: 2.186617, 121: 2.936543, 122: 3.415037, 123: 1.165957, 124: 2.941664, 125: 2.718743, 126: 3.589705, 127: 0.816651, 128: 3.648793, 129: 2.181762, 130: 2.552413, 131: 3.956207, 132: 0.6116740000000001, 133: 1.865493, 134: 2.748912, 135: 2.23223, 136: 3.595061, 137: 0.424838, 138: 3.972099, 139: 2.093439, 140: 2.247162, 141: 1.400659, 142: 0.481389, 143: 0.45735, 144: 3.383877, 145: 1.97301, 146: 3.172465, 147: 1.692255, 148: 2.144317, 149: 3.268232, 150: 2.039301, 151: 1.174552, 152: 2.586466, 153: 1.029507, 154: 2.696316, 155: 0.8491340000000001, 156: 3.281155, 157: 0.741661, 158: 0.285835, 159: 2.721341, 160: 2.830317, 161: 0.551763, 162: 2.790847, 163: 0.384943, 164: 0.100285, 165: 3.802984, 166: 3.110314, 167: 1.472187, 168: 0.825926, 169: 2.243873, 170: 2.109513, 171: 3.627796, 172: 1.280726, 173: 0.494145, 174: 1.315084, 175: 1.036752, 176: 2.810582, 177: 1.367432, 178: 1.445069, 179: 2.749851, 180: 1.70131, 181: 1.273596, 182: 1.846771, 183: 3.413749, 184: 2.13779, 185: 1.570832, 186: 2.425883, 187: 2.273093, 188: 2.07216, 189: 3.530223, 190: 1.204798, 191: 2.114228];
charge = [0: 0.494855, 1: 0.958514, 2: 0.175988, 3: 0.593398, 4: 0.016581, 5: 0.24327, 6: 0.729644, 7: 0.247904, 8: 0.47225, 9: 0.178683, 10: 0.791559, 11: 0.426, 12: 0.357179, 13: 0.121791, 14: 0.755911, 15: 0.919198, 16: 0.018363, 17: 0.971685, 18: 0.883522, 19: 0.899687, 20: 0.586571, 21: 0.379895, 22: 0.392609, 23: 0.402136, 24: 0.7876570000000001, 25: 0.564167, 26: 0.677433, 27: 0.225857, 28: 0.220772, 29: 0.973564, 30: 0.173564, 31: 0.197235, 32: 0.7150919999999999, 33: 0.896631, 34: 0.302329, 35: 0.392187, 36: 0.945439, 37: 0.974229, 38: 0.090129, 39: 0.75573, 40: 0.365479, 41: 0.465143, 42: 0.935375, 43: 0.115096, 44: 0.101898, 45: 0.316608, 46: 0.747875, 47: 0.724029, 48: 0.5290049999999999, 49: 0.592632, 50: 0.582852, 51: 0.086586, 52: 0.655064, 53: 0.561208, 54: 0.857097, 55: 0.622808, 56: 0.974924, 57: 0.217733, 58: 0.266355, 59: 0.737969, 60: 0.587859, 61: 0.643566, 62: 0.863206, 63: 0.687948, 64: 0.230555, 65: 0.332812, 66: 0.926288, 67: 0.002689, 68: 0.695246, 69: 0.271266, 70: 0.221208, 71: 0.672868, 72: 0.237113, 73: 0.735743, 74: 0.381403, 75: 0.920964, 76: 0.247693, 77: 0.278314, 78: 0.973907, 79: 0.9176, 80: 0.574686, 81: 0.250638, 82: 0.426233, 83: 0.191189, 84: 0.675802, 85: 0.835274, 86: 0.518857, 87: 0.153271, 88: 0.5592780000000001, 89: 0.771609, 90: 0.251365, 91: 0.887583, 92: 0.061189, 93: 0.055712, 94: 0.721141, 95: 0.297001, 96: 0.7241109999999999, 97: 0.33182, 98: 0.837251, 99: 0.746184, 100: 0.170121, 101: 0.929316, 102: 0.89486, 103: 0.607967, 104: 0.276166, 105: 0.902775, 106: 0.082852, 107: 0.394357, 108: 0.793104, 109: 0.197673, 110: 0.070117, 111: 0.0243, 112: 0.270645, 113: 0.615271, 114: 0.49241, 115: 0.682086, 116: 0.114869, 117: 0.5224490000000001, 118: 0.075541, 119: 0.646694, 120: 0.47959, 121: 0.365176, 122: 0.17758, 123: 0.821309, 124: 0.110296, 125: 0.231447, 126: 0.217348, 127: 0.075934, 128: 0.411448, 129: 0.69445, 130: 0.111812, 131: 0.845311, 132: 0.78735, 133: 0.274886, 134: 0.5230629999999999, 135: 0.365302, 136: 0.438687, 137: 0.442126, 138: 0.47976, 139: 0.755309, 140: 0.747714, 141: 0.227362, 142: 0.240179, 143: 0.11445, 144: 0.8326710000000001, 145: 0.15486, 146: 0.147769, 147: 0.747202, 148: 0.466213, 149: 0.190653, 150: 0.9667, 151: 0.105902, 152: 0.765382, 153: 0.273071, 154: 0.8020350000000001, 155: 0.377115, 156: 0.241272, 157: 0.597434, 158: 0.482439, 159: 0.562965, 160: 0.011008, 161: 0.525674, 162: 0.677133, 163: 0.799949, 164: 0.6395, 165: 0.299922, 166: 0.475101, 167: 0.577563, 168: 0.259124, 169: 0.37726, 170: 0.231752, 171: 0.537601, 172: 0.446404, 173: 0.362715, 174: 0.664793, 175: 0.217387, 176: 0.451714, 177: 0.642479, 178: 0.717615, 179: 0.924528, 180: 0.403151, 181: 0.997198, 182: 0.012122, 183: 0.612617, 184: 0.167624, 185: 0.135685, 186: 0.980039, 187: 0.415223, 188: 0.508329, 189: 0.43613, 190: 0.171733, 191: 0.949108];
discharge = [0: 0.447272, 1: 0.189364, 2: 0.57947, 3: 0.610364, 4: 0.937578, 5: 0.8947079999999999, 6: 0.684809, 7: 0.025075, 8: 0.5275339999999999, 9: 0.750695, 10: 0.409936, 11: 0.378311, 12: 0.7326549999999999, 13: 0.390676, 14: 0.271227, 15: 0.980579, 16: 0.475145, 17: 0.102184, 18: 0.9587830000000001, 19: 0.928584, 20: 0.713491, 21: 0.361037, 22: 0.538152, 23: 0.741947, 24: 0.079766, 25: 0.624716, 26: 0.971782, 27: 0.30789, 28: 0.4325, 29: 0.057415, 30: 0.772227, 31: 0.332096, 32: 0.382413, 33: 0.212253, 34: 0.985895, 35: 0.255077, 36: 0.395536, 37: 0.825163, 38: 0.06148, 39: 0.761483, 40: 0.875257, 41: 0.862667, 42: 0.7565460000000001, 43: 0.223296, 44: 0.490454, 45: 0.194748, 46: 0.449965, 47: 0.817416, 48: 0.092387, 49: 0.660073, 50: 0.906015, 51: 0.905796, 52: 0.367843, 53: 0.939497, 54: 0.596708, 55: 0.878918, 56: 0.163056, 57: 0.412045, 58: 0.318873, 59: 0.706224, 60: 0.9096379999999999, 61: 0.477022, 62: 0.48801, 63: 0.470633, 64: 0.955137, 65: 0.407744, 66: 0.29761, 67: 0.176922, 68: 0.9098270000000001, 69: 0.232946, 70: 0.358671, 71: 0.128068, 72: 0.512099, 73: 0.354683, 74: 0.738688, 75: 0.059816, 76: 0.484521, 77: 0.20624, 78: 0.126751, 79: 0.269206, 80: 0.124968, 81: 0.219934, 82: 0.653402, 83: 0.420242, 84: 0.23561, 85: 0.64066, 86: 0.182432, 87: 0.674311, 88: 0.814761, 89: 0.710713, 90: 0.03525, 91: 0.434378, 92: 0.331301, 93: 0.252051, 94: 0.752235, 95: 0.0185, 96: 0.994768, 97: 0.488962, 98: 0.679287, 99: 0.27861, 100: 0.611477, 101: 0.946546, 102: 0.426816, 103: 0.240231, 104: 0.804291, 105: 0.659627, 106: 0.690213, 107: 0.541465, 108: 0.313456, 109: 0.421783, 110: 0.416957, 111: 0.806411, 112: 0.989843, 113: 0.944905, 114: 0.166735, 115: 0.121401, 116: 0.169927, 117: 0.126386, 118: 0.619041, 119: 0.8338719999999999, 120: 0.966541, 121: 0.621022, 122: 0.8562340000000001, 123: 0.954226, 124: 0.363312, 125: 0.598494, 126: 0.621308, 127: 0.312594, 128: 0.6760350000000001, 129: 0.713113, 130: 0.7217710000000001, 131: 0.099576, 132: 0.139659, 133: 0.581759, 134: 0.043218, 135: 0.62604, 136: 0.424819, 137: 0.5522860000000001, 138: 0.368375, 139: 0.558769, 140: 0.566512, 141: 0.573367, 142: 0.499361, 143: 0.567734, 144: 0.9944539999999999, 145: 0.160786, 146: 0.240061, 147: 0.063974, 148: 0.270573, 149: 0.09986100000000001, 150: 0.582738, 151: 0.06246, 152: 0.773854, 153: 0.901755, 154: 0.555767, 155: 0.970922, 156: 0.37966, 157: 0.020869, 158: 0.790779, 159: 0.823091, 160: 0.4677, 161: 0.430572, 162: 0.539361, 163: 0.606091, 164: 0.719608, 165: 0.188641, 166: 0.013089, 167: 0.242814, 168: 0.654206, 169: 0.706234, 170: 0.009211, 171: 0.873763, 172: 0.188937, 173: 0.667176, 174: 0.517612, 175: 0.362445, 176: 0.61539, 177: 0.864461, 178: 0.03009, 179: 0.777322, 180: 0.114131, 181: 0.542006, 182: 0.437554, 183: 0.603258, 184: 0.884051, 185: 0.8814610000000001, 186: 0.633593, 187: 0.813651, 188: 0.865048, 189: 0.665203, 190: 0.78008, 191: 0.9775509999999999];
soc = [0: 5.190175, 1: 6.85694, 2: 6.269695, 3: 4.748449, 4: 5.389845, 5: 8.669122, 6: 4.053999, 7: 9.851938000000001, 8: 7.334547, 9: 3.98959, 10: 6.310093, 11: 6.890174, 12: 14.280156, 13: 7.612588, 14: 5.783454, 15: 12.487071, 16: 3.823255, 17: 11.403149, 18: 12.789863, 19: 12.447275, 20: 7.910439, 21: 13.596862, 22: 5.969741, 23: 9.471221999999999, 24: 11.814402, 25: 2.885988, 26: 6.031779, 27: 9.837956999999999, 28: 15.192678, 29: 8.191599, 30: 7.670278, 31: 8.819357, 32: 15.461091, 33: 9.744875, 34: 13.316213, 35: 12.12356, 36: 13.776641, 37: 11.008274, 38: 3.568858, 39: 9.163186, 40: 6.879797, 41: 6.373892, 42: 11.524376, 43: 10.397215, 44: 5.958783, 45: 15.231274, 46: 4.173633, 47: 6.420694, 48: 13.504195, 49: 12.794121, 50: 6.098213, 51: 12.110125, 52: 8.622142, 53: 6.551858, 54: 4.409484, 55: 14.050905, 56: 14.087961, 57: 10.645924, 58: 7.275319, 59: 11.751443, 60: 9.615550000000001, 61: 12.249363, 62: 10.73787, 63: 8.072884, 64: 9.42714, 65: 15.035994, 66: 9.053575, 67: 9.399556, 68: 14.312532, 69: 9.32817, 70: 11.318897, 71: 14.868798, 72: 10.852397, 73: 12.351008, 74: 10.887701, 75: 3.453091, 76: 4.191031, 77: 11.283966, 78: 14.568587, 79: 9.542133, 80: 2.690753, 81: 5.537359, 82: 10.483216, 83: 11.161626, 84: 4.660039, 85: 12.230213, 86: 7.377967, 87: 12.659806, 88: 14.521534, 89: 14.725228, 90: 4.086758, 91: 8.490739, 92: 14.801759, 93: 8.815149999999999, 94: 9.088509, 95: 10.246179, 96: 4.918844, 97: 5.075442, 98: 4.938824, 99: 14.178774, 100: 10.795764, 101: 4.770555, 102: 13.156522, 103: 14.211938, 104: 4.675716, 105: 15.165884, 106: 12.086164, 107: 10.227137, 108: 3.567253, 109: 6.449924, 110: 3.591876, 111: 11.466185, 112: 9.95462, 113: 2.703999, 114: 3.453548, 115: 10.386021, 116: 12.752905, 117: 7.296371, 118: 3.551673, 119: 11.019958, 120: 7.081337, 121: 6.638622, 122: 15.550118, 123: 15.498471, 124: 3.598444, 125: 12.995264, 126: 11.769403, 127: 3.783384, 128: 4.29556, 129: 4.211046, 130: 7.960288, 131: 14.583785, 132: 6.811936, 133: 3.92558, 134: 10.531661, 135: 10.023399, 136: 6.399418, 137: 13.482945, 138: 15.213507, 139: 14.111434, 140: 15.555214, 141: 10.568578, 142: 5.294897, 143: 9.774182, 144: 15.06319, 145: 6.74309, 146: 5.286657, 147: 3.555638, 148: 14.393694, 149: 9.922102000000001, 150: 14.155297, 151: 8.791103, 152: 10.064778, 153: 13.95389, 154: 12.427386, 155: 9.84625, 156: 3.261472, 157: 15.255039, 158: 3.957451, 159: 12.764065, 160: 15.559785, 161: 11.69414, 162: 3.106975, 163: 5.453383, 164: 9.162604, 165: 4.183412, 166: 4.169334, 167: 15.31258, 168: 5.102324, 169: 3.520081, 170: 12.616289, 171: 4.326937, 172: 13.456039, 173: 5.988372, 174: 12.94826, 175: 9.810779999999999, 176: 10.920983, 177: 5.968224, 178: 8.626697999999999, 179: 12.17173, 180: 12.761958, 181: 9.473115, 182: 5.089608, 183: 15.257398, 184: 8.123276000000001, 185: 4.789665, 186: 13.622151, 187: 8.593330999999999, 188: 13.744804, 189: 12.655929, 190: 14.57803, 191: 10.682736];
cost = [0: 20.903627, 1: 456.675074, 2: 367.978749, 3: 452.285491, 4: 96.732457, 5: 387.059081, 6: 94.951365, 7: 339.946153, 8: 222.051013, 9: 351.927934, 10: 492.725723, 11: 358.48427, 12: 186.741665, 13: 520.491733, 14: 600.921155, 15: 275.250429, 16: 581.638295, 17: 606.7559, 18: 257.312468, 19: 548.308708, 20: 344.609657, 21: 141.010362, 22: 18.26483, 23: 462.295495, 24: 38.947556, 25: 909.5989530000001, 26: 827.724874, 27: 1042.454911, 28: 240.762409, 29: 525.954303, 30: 904.266295, 31: 1005.767555, 32: 645.758024, 33: 875.874769, 34: 1161.647305, 35: 421.096567, 36: 653.003252, 37: 1163.323908, 38: 26.185243, 39: 1040.885697, 40: 247.52014, 41: 21.179823, 42: 1001.692289, 43: 239.453726, 44: 391.713587, 45: 105.420525, 46: 732.601571, 47: 1167.837189, 48: 730.8502120000001, 49: 505.646846, 50: 651.836283, 51: 891.027649, 52: 582.542811, 53: 404.326528, 54: 582.2829829999999, 55: 218.098694, 56: 435.093225, 57: 141.294679, 58: 75.47438, 59: 325.530072, 60: 245.646571, 61: 855.191267, 62: 604.208266, 63: 1045.258243, 64: 189.519021, 65: 835.845377, 66: 99.02853899999999, 67: 188.064015, 68: 473.905832, 69: 93.073554, 70: 774.611771, 71: 613.267431, 72: 1036.313469, 73: 1031.416616, 74: 608.498827, 75: 998.898542, 76: 119.949322, 77: 228.75931, 78: 561.153154, 79: 146.889631, 80: 149.500908, 81: 870.332924, 82: 441.318503, 83: 1179.419269, 84: 515.34534, 85: 661.646379, 86: 138.671243, 87: 1123.663478, 88: 145.247485, 89: 119.421583, 90: 158.079044, 91: 104.500967, 92: 9.840234000000001, 93: 421.507279, 94: 209.661375, 95: 190.785918, 96: 399.487481, 97: 11.736102, 98: 483.282385, 99: 256.212953, 100: 180.986028, 101: 335.786795, 102: 209.869605, 103: 98.389003, 104: 221.570145, 105: 464.458619, 106: 453.001032, 107: 98.980093, 108: 71.141518, 109: 70.21305099999999, 110: 62.585299, 111: 138.612015, 112: 218.129909, 113: 169.689256, 114: 605.364779, 115: 198.239885, 116: 294.714244, 117: 599.280447, 118: 268.686605, 119: 195.726532, 120: 998.508163, 121: 689.8602979999999, 122: 176.984089, 123: 557.983522, 124: 723.83129, 125: 1186.386492, 126: 1103.678448, 127: 970.960283, 128: 1160.344513, 129: 396.659775, 130: 285.227419, 131: 596.218206, 132: 420.287551, 133: 190.696855, 134: 406.890177, 135: 835.372849, 136: 241.726378, 137: 678.246705, 138: 614.471606, 139: 114.281483, 140: 882.967412, 141: 180.218086, 142: 689.593207, 143: 822.339251, 144: 841.443808, 145: 624.780791, 146: 1065.383568, 147: 672.581448, 148: 265.485691, 149: 122.221835, 150: 599.945218, 151: 126.694707, 152: 540.699214, 153: 58.629839, 154: 465.751715, 155: 267.385901, 156: 342.177209, 157: 538.634801, 158: 796.299453, 159: 236.069746, 160: 1105.581193, 161: 538.028517, 162: 714.027055, 163: 841.952993, 164: 1109.849144, 165: 735.051337, 166: 830.517239, 167: 96.522154, 168: 217.438395, 169: 523.0791390000001, 170: 747.66306, 171: 1011.917687, 172: 858.84536, 173: 41.214972, 174: 13.803658, 175: 614.097158, 176: 633.743107, 177: 191.67095, 178: 979.595366, 179: 440.662942, 180: 925.645904, 181: 729.08979, 182: 1143.218213, 183: 513.5216359999999, 184: 191.705103, 185: 265.939564, 186: 553.99239, 187: 554.868711, 188: 204.557526, 189: 211.617484, 190: 462.005862, 191: 131.139267];
earn = [0: 0.664523, 1: 1.830116, 2: 1.522551, 3: 0.750851, 4: 1.226852, 5: 2.229908, 6: 1.116317, 7: 1.09488, 8: 1.778729, 9: 0.537856, 10: 2.033441, 11: 1.743275, 12: 1.577284, 13: 1.681408, 14: 1.50902, 15: 0.487163, 16: 0.524232, 17: 0.08448, 18: 1.941193, 19: 1.256383, 20: 0.941569, 21: 1.453971, 22: 1.917696, 23: 2.319994, 24: 2.59831, 25: 1.927398, 26: 2.933864, 27: 1.639489, 28: 1.391813, 29: 2.226611, 30: 0.57282, 31: 1.37938, 32: 1.349664, 33: 2.025258, 34: 0.097302, 35: 1.293891, 36: 1.313826, 37: 0.107479, 38: 0.5833930000000001, 39: 0.095696, 40: 0.883266, 41: 0.490009, 42: 0.809661, 43: 1.270033, 44: 0.514917, 45: 0.250228, 46: 0.253879, 47: 0.320188, 48: 0.17887, 49: 0.32867, 50: 0.14812, 51: 0.10272, 52: 0.18818, 53: 0.034643, 54: 0.118979, 55: 0.025029, 56: 0.192874, 57: 0.417778, 58: 0.132644, 59: 0.832763, 60: 0.819747, 61: 0.784131, 62: 0.338462, 63: 0.575695, 64: 1.293862, 65: 0.168736, 66: 0.505848, 67: 1.359181, 68: 1.999058, 69: 1.517502, 70: 0.431085, 71: 0.903913, 72: 2.273285, 73: 2.694877, 74: 1.907906, 75: 2.808025, 76: 1.801101, 77: 1.871384, 78: 2.340845, 79: 0.506064, 80: 0.641642, 81: 3.319665, 82: 1.712976, 83: 0.106279, 84: 2.296103, 85: 1.020636, 86: 1.655067, 87: 1.448731, 88: 1.660208, 89: 1.58619, 90: 1.374898, 91: 2.280212, 92: 0.436449, 93: 1.506687, 94: 0.290183, 95: 0.6347120000000001, 96: 1.964775, 97: 0.323315, 98: 2.287061, 99: 1.400498, 100: 2.095535, 101: 0.979115, 102: 1.587165, 103: 0.584946, 104: 0.505325, 105: 0.69911, 106: 1.485607, 107: 1.688476, 108: 0.64828, 109: 0.413731, 110: 1.634759, 111: 1.611436, 112: 1.876682, 113: 1.447559, 114: 1.489809, 115: 0.263523, 116: 0.074119, 117: 1.064864, 118: 0.439173, 119: 2.396593, 120: 0.012198, 121: 2.135971, 122: 0.463214, 123: 2.213419, 124: 1.885428, 125: 2.059071, 126: 1.323502, 127: 1.945216, 128: 1.825571, 129: 0.594056, 130: 1.81185, 131: 0.990614, 132: 2.210959, 133: 0.332528, 134: 0.152935, 135: 1.659791, 136: 0.060996, 137: 0.395693, 138: 0.6827299999999999, 139: 1.097527, 140: 0.667895, 141: 0.307621, 142: 0.742298, 143: 0.556565, 144: 0.042602, 145: 0.118979, 146: 0.1553, 147: 0.026615, 148: 0.076597, 149: 0.052575, 150: 0.029442, 151: 0.001824, 152: 0.015452, 153: 0.011981, 154: 0.015713, 155: 0.014359, 156: 0.170371, 157: 0.015446, 158: 3.1e-05, 159: 0.063405, 160: 0.524076, 161: 0.191444, 162: 1.241427, 163: 0.86003, 164: 1.714007, 165: 1.465307, 166: 1.252717, 167: 0.555175, 168: 0.199184, 169: 0.534668, 170: 0.257517, 171: 1.247108, 172: 1.902652, 173: 0.229962, 174: 0.221968, 175: 1.405357, 176: 2.370899, 177: 0.013559, 178: 2.89929, 179: 1.336917, 180: 2.508703, 181: 0.323296, 182: 1.488232, 183: 0.450335, 184: 1.557252, 185: 1.755445, 186: 0.703161, 187: 0.622629, 188: 1.425595, 189: 0.50448, 190: 0.768506, 191: 1.331609];
total_cost = 94.90423410128011;
total_earn = 26.63296162925769;
