production = [0: 0.0, 1: 0.0, 2: 0.0, 3: 0.0, 4: 0.0, 5: 0.0, 6: 0.0, 7: 0.0, 8: 0.0, 9: 0.0, 10: 0.0, 11: 0.0, 12: 0.0, 13: 0.0, 14: 0.0, 15: 0.0, 16: 0.0, 17: 0.0, 18: 0.0, 19: 0.0, 20: 0.0, 21: 0.0, 22: 0.0, 23: 0.000125, 24: 0.000755, 25: 0.00541, 26: 0.040289, 27: 0.06044, 28: 0.053964, 29: 0.164077, 30: 0.196094, 31: 0.0247, 32: 0.093999, 33: 0.123186, 34: 0.268912, 35: 0.230096, 36: 0.054478, 37: 0.366929, 38: 1.124264, 39: 1.08271, 40: 0.047578, 41: 1.99009, 42: 1.158318, 43: 0.426685, 44: 0.310915, 45: 0.12929, 46: 1.340363, 47: 1.666614, 48: 1.375629, 49: 1.069563, 50: 0.21371, 51: 0.949963, 52: 0.752148, 53: 0.507971, 54: 0.064903, 55: 0.218547, 56: 0.625784, 57: 0.116096, 58: 0.102457, 59: 0.163859, 60: 0.279489, 61: 0.068799, 62: 0.118255, 63: 0.249605, 64: 0.068255, 65: 0.088298, 66: 0.035397, 67: 0.038117, 68: 0.113843, 69: 0.053761, 70: 0.055609, 71: 0.021079, 72: 9.3e-05, 73: 4.2e-05, 74: 0.0, 75: 0.0, 76: 0.0, 77: 0.0, 78: 0.0, 79: 0.0, 80: 0.0, 81: 0.0, 82: 0.0, 83: 0.0, 84: 0.0, 85: 0.0, 86: 0.0, 87: 0.0, 88: 0.0, 89: 0.0, 90: 0.0, 91: 0.0, 92: 0.0, 93: 0.0, 94: 0.0, 95: 0.0, 96: 0.0, 97: 0.0, 98: 0.0, 99: 0.0, 100: 0.0, 101: 0.0, 102: 0.0, 103: 0.0, 104: 0.0, 105: 0.0, 106: 0.0, 107: 0.0, 108: 0.0, 109: 0.0, 110: 0.0, 111: 0.0, 112: 0.0, 113: 0.0, 114: 0.0, 115: 0.0, 116: 0.0, 117: 0.000423, 118: 5.3e-05, 119: 0.00299, 120: 0.013435, 121: 0.00085, 122: 0.044254, 123: 0.096011, 124: 0.004185, 125: 0.137732, 126: 0.186144, 127: 0.349349, 128: 0.449937, 129: 0.567953, 130: 0.058239, 131: 0.166369, 132: 0.058717, 133: 0.413872, 134: 0.196676, 135: 0.143351, 136: 0.614132, 137: 0.5475449999999999, 138: 0.952694, 139: 0.004866, 140: 0.067427, 141: 0.017778, 142: 0.640421, 143: 0.016718, 144: 0.056865, 145: 0.0329, 146: 0.01189, 147: 0.036608, 148: 0.0733, 149: 0.396803, 150: 0.253132, 151: 0.509099, 152: 0.040602, 153: 0.275125, 154: 0.113771, 155: 0.031081, 156: 0.219294, 157: 0.401885, 158: 0.177672, 159: 0.393384, 160: 0.132038, 161: 0.140313, 162: 0.107783, 163: 0.083748, 164: 0.123767, 165: 0.08024299999999999, 166: 0.049878, 167: 0.021548, 168: 0.007816999999999999, 169: 0.000642, 170: 0.000119, 171: 0.0, 172: 0.0, 173: 0.0, 174: 0.0, 175: 0.0, 176: 0.0, 177: 0.0, 178: 0.0, 179: 0.0, 180: 0.0, 181: 0.0, 182: 0.0, 183: 0.0, 184: 0.0, 185: 0.0, 186: 0.0, 187: 0.0, 188: 0.0, 189: 0.0, 190: 0.0, 191: 0.0];
buy = [0: 147.952843, 1: 329.376668, 2: 750.5879640000001, 3: 231.654336, 4: 914.342546, 5: 902.418247, 6: 127.498898, 7: 22.743706, 8: 686.599613, 9: 242.501187, 10: 90.118216, 11: 949.984988, 12: 6.990087, 13: 605.992273, 14: 3.5897, 15: 21.145813, 16: 430.685155, 17: 746.759097, 18: 910.860673, 19: 298.936544, 20: 442.505742, 21: 891.307326, 22: 616.856718, 23: 320.335281, 24: 89.56335, 25: 709.280674, 26: 68.72762400000001, 27: 909.395797, 28: 133.389637, 29: 410.172823, 30: 981.691924, 31: 655.977728, 32: 915.938754, 33: 192.268047, 34: 608.1220510000001, 35: 395.05322, 36: 395.655882, 37: 137.383086, 38: 473.834173, 39: 522.591479, 40: 909.053319, 41: 11.617216, 42: 905.303992, 43: 54.86634, 44: 712.0612609999999, 45: 178.117525, 46: 277.709445, 47: 613.545346, 48: 111.38973, 49: 441.401516, 50: 903.41639, 51: 263.035086, 52: 549.1297939999999, 53: 874.980722, 54: 838.004442, 55: 189.954507, 56: 801.038563, 57: 340.177435, 58: 302.249465, 59: 22.252379, 60: 351.732766, 61: 226.78758, 62: 278.945311, 63: 252.557431, 64: 193.930725, 65: 382.646685, 66: 928.059964, 67: 459.577819, 68: 218.502026, 69: 202.447366, 70: 75.72673899999999, 71: 148.928259, 72: 48.065936, 73: 600.176012, 74: 956.629511, 75: 617.841364, 76: 342.30612, 77: 110.758263, 78: 776.4152350000001, 79: 339.862207, 80: 786.472594, 81: 335.330885, 82: 293.33947, 83: 588.0741389999999, 84: 695.131975, 85: 816.963091, 86: 331.14638, 87: 878.7714989999999, 88: 874.657111, 89: 540.9368930000001, 90: 581.50054, 91: 980.608579, 92: 817.498237, 93: 135.914358, 94: 865.459285, 95: 632.946989, 96: 358.571107, 97: 363.448323, 98: 596.115623, 99: 512.986904, 100: 60.411594, 101: 982.019708, 102: 171.177257, 103: 181.898766, 104: 629.064435, 105: 619.522516, 106: 759.7735750000001, 107: 516.7076949999999, 108: 927.874544, 109: 188.46735, 110: 525.4415760000001, 111: 125.500793, 112: 129.472951, 113: 348.099579, 114: 299.76537, 115: 55.442897, 116: 827.9593630000001, 117: 119.831851, 118: 579.712148, 119: 441.519842, 120: 457.06528, 121: 804.334986, 122: 36.467219, 123: 607.370703, 124: 36.612893, 125: 792.119537, 126: 921.111933, 127: 176.911315, 128: 386.934627, 129: 185.269955, 130: 421.174769, 131: 898.043389, 132: 293.999788, 133: 214.993603, 134: 200.745684, 135: 688.829461, 136: 649.78327, 137: 993.074129, 138: 349.977617, 139: 259.761893, 140: 112.824147, 141: 507.250627, 142: 531.523469, 143: 343.223063, 144: 657.138319, 145: 497.106131, 146: 61.994806, 147: 641.415671, 148: 96.21074299999999, 149: 127.733496, 150: 939.482051, 151: 964.323252, 152: 198.962718, 153: 404.012328, 154: 411.960262, 155: 2.116946, 156: 613.324407, 157: 737.3868199999999, 158: 747.97816, 159: 124.452195, 160: 492.365981, 161: 466.312988, 162: 941.5925099999999, 163: 347.444923, 164: 420.566852, 165: 88.006775, 166: 467.309846, 167: 974.178492, 168: 238.185664, 169: 64.24178499999999, 170: 766.312463, 171: 744.6778890000001, 172: 291.244435, 173: 499.409326, 174: 547.660936, 175: 322.963088, 176: 71.17572, 177: 195.708442, 178: 695.742151, 179: 521.49794, 180: 566.3150460000001, 181: 936.060019, 182: 800.674924, 183: 88.998018, 184: 574.132487, 185: 797.8650720000001, 186: 102.153905, 187: 598.826763, 188: 771.106802, 189: 570.821455, 190: 80.214798, 191: 116.529095];
sell = [0: 1.951636, 1: 1.471642, 2: 3.361392, 3: 3.550815, 4: 2.5792, 5: 2.558973, 6: 3.737183, 7: 0.079147, 8: 2.082084, 9: 3.005858, 10: 3.476608, 11: 1.270997, 12: 2.433373, 13: 2.251104, 14: 0.652952, 15: 2.668979, 16: 3.316535, 17: 1.401565, 18: 2.140803, 19: 3.626849, 20: 2.502805, 21: 3.461491, 22: 2.000656, 23: 2.205711, 24: 0.290512, 25: 1.661877, 26: 1.197001, 27: 2.497832, 28: 1.953355, 29: 1.861378, 30: 0.5378849999999999, 31: 2.805613, 32: 2.790344, 33: 0.577645, 34: 0.682667, 35: 0.548597, 36: 3.798346, 37: 3.801369, 38: 2.267828, 39: 3.828902, 40: 2.473019, 41: 0.255926, 42: 0.217568, 43: 1.81178, 44: 3.06147, 45: 0.926829, 46: 0.296243, 47: 3.488029, 48: 2.461596, 49: 0.422038, 50: 0.971867, 51: 3.015578, 52: 2.385254, 53: 0.200631, 54: 1.548461, 55: 0.432341, 56: 0.27612, 57: 0.748403, 58: 3.050658, 59: 1.441985, 60: 0.060237, 61: 3.848901, 62: 3.661848, 63: 1.963731, 64: 1.925703, 65: 2.551704, 66: 1.928227, 67: 3.332645, 68: 0.73972, 69: 0.499714, 70: 2.911525, 71: 0.7287360000000001, 72: 1.21193, 73: 1.453682, 74: 2.758527, 75: 1.261942, 76: 3.747368, 77: 3.309611, 78: 0.425339, 79: 0.112353, 80: 2.160603, 81: 0.047663, 82: 3.897846, 83: 2.972011, 84: 0.879274, 85: 0.564403, 86: 0.914119, 87: 0.305438, 88: 3.844165, 89: 2.331237, 90: 1.923211, 91: 0.460581, 92: 0.51407, 93: 1.756728, 94: 2.732678, 95: 2.969168, 96: 2.006683, 97: 1.782726, 98: 2.878891, 99: 3.058626, 100: 2.382235, 101: 3.322704, 102: 2.729744, 103: 2.457892, 104: 2.986371, 105: 0.20579, 106: 3.353023, 107: 3.58162, 108: 0.817906, 109: 2.917222, 110: 0.123846, 111: 3.46672, 112: 1.087314, 113: 2.447245, 114: 0.441281, 115: 0.864073, 116: 3.885251, 117: 2.078269, 118: 3.024108, 119: 0.95923, 120: 0.810254, 121: 0.625665, 122: 0.594674, 123: 0.032845, 124: 3.990896, 125: 3.565793, 126: 1.665012, 127: 2.145135, 128: 0.181656, 129: 2.583475, 130: 2.241404, 131: 0.321261, 132: 1.348827, 133: 3.452839, 134: 2.047894, 135: 1.416333, 136: 0.813341, 137: 3.439616, 138: 1.628836, 139: 0.200552, 140: 1.910694, 141: 2.612942, 142: 0.149028, 143: 3.291405, 144: 1.665107, 145: 1.086154, 146: 2.434566, 147: 2.02177, 148: 3.396306, 149: 2.843791, 150: 3.253869, 151: 2.400714, 152: 3.395176, 153: 0.363866, 154: 2.911656, 155: 0.115792, 156: 3.538448, 157: 1.540943, 158: 1.099426, 159: 2.059756, 160: 1.800006, 161: 1.141581, 162: 3.455582, 163: 2.659565, 164: 2.73553, 165: 3.76038, 166: 3.973476, 167: 0.793609, 168: 2.617232, 169: 1.670757, 170: 3.469553, 171: 1.343668, 172: 1.873019, 173: 2.307916, 174: 0.672227, 175: 1.49589, 176: 2.8755, 177: 1.699881, 178: 1.452448, 179: 1.542837, 180: 2.654252, 181: 3.099225, 182: 1.857766, 183: 3.296173, 184: 2.964957, 185: 0.662185, 186: 2.556479, 187: 1.017098, 188: 1.740317, 189: 1.491027, 190: 1.622692, 191: 1.023272];
charge = [0: 0.066234, 1: 0.72673, 2: 0.940492, 3: 0.959179, 4: 0.753514, 5: 0.390934, 6: 0.369522, 7: 0.520367, 8: 0.738725, 9: 0.921661, 10: 0.210059, 11: 0.322623, 12: 0.515783, 13: 0.271008, 14: 0.02835, 15: 0.8100270000000001, 16: 0.392893, 17: 0.621605, 18: 0.731911, 19: 0.76196, 20: 0.8295630000000001, 21: 0.496965, 22: 0.7098989999999999, 23: 0.103444, 24: 0.605088, 25: 0.655173, 26: 0.342798, 27: 0.100655, 28: 0.372549, 29: 0.933025, 30: 0.39856, 31: 0.227343, 32: 0.476938, 33: 0.495888, 34: 0.737254, 35: 0.8409799999999999, 36: 0.628097, 37: 0.313622, 38: 0.46342, 39: 0.910261, 40: 0.267095, 41: 0.7858849999999999, 42: 0.830775, 43: 0.016415, 44: 0.146495, 45: 0.117386, 46: 0.317066, 47: 0.257918, 48: 0.764119, 49: 0.219912, 50: 0.254103, 51: 0.329908, 52: 0.492717, 53: 0.541029, 54: 0.068231, 55: 0.59897, 56: 0.128766, 57: 0.19117, 58: 0.070079, 59: 0.269601, 60: 0.594896, 61: 0.6370980000000001, 62: 0.746003, 63: 0.374829, 64: 0.536448, 65: 0.944048, 66: 0.022389, 67: 0.877294, 68: 0.607316, 69: 0.06988800000000001, 70: 0.207162, 71: 0.703783, 72: 0.426558, 73: 0.340593, 74: 0.217367, 75: 0.861416, 76: 0.628043, 77: 0.5834819999999999, 78: 0.016934, 79: 0.003981, 80: 0.82253, 81: 0.166286, 82: 0.251583, 83: 0.818481, 84: 0.308441, 85: 0.810431, 86: 0.445477, 87: 0.756168, 88: 0.009479, 89: 0.025252, 90: 0.937644, 91: 0.189476, 92: 0.608576, 93: 0.781363, 94: 0.539987, 95: 0.905014, 96: 0.872937, 97: 0.243526, 98: 0.026911, 99: 0.595092, 100: 0.866368, 101: 0.107276, 102: 0.474677, 103: 0.879987, 104: 0.556072, 105: 0.999151, 106: 0.004163, 107: 0.695865, 108: 0.651533, 109: 0.09812800000000001, 110: 0.857472, 111: 0.917891, 112: 0.662662, 113: 0.657962, 114: 0.430923, 115: 0.661057, 116: 0.076172, 117: 0.141174, 118: 0.165674, 119: 0.78932, 120: 0.659027, 121: 0.522833, 122: 0.920732, 123: 0.709122, 124: 0.886672, 125: 0.30205, 126: 0.343826, 127: 0.6844, 128: 0.495669, 129: 0.026067, 130: 0.205154, 131: 0.358899, 132: 0.301982, 133: 0.861962, 134: 0.983426, 135: 0.576364, 136: 0.961171, 137: 0.78911, 138: 0.164436, 139: 0.870391, 140: 0.189862, 141: 0.579462, 142: 0.695141, 143: 0.9981989999999999, 144: 0.566696, 145: 0.048675, 146: 0.712607, 147: 0.919032, 148: 0.8941519999999999, 149: 0.694808, 150: 0.83584, 151: 0.116247, 152: 0.068634, 153: 0.260083, 154: 0.314866, 155: 0.704836, 156: 0.694087, 157: 0.241212, 158: 0.14765, 159: 0.948418, 160: 0.391359, 161: 0.008043, 162: 0.64444, 163: 0.607066, 164: 0.702958, 165: 0.395718, 166: 0.39167, 167: 0.325952, 168: 0.038366, 169: 0.653138, 170: 0.732685, 171: 0.70985, 172: 0.597994, 173: 0.440382, 174: 0.404431, 175: 0.44782, 176: 0.092393, 177: 0.404655, 178: 0.179223, 179: 0.584876, 180: 0.420577, 181: 0.33695, 182: 0.6794559999999999, 183: 0.574227, 184: 0.283958, 185: 0.336364, 186: 0.284889, 187: 0.630054, 188: 0.785566, 189: 0.430473, 190: 0.107724, 191: 0.634045];
discharge = [0: 0.761293, 1: 0.411415, 2: 0.763561, 3: 0.543952, 4: 0.634483, 5: 0.804068, 6: 0.8291230000000001, 7: 0.94755, 8: 0.132561, 9: 0.814104, 10: 0.792291, 11: 0.034103, 12: 0.903014, 13: 0.891473, 14: 0.463653, 15: 0.282926, 16: 0.195459, 17: 0.421351, 18: 0.215561, 19: 0.515066, 20: 0.926534, 21: 0.670065, 22: 0.719455, 23: 0.8247640000000001, 24: 0.297044, 25: 0.776493, 26: 0.97864, 27: 0.863623, 28: 0.752822, 29: 0.094195, 30: 0.288524, 31: 0.957808, 32: 0.083191, 33: 0.406862, 34: 0.003338, 35: 0.475085, 36: 0.484479, 37: 0.221117, 38: 0.45262, 39: 0.940311, 40: 0.445312, 41: 0.36262, 42: 0.064231, 43: 0.913423, 44: 0.886668, 45: 0.851585, 46: 0.101445, 47: 0.756477, 48: 0.299286, 49: 0.777984, 50: 0.411208, 51: 0.422155, 52: 0.695919, 53: 0.399593, 54: 0.329551, 55: 0.349674, 56: 0.26272, 57: 0.55041, 58: 0.352493, 59: 0.809366, 60: 0.919594, 61: 0.101764, 62: 0.629544, 63: 0.8529409999999999, 64: 0.685007, 65: 0.271275, 66: 0.978955, 67: 0.912129, 68: 0.409973, 69: 0.092894, 70: 0.174991, 71: 0.577102, 72: 0.166751, 73: 0.836978, 74: 0.894239, 75: 0.637736, 76: 0.264941, 77: 0.784153, 78: 0.638887, 79: 0.295045, 80: 0.423886, 81: 0.119752, 82: 0.298147, 83: 0.771546, 84: 0.995287, 85: 0.846194, 86: 0.688375, 87: 0.0564, 88: 0.24642, 89: 0.004103, 90: 0.318938, 91: 0.004762, 92: 0.251246, 93: 0.882852, 94: 0.06995, 95: 0.567595, 96: 0.52141, 97: 0.9960329999999999, 98: 0.79178, 99: 0.954365, 100: 0.269103, 101: 0.794812, 102: 0.937485, 103: 0.6687959999999999, 104: 0.522428, 105: 0.282125, 106: 0.144986, 107: 0.077902, 108: 0.447821, 109: 0.085816, 110: 0.341784, 111: 0.492951, 112: 0.23688, 113: 0.668529, 114: 0.703057, 115: 0.772679, 116: 0.35588, 117: 0.057578, 118: 0.040929, 119: 0.37002, 120: 0.552583, 121: 0.5584710000000001, 122: 0.720282, 123: 0.608633, 124: 0.201951, 125: 0.276154, 126: 0.66767, 127: 0.249468, 128: 0.20804, 129: 0.486104, 130: 0.091775, 131: 0.399745, 132: 0.692651, 133: 0.08688800000000001, 134: 0.831052, 135: 0.345085, 136: 0.5541509999999999, 137: 0.182658, 138: 0.349144, 139: 0.6475379999999999, 140: 0.579853, 141: 0.981644, 142: 0.946271, 143: 0.340228, 144: 0.395311, 145: 0.838273, 146: 0.83872, 147: 0.500668, 148: 0.863417, 149: 0.8951170000000001, 150: 0.249737, 151: 0.125724, 152: 0.650675, 153: 0.580422, 154: 0.286655, 155: 0.855947, 156: 0.196665, 157: 0.079302, 158: 0.313027, 159: 0.465815, 160: 0.732256, 161: 0.827974, 162: 0.713804, 163: 0.296101, 164: 0.315733, 165: 0.568706, 166: 0.287482, 167: 0.928677, 168: 0.510777, 169: 0.116921, 170: 0.928716, 171: 0.057, 172: 0.251565, 173: 0.047588, 174: 0.787617, 175: 0.309118, 176: 0.496534, 177: 0.686495, 178: 0.604662, 179: 0.619272, 180: 0.762709, 181: 0.185749, 182: 0.575847, 183: 0.153367, 184: 0.58884, 185: 0.821365, 186: 0.729189, 187: 0.304011, 188: 0.489286, 189: 0.846541, 190: 0.954078, 191: 0.804845];
soc = [0: 3.249797, 1: 2.748026, 2: 4.224775, 3: 3.862523, 4: 5.523816, 5: 4.941561, 6: 8.128671000000001, 7: 3.44027, 8: 10.384178, 9: 6.16016, 10: 5.738906, 11: 8.213855000000001, 12: 13.854573, 13: 6.658807, 14: 8.504531999999999, 15: 5.281957, 16: 6.278504, 17: 7.632357, 18: 11.259036, 19: 6.818227, 20: 12.54925, 21: 15.637769, 22: 4.516495, 23: 3.416246, 24: 8.217803, 25: 12.255767, 26: 13.17695, 27: 13.826725, 28: 8.069653000000001, 29: 4.004237, 30: 5.903914, 31: 11.288278, 32: 7.070665, 33: 14.344586, 34: 3.218777, 35: 5.817383, 36: 12.021977, 37: 6.408025, 38: 3.351756, 39: 15.639256, 40: 6.928823, 41: 11.063896, 42: 9.286623000000001, 43: 10.425307, 44: 15.459232, 45: 12.556074, 46: 3.000194, 47: 15.573677, 48: 8.958456, 49: 10.184741, 50: 9.028924999999999, 51: 6.289445, 52: 11.865884, 53: 9.340676, 54: 12.227342, 55: 5.562541, 56: 7.40662, 57: 3.38186, 58: 13.048561, 59: 2.84286, 60: 9.502316, 61: 4.824663, 62: 12.692557, 63: 7.350235, 64: 6.400593, 65: 3.814793, 66: 3.830609, 67: 13.381484, 68: 5.22087, 69: 14.570737, 70: 10.147497, 71: 7.837809, 72: 6.873522, 73: 7.848255, 74: 7.726781, 75: 15.565663, 76: 4.205575, 77: 13.267729, 78: 14.304658, 79: 11.662761, 80: 13.403458, 81: 14.299946, 82: 5.53564, 83: 10.962517, 84: 2.800596, 85: 12.20671, 86: 15.615336, 87: 12.352949, 88: 3.544827, 89: 5.947285, 90: 5.815186, 91: 11.56529, 92: 3.428918, 93: 15.5444, 94: 3.287878, 95: 8.45478, 96: 12.111724, 97: 4.086169, 98: 11.493303, 99: 7.456374, 100: 13.300814, 101: 7.178373, 102: 10.316064, 103: 6.789058, 104: 9.356012, 105: 12.704439, 106: 14.872737, 107: 11.636685, 108: 6.3847, 109: 9.614589, 110: 10.76588, 111: 8.698808, 112: 14.699621, 113: 15.314747, 114: 8.845723, 115: 8.783602999999999, 116: 12.027856, 117: 7.8262, 118: 10.923425, 119: 12.599491, 120: 14.164906, 121: 11.501025, 122: 7.558441, 123: 12.574153, 124: 6.091151, 125: 10.964952, 126: 11.536177, 127: 13.091591, 128: 15.561512, 129: 5.338006, 130: 7.924054, 131: 15.175268, 132: 5.989834, 133: 13.780905, 134: 4.05851, 135: 10.746913, 136: 6.237342, 137: 11.985408, 138: 3.687908, 139: 3.450357, 140: 6.525335, 141: 7.380031, 142: 3.386789, 143: 3.001917, 144: 12.555254, 145: 5.827392, 146: 4.212843, 147: 15.073586, 148: 7.010207, 149: 2.780828, 150: 9.34323, 151: 7.148817, 152: 7.164874, 153: 12.876007, 154: 6.055602, 155: 8.955304, 156: 13.40332, 157: 13.297596, 158: 9.834282999999999, 159: 6.462596, 160: 14.946338, 161: 9.077437, 162: 8.992442, 163: 7.365539, 164: 6.399189, 165: 6.266529, 166: 3.500304, 167: 9.034532, 168: 14.82098, 169: 13.253929, 170: 7.391445, 171: 5.417357, 172: 3.560344, 173: 8.001097, 174: 15.453627, 175: 3.83132, 176: 4.327148, 177: 12.531395, 178: 12.592103, 179: 6.02461, 180: 3.606672, 181: 10.181116, 182: 6.884456, 183: 13.219077, 184: 9.141978, 185: 11.294958, 186: 14.927609, 187: 10.86716, 188: 8.87199, 189: 11.304803, 190: 13.560907, 191: 12.474781];
cost = [0: 581.59339, 1: 442.519244, 2: 462.820626, 3: 393.120921, 4: 429.923756, 5: 439.687561, 6: 161.600404, 7: 169.548269, 8: 538.945165, 9: 131.464306, 10: 546.6851370000001, 11: 282.215733, 12: 309.565429, 13: 387.466, 14: 504.514421, 15: 514.896894, 16: 261.868529, 17: 594.701909, 18: 190.111567, 19: 328.921314, 20: 486.575377, 21: 175.008284, 22: 62.305059, 23: 23.915478, 24: 137.955125, 25: 685.225991, 26: 14.73346, 27: 1082.560666, 28: 976.446916, 29: 259.6453, 30: 577.370137, 31: 680.938688, 32: 860.751865, 33: 823.4653080000001, 34: 441.418153, 35: 325.251553, 36: 784.645573, 37: 574.267983, 38: 79.601957, 39: 1065.06819, 40: 788.102112, 41: 18.24056, 42: 923.070092, 43: 49.861614, 44: 75.843946, 45: 928.898966, 46: 595.795333, 47: 590.845152, 48: 985.754871, 49: 358.732206, 50: 1048.559436, 51: 416.185215, 52: 223.974685, 53: 115.182369, 54: 241.915804, 55: 359.58802, 56: 291.756193, 57: 589.267702, 58: 581.232154, 59: 604.140317, 60: 1122.549761, 61: 346.679585, 62: 699.477293, 63: 1069.333134, 64: 389.487604, 65: 963.017351, 66: 1069.697009, 67: 953.587118, 68: 826.394754, 69: 1005.205919, 70: 33.069166, 71: 454.173998, 72: 604.300516, 73: 1180.519074, 74: 1105.45969, 75: 698.179971, 76: 708.717441, 77: 5.760195, 78: 752.980546, 79: 1078.796049, 80: 118.857792, 81: 824.604333, 82: 185.271817, 83: 1065.344735, 84: 464.458268, 85: 51.188668, 86: 297.073213, 87: 640.885542, 88: 91.801079, 89: 367.50459, 90: 307.928778, 91: 26.383939, 92: 245.328495, 93: 294.330394, 94: 22.742999, 95: 319.04708, 96: 284.662085, 97: 102.542858, 98: 418.27734, 99: 53.969553, 100: 531.8614219999999, 101: 350.640611, 102: 371.435908, 103: 61.931386, 104: 59.609422, 105: 268.602371, 106: 603.020833, 107: 517.215333, 108: 420.458187, 109: 145.676446, 110: 436.751667, 111: 37.044878, 112: 483.377467, 113: 234.63532, 114: 312.376437, 115: 305.72362, 116: 377.687253, 117: 192.022162, 118: 4.764001, 119: 476.417199, 120: 70.662672, 121: 38.789049, 122: 216.050019, 123: 460.865475, 124: 946.027455, 125: 459.237165, 126: 972.1946799999999, 127: 921.503246, 128: 557.492148, 129: 381.539244, 130: 157.486998, 131: 863.787634, 132: 1031.306185, 133: 567.512526, 134: 145.269273, 135: 789.627541, 136: 345.725395, 137: 126.530548, 138: 836.040389, 139: 7.170293, 140: 477.537049, 141: 1157.582634, 142: 456.624124, 143: 380.793558, 144: 260.297214, 145: 380.492778, 146: 901.539219, 147: 78.612189, 148: 292.625683, 149: 245.072677, 150: 104.152038, 151: 566.954157, 152: 388.287758, 153: 58.441765, 154: 366.984231, 155: 215.8073, 156: 85.52161, 157: 227.162185, 158: 972.863375, 159: 559.040284, 160: 347.414496, 161: 1006.176055, 162: 107.294985, 163: 416.851121, 164: 968.874249, 165: 426.029644, 166: 241.776824, 167: 652.998213, 168: 443.984193, 169: 956.951712, 170: 876.409135, 171: 1155.204031, 172: 469.724633, 173: 985.6598739999999, 174: 667.103561, 175: 1143.312911, 176: 438.503436, 177: 346.492457, 178: 364.427278, 179: 957.938027, 180: 640.468702, 181: 511.199167, 182: 104.990341, 183: 1050.087612, 184: 252.171116, 185: 396.454504, 186: 124.62499, 187: 459.948625, 188: 468.256823, 189: 322.005236, 190: 279.14655, 191: 328.215569];
earn = [0: 0.041417, 1: 1.980074, 2: 0.289621, 3: 0.792082, 4: 1.712716, 5: 2.686185, 6: 0.449253, 7: 2.296321, 8: 2.103612, 9: 0.08634, 10: 1.460349, 11: 0.467003, 12: 1.753036, 13: 1.676996, 14: 0.750037, 15: 2.550142, 16: 2.180293, 17: 2.426909, 18: 2.281732, 19: 0.144286, 20: 0.766504, 21: 0.649806, 22: 1.52168, 23: 0.899865, 24: 1.422228, 25: 2.711884, 26: 0.8023400000000001, 27: 0.126362, 28: 0.625911, 29: 0.185047, 30: 2.169302, 31: 1.683824, 32: 0.102045, 33: 1.546617, 34: 1.728401, 35: 1.194415, 36: 1.156148, 37: 0.08215699999999999, 38: 0.241839, 39: 0.180399, 40: 0.21869, 41: 0.510691, 42: 0.201705, 43: 0.370253, 44: 0.135856, 45: 0.022073, 46: 0.019085, 47: 0.005794, 48: -0.149185, 49: -0.09469900000000001, 50: -0.007407, 51: 0.00028, 52: -0.023495, 53: -0.013142, 54: 0.004444, 55: 0.042077, 56: 0.431754, 57: 0.355891, 58: 0.577759, 59: 0.991229, 60: 0.757091, 61: 1.249223, 62: 1.779656, 63: 0.826819, 64: 0.896091, 65: 1.721627, 66: 1.37987, 67: 2.172006, 68: 2.94187, 69: 0.864065, 70: 1.251011, 71: 2.89923, 72: 1.336875, 73: 0.056873, 74: 2.167037, 75: 3.338406, 76: 2.904054, 77: 0.6841970000000001, 78: 2.289632, 79: 3.293684, 80: 0.487918, 81: 2.078566, 82: 1.138293, 83: 0.014281, 84: 0.595511, 85: 0.777035, 86: 0.419878, 87: 0.8953410000000001, 88: 0.613524, 89: 2.317578, 90: 0.6529, 91: 0.68089, 92: 0.6055779999999999, 93: 0.9186569999999999, 94: 1.238405, 95: 1.972965, 96: 0.655578, 97: 1.581016, 98: 1.66945, 99: 1.072053, 100: 0.06591, 101: 1.455405, 102: 0.534944, 103: 0.781593, 104: 0.275687, 105: 0.615869, 106: 1.253259, 107: 0.137377, 108: 1.901073, 109: 0.558515, 110: 1.240449, 111: 0.687442, 112: 0.292286, 113: 0.183575, 114: 1.957487, 115: 1.486135, 116: 0.451692, 117: 0.353243, 118: 2.160662, 119: 1.622721, 120: 0.08716599999999999, 121: 1.87715, 122: 0.658264, 123: 1.51526, 124: 0.370802, 125: 1.326436, 126: 1.227844, 127: 0.252366, 128: 1.109994, 129: 0.195396, 130: 0.236621, 131: 0.169703, 132: 0.046078, 133: 0.043384, 134: -0.049079, 135: -0.001483, 136: -0.017458, 137: -0.016735, 138: -0.003936, 139: -0.072199, 140: -0.07635699999999999, 141: -0.079349, 142: -0.283689, 143: -0.119205, 144: -0.039517, 145: -0.08616, 146: -0.13016, 147: -0.08229300000000001, 148: -0.007873, 149: -0.050722, 150: -0.010865, 151: -0.016819, 152: -0.023366, 153: -0.027789, 154: -0.001242, 155: -0.000385, 156: 0.182976, 157: 0.354856, 158: 0.234765, 159: 0.229399, 160: 1.854054, 161: 1.997083, 162: 0.609305, 163: 2.683866, 164: 1.991367, 165: 1.427099, 166: 2.221382, 167: 0.730639, 168: 1.640011, 169: 2.107835, 170: 2.640671, 171: 2.821851, 172: 1.508963, 173: 3.433987, 174: 2.30383, 175: 3.238854, 176: 0.8927310000000001, 177: 1.918182, 178: 2.650897, 179: 1.559217, 180: 0.978035, 181: 1.012843, 182: 2.741921, 183: 2.906708, 184: 0.009535, 185: 0.562765, 186: 1.294793, 187: 1.80595, 188: 2.014628, 189: 1.176586, 190: 0.382874, 191: 0.821481];
total_cost = 98.06987355434021;
total_earn = 26.37893451572583;
