production = [0: 0.0, 1: 0.0, 2: 0.0, 3: 0.0, 4: 0.0, 5: 0.0, 6: 0.0, 7: 0.0, 8: 0.0, 9: 0.0, 10: 0.0, 11: 0.0, 12: 0.0, 13: 0.0, 14: 0.0, 15: 0.0, 16: 0.0, 17: 0.0, 18: 0.0, 19: 0.0, 20: 0.0, 21: 0.0, 22: 0.0, 23: 0.000288, 24: 0.001136, 25: 0.001765, 26: 0.036329, 27: 0.030235, 28: 0.026354, 29: 0.059915, 30: 0.1708, 31: 0.157958, 32: 0.113885, 33: 0.070205, 34: 0.100041, 35: 0.434361, 36: 0.246322, 37: 0.377453, 38: 0.624619, 39: 0.650405, 40: 0.013913, 41: 0.243307, 42: 0.409123, 43: 0.160601, 44: 0.181077, 45: 0.542581, 46: 0.975827, 47: 0.128205, 48: 0.439973, 49: 0.996351, 50: 0.106761, 51: 0.092805, 52: 0.062485, 53: 0.399175, 54: 1.376009, 55: 0.041725, 56: 0.569858, 57: 0.010373, 58: 0.2852, 59: 0.20987, 60: 1.051206, 61: 0.183102, 62: 0.215226, 63: 0.8236, 64: 0.250197, 65: 0.21377, 66: 0.171645, 67: 0.048626, 68: 0.091836, 69: 0.064015, 70: 0.02479, 71: 0.019343, 72: 0.005776, 73: 0.000204, 74: 0.0, 75: 0.0, 76: 0.0, 77: 0.0, 78: 0.0, 79: 0.0, 80: 0.0, 81: 0.0, 82: 0.0, 83: 0.0, 84: 0.0, 85: 0.0, 86: 0.0, 87: 0.0, 88: 0.0, 89: 0.0, 90: 0.0, 91: 0.0, 92: 0.0, 93: 0.0, 94: 0.0, 95: 0.0, 96: 0.0, 97: 0.0, 98: 0.0, 99: 0.0, 100: 0.0, 101: 0.0, 102: 0.0, 103: 0.0, 104: 0.0, 105: 0.0, 106: 0.0, 107: 0.0, 108: 0.0, 109: 0.0, 110: 0.0, 111: 0.0, 112: 0.0, 113: 0.0, 114: 0.0, 115: 0.0, 116: 0.0, 117: 0.000254, 118: 0.000259, 119: 0.003186, 120: 0.001474, 121: 0.017359, 122: 0.042852, 123: 0.055659, 124: 0.084536, 125: 0.078969, 126: 0.047874, 127: 0.084492, 128: 0.237729, 129: 0.095459, 130: 0.6931619999999999, 131: 0.12341, 132: 0.78644, 133: 0.255377, 134: 0.518899, 135: 0.051002, 136: 0.252072, 137: 0.684233, 138: 0.231396, 139: 0.380468, 140: 0.5413019999999999, 141: 1.068409, 142: 1.073207, 143: 0.046094, 144: 0.041776, 145: 0.063624, 146: 0.003727, 147: 0.031934, 148: 0.069676, 149: 0.5292750000000001, 150: 0.139564, 151: 0.291239, 152: 0.052488, 153: 0.241981, 154: 0.143559, 155: 0.044727, 156: 0.233435, 157: 0.206372, 158: 0.322605, 159: 0.385229, 160: 0.167388, 161: 0.051099, 162: 0.065013, 163: 0.006064, 164: 0.138768, 165: 0.007563, 166: 0.061619, 167: 0.021569, 168: 0.002159, 169: 7.8e-05, 170: 0.0, 171: 0.0, 172: 0.0, 173: 0.0, 174: 0.0, 175: 0.0, 176: 0.0, 177: 0.0, 178: 0.0, 179: 0.0, 180: 0.0, 181: 0.0, 182: 0.0, 183: 0.0, 184: 0.0, 185: 0.0, 186: 0.0, 187: 0.0, 188: 0.0, 189: 0.0, 190: 0.0, 191: 0.0];
buy = [0: 930.144947, 1: 727.0311359999999, 2: 822.286106, 3: 807.293547, 4: 19.008303, 5: 908.623786, 6: 271.885029, 7: 114.158799, 8: 902.199896, 9: 197.068734, 10: 812.569685, 11: 423.497592, 12: 584.274079, 13: 249.565027, 14: 243.205432, 15: 747.358293, 16: 404.437115, 17: 968.661894, 18: 385.835657, 19: 451.359576, 20: 543.961777, 21: 492.819345, 22: 278.462624, 23: 597.250495, 24: 365.805976, 25: 907.421543, 26: 978.030181, 27: 720.984109, 28: 390.564297, 29: 996.237034, 30: 951.878004, 31: 347.679806, 32: 504.303381, 33: 765.155354, 34: 75.21283, 35: 926.318788, 36: 371.842696, 37: 322.445489, 38: 803.232588, 39: 441.023191, 40: 964.826962, 41: 171.690329, 42: 326.431107, 43: 611.310772, 44: 842.20631, 45: 41.642661, 46: 579.338554, 47: 660.1230409999999, 48: 357.391257, 49: 583.219868, 50: 97.080437, 51: 969.550496, 52: 314.922069, 53: 923.246948, 54: 113.137551, 55: 549.16778, 56: 778.009742, 57: 419.754548, 58: 882.757178, 59: 598.715361, 60: 486.313639, 61: 238.860431, 62: 812.954122, 63: 471.301072, 64: 273.721128, 65: 461.894058, 66: 704.267098, 67: 11.304045, 68: 422.793241, 69: 665.032256, 70: 798.189078, 71: 151.955499, 72: 551.771529, 73: 16.786493, 74: 260.719712, 75: 785.429241, 76: 244.355328, 77: 147.642532, 78: 455.419796, 79: 964.739718, 80: 428.638904, 81: 613.571361, 82: 579.402116, 83: 245.088053, 84: 804.8846590000001, 85: 137.186164, 86: 893.118579, 87: 870.950019, 88: 1.462609, 89: 397.976052, 90: 279.470027, 91: 698.077639, 92: 489.844339, 93: 203.630796, 94: 773.677733, 95: 985.882039, 96: 284.406666, 97: 793.262004, 98: 410.521454, 99: 540.936122, 100: 251.855344, 101: 826.842552, 102: 275.392518, 103: 923.156737, 104: 880.877326, 105: 559.138224, 106: 544.255582, 107: 147.006979, 108: 845.6510019999999, 109: 503.880413, 110: 829.916207, 111: 668.11186, 112: 631.704301, 113: 894.827569, 114: 61.568246, 115: 220.961958, 116: 449.507006, 117: 564.712787, 118: 428.760252, 119: 610.76346, 120: 164.2704, 121: 676.64457, 122: 891.945701, 123: 938.3330999999999, 124: 571.27908, 125: 564.874986, 126: 406.370249, 127: 274.057292, 128: 207.423317, 129: 809.727447, 130: 518.747585, 131: 806.0926920000001, 132: 143.451255, 133: 992.035312, 134: 159.628063, 135: 974.685922, 136: 539.2413320000001, 137: 231.94198, 138: 252.540941, 139: 440.482309, 140: 288.702979, 141: 68.643021, 142: 173.474211, 143: 426.055958, 144: 419.211935, 145: 369.569522, 146: 845.28796, 147: 838.650004, 148: 247.549008, 149: 339.139908, 150: 672.6738329999999, 151: 237.570201, 152: 876.929396, 153: 202.699898, 154: 981.770743, 155: 228.503615, 156: 305.341172, 157: 978.825429, 158: 546.1648300000001, 159: 984.1185410000001, 160: 130.473014, 161: 832.4892129999999, 162: 118.350625, 163: 837.437772, 164: 718.543774, 165: 589.388137, 166: 991.354359, 167: 290.580264, 168: 278.288917, 169: 262.534028, 170: 556.093977, 171: 234.896341, 172: 829.135183, 173: 256.847538, 174: 861.538143, 175: 907.820598, 176: 233.3293, 177: 216.750386, 178: 577.69946, 179: 2.036044, 180: 243.277249, 181: 557.635733, 182: 477.651491, 183: 531.119099, 184: 119.9558, 185: 614.795146, 186: 586.760344, 187: 593.796065, 188: 295.659694, 189: 749.0218190000001, 190: 109.201882, 191: 471.798548];
sell = [0: 0.848974, 1: 3.255361, 2: 1.877159, 3: 2.880227, 4: 2.647508, 5: 0.622866, 6: 1.639368, 7: 3.184575, 8: 1.815427, 9: 0.6350479999999999, 10: 2.590362, 11: 2.044501, 12: 1.047583, 13: 0.262411, 14: 3.098765, 15: 1.552607, 16: 0.624838, 17: 0.451227, 18: 3.662601, 19: 0.293982, 20: 3.100142, 21: 0.069295, 22: 1.221449, 23: 1.6097, 24: 3.880827, 25: 0.314926, 26: 2.642968, 27: 0.774966, 28: 0.403845, 29: 0.426869, 30: 0.122202, 31: 0.639805, 32: 1.598324, 33: 3.927517, 34: 3.595334, 35: 0.281898, 36: 2.418212, 37: 3.248699, 38: 1.296577, 39: 0.236224, 40: 3.993819, 41: 0.489531, 42: 2.525042, 43: 0.658106, 44: 1.077514, 45: 1.283187, 46: 2.882185, 47: 2.724265, 48: 3.280557, 49: 2.20713, 50: 2.528597, 51: 3.873259, 52: 1.15082, 53: 2.160865, 54: 0.047009, 55: 0.559445, 56: 2.009032, 57: 1.810839, 58: 2.577446, 59: 2.046565, 60: 0.031283, 61: 3.399391, 62: 3.409316, 63: 3.623551, 64: 0.357597, 65: 3.295705, 66: 0.596824, 67: 1.462662, 68: 1.580573, 69: 2.315309, 70: 3.641079, 71: 0.777462, 72: 0.876234, 73: 3.281754, 74: 0.115354, 75: 0.127731, 76: 0.38757, 77: 2.291242, 78: 0.99241, 79: 0.363903, 80: 2.667248, 81: 2.404454, 82: 3.112471, 83: 2.109173, 84: 3.135715, 85: 0.709597, 86: 0.5412169999999999, 87: 0.429427, 88: 0.6392370000000001, 89: 3.081864, 90: 2.568272, 91: 3.458151, 92: 0.079113, 93: 0.665547, 94: 1.913066, 95: 1.216219, 96: 2.369224, 97: 1.945875, 98: 0.124248, 99: 2.195931, 100: 0.6074850000000001, 101: 3.640249, 102: 1.369296, 103: 1.091515, 104: 3.530545, 105: 3.5192, 106: 0.622339, 107: 3.131406, 108: 0.195019, 109: 2.190386, 110: 2.617052, 111: 2.785356, 112: 0.719457, 113: 1.799595, 114: 3.511388, 115: 2.758523, 116: 1.168996, 117: 0.189567, 118: 0.394805, 119: 3.122603, 120: 2.130419, 121: 2.498146, 122: 3.76595, 123: 0.400905, 124: 0.8989200000000001, 125: 3.051539, 126: 0.9386139999999999, 127: 2.419145, 128: 3.185411, 129: 1.050385, 130: 1.52959, 131: 3.286946, 132: 3.524253, 133: 2.049301, 134: 3.945404, 135: 0.055426, 136: 3.540631, 137: 3.030403, 138: 0.223366, 139: 0.518721, 140: 1.432213, 141: 2.556648, 142: 0.471706, 143: 0.182687, 144: 1.286345, 145: 2.165519, 146: 3.491831, 147: 3.228579, 148: 2.23748, 149: 0.400715, 150: 0.645678, 151: 0.336381, 152: 3.572293, 153: 2.702825, 154: 1.004754, 155: 0.215115, 156: 3.817499, 157: 1.812994, 158: 1.101928, 159: 0.24671, 160: 1.953037, 161: 0.179314, 162: 0.729079, 163: 0.319033, 164: 0.787789, 165: 2.128004, 166: 2.29556, 167: 3.574445, 168: 2.001233, 169: 1.945678, 170: 2.862661, 171: 2.108301, 172: 0.013539, 173: 0.440994, 174: 1.452169, 175: 1.820092, 176: 1.34998, 177: 0.936968, 178: 3.815639, 179: 0.574922, 180: 1.025519, 181: 2.221902, 182: 0.66321, 183: 1.356171, 184: 3.865374, 185: 0.18439, 186: 2.953803, 187: 2.651758, 188: 2.233019, 189: 3.334037, 190: 3.443781, 191: 3.836971];
charge = [0: 0.676924, 1: 0.793709, 2: 0.56109, 3: 0.378486, 4: 0.582206, 5: 0.562407, 6: 0.310777, 7: 0.99204, 8: 0.661449, 9: 0.218351, 10: 0.396565, 11: 0.494407, 12: 0.817472, 13: 0.388655, 14: 0.540604, 15: 0.534956, 16: 0.622542, 17: 0.257954, 18: 0.705584, 19: 0.249425, 20: 0.982392, 21: 0.849275, 22: 0.375212, 23: 0.049564, 24: 0.737279, 25: 0.136841, 26: 0.13553, 27: 0.28056, 28: 0.323961, 29: 0.7810510000000001, 30: 0.868016, 31: 0.902693, 32: 0.413762, 33: 0.600948, 34: 0.579252, 35: 0.120568, 36: 0.6903899999999999, 37: 0.970919, 38: 0.172155, 39: 0.823277, 40: 0.177469, 41: 0.705558, 42: 0.949499, 43: 0.10457, 44: 0.211965, 45: 0.084273, 46: 0.469982, 47: 0.408371, 48: 0.125143, 49: 0.8030080000000001, 50: 0.787738, 51: 0.019104, 52: 0.051392, 53: 0.876072, 54: 0.961106, 55: 0.426832, 56: 0.073298, 57: 0.595233, 58: 0.201747, 59: 0.902242, 60: 0.49627, 61: 0.288751, 62: 0.145256, 63: 0.095212, 64: 0.588713, 65: 0.011181, 66: 0.478757, 67: 0.452915, 68: 0.552619, 69: 0.112272, 70: 0.919615, 71: 0.03697, 72: 0.389849, 73: 0.686593, 74: 0.846145, 75: 0.924918, 76: 0.44191, 77: 0.552181, 78: 0.174629, 79: 0.661384, 80: 0.763993, 81: 0.330128, 82: 0.558245, 83: 0.402443, 84: 0.8698979999999999, 85: 0.447918, 86: 0.103307, 87: 0.661679, 88: 0.539167, 89: 0.06629699999999999, 90: 0.184657, 91: 0.067001, 92: 0.794476, 93: 0.34206, 94: 0.09583999999999999, 95: 0.506226, 96: 0.689631, 97: 0.782593, 98: 0.355129, 99: 0.385547, 100: 0.955076, 101: 0.744134, 102: 0.07584100000000001, 103: 0.628356, 104: 0.389224, 105: 0.644076, 106: 0.8458599999999999, 107: 0.233535, 108: 0.057053, 109: 0.31038, 110: 0.820975, 111: 0.798138, 112: 0.441704, 113: 0.563457, 114: 0.834801, 115: 0.830376, 116: 0.448099, 117: 0.856459, 118: 0.581963, 119: 0.531774, 120: 0.199641, 121: 0.29969, 122: 0.674237, 123: 0.865711, 124: 0.9844270000000001, 125: 0.104578, 126: 0.00345, 127: 0.155422, 128: 0.532546, 129: 0.277345, 130: 0.25092, 131: 0.537996, 132: 0.090848, 133: 0.509695, 134: 0.78241, 135: 0.410509, 136: 0.237172, 137: 0.950508, 138: 0.322937, 139: 0.173304, 140: 0.278474, 141: 0.13361, 142: 0.352682, 143: 0.062807, 144: 0.296847, 145: 0.780963, 146: 0.9353669999999999, 147: 0.345054, 148: 0.129992, 149: 0.361866, 150: 0.91696, 151: 0.634306, 152: 0.011546, 153: 0.689156, 154: 0.296889, 155: 0.347204, 156: 0.946047, 157: 0.78261, 158: 0.024493, 159: 0.759687, 160: 0.959833, 161: 0.843299, 162: 0.42314, 163: 0.284369, 164: 0.608631, 165: 0.664233, 166: 0.44364, 167: 0.08118, 168: 0.902289, 169: 0.263043, 170: 0.348621, 171: 0.310784, 172: 0.293926, 173: 0.019684, 174: 0.295974, 175: 0.83328, 176: 0.676314, 177: 0.208122, 178: 0.203941, 179: 0.165092, 180: 0.405276, 181: 0.926404, 182: 0.595647, 183: 0.21503, 184: 0.234565, 185: 0.08372599999999999, 186: 0.8902870000000001, 187: 0.161148, 188: 0.498421, 189: 0.20812, 190: 0.643312, 191: 0.477498];
discharge = [0: 0.360529, 1: 0.806106, 2: 0.285386, 3: 0.890063, 4: 0.244943, 5: 0.745031, 6: 0.823778, 7: 0.143217, 8: 0.838917, 9: 0.834766, 10: 0.850101, 11: 0.17431, 12: 0.27443, 13: 0.102301, 14: 0.18414, 15: 0.613735, 16: 0.797625, 17: 0.400487, 18: 0.661732, 19: 0.402354, 20: 0.989808, 21: 0.094031, 22: 0.367403, 23: 0.426237, 24: 0.472168, 25: 0.294627, 26: 0.74358, 27: 0.638615, 28: 0.159658, 29: 0.053143, 30: 0.461415, 31: 0.951446, 32: 0.762562, 33: 0.390348, 34: 0.235794, 35: 0.972324, 36: 0.050951, 37: 0.84044, 38: 0.651272, 39: 0.364321, 40: 0.745828, 41: 0.335072, 42: 0.764618, 43: 0.834874, 44: 0.644118, 45: 0.998898, 46: 0.049778, 47: 0.370661, 48: 0.422285, 49: 0.075875, 50: 0.157841, 51: 0.428464, 52: 0.7456, 53: 0.099191, 54: 0.810245, 55: 0.375403, 56: 0.542778, 57: 0.788542, 58: 0.954439, 59: 0.807189, 60: 0.814703, 61: 0.634985, 62: 0.937719, 63: 0.611586, 64: 0.8440260000000001, 65: 0.906307, 66: 0.155025, 67: 0.806928, 68: 0.808859, 69: 0.9828209999999999, 70: 0.014119, 71: 0.357065, 72: 0.186584, 73: 0.68985, 74: 0.432106, 75: 0.218652, 76: 0.9622270000000001, 77: 0.308716, 78: 0.981147, 79: 0.241571, 80: 0.620783, 81: 0.144549, 82: 0.667057, 83: 0.592147, 84: 0.486002, 85: 0.765056, 86: 0.6810389999999999, 87: 0.59275, 88: 0.598251, 89: 0.662718, 90: 0.646914, 91: 0.234975, 92: 0.506488, 93: 0.513319, 94: 0.059992, 95: 0.438045, 96: 0.088504, 97: 0.087242, 98: 0.748146, 99: 0.240032, 100: 0.368627, 101: 0.251302, 102: 0.314032, 103: 0.382801, 104: 0.93332, 105: 0.336458, 106: 0.5522629999999999, 107: 0.613826, 108: 0.800701, 109: 0.974446, 110: 0.083665, 111: 0.816775, 112: 0.653728, 113: 0.606463, 114: 0.979787, 115: 0.892033, 116: 0.396712, 117: 0.784799, 118: 0.430318, 119: 0.749598, 120: 0.467666, 121: 0.320971, 122: 0.723966, 123: 0.164591, 124: 0.205005, 125: 0.423124, 126: 0.592354, 127: 0.08504399999999999, 128: 0.041555, 129: 0.159658, 130: 0.022893, 131: 0.393061, 132: 0.371538, 133: 0.137482, 134: 0.163301, 135: 0.54687, 136: 0.19702, 137: 0.209882, 138: 0.693337, 139: 0.991825, 140: 0.8255479999999999, 141: 0.71082, 142: 0.874078, 143: 0.718178, 144: 0.752033, 145: 0.323568, 146: 0.264193, 147: 0.037276, 148: 0.884072, 149: 0.412343, 150: 0.79106, 151: 0.520278, 152: 0.4702, 153: 0.119235, 154: 0.362034, 155: 0.140192, 156: 0.179303, 157: 0.94958, 158: 0.696649, 159: 0.839713, 160: 0.004917, 161: 0.920449, 162: 0.6944939999999999, 163: 0.742991, 164: 0.083159, 165: 0.284259, 166: 0.010856, 167: 0.047104, 168: 0.924838, 169: 0.728971, 170: 0.876315, 171: 0.481038, 172: 0.0546, 173: 0.833602, 174: 0.548837, 175: 0.654701, 176: 0.375359, 177: 0.708825, 178: 0.625088, 179: 0.375802, 180: 0.652805, 181: 0.250321, 182: 0.247916, 183: 0.166527, 184: 0.668281, 185: 0.9662190000000001, 186: 0.26099, 187: 0.642199, 188: 0.401281, 189: 0.110981, 190: 0.306816, 191: 0.273438];
soc = [0: 2.980727, 1: 3.777724, 2: 4.714128, 3: 4.852348, 4: 3.049234, 5: 4.348035, 6: 4.447357, 7: 7.956855, 8: 8.417460999999999, 9: 5.42377, 10: 3.809561, 11: 7.148327, 12: 7.555252, 13: 6.82045, 14: 8.383759, 15: 10.740452, 16: 7.907394, 17: 7.131069, 18: 13.607853, 19: 8.342396000000001, 20: 9.374466999999999, 21: 8.769784, 22: 15.439986, 23: 4.279522, 24: 5.438382, 25: 14.993035, 26: 3.857143, 27: 3.784609, 28: 3.662139, 29: 9.891306999999999, 30: 12.447238, 31: 12.139499, 32: 4.353361, 33: 10.315224, 34: 10.91747, 35: 6.791784, 36: 3.854135, 37: 6.536445, 38: 9.272983999999999, 39: 13.825928, 40: 7.147317, 41: 6.20019, 42: 3.695172, 43: 11.275647, 44: 10.6427, 45: 14.56105, 46: 11.319107, 47: 4.5623, 48: 5.565062, 49: 3.874642, 50: 12.858957, 51: 10.089355, 52: 3.502254, 53: 11.223621, 54: 10.040868, 55: 11.632821, 56: 9.176544, 57: 14.675582, 58: 3.00399, 59: 4.329337, 60: 3.311888, 61: 13.510644, 62: 14.942765, 63: 3.696525, 64: 12.547221, 65: 13.730376, 66: 15.615585, 67: 3.016122, 68: 3.149506, 69: 14.578904, 70: 3.627766, 71: 5.048211, 72: 14.262299, 73: 13.582348, 74: 6.694032, 75: 10.276543, 76: 2.907308, 77: 14.089968, 78: 8.623939999999999, 79: 7.640824, 80: 9.825858, 81: 8.634512000000001, 82: 13.80705, 83: 10.294272, 84: 6.902149, 85: 6.037354, 86: 4.342377, 87: 4.65635, 88: 7.667406, 89: 7.659633, 90: 5.403411, 91: 2.774155, 92: 10.181139, 93: 12.039408, 94: 13.415998, 95: 5.063713, 96: 3.042408, 97: 4.587791, 98: 9.356280999999999, 99: 11.041857, 100: 12.073991, 101: 12.390138, 102: 10.411458, 103: 5.983851, 104: 14.365124, 105: 13.441561, 106: 4.046365, 107: 15.337279, 108: 15.333148, 109: 3.20079, 110: 7.782409, 111: 14.95251, 112: 3.722892, 113: 10.481275, 114: 3.041025, 115: 6.853634, 116: 9.719868, 117: 6.868061, 118: 8.176538000000001, 119: 7.99781, 120: 9.941001999999999, 121: 4.944087, 122: 8.111160999999999, 123: 4.94021, 124: 10.061486, 125: 4.329753, 126: 4.843356, 127: 5.365421, 128: 14.633439, 129: 11.417785, 130: 12.803954, 131: 9.261984999999999, 132: 11.317183, 133: 14.404737, 134: 8.371238, 135: 14.38151, 136: 14.989591, 137: 12.381106, 138: 6.169021, 139: 11.804607, 140: 5.882015, 141: 11.463882, 142: 4.012136, 143: 9.435696999999999, 144: 15.383757, 145: 6.871609, 146: 7.99063, 147: 8.513888, 148: 9.007972000000001, 149: 10.341793, 150: 12.252772, 151: 5.816769, 152: 12.324083, 153: 13.570651, 154: 3.287915, 155: 7.57436, 156: 4.104532, 157: 3.264424, 158: 13.621153, 159: 10.480886, 160: 3.340157, 161: 6.952767, 162: 13.522043, 163: 3.207973, 164: 12.446064, 165: 7.676444, 166: 3.607315, 167: 15.257838, 168: 5.590825, 169: 13.428082, 170: 14.793095, 171: 9.541587, 172: 13.927989, 173: 9.230366999999999, 174: 7.503029, 175: 6.025601, 176: 15.434201, 177: 9.335013999999999, 178: 13.506386, 179: 12.294405, 180: 10.10234, 181: 6.772616, 182: 10.876748, 183: 3.084447, 184: 12.224698, 185: 5.567392, 186: 7.119642, 187: 6.796377, 188: 4.610523, 189: 9.57676, 190: 10.72765, 191: 11.038264];
cost = [0: 483.453439, 1: 296.021895, 2: 316.263539, 3: 175.249779, 4: 214.164614, 5: 535.54534, 6: 384.781313, 7: 316.115047, 8: 150.6289, 9: 318.501411, 10: 86.04691200000001, 11: 411.283765, 12: 43.293737, 13: 7.899087, 14: 145.850204, 15: 53.215922, 16: 160.518752, 17: 501.608517, 18: 66.808205, 19: 66.890573, 20: 388.406442, 21: 126.160116, 22: 61.363597, 23: 491.823146, 24: 997.370733, 25: 824.602262, 26: 789.473384, 27: 975.681571, 28: 955.475921, 29: 62.899369, 30: 78.098113, 31: 605.322779, 32: 785.8426480000001, 33: 493.391592, 34: 637.662727, 35: 1043.613103, 36: 85.901377, 37: 222.346142, 38: 529.9788569999999, 39: 997.708809, 40: 703.563838, 41: 273.768452, 42: 687.198313, 43: 1033.038741, 44: 519.321945, 45: 262.330306, 46: 819.538843, 47: 887.240496, 48: 984.956423, 49: 796.6447879999999, 50: 70.221419, 51: 360.861366, 52: 521.872896, 53: 365.145775, 54: 325.586416, 55: 498.551154, 56: 193.986719, 57: 134.462375, 58: 580.205048, 59: 360.427959, 60: 1058.848137, 61: 138.771109, 62: 323.382673, 63: 520.8714639999999, 64: 859.782408, 65: 77.058695, 66: 1022.729867, 67: 1155.389574, 68: 220.499276, 69: 400.159362, 70: 707.214681, 71: 984.94383, 72: 1101.050415, 73: 854.79781, 74: 912.700455, 75: 629.030086, 76: 779.605693, 77: 550.448132, 78: 846.920756, 79: 613.343114, 80: 646.018315, 81: 231.515862, 82: 338.582081, 83: 482.413291, 84: 903.764175, 85: 395.364937, 86: 1152.84568, 87: 78.93860599999999, 88: 311.648056, 89: 479.130486, 90: 217.359204, 91: 431.691982, 92: 510.377853, 93: 409.183364, 94: 438.872206, 95: 473.520726, 96: 133.954194, 97: 358.376858, 98: 171.10148, 99: 304.849702, 100: 235.958308, 101: 571.122604, 102: 372.721827, 103: 267.145787, 104: 229.688242, 105: 212.042847, 106: 22.115881, 107: 196.968894, 108: 63.683115, 109: 194.759986, 110: 39.102361, 111: 467.660214, 112: 576.275219, 113: 431.093459, 114: 356.558442, 115: 292.385769, 116: 319.645442, 117: 330.039005, 118: 215.79775, 119: 416.558808, 120: 11.190392, 121: 91.583978, 122: 544.034665, 123: 190.012441, 124: 314.906751, 125: 687.926055, 126: 592.087775, 127: 416.187866, 128: 943.204605, 129: 719.520859, 130: 1067.323935, 131: 904.397015, 132: 176.569214, 133: 853.416323, 134: 621.962624, 135: 618.556701, 136: 380.505962, 137: 1016.936137, 138: 389.327082, 139: 1101.668566, 140: 647.399943, 141: 842.854962, 142: 694.321098, 143: 777.851939, 144: 1012.474096, 145: 280.32447, 146: 160.578215, 147: 75.59372, 148: 483.784944, 149: 71.498234, 150: 175.790187, 151: 384.827749, 152: 14.942578, 153: 311.66716, 154: 104.278459, 155: 272.5141, 156: 636.848849, 157: 368.346781, 158: 784.4850740000001, 159: 1186.435012, 160: 267.747909, 161: 1171.965675, 162: 882.763246, 163: 904.256456, 164: 887.6352869999999, 165: 68.36322, 166: 1154.788179, 167: 133.743135, 168: 1058.385793, 169: 995.811248, 170: 557.1538860000001, 171: 41.418596, 172: 688.8287309999999, 173: 338.944218, 174: 191.475901, 175: 800.62091, 176: 506.669975, 177: 904.617675, 178: 149.625867, 179: 440.960458, 180: 324.004888, 181: 1176.30395, 182: 416.730545, 183: 812.058865, 184: 65.522946, 185: 122.285886, 186: 483.933275, 187: 576.502414, 188: 23.979617, 189: 29.697458, 190: 110.150084, 191: 581.7076];
earn = [0: 2.965661, 1: 2.017519, 2: 2.598814, 3: 0.61432, 4: 2.462787, 5: 0.136888, 6: 1.274826, 7: 1.598772, 8: 0.508078, 9: 0.929426, 10: 1.30965, 11: 0.893687, 12: 0.881419, 13: 0.452727, 14: 2.140181, 15: 1.670171, 16: 1.788888, 17: 1.454415, 18: 1.431236, 19: 2.205623, 20: 2.193081, 21: 1.868258, 22: 0.994907, 23: 2.149462, 24: 0.955595, 25: 2.261087, 26: 2.901646, 27: 0.995699, 28: 2.145676, 29: 1.663245, 30: 2.616716, 31: 1.9956, 32: 0.488595, 33: 0.442413, 34: 1.370424, 35: 0.8290650000000001, 36: 0.374924, 37: 0.084481, 38: 0.912454, 39: 0.331419, 40: 0.373793, 41: 0.422442, 42: 0.100402, 43: 0.285973, 44: 0.033264, 45: 0.001271, 46: 0.012588, 47: 0.000165, 48: -0.141212, 49: -0.019068, 50: -0.028389, 51: 0.000333, 52: -0.045831, 53: -0.014381, 54: 0.026856, 55: 0.07771699999999999, 56: 0.222886, 57: 0.314741, 58: 0.5925010000000001, 59: 0.264108, 60: 0.08451, 61: 0.235163, 62: 1.081445, 63: 0.590861, 64: 0.960994, 65: 2.337675, 66: 1.311053, 67: 0.692601, 68: 1.282102, 69: 1.659732, 70: 1.900655, 71: 0.267592, 72: 3.408431, 73: 1.561715, 74: 0.687805, 75: 1.483944, 76: 2.096504, 77: 1.055782, 78: 1.080069, 79: 1.892961, 80: 1.025447, 81: 2.212796, 82: 0.69694, 83: 0.09825200000000001, 84: 1.320371, 85: 1.266306, 86: 0.305127, 87: 0.697068, 88: 1.168337, 89: 2.331012, 90: 1.665811, 91: 1.959158, 92: 0.112439, 93: 0.956971, 94: 0.936987, 95: 1.642882, 96: 0.008102, 97: 0.491076, 98: 0.809986, 99: 0.891463, 100: 1.599562, 101: 1.690275, 102: 1.506911, 103: 1.894496, 104: 1.43417, 105: 0.589824, 106: 1.446305, 107: 1.846162, 108: 2.019247, 109: 1.558367, 110: 0.277469, 111: 0.203008, 112: 0.633189, 113: 1.085078, 114: 1.406721, 115: 1.781429, 116: 0.825761, 117: 2.015867, 118: 1.845089, 119: 0.7475579999999999, 120: 0.407033, 121: 0.284035, 122: 2.131546, 123: 1.775629, 124: 0.222585, 125: 0.949523, 126: 0.027746, 127: 0.8837390000000001, 128: 0.25362, 129: 0.74891, 130: 0.284852, 131: 0.11653, 132: 0.203681, 133: 0.02819, 134: -0.018731, 135: -0.005433, 136: -0.008541999999999999, 137: -0.009324000000000001, 138: -0.024298, 139: -0.018665, 140: -0.024146, 141: -0.231965, 142: -0.29314, 143: -0.08862, 144: -0.206954, 145: -0.065677, 146: -0.027181, 147: -0.047765, 148: -0.009848000000000001, 149: -0.044268, 150: -0.050757, 151: -0.014832, 152: -0.023589, 153: -0.038262, 154: -0.006735, 155: 0.0, 156: 0.06312, 157: 0.149502, 158: 0.741493, 159: 0.497569, 160: 1.386817, 161: 1.77461, 162: 0.738971, 163: 1.897902, 164: 2.195182, 165: 0.709888, 166: 0.106529, 167: 2.437135, 168: 0.368351, 169: 2.536244, 170: 0.62091, 171: 2.663607, 172: 3.360368, 173: 0.914278, 174: 1.059062, 175: 1.27402, 176: 2.135519, 177: 2.457406, 178: 0.539333, 179: 2.544165, 180: 2.49278, 181: 2.008013, 182: 1.507253, 183: 2.842341, 184: 0.778291, 185: 1.704963, 186: 0.977193, 187: 0.05926, 188: 1.526813, 189: 0.20964, 190: 1.166513, 191: 0.44649];
total_cost = 103.4510042796397;
total_earn = 28.19618561886329;
