production = [0: 0.0, 1: 0.0, 2: 0.0, 3: 0.0, 4: 0.0, 5: 0.0, 6: 0.0, 7: 0.0, 8: 0.0, 9: 0.0, 10: 0.0, 11: 0.0, 12: 0.0, 13: 0.0, 14: 0.0, 15: 0.0, 16: 0.0, 17: 0.0, 18: 0.0, 19: 0.0, 20: 0.0, 21: 0.0, 22: 0.0, 23: 9.6e-05, 24: 0.001292, 25: 0.005066, 26: 0.013854, 27: 0.063183, 28: 0.110846, 29: 0.164447, 30: 0.198032, 31: 0.000266, 32: 0.107383, 33: 0.002718, 34: 0.17384, 35: 0.26545, 36: 0.41936, 37: 0.531523, 38: 0.868461, 39: 0.607194, 40: 1.198578, 41: 0.173074, 42: 0.186786, 43: 0.448501, 44: 0.327724, 45: 1.910167, 46: 1.247113, 47: 1.157577, 48: 0.647315, 49: 0.504484, 50: 0.45897, 51: 1.308813, 52: 0.146782, 53: 0.351262, 54: 0.290706, 55: 1.481247, 56: 0.476209, 57: 0.161812, 58: 0.142935, 59: 0.231275, 60: 0.62664, 61: 0.020539, 62: 0.203066, 63: 0.768742, 64: 0.258721, 65: 0.000857, 66: 0.229863, 67: 0.043363, 68: 0.01117, 69: 0.067302, 70: 0.045056, 71: 0.021847, 72: 0.004775, 73: 6.8e-05, 74: 0.0, 75: 0.0, 76: 0.0, 77: 0.0, 78: 0.0, 79: 0.0, 80: 0.0, 81: 0.0, 82: 0.0, 83: 0.0, 84: 0.0, 85: 0.0, 86: 0.0, 87: 0.0, 88: 0.0, 89: 0.0, 90: 0.0, 91: 0.0, 92: 0.0, 93: 0.0, 94: 0.0, 95: 0.0, 96: 0.0, 97: 0.0, 98: 0.0, 99: 0.0, 100: 0.0, 101: 0.0, 102: 0.0, 103: 0.0, 104: 0.0, 105: 0.0, 106: 0.0, 107: 0.0, 108: 0.0, 109: 0.0, 110: 0.0, 111: 0.0, 112: 0.0, 113: 0.0, 114: 0.0, 115: 0.0, 116: 0.0, 117: 0.000374, 118: 0.000207, 119: 0.00158, 120: 0.011414, 121: 0.032259, 122: 0.004633, 123: 0.018512, 124: 0.026235, 125: 0.141757, 126: 0.011316, 127: 0.258865, 128: 0.236032, 129: 0.6165890000000001, 130: 0.323882, 131: 0.732358, 132: 0.962735, 133: 0.443995, 134: 0.225959, 135: 0.789938, 136: 1.070966, 137: 0.346917, 138: 0.246453, 139: 0.336609, 140: 0.821617, 141: 1.089545, 142: 0.817138, 143: 0.051597, 144: 0.06278, 145: 0.033443, 146: 0.015455, 147: 0.016365, 148: 0.056954, 149: 0.017682, 150: 0.131979, 151: 0.06249, 152: 0.292892, 153: 0.129139, 154: 0.074283, 155: 0.234204, 156: 0.192162, 157: 0.320133, 158: 0.13329, 159: 0.469857, 160: 0.150899, 161: 0.064661, 162: 0.056741, 163: 0.04981, 164: 0.083283, 165: 0.060483, 166: 0.032379, 167: 0.031478, 168: 0.005611, 169: 6.499999999999999e-05, 170: 0.000275, 171: 0.0, 172: 0.0, 173: 0.0, 174: 0.0, 175: 0.0, 176: 0.0, 177: 0.0, 178: 0.0, 179: 0.0, 180: 0.0, 181: 0.0, 182: 0.0, 183: 0.0, 184: 0.0, 185: 0.0, 186: 0.0, 187: 0.0, 188: 0.0, 189: 0.0, 190: 0.0, 191: 0.0];
buy = [0: 450.840597, 1: 939.364401, 2: 839.361578, 3: 939.579794, 4: 146.674374, 5: 192.785659, 6: 599.895997, 7: 673.923647, 8: 304.823798, 9: 517.056222, 10: 903.367712, 11: 65.42320599999999, 12: 346.218543, 13: 427.586019, 14: 434.906966, 15: 529.303399, 16: 616.0541919999999, 17: 875.114092, 18: 477.616876, 19: 308.301313, 20: 675.1751400000001, 21: 784.665924, 22: 465.933857, 23: 861.6149799999999, 24: 576.2896030000001, 25: 939.469289, 26: 704.766986, 27: 562.92157, 28: 46.047455, 29: 155.625657, 30: 578.056785, 31: 332.792897, 32: 559.907435, 33: 948.160258, 34: 662.3854689999999, 35: 222.061437, 36: 268.795371, 37: 322.957806, 38: 941.8946089999999, 39: 666.357361, 40: 552.999759, 41: 661.218518, 42: 241.544469, 43: 205.040631, 44: 848.910241, 45: 831.255799, 46: 883.252803, 47: 990.206715, 48: 514.560686, 49: 42.257173, 50: 725.784816, 51: 807.470038, 52: 508.626837, 53: 895.050136, 54: 800.9467509999999, 55: 469.796417, 56: 121.269351, 57: 844.987573, 58: 721.027441, 59: 110.169265, 60: 51.470504, 61: 274.115216, 62: 291.270813, 63: 963.6147539999999, 64: 218.009322, 65: 63.688949, 66: 391.039267, 67: 857.925551, 68: 58.518839, 69: 846.199485, 70: 661.824978, 71: 650.164123, 72: 645.2010309999999, 73: 981.907997, 74: 836.455147, 75: 786.598964, 76: 53.343053, 77: 306.450998, 78: 457.673276, 79: 474.422601, 80: 269.842132, 81: 508.25297, 82: 70.504, 83: 706.809742, 84: 257.431164, 85: 86.91116599999999, 86: 291.385141, 87: 89.586235, 88: 480.30638, 89: 166.485308, 90: 379.270271, 91: 834.177521, 92: 362.144232, 93: 89.564888, 94: 169.636887, 95: 44.107592, 96: 469.186704, 97: 387.414697, 98: 677.168361, 99: 703.795433, 100: 134.624697, 101: 718.650724, 102: 494.528313, 103: 539.128332, 104: 175.361786, 105: 257.080122, 106: 369.65276, 107: 945.013111, 108: 188.922908, 109: 531.118587, 110: 990.811342, 111: 734.745226, 112: 613.162524, 113: 495.787011, 114: 24.426007, 115: 622.987049, 116: 815.690395, 117: 400.309914, 118: 668.40984, 119: 957.108479, 120: 949.077678, 121: 661.95089, 122: 953.7556059999999, 123: 928.892635, 124: 736.448048, 125: 496.928842, 126: 898.93011, 127: 715.0115039999999, 128: 353.274799, 129: 141.359788, 130: 551.047016, 131: 138.728513, 132: 494.951803, 133: 33.303761, 134: 214.719727, 135: 613.658954, 136: 565.058569, 137: 389.819549, 138: 16.619193, 139: 818.712745, 140: 85.02149199999999, 141: 953.642398, 142: 252.384807, 143: 990.781584, 144: 472.8199, 145: 580.40581, 146: 488.863833, 147: 97.019378, 148: 755.128329, 149: 386.745145, 150: 173.616714, 151: 824.352301, 152: 242.964796, 153: 244.220038, 154: 442.976868, 155: 22.214062, 156: 286.529061, 157: 368.960851, 158: 925.572827, 159: 511.478329, 160: 134.240331, 161: 889.164165, 162: 693.394408, 163: 54.803029, 164: 0.000417, 165: 538.634316, 166: 321.008291, 167: 227.730571, 168: 210.430167, 169: 974.97167, 170: 940.387157, 171: 769.894802, 172: 968.019216, 173: 699.983924, 174: 111.017054, 175: 796.262264, 176: 448.409877, 177: 159.741331, 178: 444.489248, 179: 97.69477999999999, 180: 791.265608, 181: 301.474942, 182: 643.070077, 183: 618.866138, 184: 34.822141, 185: 830.746204, 186: 520.181887, 187: 865.3934870000001, 188: 740.249377, 189: 239.309667, 190: 789.649872, 191: 298.760404];
sell = [0: 1.964178, 1: 0.871476, 2: 0.47803, 3: 3.140549, 4: 0.119082, 5: 2.424078, 6: 1.338281, 7: 3.135807, 8: 2.890062, 9: 3.246403, 10: 0.776068, 11: 2.832749, 12: 1.893139, 13: 2.942143, 14: 2.206605, 15: 1.429157, 16: 0.390935, 17: 0.993521, 18: 0.28969, 19: 2.46801, 20: 0.618466, 21: 3.042501, 22: 0.857665, 23: 1.273043, 24: 1.652581, 25: 1.919268, 26: 0.93232, 27: 0.206995, 28: 0.119114, 29: 0.212348, 30: 3.770648, 31: 0.617476, 32: 3.763275, 33: 2.239893, 34: 2.11184, 35: 0.401296, 36: 1.412805, 37: 1.769213, 38: 0.408888, 39: 0.6475919999999999, 40: 1.111924, 41: 3.701743, 42: 1.957201, 43: 2.667109, 44: 0.421652, 45: 1.15385, 46: 2.793471, 47: 2.412582, 48: 2.26236, 49: 1.36525, 50: 3.825963, 51: 2.249342, 52: 0.129274, 53: 2.350186, 54: 3.379113, 55: 0.290989, 56: 0.489956, 57: 3.898269, 58: 0.099957, 59: 3.62384, 60: 1.337578, 61: 1.957713, 62: 3.915729, 63: 1.469363, 64: 1.06657, 65: 3.607836, 66: 2.245534, 67: 2.023103, 68: 1.075393, 69: 0.022438, 70: 2.936222, 71: 3.258798, 72: 1.708767, 73: 1.267404, 74: 3.96915, 75: 0.141527, 76: 0.549227, 77: 2.394066, 78: 0.450677, 79: 0.948693, 80: 2.062643, 81: 2.669285, 82: 0.244965, 83: 1.35941, 84: 3.784237, 85: 2.801057, 86: 0.867895, 87: 0.605108, 88: 1.024118, 89: 0.651626, 90: 0.472706, 91: 3.311352, 92: 2.348654, 93: 2.161084, 94: 0.623225, 95: 1.554133, 96: 1.065374, 97: 1.569479, 98: 2.759596, 99: 3.769588, 100: 2.494072, 101: 1.669494, 102: 1.751955, 103: 3.030624, 104: 2.788367, 105: 0.436296, 106: 0.822511, 107: 2.482342, 108: 0.811405, 109: 3.133822, 110: 3.185854, 111: 1.625552, 112: 0.534915, 113: 2.897392, 114: 0.256192, 115: 3.475293, 116: 2.491879, 117: 1.402528, 118: 2.035295, 119: 0.119334, 120: 2.186413, 121: 2.226144, 122: 3.644057, 123: 2.001429, 124: 2.355449, 125: 2.530183, 126: 0.539, 127: 1.899127, 128: 3.449546, 129: 0.9112130000000001, 130: 0.67594, 131: 0.011703, 132: 3.682673, 133: 0.651973, 134: 0.76039, 135: 2.771156, 136: 1.943521, 137: 2.216934, 138: 3.589541, 139: 0.34234, 140: 2.45082, 141: 2.232587, 142: 2.228839, 143: 3.794752, 144: 2.511852, 145: 0.868654, 146: 0.023893, 147: 1.168036, 148: 1.078103, 149: 0.679652, 150: 2.392972, 151: 3.114615, 152: 2.721591, 153: 2.578097, 154: 3.620048, 155: 3.072533, 156: 2.287863, 157: 2.993073, 158: 2.782125, 159: 3.404883, 160: 3.979193, 161: 2.00959, 162: 1.07585, 163: 2.453888, 164: 2.688952, 165: 3.403504, 166: 3.267545, 167: 3.836904, 168: 2.248337, 169: 3.822173, 170: 1.365212, 171: 3.657095, 172: 2.812143, 173: 3.837407, 174: 3.673845, 175: 0.439643, 176: 0.630089, 177: 0.257261, 178: 3.331607, 179: 0.646779, 180: 2.71889, 181: 2.439236, 182: 1.16128, 183: 0.381416, 184: 2.21195, 185: 0.800635, 186: 1.628175, 187: 3.670768, 188: 0.396013, 189: 1.385053, 190: 3.92437, 191: 3.741516];
charge = [0: 0.081135, 1: 0.531903, 2: 0.522442, 3: 0.986266, 4: 0.380844, 5: 0.192491, 6: 0.744872, 7: 0.252179, 8: 0.464335, 9: 0.061608, 10: 0.586742, 11: 0.977881, 12: 0.011891, 13: 0.021189, 14: 0.24441, 15: 0.087634, 16: 0.7109529999999999, 17: 0.764408, 18: 0.62159, 19: 0.799099, 20: 0.51336, 21: 0.122389, 22: 0.146509, 23: 0.728959, 24: 0.034816, 25: 0.91253, 26: 0.524718, 27: 0.982181, 28: 0.076415, 29: 0.6428779999999999, 30: 0.613492, 31: 0.395191, 32: 0.768844, 33: 0.499349, 34: 0.366203, 35: 0.576913, 36: 0.802965, 37: 0.736446, 38: 0.105507, 39: 0.53899, 40: 0.284702, 41: 0.701699, 42: 0.97104, 43: 0.17657, 44: 0.311614, 45: 0.83786, 46: 0.013983, 47: 0.684593, 48: 0.869882, 49: 0.353662, 50: 0.192957, 51: 0.80931, 52: 0.28489, 53: 0.380595, 54: 0.927073, 55: 0.071023, 56: 0.939566, 57: 0.46864, 58: 0.278538, 59: 0.459092, 60: 0.848336, 61: 0.265743, 62: 0.6456229999999999, 63: 0.890817, 64: 0.511053, 65: 0.298052, 66: 0.07396800000000001, 67: 0.105202, 68: 0.77014, 69: 0.167234, 70: 0.522493, 71: 0.664622, 72: 0.702416, 73: 0.457882, 74: 0.664915, 75: 0.388438, 76: 0.957723, 77: 0.322468, 78: 0.124075, 79: 0.901847, 80: 0.728949, 81: 0.055472, 82: 0.6468390000000001, 83: 0.840178, 84: 0.5902809999999999, 85: 0.172461, 86: 0.671637, 87: 0.7175049999999999, 88: 0.907143, 89: 0.300309, 90: 0.260329, 91: 0.9881720000000001, 92: 0.667919, 93: 0.092612, 94: 0.348812, 95: 0.846229, 96: 0.886703, 97: 0.162438, 98: 0.995295, 99: 0.600877, 100: 0.841274, 101: 0.817966, 102: 0.309024, 103: 0.787152, 104: 0.73169, 105: 0.2844, 106: 0.192393, 107: 0.997963, 108: 0.5962460000000001, 109: 0.409481, 110: 0.182113, 111: 0.002685, 112: 0.424176, 113: 0.499725, 114: 0.205896, 115: 0.733271, 116: 0.782378, 117: 0.359465, 118: 0.200844, 119: 0.08114499999999999, 120: 0.277879, 121: 0.030366, 122: 0.16839, 123: 0.549105, 124: 0.178459, 125: 0.685665, 126: 0.688343, 127: 0.187329, 128: 0.672251, 129: 0.936099, 130: 0.544668, 131: 0.693538, 132: 0.5769840000000001, 133: 0.447622, 134: 0.050315, 135: 0.657272, 136: 0.414849, 137: 0.507545, 138: 0.84521, 139: 0.454635, 140: 0.811134, 141: 0.205444, 142: 0.66509, 143: 0.671009, 144: 0.892201, 145: 0.315522, 146: 0.235626, 147: 0.828167, 148: 0.026893, 149: 0.602617, 150: 0.220073, 151: 0.319501, 152: 0.962997, 153: 0.432494, 154: 0.622176, 155: 0.624861, 156: 0.931742, 157: 0.503579, 158: 0.622632, 159: 0.710415, 160: 0.282165, 161: 0.41778, 162: 0.469997, 163: 0.613361, 164: 0.821045, 165: 0.96763, 166: 0.781324, 167: 0.096847, 168: 0.925007, 169: 0.927261, 170: 0.198118, 171: 0.750717, 172: 0.12858, 173: 0.689602, 174: 0.779976, 175: 0.9940870000000001, 176: 0.197487, 177: 0.816186, 178: 0.179988, 179: 0.732461, 180: 0.090632, 181: 0.709941, 182: 0.631753, 183: 0.991462, 184: 0.063747, 185: 0.296858, 186: 0.345728, 187: 0.414941, 188: 0.702404, 189: 0.133855, 190: 0.439748, 191: 0.026645];
discharge = [0: 0.708547, 1: 0.351143, 2: 0.355647, 3: 0.196213, 4: 0.538574, 5: 0.473899, 6: 0.1908, 7: 0.51771, 8: 0.581935, 9: 0.7765, 10: 0.601641, 11: 0.365377, 12: 0.27535, 13: 0.515323, 14: 0.324803, 15: 0.342823, 16: 0.7560480000000001, 17: 0.920898, 18: 0.215233, 19: 0.771418, 20: 0.216262, 21: 0.937608, 22: 0.96511, 23: 0.117639, 24: 0.649124, 25: 0.775209, 26: 0.166255, 27: 0.549271, 28: 0.156717, 29: 0.06926400000000001, 30: 0.880284, 31: 0.151415, 32: 0.5763160000000001, 33: 0.047442, 34: 0.256977, 35: 0.923477, 36: 0.906353, 37: 0.9684160000000001, 38: 0.859146, 39: 0.329175, 40: 0.144882, 41: 0.588593, 42: 0.255186, 43: 0.899752, 44: 0.185124, 45: 0.298168, 46: 0.600459, 47: 0.484903, 48: 0.522093, 49: 0.15654, 50: 0.06337, 51: 0.276924, 52: 0.648544, 53: 0.8280960000000001, 54: 0.546056, 55: 0.71362, 56: 0.460372, 57: 0.520199, 58: 0.115885, 59: 0.018166, 60: 0.09350899999999999, 61: 0.279347, 62: 0.815598, 63: 0.714985, 64: 0.850953, 65: 0.41319, 66: 0.633568, 67: 0.305052, 68: 0.854754, 69: 0.222415, 70: 0.516389, 71: 0.479115, 72: 0.244515, 73: 0.491506, 74: 0.666629, 75: 0.592183, 76: 0.491887, 77: 0.30434, 78: 0.686652, 79: 0.321017, 80: 0.183545, 81: 0.394277, 82: 0.169376, 83: 0.330678, 84: 0.445888, 85: 0.596007, 86: 0.8713959999999999, 87: 0.40848, 88: 0.143288, 89: 0.866995, 90: 0.825676, 91: 0.629405, 92: 0.795079, 93: 0.105908, 94: 0.673037, 95: 0.393882, 96: 0.817152, 97: 0.919759, 98: 0.820783, 99: 0.361496, 100: 0.230128, 101: 0.45239, 102: 0.347873, 103: 0.5271400000000001, 104: 0.873689, 105: 0.590755, 106: 0.727944, 107: 0.461283, 108: 0.07539700000000001, 109: 0.783795, 110: 0.007232, 111: 0.989997, 112: 0.388736, 113: 0.184028, 114: 0.274179, 115: 0.922024, 116: 0.233631, 117: 0.552705, 118: 0.645162, 119: 0.65741, 120: 0.200407, 121: 0.839593, 122: 0.504099, 123: 0.883291, 124: 0.9719100000000001, 125: 0.339827, 126: 0.791355, 127: 0.640696, 128: 0.560294, 129: 0.5787600000000001, 130: 0.6976869999999999, 131: 0.479401, 132: 0.126182, 133: 0.348258, 134: 0.374652, 135: 0.72349, 136: 0.105462, 137: 0.008538, 138: 0.843228, 139: 0.679763, 140: 0.67469, 141: 0.709542, 142: 0.989536, 143: 0.054327, 144: 0.982155, 145: 0.802732, 146: 0.882443, 147: 0.306392, 148: 0.708432, 149: 0.366132, 150: 0.788959, 151: 0.200596, 152: 0.79264, 153: 0.044578, 154: 0.666983, 155: 0.194952, 156: 0.652934, 157: 0.385024, 158: 0.937546, 159: 0.00579, 160: 0.867139, 161: 0.705834, 162: 0.129809, 163: 0.451175, 164: 0.354514, 165: 0.886088, 166: 0.795238, 167: 0.123888, 168: 0.009802999999999999, 169: 0.240632, 170: 0.380777, 171: 0.709687, 172: 0.6457039999999999, 173: 0.384067, 174: 0.240144, 175: 0.349191, 176: 0.5198739999999999, 177: 0.21742, 178: 0.132656, 179: 0.6969689999999999, 180: 0.5310780000000001, 181: 0.159865, 182: 0.602353, 183: 0.73321, 184: 0.041611, 185: 0.384401, 186: 0.9758559999999999, 187: 0.85542, 188: 0.376408, 189: 0.885695, 190: 0.14543, 191: 0.294378];
soc = [0: 2.910779, 1: 3.133847, 2: 4.81451, 3: 4.854504, 4: 5.321445, 5: 4.534585, 6: 8.471531000000001, 7: 9.020721, 8: 7.913362, 9: 10.547705, 10: 11.840159, 11: 10.59039, 12: 10.261824, 13: 10.994798, 14: 12.955258, 15: 14.289665, 16: 7.08743, 17: 13.938733, 18: 4.140272, 19: 14.717888, 20: 14.17535, 21: 14.562665, 22: 15.318829, 23: 9.627682, 24: 7.991957, 25: 4.364922, 26: 10.413699, 27: 3.625477, 28: 15.578504, 29: 15.028245, 30: 4.781903, 31: 5.448614, 32: 12.231425, 33: 4.398182, 34: 12.888508, 35: 9.554137000000001, 36: 14.535889, 37: 9.209338000000001, 38: 3.897568, 39: 11.583484, 40: 7.177103, 41: 11.536933, 42: 15.541701, 43: 5.130075, 44: 9.398887999999999, 45: 14.927005, 46: 10.382618, 47: 4.961426, 48: 9.089054000000001, 49: 5.497918, 50: 8.948746999999999, 51: 13.06452, 52: 11.971992, 53: 14.230132, 54: 4.087029, 55: 14.797535, 56: 7.667993, 57: 11.515221, 58: 12.770848, 59: 14.28789, 60: 15.203483, 61: 11.231826, 62: 15.278459, 63: 5.227496, 64: 11.7726, 65: 8.971563, 66: 5.332621, 67: 6.978224, 68: 13.938732, 69: 13.167638, 70: 9.488143000000001, 71: 11.364625, 72: 12.976274, 73: 12.431631, 74: 13.289215, 75: 7.707404, 76: 4.892251, 77: 11.324324, 78: 12.254283, 79: 14.978246, 80: 8.186339, 81: 11.137536, 82: 9.043362999999999, 83: 6.896398, 84: 10.625439, 85: 2.739697, 86: 11.640808, 87: 5.887495, 88: 9.798886, 89: 12.373872, 90: 8.980579000000001, 91: 5.519642, 92: 4.778627, 93: 4.647452, 94: 7.987321, 95: 7.982535, 96: 10.808841, 97: 9.522776, 98: 12.147317, 99: 5.837949, 100: 14.088372, 101: 11.95981, 102: 12.96148, 103: 4.904464, 104: 4.495112, 105: 3.277959, 106: 4.501742, 107: 12.041847, 108: 4.928044, 109: 5.550391, 110: 4.06625, 111: 5.891875, 112: 8.388037000000001, 113: 6.156634, 114: 10.612186, 115: 10.671329, 116: 12.888709, 117: 8.643509999999999, 118: 11.977754, 119: 5.535248, 120: 6.820187, 121: 6.553914, 122: 11.889059, 123: 15.505586, 124: 2.866362, 125: 9.151292, 126: 12.059855, 127: 14.987867, 128: 14.438715, 129: 8.671760000000001, 130: 5.862492, 131: 3.83275, 132: 7.754402, 133: 9.146196, 134: 15.359854, 135: 3.089318, 136: 8.915794, 137: 6.199308, 138: 12.686381, 139: 5.520861, 140: 11.03692, 141: 3.909241, 142: 8.72756, 143: 13.183817, 144: 9.264564999999999, 145: 15.614609, 146: 11.501124, 147: 7.788432, 148: 15.667427, 149: 8.005972, 150: 8.703616999999999, 151: 6.150006, 152: 7.877323, 153: 14.466927, 154: 13.04511, 155: 12.4789, 156: 8.569241, 157: 12.180297, 158: 4.188236, 159: 8.7218, 160: 15.38462, 161: 3.440153, 162: 9.295067, 163: 5.422113, 164: 9.981680000000001, 165: 6.811724, 166: 9.47941, 167: 13.234575, 168: 10.371593, 169: 11.621742, 170: 14.56841, 171: 11.150785, 172: 6.96288, 173: 8.393205, 174: 7.472152, 175: 15.024134, 176: 9.708098, 177: 5.456553, 178: 9.815537000000001, 179: 12.810906, 180: 10.658519, 181: 14.587781, 182: 8.985567, 183: 3.925326, 184: 4.313672, 185: 7.696672, 186: 13.977809, 187: 9.703973, 188: 14.744826, 189: 12.699636, 190: 11.236413, 191: 12.000817];
cost = [0: 353.974226, 1: 48.50986, 2: 92.803155, 3: 308.250178, 4: 384.088538, 5: 104.645768, 6: 198.875646, 7: 397.661737, 8: 213.573912, 9: 132.907495, 10: 590.752511, 11: 407.226164, 12: 466.614589, 13: 128.759267, 14: 277.969903, 15: 100.927017, 16: 119.57755, 17: 499.505911, 18: 203.613465, 19: 253.514538, 20: 523.270024, 21: 139.949868, 22: 475.02374, 23: 272.88749, 24: 1050.507044, 25: 233.20855, 26: 854.001254, 27: 176.472713, 28: 1080.223042, 29: 501.995759, 30: 1059.420134, 31: 748.377927, 32: 627.176834, 33: 201.688397, 34: 929.0864, 35: 256.139993, 36: 477.689785, 37: 1041.367253, 38: 1156.452814, 39: 29.847412, 40: 917.109141, 41: 1019.481765, 42: 990.438541, 43: 407.640412, 44: 671.053217, 45: 771.311238, 46: 323.551176, 47: 835.338987, 48: 1129.196118, 49: 1123.623528, 50: 106.654169, 51: 833.7811369999999, 52: 8.638527, 53: 592.57011, 54: 155.981991, 55: 310.733455, 56: 231.78277, 57: 68.87015599999999, 58: 543.76967, 59: 505.546305, 60: 362.894684, 61: 888.566133, 62: 284.010266, 63: 1121.229785, 64: 814.007076, 65: 1048.389724, 66: 988.791476, 67: 160.570608, 68: 725.00146, 69: 458.973411, 70: 1064.574907, 71: 714.1343460000001, 72: 931.313416, 73: 829.014905, 74: 402.902094, 75: 1138.766376, 76: 312.187073, 77: 331.368165, 78: 62.77315, 79: 989.799136, 80: 250.441436, 81: 1004.370102, 82: 1107.322098, 83: 784.372024, 84: 40.978253, 85: 691.2679869999999, 86: 485.754508, 87: 883.270987, 88: 395.501504, 89: 485.672742, 90: 404.046369, 91: 127.931308, 92: 124.932112, 93: 173.531785, 94: 586.184837, 95: 501.619348, 96: 245.745385, 97: 377.260306, 98: 505.901224, 99: 301.999422, 100: 564.562773, 101: 499.343409, 102: 378.679644, 103: 342.241136, 104: 8.058213, 105: 268.42276, 106: 96.1009, 107: 593.466677, 108: 546.819579, 109: 490.649797, 110: 225.619564, 111: 76.860023, 112: 112.182523, 113: 543.66107, 114: 230.114199, 115: 298.867622, 116: 252.112377, 117: 600.752305, 118: 8.495251, 119: 457.866692, 120: 534.186384, 121: 586.0506779999999, 122: 844.449607, 123: 917.5032220000001, 124: 1031.60224, 125: 164.872704, 126: 907.920692, 127: 1047.266561, 128: 799.429787, 129: 356.254816, 130: 303.011964, 131: 1065.159481, 132: 844.157157, 133: 220.310093, 134: 951.397463, 135: 166.162357, 136: 1094.295468, 137: 452.166774, 138: 330.995522, 139: 435.564643, 140: 23.075653, 141: 1081.312246, 142: 630.048297, 143: 150.403487, 144: 248.19424, 145: 1069.505561, 146: 42.033953, 147: 457.937878, 148: 399.447115, 149: 543.423306, 150: 567.119285, 151: 344.684385, 152: 394.072253, 153: 333.037698, 154: 404.151273, 155: 555.568445, 156: 494.95035, 157: 1012.683041, 158: 589.217719, 159: 421.71253, 160: 115.111395, 161: 1051.473065, 162: 155.317719, 163: 314.864546, 164: 497.919727, 165: 79.27306, 166: 267.660715, 167: 898.987599, 168: 484.727083, 169: 113.241845, 170: 1138.812098, 171: 540.084988, 172: 854.586574, 173: 310.731799, 174: 772.697444, 175: 840.0242490000001, 176: 256.719948, 177: 594.122749, 178: 625.372774, 179: 133.190104, 180: 1055.659839, 181: 99.336843, 182: 107.463632, 183: 743.37488, 184: 1.153818, 185: 340.535331, 186: 315.711548, 187: 404.438611, 188: 38.548598, 189: 113.359412, 190: 185.386716, 191: 186.343784];
earn = [0: 2.246442, 1: 3.050819, 2: 1.642004, 3: 2.857254, 4: 2.752266, 5: 1.917375, 6: 1.398783, 7: 0.134082, 8: 1.338713, 9: 2.343196, 10: 2.645501, 11: 2.302706, 12: 1.357747, 13: 2.367947, 14: 1.155095, 15: 1.253012, 16: 1.780569, 17: 1.792627, 18: 1.669312, 19: 2.477829, 20: 0.059447, 21: 0.50079, 22: 1.961744, 23: 0.5086580000000001, 24: 0.263043, 25: 1.317004, 26: 1.258099, 27: 0.649352, 28: 0.703561, 29: 2.05944, 30: 0.043068, 31: 1.813176, 32: 0.247216, 33: 1.00576, 34: 0.244039, 35: 0.485111, 36: 0.8885960000000001, 37: 0.933476, 38: 0.415903, 39: 0.197566, 40: 0.372592, 41: 0.119069, 42: 0.141175, 43: 0.189176, 44: 0.052649, 45: 0.013817, 46: 0.005201, 47: 0.004993, 48: -0.031664, 49: -0.056048, 50: -0.033018, 51: 7.6e-05, 52: -0.006972, 53: -0.019518, 54: 0.014301, 55: 0.024966, 56: 0.32595, 57: 0.09218, 58: 0.831139, 59: 0.740434, 60: 1.352721, 61: 1.069593, 62: 1.06345, 63: 1.971563, 64: 0.717019, 65: 0.205652, 66: 2.117881, 67: 2.273478, 68: 1.42589, 69: 1.403144, 70: 1.532226, 71: 2.479832, 72: 2.704021, 73: 3.40708, 74: 1.540924, 75: 0.016977, 76: 2.627126, 77: 0.434576, 78: 0.820056, 79: 0.067527, 80: 3.093128, 81: 0.117155, 82: 1.534726, 83: 1.615622, 84: 1.681952, 85: 0.348927, 86: 0.459333, 87: 2.366775, 88: 2.143752, 89: 1.829808, 90: 0.6737919999999999, 91: 1.024124, 92: 0.621468, 93: 0.452413, 94: 2.156182, 95: 1.733723, 96: 1.440665, 97: 0.781802, 98: 1.56807, 99: 1.135129, 100: 0.412277, 101: 0.106418, 102: 1.969774, 103: 2.002168, 104: 0.012072, 105: 0.8930979999999999, 106: 1.652456, 107: 1.331598, 108: 1.157224, 109: 1.367367, 110: 0.311848, 111: 0.9512429999999999, 112: 0.226832, 113: 0.5029400000000001, 114: 0.884455, 115: 1.912812, 116: 1.893821, 117: 1.554865, 118: 1.041919, 119: 1.526832, 120: 2.17981, 121: 0.1955, 122: 1.886755, 123: 1.552696, 124: 0.161077, 125: 0.172049, 126: 1.697069, 127: 0.188172, 128: 0.396003, 129: 0.748905, 130: 0.416682, 131: 0.08394699999999999, 132: 0.040754, 133: 0.01677, 134: -0.00239, 135: -0.006157, 136: -0.0136, 137: -0.006103, 138: -0.037326, 139: -0.04188, 140: -0.197574, 141: -0.06623800000000001, 142: -0.23278, 143: -0.280188, 144: -0.097803, 145: -0.146011, 146: -0.140134, 147: -0.141151, 148: -0.06753199999999999, 149: -0.067089, 150: -0.001205, 151: -0.030429, 152: -0.000522, 153: -0.031065, 154: -0.006187, 155: -0.000204, 156: 0.168465, 157: 0.432563, 158: 0.382004, 159: 0.734119, 160: 0.38034, 161: 0.902069, 162: 1.970666, 163: 0.994471, 164: 1.298075, 165: 0.899578, 166: 0.207112, 167: 2.372339, 168: 0.210603, 169: 0.94962, 170: 2.94342, 171: 0.662836, 172: 0.6618039999999999, 173: 1.223503, 174: 0.427929, 175: 2.353208, 176: 1.486405, 177: 2.382472, 178: 2.958877, 179: 2.291218, 180: 2.998513, 181: 0.831792, 182: 0.388668, 183: 0.9673890000000001, 184: 1.424176, 185: 2.387593, 186: 2.114014, 187: 0.916168, 188: 2.449102, 189: 2.070871, 190: 0.9808829999999999, 191: 1.660968];
total_cost = 98.37270477013132;
total_earn = 27.09240770265276;
