production = [0: 0.0, 1: 0.0, 2: 0.0, 3: 0.0, 4: 0.0, 5: 0.0, 6: 0.0, 7: 0.0, 8: 0.0, 9: 0.0, 10: 0.0, 11: 0.0, 12: 0.0, 13: 0.0, 14: 0.0, 15: 0.0, 16: 0.0, 17: 0.0, 18: 0.0, 19: 0.0, 20: 0.0, 21: 0.0, 22: 0.0, 23: 0.000298, 24: 0.000133, 25: 0.007897, 26: 0.00633, 27: 0.041818, 28: 0.085732, 29: 0.14653, 30: 0.011968, 31: 0.033172, 32: 0.206951, 33: 0.065946, 34: 0.036905, 35: 0.532226, 36: 0.275604, 37: 0.346191, 38: 0.817609, 39: 1.122279, 40: 0.628752, 41: 1.120213, 42: 0.8917040000000001, 43: 0.465748, 44: 0.726696, 45: 1.720362, 46: 1.883606, 47: 0.092557, 48: 1.942343, 49: 1.009259, 50: 0.341152, 51: 1.515567, 52: 0.381837, 53: 0.347876, 54: 0.890884, 55: 0.956253, 56: 0.415793, 57: 0.232026, 58: 0.150053, 59: 0.069767, 60: 0.204551, 61: 0.224695, 62: 0.20512, 63: 0.200026, 64: 0.059391, 65: 0.094191, 66: 0.262594, 67: 0.019684, 68: 0.099895, 69: 0.000699, 70: 0.048717, 71: 0.004231, 72: 0.009842, 73: 3.1e-05, 74: 0.0, 75: 0.0, 76: 0.0, 77: 0.0, 78: 0.0, 79: 0.0, 80: 0.0, 81: 0.0, 82: 0.0, 83: 0.0, 84: 0.0, 85: 0.0, 86: 0.0, 87: 0.0, 88: 0.0, 89: 0.0, 90: 0.0, 91: 0.0, 92: 0.0, 93: 0.0, 94: 0.0, 95: 0.0, 96: 0.0, 97: 0.0, 98: 0.0, 99: 0.0, 100: 0.0, 101: 0.0, 102: 0.0, 103: 0.0, 104: 0.0, 105: 0.0, 106: 0.0, 107: 0.0, 108: 0.0, 109: 0.0, 110: 0.0, 111: 0.0, 112: 0.0, 113: 0.0, 114: 0.0, 115: 0.0, 116: 0.0, 117: 0.000284, 118: 5.8e-05, 119: 0.000722, 120: 0.007137, 121: 0.007645, 122: 0.024088, 123: 0.003155, 124: 0.016678, 125: 0.050422, 126: 0.07605000000000001, 127: 0.374053, 128: 0.598672, 129: 0.113137, 130: 0.81574, 131: 0.183941, 132: 0.878392, 133: 1.152837, 134: 0.544306, 135: 0.9901720000000001, 136: 0.359785, 137: 0.46268, 138: 0.07278900000000001, 139: 1.049766, 140: 0.900692, 141: 0.902676, 142: 0.76751, 143: 0.031054, 144: 0.03251, 145: 0.039664, 146: 0.018385, 147: 0.011723, 148: 0.051932, 149: 0.4638, 150: 0.409279, 151: 0.370539, 152: 0.163172, 153: 0.307748, 154: 0.261244, 155: 0.034766, 156: 0.289329, 157: 0.078384, 158: 0.136079, 159: 0.373183, 160: 0.290653, 161: 0.110727, 162: 0.197089, 163: 0.115302, 164: 0.113489, 165: 0.032156, 166: 0.01271, 167: 0.00136, 168: 0.006557, 169: 3.8e-05, 170: 0.000249, 171: 0.0, 172: 0.0, 173: 0.0, 174: 0.0, 175: 0.0, 176: 0.0, 177: 0.0, 178: 0.0, 179: 0.0, 180: 0.0, 181: 0.0, 182: 0.0, 183: 0.0, 184: 0.0, 185: 0.0, 186: 0.0, 187: 0.0, 188: 0.0, 189: 0.0, 190: 0.0, 191: 0.0];
buy = [0: 19.224879, 1: 702.171414, 2: 349.635946, 3: 3.152177, 4: 37.914286, 5: 122.796472, 6: 749.513131, 7: 193.23395, 8: 239.49726, 9: 572.992629, 10: 575.154219, 11: 224.298543, 12: 716.7439910000001, 13: 392.718042, 14: 484.869925, 15: 833.471534, 16: 638.296015, 17: 729.304026, 18: 677.7910910000001, 19: 560.251189, 20: 523.203077, 21: 35.292833, 22: 576.524454, 23: 701.81525, 24: 607.414637, 25: 552.470085, 26: 94.76455900000001, 27: 195.370136, 28: 788.174933, 29: 153.882554, 30: 937.094191, 31: 71.006609, 32: 197.413882, 33: 937.376517, 34: 737.035841, 35: 153.343354, 36: 28.797982, 37: 121.127956, 38: 438.037807, 39: 851.075754, 40: 445.797693, 41: 63.31099, 42: 516.052281, 43: 964.285807, 44: 169.658478, 45: 121.021524, 46: 724.275422, 47: 963.268626, 48: 912.706087, 49: 620.205026, 50: 708.86822, 51: 297.914655, 52: 922.83016, 53: 56.507436, 54: 30.597028, 55: 564.570395, 56: 221.008369, 57: 420.262026, 58: 535.418461, 59: 359.585424, 60: 204.23614, 61: 413.120341, 62: 371.531642, 63: 572.925924, 64: 994.799983, 65: 887.3220209999999, 66: 255.355699, 67: 148.41662, 68: 450.247417, 69: 452.9932, 70: 105.92657, 71: 968.192103, 72: 647.979, 73: 82.270397, 74: 105.160884, 75: 322.493434, 76: 142.308044, 77: 975.925611, 78: 606.824675, 79: 289.769462, 80: 695.648012, 81: 182.400092, 82: 755.586622, 83: 55.930424, 84: 914.452781, 85: 474.389943, 86: 907.7823090000001, 87: 610.835753, 88: 301.485919, 89: 166.148983, 90: 435.936126, 91: 182.528701, 92: 907.309923, 93: 280.138789, 94: 308.967542, 95: 590.151263, 96: 481.754998, 97: 463.261374, 98: 705.242015, 99: 150.812125, 100: 994.2604689999999, 101: 477.667255, 102: 830.888887, 103: 988.301001, 104: 393.395185, 105: 804.54053, 106: 177.714429, 107: 612.791774, 108: 642.236058, 109: 104.20675, 110: 663.818504, 111: 794.562268, 112: 110.22915, 113: 992.84748, 114: 542.667839, 115: 566.16866, 116: 916.642723, 117: 731.324165, 118: 772.853925, 119: 751.169951, 120: 121.582653, 121: 254.836952, 122: 412.396376, 123: 405.954416, 124: 893.445645, 125: 496.325893, 126: 160.108408, 127: 376.9832, 128: 891.97984, 129: 109.993008, 130: 314.275179, 131: 494.520393, 132: 512.234519, 133: 245.20559, 134: 848.093154, 135: 708.509192, 136: 32.662178, 137: 378.79968, 138: 168.453267, 139: 422.409009, 140: 759.870074, 141: 427.643912, 142: 153.509682, 143: 862.65466, 144: 289.343112, 145: 364.893529, 146: 326.348505, 147: 587.757448, 148: 508.274394, 149: 403.059963, 150: 217.791121, 151: 271.887448, 152: 833.569317, 153: 865.196718, 154: 654.447708, 155: 92.857809, 156: 457.511052, 157: 560.371832, 158: 179.269745, 159: 553.411024, 160: 623.4658930000001, 161: 840.610698, 162: 897.528221, 163: 865.397646, 164: 931.672242, 165: 922.125237, 166: 771.311145, 167: 553.420604, 168: 714.80677, 169: 530.813925, 170: 158.289466, 171: 297.294988, 172: 44.687328, 173: 203.998045, 174: 317.526596, 175: 53.956935, 176: 313.30218, 177: 329.704871, 178: 960.119458, 179: 36.153548, 180: 149.679704, 181: 690.581636, 182: 678.447799, 183: 684.150408, 184: 237.013901, 185: 335.511607, 186: 748.253387, 187: 931.711634, 188: 454.545302, 189: 782.44157, 190: 477.257762, 191: 922.268508];
sell = [0: 3.638954, 1: 2.913778, 2: 3.266669, 3: 1.206293, 4: 0.116076, 5: 1.102745, 6: 3.501456, 7: 2.751275, 8: 2.39779, 9: 3.516297, 10: 1.06952, 11: 3.655726, 12: 2.983555, 13: 0.8352309999999999, 14: 1.356157, 15: 1.743768, 16: 1.091887, 17: 2.743985, 18: 2.326085, 19: 0.655824, 20: 2.125535, 21: 0.677644, 22: 3.824774, 23: 3.434642, 24: 2.136924, 25: 0.11915, 26: 1.7452, 27: 1.115787, 28: 1.311661, 29: 3.348652, 30: 3.168793, 31: 2.306303, 32: 0.223197, 33: 1.102067, 34: 0.853193, 35: 2.111934, 36: 1.711824, 37: 2.610094, 38: 0.517222, 39: 0.07610500000000001, 40: 0.03842, 41: 3.008862, 42: 2.257399, 43: 3.635185, 44: 3.880152, 45: 3.342386, 46: 0.819383, 47: 0.165366, 48: 0.098314, 49: 0.754893, 50: 3.274707, 51: 0.7475039999999999, 52: 3.089305, 53: 0.06272800000000001, 54: 1.492058, 55: 0.919041, 56: 2.615164, 57: 2.280873, 58: 2.536742, 59: 0.571418, 60: 0.715907, 61: 0.681594, 62: 0.248249, 63: 3.001796, 64: 0.6525609999999999, 65: 2.300018, 66: 0.986019, 67: 0.682846, 68: 0.8339, 69: 3.823885, 70: 1.569011, 71: 1.076973, 72: 0.508645, 73: 1.238759, 74: 2.929063, 75: 3.10566, 76: 1.504184, 77: 1.135658, 78: 0.366349, 79: 0.691338, 80: 0.455471, 81: 3.879387, 82: 1.824467, 83: 3.588261, 84: 2.961368, 85: 2.279107, 86: 2.188448, 87: 1.222187, 88: 0.125344, 89: 2.253762, 90: 1.553839, 91: 0.914405, 92: 1.905116, 93: 2.123699, 94: 0.03, 95: 3.915678, 96: 1.324486, 97: 3.289628, 98: 3.230974, 99: 0.824229, 100: 3.090292, 101: 0.230975, 102: 0.756861, 103: 3.095429, 104: 0.730125, 105: 3.920947, 106: 1.477646, 107: 1.661472, 108: 1.922608, 109: 2.993495, 110: 0.586096, 111: 0.140383, 112: 3.343773, 113: 1.22012, 114: 3.98352, 115: 3.002628, 116: 1.094598, 117: 2.288435, 118: 2.633825, 119: 2.062195, 120: 2.838102, 121: 1.784904, 122: 3.616712, 123: 0.508058, 124: 1.377692, 125: 2.754862, 126: 0.487978, 127: 2.097165, 128: 2.096707, 129: 3.189006, 130: 1.260783, 131: 1.759778, 132: 1.103831, 133: 1.91227, 134: 2.85883, 135: 3.067717, 136: 0.846648, 137: 1.178146, 138: 3.863769, 139: 1.062323, 140: 0.624781, 141: 0.115552, 142: 1.241135, 143: 1.655285, 144: 3.407355, 145: 1.350114, 146: 2.097421, 147: 3.832751, 148: 1.129427, 149: 2.881428, 150: 1.610091, 151: 0.865378, 152: 0.971441, 153: 2.917801, 154: 0.921466, 155: 2.834074, 156: 3.311213, 157: 2.448579, 158: 3.445044, 159: 0.153305, 160: 2.13135, 161: 1.048028, 162: 3.663163, 163: 0.958966, 164: 0.554833, 165: 3.310436, 166: 1.669039, 167: 2.491455, 168: 1.036509, 169: 3.605253, 170: 0.485274, 171: 0.377117, 172: 2.445646, 173: 3.094361, 174: 2.530769, 175: 3.841771, 176: 3.217559, 177: 0.002518, 178: 1.435685, 179: 0.8244, 180: 1.362972, 181: 3.083905, 182: 1.972818, 183: 1.206907, 184: 3.558582, 185: 3.981248, 186: 0.204813, 187: 1.940849, 188: 0.266857, 189: 0.571, 190: 1.130792, 191: 3.395428];
charge = [0: 0.334774, 1: 0.128981, 2: 0.657365, 3: 0.718216, 4: 0.301386, 5: 0.112396, 6: 0.700506, 7: 0.571361, 8: 0.009717999999999999, 9: 0.933754, 10: 0.997413, 11: 0.565622, 12: 0.46829, 13: 0.949936, 14: 0.670746, 15: 0.193448, 16: 0.341899, 17: 0.344965, 18: 0.538377, 19: 0.476475, 20: 0.60267, 21: 0.841638, 22: 0.949203, 23: 0.687636, 24: 0.200654, 25: 0.95238, 26: 0.786187, 27: 0.541835, 28: 0.07906100000000001, 29: 0.034559, 30: 0.615217, 31: 0.875023, 32: 0.617627, 33: 0.125128, 34: 0.853786, 35: 0.779129, 36: 0.223264, 37: 0.677739, 38: 0.075214, 39: 0.252965, 40: 0.07643999999999999, 41: 0.052594, 42: 0.843038, 43: 0.652309, 44: 0.138688, 45: 0.9838980000000001, 46: 0.64317, 47: 0.298527, 48: 0.267739, 49: 0.108347, 50: 0.747523, 51: 0.810974, 52: 0.942736, 53: 0.19944, 54: 0.414709, 55: 0.551608, 56: 0.776156, 57: 0.215057, 58: 0.502024, 59: 0.681787, 60: 0.273752, 61: 0.116103, 62: 0.740743, 63: 0.208209, 64: 0.264462, 65: 0.651253, 66: 0.388908, 67: 0.9075490000000001, 68: 0.913358, 69: 0.129288, 70: 0.639617, 71: 0.960171, 72: 0.949315, 73: 0.135418, 74: 0.722872, 75: 0.184667, 76: 0.546087, 77: 0.450208, 78: 0.74648, 79: 0.234167, 80: 0.573047, 81: 0.135936, 82: 0.290207, 83: 0.08526400000000001, 84: 0.95101, 85: 0.79575, 86: 0.435419, 87: 0.425944, 88: 0.626221, 89: 0.656821, 90: 0.704786, 91: 0.948116, 92: 0.636494, 93: 0.045766, 94: 0.714663, 95: 0.74977, 96: 0.493506, 97: 0.34411, 98: 0.1419, 99: 0.140849, 100: 0.473495, 101: 0.458585, 102: 0.114138, 103: 0.973018, 104: 0.280427, 105: 0.754748, 106: 0.468179, 107: 0.7005439999999999, 108: 0.06325500000000001, 109: 0.495084, 110: 0.437742, 111: 0.354708, 112: 0.48893, 113: 0.311667, 114: 0.060219, 115: 0.972943, 116: 0.034098, 117: 0.667586, 118: 0.512969, 119: 0.126093, 120: 0.5775670000000001, 121: 0.653972, 122: 0.146178, 123: 0.370656, 124: 0.950167, 125: 0.354877, 126: 0.190287, 127: 0.499474, 128: 0.125231, 129: 0.174322, 130: 0.568208, 131: 0.865382, 132: 0.8333390000000001, 133: 0.939181, 134: 0.541504, 135: 0.135691, 136: 0.769663, 137: 0.47371, 138: 0.516, 139: 0.149458, 140: 0.725411, 141: 0.872792, 142: 0.409985, 143: 0.319037, 144: 0.329249, 145: 0.605262, 146: 0.972095, 147: 0.58435, 148: 0.562124, 149: 0.758082, 150: 0.049221, 151: 0.040694, 152: 0.445468, 153: 0.384837, 154: 0.9359420000000001, 155: 0.649549, 156: 0.239087, 157: 0.096164, 158: 0.661512, 159: 0.144831, 160: 0.5605, 161: 0.617708, 162: 0.9721610000000001, 163: 0.238158, 164: 0.746124, 165: 0.383694, 166: 0.811025, 167: 0.263708, 168: 0.658224, 169: 0.688966, 170: 0.095417, 171: 0.30465, 172: 0.366703, 173: 0.237464, 174: 0.384451, 175: 0.8323, 176: 0.6289169999999999, 177: 0.9021479999999999, 178: 0.313465, 179: 0.006067, 180: 0.104329, 181: 0.9110279999999999, 182: 0.669366, 183: 0.436831, 184: 0.010934, 185: 0.156261, 186: 0.806504, 187: 0.241069, 188: 0.230788, 189: 0.185485, 190: 0.317894, 191: 0.720549];
discharge = [0: 0.286803, 1: 0.464418, 2: 0.005983, 3: 0.382645, 4: 0.981925, 5: 0.002319, 6: 0.365383, 7: 0.058635, 8: 0.148125, 9: 0.755939, 10: 0.393298, 11: 0.416496, 12: 0.099916, 13: 0.553296, 14: 0.762552, 15: 0.7941319999999999, 16: 0.742202, 17: 0.397769, 18: 0.179441, 19: 0.865495, 20: 0.398385, 21: 0.348299, 22: 0.304501, 23: 0.111133, 24: 0.082286, 25: 0.045405, 26: 0.47864, 27: 0.932009, 28: 0.472029, 29: 0.53444, 30: 0.6692129999999999, 31: 0.5042410000000001, 32: 0.615693, 33: 0.359673, 34: 0.9171240000000001, 35: 0.05202, 36: 0.263231, 37: 0.858341, 38: 0.7984290000000001, 39: 0.507769, 40: 0.364735, 41: 0.08209900000000001, 42: 0.850322, 43: 0.526909, 44: 0.833209, 45: 0.803782, 46: 0.811873, 47: 0.929925, 48: 0.305977, 49: 0.681167, 50: 0.918381, 51: 0.656733, 52: 0.993541, 53: 0.233134, 54: 0.701134, 55: 0.44242, 56: 0.713404, 57: 0.136934, 58: 0.918642, 59: 0.133424, 60: 0.556144, 61: 0.56713, 62: 0.537643, 63: 0.246182, 64: 0.779627, 65: 0.768937, 66: 0.534187, 67: 0.993058, 68: 0.660745, 69: 0.965459, 70: 0.127657, 71: 0.424999, 72: 0.390959, 73: 0.500819, 74: 0.428527, 75: 0.33511, 76: 0.382401, 77: 0.481753, 78: 0.9162940000000001, 79: 0.907903, 80: 0.858191, 81: 0.641424, 82: 0.464019, 83: 0.901125, 84: 0.319623, 85: 0.777699, 86: 0.778658, 87: 0.01318, 88: 0.455844, 89: 0.08490300000000001, 90: 0.682151, 91: 0.954719, 92: 0.695259, 93: 0.8732529999999999, 94: 0.876426, 95: 0.492781, 96: 0.283931, 97: 0.703225, 98: 0.884269, 99: 0.95668, 100: 0.353952, 101: 0.683788, 102: 0.370107, 103: 0.151891, 104: 0.023038, 105: 0.926315, 106: 0.517908, 107: 0.07306600000000001, 108: 0.950524, 109: 0.864692, 110: 0.880993, 111: 0.6909960000000001, 112: 0.297294, 113: 0.8927349999999999, 114: 0.677278, 115: 0.516177, 116: 0.518872, 117: 0.9058389999999999, 118: 0.6158439999999999, 119: 0.700392, 120: 0.007191, 121: 0.193363, 122: 0.09265, 123: 0.719349, 124: 0.597843, 125: 0.80118, 126: 0.419908, 127: 0.471181, 128: 0.608671, 129: 0.780106, 130: 0.057538, 131: 0.28015, 132: 0.588076, 133: 0.043245, 134: 0.9225680000000001, 135: 0.205177, 136: 0.285227, 137: 0.011099, 138: 0.895371, 139: 0.976925, 140: 0.187895, 141: 0.110993, 142: 0.782338, 143: 0.5461, 144: 0.67064, 145: 0.828514, 146: 0.637665, 147: 0.7206, 148: 0.260883, 149: 0.293763, 150: 0.852593, 151: 0.871471, 152: 0.905325, 153: 0.223839, 154: 0.76556, 155: 0.584528, 156: 0.288373, 157: 0.267738, 158: 0.845145, 159: 0.797824, 160: 0.526094, 161: 0.900869, 162: 0.868088, 163: 0.44451, 164: 0.439131, 165: 0.927746, 166: 0.954622, 167: 0.926714, 168: 0.766688, 169: 0.933898, 170: 0.613233, 171: 0.825689, 172: 0.994339, 173: 0.535963, 174: 0.608275, 175: 0.566196, 176: 0.196287, 177: 0.53326, 178: 0.735354, 179: 0.805218, 180: 0.300451, 181: 0.07523299999999999, 182: 0.400191, 183: 0.448103, 184: 0.220328, 185: 0.00341, 186: 0.199181, 187: 0.907535, 188: 0.647371, 189: 0.126438, 190: 0.089203, 191: 0.99817];
soc = [0: 3.156509, 1: 3.413924, 2: 3.426978, 3: 3.402466, 4: 3.131165, 5: 5.102805, 6: 4.584665, 7: 7.595528, 8: 7.043042, 9: 9.148453, 10: 4.811906, 11: 12.200709, 12: 14.120661, 13: 4.969676, 14: 2.895359, 15: 12.295241, 16: 13.373794, 17: 9.04834, 18: 6.589722, 19: 5.251733, 20: 8.958527, 21: 6.706312, 22: 13.079906, 23: 9.958624, 24: 15.005262, 25: 15.407539, 26: 4.521753, 27: 2.749547, 28: 12.856692, 29: 2.75754, 30: 12.698287, 31: 11.405537, 32: 12.445346, 33: 4.564152, 34: 6.763123, 35: 10.258068, 36: 6.523716, 37: 8.201413000000001, 38: 2.77218, 39: 7.124285, 40: 14.772121, 41: 12.054276, 42: 14.565749, 43: 13.268908, 44: 12.873195, 45: 7.762166, 46: 6.728496, 47: 4.450161, 48: 14.502997, 49: 2.801809, 50: 10.889346, 51: 12.934112, 52: 13.733907, 53: 10.706105, 54: 9.569089999999999, 55: 10.870092, 56: 9.229589000000001, 57: 13.022301, 58: 6.312436, 59: 5.761625, 60: 11.504127, 61: 8.502644, 62: 7.239116, 63: 10.598977, 64: 8.671158, 65: 11.058791, 66: 10.81486, 67: 12.5533, 68: 10.263729, 69: 13.436496, 70: 14.699618, 71: 4.180863, 72: 2.870458, 73: 5.015739, 74: 4.89089, 75: 11.73553, 76: 7.905616, 77: 6.744042, 78: 10.992706, 79: 15.217092, 80: 11.935066, 81: 4.007453, 82: 5.111182, 83: 4.953788, 84: 6.904416, 85: 6.631925, 86: 5.479032, 87: 13.63582, 88: 11.805567, 89: 5.293248, 90: 11.288501, 91: 6.169219, 92: 13.05539, 93: 7.204311, 94: 7.317407, 95: 2.769113, 96: 7.93488, 97: 7.399342, 98: 5.17045, 99: 11.563064, 100: 14.131197, 101: 5.129813, 102: 11.897282, 103: 13.669912, 104: 8.018245, 105: 13.195987, 106: 8.685872, 107: 4.852327, 108: 13.311805, 109: 13.086021, 110: 13.491615, 111: 8.929164, 112: 11.183869, 113: 12.477142, 114: 12.083586, 115: 12.950682, 116: 3.961564, 117: 3.807802, 118: 8.958909, 119: 5.944355, 120: 9.115034, 121: 9.427080999999999, 122: 11.066845, 123: 11.236826, 124: 12.365946, 125: 9.672037, 126: 14.488013, 127: 8.242789999999999, 128: 5.666099, 129: 12.587037, 130: 10.140744, 131: 7.187658, 132: 3.852826, 133: 9.007777000000001, 134: 12.759025, 135: 13.164628, 136: 3.050058, 137: 5.898064, 138: 5.404144, 139: 12.04182, 140: 8.525729999999999, 141: 3.813075, 142: 11.862025, 143: 8.006651, 144: 14.054489, 145: 4.881733, 146: 5.920261, 147: 10.180932, 148: 10.11488, 149: 3.143027, 150: 14.325606, 151: 8.585194, 152: 3.567339, 153: 13.326815, 154: 14.676199, 155: 8.495944, 156: 12.972307, 157: 14.352749, 158: 10.493913, 159: 13.23452, 160: 5.059919, 161: 10.347192, 162: 12.124612, 163: 6.90879, 164: 8.055581999999999, 165: 3.473905, 166: 11.961302, 167: 6.845228, 168: 11.484385, 169: 4.575802, 170: 7.876372, 171: 8.184353, 172: 8.163313, 173: 4.587534, 174: 9.520977999999999, 175: 7.811853, 176: 4.744371, 177: 12.933864, 178: 4.069991, 179: 6.636694, 180: 14.403258, 181: 12.771364, 182: 6.543993, 183: 6.37552, 184: 11.649783, 185: 15.108951, 186: 11.778947, 187: 12.083125, 188: 11.823699, 189: 4.673751, 190: 6.692395, 191: 15.049947];
cost = [0: 376.976547, 1: 308.079507, 2: 238.950777, 3: 131.730308, 4: 345.22846, 5: 177.124632, 6: 518.7504300000001, 7: 375.715372, 8: 53.3848, 9: 441.813605, 10: 442.625464, 11: 279.406922, 12: 460.230089, 13: 359.979108, 14: 53.153862, 15: 510.91154, 16: 477.537111, 17: 176.481158, 18: 382.133226, 19: 292.929188, 20: 261.211451, 21: 546.969238, 22: 589.944061, 23: 142.596106, 24: 387.926596, 25: 52.661411, 26: 1173.241109, 27: 195.361961, 28: 234.156496, 29: 1146.219114, 30: 28.689714, 31: 518.192781, 32: 523.090968, 33: 388.016426, 34: 192.527591, 35: 908.246139, 36: 457.074074, 37: 495.548071, 38: 948.253108, 39: 1006.962401, 40: 579.715494, 41: 24.00344, 42: 803.70302, 43: 113.264736, 44: 14.840203, 45: 509.733417, 46: 244.773969, 47: 925.596539, 48: 178.595058, 49: 167.923582, 50: 341.221296, 51: 390.343365, 52: 179.978497, 53: 592.564417, 54: 203.279183, 55: 329.311941, 56: 321.278782, 57: 494.832564, 58: 59.845562, 59: 292.626037, 60: 146.16343, 61: 348.685291, 62: 686.884666, 63: 17.313511, 64: 780.462216, 65: 938.429902, 66: 907.322777, 67: 127.772181, 68: 1055.16504, 69: 637.787428, 70: 798.913857, 71: 1136.946916, 72: 704.767328, 73: 929.903475, 74: 685.163677, 75: 656.473013, 76: 163.274198, 77: 306.251508, 78: 878.40136, 79: 1050.068409, 80: 46.586356, 81: 652.0358639999999, 82: 411.195229, 83: 582.9774179999999, 84: 64.154968, 85: 111.142788, 86: 484.775031, 87: 1054.476917, 88: 69.957263, 89: 429.485038, 90: 28.194519, 91: 278.671638, 92: 229.288225, 93: 371.455122, 94: 217.251716, 95: 172.29929, 96: 513.737454, 97: 409.809299, 98: 340.709383, 99: 255.005132, 100: 187.679187, 101: 460.194429, 102: 294.377371, 103: 194.771119, 104: 175.61719, 105: 26.515887, 106: 249.893066, 107: 495.816252, 108: 358.791973, 109: 97.11424700000001, 110: 291.338682, 111: 198.761301, 112: 415.830136, 113: 40.937157, 114: 122.475757, 115: 460.314514, 116: 409.078629, 117: 243.445883, 118: 555.659807, 119: 519.2156660000001, 120: 533.825656, 121: 707.320578, 122: 58.770251, 123: 474.28953, 124: 472.494092, 125: 601.303917, 126: 480.548624, 127: 306.490885, 128: 740.53317, 129: 364.146945, 130: 906.861663, 131: 1128.73709, 132: 575.9892620000001, 133: 120.704621, 134: 530.472776, 135: 478.807409, 136: 206.863373, 137: 298.671565, 138: 929.349301, 139: 92.53433800000001, 140: 1088.090146, 141: 688.260317, 142: 409.328211, 143: 190.006408, 144: 787.014231, 145: 517.839522, 146: 658.457972, 147: 103.001079, 148: 7.770549, 149: 95.474164, 150: 310.905653, 151: 526.261896, 152: 589.126108, 153: 405.092739, 154: 366.60487, 155: 42.407186, 156: 73.87262699999999, 157: 491.843772, 158: 42.080557, 159: 898.318707, 160: 484.44309, 161: 486.568559, 162: 467.880551, 163: 7.30292, 164: 590.812159, 165: 914.816873, 166: 889.876541, 167: 392.12218, 168: 953.761472, 169: 581.645627, 170: 151.627138, 171: 319.133163, 172: 589.534387, 173: 994.912698, 174: 16.881499, 175: 1104.790809, 176: 521.8115759999999, 177: 428.46871, 178: 665.990598, 179: 338.421563, 180: 989.649557, 181: 750.443986, 182: 314.009773, 183: 1161.111827, 184: 602.208179, 185: 23.982496, 186: 0.90606, 187: 58.736809, 188: 141.004317, 189: 145.433069, 190: 76.63598, 191: 434.002904];
earn = [0: 2.475977, 1: 0.584074, 2: 2.279994, 3: 0.30965, 4: 0.716781, 5: 0.873461, 6: 0.8766929999999999, 7: 0.782108, 8: 1.152247, 9: 1.129933, 10: 1.299665, 11: 2.181042, 12: 0.45211, 13: 2.06043, 14: 0.763709, 15: 1.72013, 16: 2.479252, 17: 0.510983, 18: 2.460328, 19: 1.107406, 20: 0.179948, 21: 1.936659, 22: 2.750099, 23: 1.428542, 24: 0.7487780000000001, 25: 2.018163, 26: 2.845595, 27: 1.999327, 28: 1.655159, 29: 2.495586, 30: 1.660452, 31: 1.125768, 32: 1.486856, 33: 0.564621, 34: 0.012381, 35: 1.287897, 36: 0.195399, 37: 0.497033, 38: 0.819671, 39: 0.014098, 40: 0.308089, 41: 0.265758, 42: 0.218204, 43: 0.169059, 44: 0.144365, 45: 0.020763, 46: 0.004768, 47: 1.7e-05, 48: -0.1028, 49: -0.113162, 50: -0.020179, 51: 0.000286, 52: -0.03859, 53: -0.002314, 54: 0.033853, 55: 0.090381, 56: 0.470893, 57: 0.219982, 58: 0.46301, 59: 0.546266, 60: 0.335195, 61: 1.541039, 62: 0.06521299999999999, 63: 1.382472, 64: 2.301651, 65: 2.356991, 66: 0.696406, 67: 1.122255, 68: 2.838385, 69: 0.890983, 70: 0.470668, 71: 1.787674, 72: 2.630447, 73: 2.748805, 74: 1.702532, 75: 3.33338, 76: 0.554553, 77: 3.038053, 78: 1.798379, 79: 1.112167, 80: 1.82906, 81: 2.221427, 82: 1.14499, 83: 0.480431, 84: 1.05521, 85: 1.783262, 86: 1.709758, 87: 2.512936, 88: 1.709826, 89: 1.194648, 90: 0.124188, 91: 0.844573, 92: 1.993248, 93: 0.911509, 94: 0.213031, 95: 1.281391, 96: 0.77646, 97: 0.862914, 98: 1.449939, 99: 0.826864, 100: 1.382065, 101: 0.106906, 102: 0.94567, 103: 1.225435, 104: 0.299191, 105: 0.7349329999999999, 106: 1.904581, 107: 1.246646, 108: 1.407414, 109: 1.451073, 110: 0.553488, 111: 0.575435, 112: 0.33954, 113: 0.764378, 114: 1.526208, 115: 1.454326, 116: 1.92249, 117: 0.742059, 118: 1.515854, 119: 0.679789, 120: 1.194434, 121: 0.517869, 122: 2.104157, 123: 1.008426, 124: 0.006501, 125: 0.7985719999999999, 126: 0.795478, 127: 0.128501, 128: 0.34903, 129: 0.249331, 130: 0.303784, 131: 0.211009, 132: 0.220202, 133: 0.03501, 134: -0.025292, 135: -0.002059, 136: -0.010162, 137: -0.007751, 138: -0.040348, 139: -0.016557, 140: -0.1291, 141: -0.235555, 142: -0.260806, 143: -0.319274, 144: -0.242329, 145: -0.051411, 146: -0.028466, 147: -0.046813, 148: -0.032221, 149: -0.011932, 150: -0.024227, 151: -0.046287, 152: -0.041828, 153: -0.026454, 154: -0.004093, 155: -0.000331, 156: 0.122941, 157: 0.07774200000000001, 158: 0.563262, 159: 0.771114, 160: 1.591046, 161: 0.945944, 162: 2.265269, 163: 1.790269, 164: 0.590838, 165: 0.5900609999999999, 166: 1.612649, 167: 1.44638, 168: 1.268243, 169: 2.171988, 170: 1.454278, 171: 1.085619, 172: 1.183426, 173: 0.405314, 174: 2.708927, 175: 0.445407, 176: 2.446529, 177: 0.887821, 178: 1.621234, 179: 0.861294, 180: 2.210492, 181: 0.336916, 182: 2.440681, 183: 1.801973, 184: 1.8109, 185: 1.421043, 186: 0.339508, 187: 0.118513, 188: 1.974737, 189: 2.428802, 190: 1.910743, 191: 1.953996];
total_cost = 96.80194345744947;
total_earn = 29.48452204175004;
