production = [0: 0.0, 1: 0.0, 2: 0.0, 3: 0.0, 4: 0.0, 5: 0.0, 6: 0.0, 7: 0.0, 8: 0.0, 9: 0.0, 10: 0.0, 11: 0.0, 12: 0.0, 13: 0.0, 14: 0.0, 15: 0.0, 16: 0.0, 17: 0.0, 18: 0.0, 19: 0.0, 20: 0.0, 21: 0.0, 22: 0.0, 23: 0.0, 24: 0.0, 25: 0.0, 26: 0.0, 27: 0.0245, 28: 0.0563, 29: 0.06, 30: 0.0, 31: 0.0, 32: 0.2055, 33: 0.2868, 34: 0.2943, 35: 0.0, 36: 0.0, 37: 0.5417, 38: 0.0, 39: 0.5212, 40: 0.6475, 41: 0.0, 42: 1.0248, 43: 1.2277, 44: 1.185, 45: 1.0025, 46: 1.5045, 47: 0.7145, 48: 0.8625, 49: 0.0, 50: 0.9223, 51: 0.0, 52: 0.5285, 53: 1.1767, 54: 0.7698, 55: 0.6765, 56: 0.0, 57: 0.0, 58: 2.2612, 59: 0.0, 60: 0.5467, 61: 0.0, 62: 0.0, 63: 0.0, 64: 0.0, 65: 0.303, 66: 0.0, 67: 0.3395, 68: 0.0, 69: 0.212, 70: 0.1737, 71: 0.1215, 72: 0.1037, 73: 0.078, 74: 0.0, 75: 0.0123, 76: 0.0, 77: 0.0, 78: 0.0005, 79: 0.0, 80: 0.0, 81: 0.0, 82: 0.0, 83: 0.0, 84: 0.0, 85: 0.0, 86: 0.0, 87: 0.0, 88: 0.0, 89: 0.0, 90: 0.0, 91: 0.0, 92: 0.0, 93: 0.0, 94: 0.0, 95: 0.0, 96: 0.0, 97: 0.0, 98: 0.0, 99: 0.0, 100: 0.0, 101: 0.0, 102: 0.0, 103: 0.0, 104: 0.0, 105: 0.0, 106: 0.0, 107: 0.0, 108: 0.0, 109: 0.0, 110: 0.0, 111: 0.0, 112: 0.0, 113: 0.0, 114: 0.0, 115: 0.0, 116: 0.0, 117: 0.0, 118: 0.0, 119: 0.0, 120: 0.0, 121: 0.0, 122: 0.0, 123: 0.0, 124: 0.023, 125: 0.0, 126: 0.0, 127: 0.0, 128: 0.0, 129: 0.0, 130: 0.0, 131: 0.3957, 132: 0.0, 133: 0.6048, 134: 0.0, 135: 0.0, 136: 0.6655, 137: 0.724, 138: 0.0, 139: 0.0, 140: 1.0043, 141: 1.9385, 142: 0.0, 143: 0.098677083, 144: 0.852, 145: 0.8393, 146: 0.0, 147: 0.7392, 148: 0.0, 149: 0.0, 150: 0.0, 151: 0.4655, 152: 0.3765, 153: 0.0, 154: 0.6162, 155: 0.0, 156: 0.0, 157: 0.5643, 158: 0.8708, 159: 0.826, 160: 0.0, 161: 0.585, 162: 0.0, 163: 1.21, 164: 0.447, 165: 0.5135, 166: 0.2338, 167: 0.0, 168: 0.1562, 169: 0.1608, 170: 0.118, 171: 0.0592, 172: 0.0, 173: 0.0, 174: 0.0, 175: 0.0, 176: 0.0003, 177: 0.0, 178: 0.0, 179: 0.0, 180: 0.0, 181: 0.0, 182: 0.0, 183: 0.0, 184: 0.0, 185: 0.0, 186: 0.0, 187: 0.0, 188: 0.0, 189: 0.0, 190: 0.0, 191: 0.0];
buy = [0: 1.214677083, 1: 1.212477083, 2: 1.133805448, 3: 1.222377083, 4: 1.215677083, 5: 1.214177083, 6: 0.0, 7: 0.0, 8: 0.221377083, 9: 0.213177083, 10: 1.213677083, 11: 1.223377083, 12: 1.223177083, 13: 0.0, 14: 1.215677083, 15: 0.0, 16: 1.225177083, 17: 0.0, 18: 0.236694366, 19: 1.220177083, 20: 0.222677083, 21: 0.0, 22: 1.230677083, 23: 0.0, 24: 0.0, 25: 0.215677083, 26: 1.220677083, 27: 0.0, 28: 1.155877083, 29: 0.018177083, 30: 0.087177083, 31: 1.085477083, 32: 0.0, 33: 0.0, 34: 0.0, 35: 0.222877083, 36: 1.097377083, 37: 0.0, 38: 1.053621177, 39: 0.0, 40: 0.0, 41: 0.0, 42: 0.0, 43: 0.0, 44: 0.0, 45: 0.0, 46: 0.0, 47: 0.380877083, 48: 0.225177083, 49: 1.088177083, 50: 0.0, 51: 0.097377083, 52: 0.560177083, 53: 0.0, 54: 0.331677083, 55: 0.0, 56: 1.101877083, 57: 0.700477083, 58: 0.0, 59: 0.797177083, 60: 0.0, 61: 0.0, 62: 1.441877083, 63: 0.0, 64: 0.0, 65: 0.794977083, 66: 1.097977083, 67: 0.0, 68: 0.0, 69: 0.0, 70: 0.0, 71: 0.0, 72: 0.9872770830000001, 73: 0.0, 74: 1.097377083, 75: 0.083577083, 76: 0.0, 77: 0.080377083, 78: 1.079177083, 79: 0.088177083, 80: 0.08687708299999999, 81: 0.079377083, 82: 0.079677083, 83: 0.095877083, 84: 0.0, 85: 1.104677083, 86: 1.093677083, 87: 0.0, 88: 0.0, 89: 0.0, 90: 0.107177083, 91: 1.098177083, 92: 0.0, 93: 0.0, 94: 1.376177083, 95: 0.0, 96: 0.0, 97: 0.0, 98: 0.0, 99: 0.0, 100: 0.0, 101: 0.0, 102: 1.253677083, 103: 0.261177083, 104: 1.261377083, 105: 0.228877083, 106: 0.0, 107: 0.218677083, 108: 1.228377083, 109: 1.227877083, 110: 1.228377083, 111: 0.220377083, 112: 1.220677083, 113: 0.230177083, 114: 1.230177083, 115: 0.0, 116: 0.220677083, 117: 1.220877083, 118: 1.229877083, 119: 1.229677083, 120: 0.226677083, 121: 1.217677083, 122: 0.0, 123: 1.086677083, 124: 1.062677083, 125: 0.079877083, 126: 0.079677083, 127: 0.0, 128: 0.08687708299999999, 129: 1.085977083, 130: 1.086377083, 131: 0.0, 132: 0.0, 133: 0.492377083, 134: 1.097677083, 135: 1.096177083, 136: 0.424177083, 137: 0.0, 138: 0.100977083, 139: 1.101177083, 140: 0.0, 141: 0.0, 142: 0.0, 143: 0.0, 144: 0.0, 145: 0.0, 146: 0.089677083, 147: 0.0, 148: 0.096377083, 149: 0.0, 150: 0.09067708300000001, 151: 0.0, 152: 0.0, 153: 0.0, 154: 0.0, 155: 1.804977083, 156: 0.0, 157: 0.0, 158: 0.0, 159: 0.0, 160: 0.0, 161: 0.0, 162: 1.100977083, 163: 0.0, 164: 0.0, 165: 0.578477083, 166: 0.0, 167: 1.096377083, 168: 0.942977083, 169: 0.937677083, 170: 0.0, 171: 1.031477083, 172: 0.0, 173: 0.088877083, 174: 1.086677083, 175: 1.079677083, 176: 0.079377083, 177: 1.086177083, 178: 0.0, 179: 1.088177083, 180: 0.094677083, 181: 0.095177083, 182: 1.103877083, 183: 1.105377083, 184: 0.0, 185: 0.097377083, 186: 1.098177083, 187: 1.104877083, 188: 0.0, 189: 1.266677083, 190: 0.0, 191: 0.419877083];
sell = [0: 0.0, 1: 0.0, 2: 0.0, 3: 0.0, 4: 0.0, 5: 0.0, 6: 0.680622917, 7: 0.0, 8: 0.0, 9: 0.0, 10: 0.0, 11: 0.0, 12: 0.0, 13: 0.677822917, 14: 0.0, 15: 0.684822917, 16: 0.0, 17: 0.676622917, 18: 0.0, 19: 0.0, 20: 0.0, 21: 0.676122917, 22: 0.0, 23: 0.0, 24: 0.6821229170000001, 25: 0.0, 26: 0.0, 27: 0.703622917, 28: 0.0, 29: 0.0, 30: 0.0, 31: 0.0, 32: 0.888622917, 33: 0.074622917, 34: 0.982822917, 35: 0.0, 36: 0.0, 37: 0.444822917, 38: 0.0, 39: 1.332022917, 40: 1.449822917, 41: 0.803122917, 42: 0.935622917, 43: 0.136722917, 44: 1.093322917, 45: 1.805322917, 46: 2.306022917, 47: 0.0, 48: 0.0, 49: 0.0, 50: 1.725122917, 51: 0.0, 52: 0.0, 53: 1.085222917, 54: 0.0, 55: 0.575022917, 56: 0.0, 57: 0.0, 58: 1.679522917, 59: 0.0, 60: 0.446522917, 61: 0.457322917, 62: 0.0, 63: 0.459622917, 64: 0.803122917, 65: 0.0, 66: 0.0, 67: 0.274364877, 68: 0.811622917, 69: 0.0, 70: 0.975022917, 71: 0.922522917, 72: 0.0, 73: 0.882822917, 74: 0.0, 75: 0.0, 76: 0.8131229169999999, 77: 0.0, 78: 0.0, 79: 0.0, 80: 0.0, 81: 0.0, 82: 0.0, 83: 0.0, 84: 0.797122917, 85: 0.0, 86: 0.0, 87: 0.805322917, 88: 0.802822917, 89: 0.792022917, 90: 0.0, 91: 0.0, 92: 0.802822917, 93: 0.625822917, 94: 0.0, 95: 0.519122917, 96: 0.526622917, 97: 0.523322917, 98: 0.545822917, 99: 0.589122917, 100: 0.594622917, 101: 0.603122917, 102: 0.0, 103: 0.0, 104: 0.0, 105: 0.0, 106: 0.681822917, 107: 0.0, 108: 0.0, 109: 0.0, 110: 0.0, 111: 0.0, 112: 0.0, 113: 0.0, 114: 0.0, 115: 0.671622917, 116: 0.0, 117: 0.0, 118: 0.0, 119: 0.0, 120: 0.0, 121: 0.0, 122: 0.682322917, 123: 0.0, 124: 0.0, 125: 0.0, 126: 0.0, 127: 0.821122917, 128: 0.0, 129: 0.0, 130: 0.0, 131: 0.306522917, 132: 0.811322917, 133: 0.0, 134: 0.0, 135: 0.0, 136: 0.0, 137: 1.534122917, 138: 0.0, 139: 0.0, 140: 0.9149229169999999, 141: 1.846022917, 142: 0.806822917, 143: 0.0, 144: 1.654822917, 145: 1.649622917, 146: 0.0, 147: 0.642022917, 148: 0.0, 149: 0.802622917, 150: 0.0, 151: 0.375022917, 152: 1.187822917, 153: 0.101822917, 154: 0.694522917, 155: 0.0, 156: 0.473622917, 157: 1.017922917, 158: 1.321122917, 159: 1.274822917, 160: 0.806822917, 161: 1.392322917, 162: 0.0, 163: 1.112022917, 164: 0.348322917, 165: 0.0, 166: 1.044622917, 167: 0.0, 168: 0.0, 169: 0.0, 170: 0.926522917, 171: 0.0, 172: 0.812322917, 173: 0.0, 174: 0.0, 175: 0.0, 176: 0.0, 177: 0.0, 178: 0.8121229170000001, 179: 0.0, 180: 0.0, 181: 0.0, 182: 0.0, 183: 0.0, 184: 0.0, 185: 0.0, 186: 0.0, 187: 0.0, 188: 0.791322917, 189: 0.0, 190: 0.487322917, 191: 0.0];
charge = [0: 1.0, 1: 1.0, 2: 0.911128364, 3: 1.0, 4: 1.0, 5: 1.0, 6: 0.0, 7: 0.0, 8: 0.0, 9: 0.0, 10: 1.0, 11: 1.0, 12: 1.0, 13: 0.0, 14: 1.0, 15: 0.0, 16: 1.0, 17: 0.0, 18: 0.008017283, 19: 1.0, 20: 0.0, 21: 0.0, 22: 1.0, 23: 0.0, 24: 0.0, 25: 0.0, 26: 1.0, 27: 0.0, 28: 1.0, 29: 0.0, 30: 0.0, 31: 1.0, 32: 0.0, 33: 0.0, 34: 0.0, 35: 0.0, 36: 1.0, 37: 0.0, 38: 0.964944094, 39: 0.0, 40: 0.0, 41: 0.0, 42: 0.0, 43: 1.0, 44: 0.0, 45: 0.0, 46: 0.0, 47: 1.0, 48: 1.0, 49: 1.0, 50: 0.0, 51: 0.0, 52: 1.0, 53: 0.0, 54: 1.0, 55: 0.0, 56: 1.0, 57: 0.0, 58: 0.0, 59: 0.0, 60: 0.0, 61: 0.0, 62: 1.0, 63: 0.0, 64: 0.0, 65: 1.0, 66: 1.0, 67: 0.0, 68: 0.0, 69: 0.113822917, 70: 0.0, 71: 0.0, 72: 1.0, 73: 0.0, 74: 1.0, 75: 0.0, 76: 0.0, 77: 0.0, 78: 1.0, 79: 0.0, 80: 0.0, 81: 0.0, 82: 0.0, 83: 0.0, 84: 0.0, 85: 1.0, 86: 1.0, 87: 0.0, 88: 0.0, 89: 0.0, 90: 0.0, 91: 1.0, 92: 0.0, 93: 0.0, 94: 1.0, 95: 0.0, 96: 0.0, 97: 0.0, 98: 0.0, 99: 0.0, 100: 0.0, 101: 0.0, 102: 1.0, 103: 0.0, 104: 1.0, 105: 0.0, 106: 0.0, 107: 0.0, 108: 1.0, 109: 1.0, 110: 1.0, 111: 0.0, 112: 1.0, 113: 0.0, 114: 1.0, 115: 0.0, 116: 0.0, 117: 1.0, 118: 1.0, 119: 1.0, 120: 0.0, 121: 1.0, 122: 0.0, 123: 1.0, 124: 1.0, 125: 0.0, 126: 0.0, 127: 0.0, 128: 0.0, 129: 1.0, 130: 1.0, 131: 0.0, 132: 0.0, 133: 1.0, 134: 1.0, 135: 1.0, 136: 1.0, 137: 0.0, 138: 0.0, 139: 1.0, 140: 0.0, 141: 0.0, 142: 0.0, 143: 0.0, 144: 0.0, 145: 0.0, 146: 0.0, 147: 0.0, 148: 0.0, 149: 0.0, 150: 0.0, 151: 0.0, 152: 0.0, 153: 0.0, 154: 0.0, 155: 1.0, 156: 0.0, 157: 0.0, 158: 0.0, 159: 0.0, 160: 0.0, 161: 0.0, 162: 1.0, 163: 0.0, 164: 0.0, 165: 1.0, 166: 0.0, 167: 1.0, 168: 1.0, 169: 1.0, 170: 0.0, 171: 1.0, 172: 0.0, 173: 0.0, 174: 1.0, 175: 1.0, 176: 0.0, 177: 1.0, 178: 0.0, 179: 1.0, 180: 0.0, 181: 0.0, 182: 1.0, 183: 1.0, 184: 0.0, 185: 0.0, 186: 1.0, 187: 1.0, 188: 0.0, 189: 1.0, 190: 0.0, 191: 0.0];
discharge = [0: 0.0, 1: 0.0, 2: 0.0, 3: 0.0, 4: 0.0, 5: 0.0, 6: 1.0, 7: 0.247641204, 8: 0.0, 9: 0.0, 10: 0.0, 11: 0.0, 12: 0.0, 13: 1.0, 14: 0.0, 15: 1.0, 16: 0.0, 17: 1.0, 18: 0.0, 19: 0.0, 20: 0.0, 21: 1.0, 22: 0.0, 23: 0.250974537, 24: 1.0, 25: 0.0, 26: 0.0, 27: 1.0, 28: 0.0, 29: 0.0, 30: 0.0, 31: 0.0, 32: 1.0, 33: 0.0, 34: 1.0, 35: 0.0, 36: 0.0, 37: 0.0, 38: 0.0, 39: 1.0, 40: 1.0, 41: 1.0, 42: 0.0, 43: 0.0, 44: 0.0, 45: 1.0, 46: 1.0, 47: 0.0, 48: 0.0, 49: 0.0, 50: 1.0, 51: 0.0, 52: 0.0, 53: 0.0, 54: 0.0, 55: 0.0, 56: 0.0, 57: 0.0, 58: 0.0, 59: 0.0, 60: 0.0, 61: 1.0, 62: 0.0, 63: 1.0, 64: 1.0, 65: 0.0, 66: 0.0, 67: 0.025268845, 68: 1.0, 69: 0.0, 70: 1.0, 71: 1.0, 72: 0.0, 73: 1.0, 74: 0.0, 75: 0.0, 76: 1.0, 77: 0.0, 78: 0.0, 79: 0.0, 80: 0.0, 81: 0.0, 82: 0.0, 83: 0.0, 84: 1.0, 85: 0.0, 86: 0.0, 87: 1.0, 88: 1.0, 89: 1.0, 90: 0.0, 91: 0.0, 92: 1.0, 93: 1.0, 94: 0.0, 95: 1.0, 96: 1.0, 97: 1.0, 98: 1.0, 99: 1.0, 100: 1.0, 101: 1.0, 102: 0.0, 103: 0.0, 104: 0.0, 105: 0.0, 106: 1.0, 107: 0.0, 108: 0.0, 109: 0.0, 110: 0.0, 111: 0.0, 112: 0.0, 113: 0.0, 114: 0.0, 115: 1.0, 116: 0.0, 117: 0.0, 118: 0.0, 119: 0.0, 120: 0.0, 121: 0.0, 122: 1.0, 123: 0.0, 124: 0.0, 125: 0.0, 126: 0.0, 127: 1.0, 128: 0.0, 129: 0.0, 130: 0.0, 131: 0.0, 132: 1.0, 133: 0.0, 134: 0.0, 135: 0.0, 136: 0.0, 137: 1.0, 138: 0.0, 139: 0.0, 140: 0.0, 141: 0.0, 142: 1.0, 143: 0.0, 144: 1.0, 145: 1.0, 146: 0.0, 147: 0.0, 148: 0.0, 149: 1.0, 150: 0.0, 151: 0.0, 152: 1.0, 153: 1.0, 154: 1.0, 155: 0.0, 156: 1.0, 157: 1.0, 158: 1.0, 159: 1.0, 160: 1.0, 161: 1.0, 162: 0.0, 163: 0.0, 164: 0.0, 165: 0.0, 166: 1.0, 167: 0.0, 168: 0.0, 169: 0.0, 170: 1.0, 171: 0.0, 172: 1.0, 173: 0.0, 174: 0.0, 175: 0.0, 176: 0.0, 177: 0.0, 178: 1.0, 179: 0.0, 180: 0.0, 181: 0.0, 182: 0.0, 183: 0.0, 184: 0.120196759, 185: 0.0, 186: 0.0, 187: 0.0, 188: 1.0, 189: 0.0, 190: 1.0, 191: 0.0];
soc = [0: 9.828213999999999, 1: 10.726248357, 2: 11.544118636, 3: 12.441809812, 4: 13.33932145, 5: 14.236653586, 6: 13.233806255, 7: 12.98351829, 8: 12.980921586, 9: 12.978325402, 10: 13.875729737, 11: 14.772954591, 12: 15.67, 13: 14.666866, 14: 15.563932627, 15: 14.56081984, 16: 15.457907676, 17: 14.454816095, 18: 14.459140686, 19: 15.356248858, 20: 15.353177608, 21: 14.350106973, 22: 15.247236951, 23: 14.993212967, 24: 13.990214324, 25: 13.987416281, 26: 14.884618798, 27: 13.881641874, 28: 14.778865546, 29: 14.775909773, 30: 14.772954591, 31: 15.67, 32: 14.666866, 33: 14.663932627, 34: 13.66099984, 35: 13.65826764, 36: 14.555535987, 37: 14.55262488, 38: 15.418164039, 39: 14.415080407, 40: 13.41219739, 41: 12.409514951, 42: 12.407033048, 43: 13.304551641, 44: 13.301890731, 45: 12.299230353, 46: 11.296770507, 47: 12.194511153, 48: 13.09207225, 49: 13.989453836, 50: 12.986655945, 51: 12.984058614, 52: 13.881461802, 53: 13.87868551, 54: 14.775909773, 55: 14.772954591, 56: 15.67, 57: 15.666866, 58: 15.663732627, 59: 15.66059988, 60: 15.65746776, 61: 14.654336267, 62: 15.551405399, 63: 14.548295118, 64: 13.545385459, 65: 14.442676382, 66: 15.339787847, 67: 15.311451045, 68: 14.308388754, 69: 14.407967702, 70: 13.405086108, 71: 12.402405091, 72: 13.29992461, 73: 12.297264625, 74: 13.194805172, 75: 13.192166211, 76: 12.189527778, 77: 12.187089872, 78: 13.084652454, 79: 13.082035524, 80: 13.079419117, 81: 13.076803233, 82: 13.074187872, 83: 13.071573035, 84: 12.06895872, 85: 12.966544928, 86: 13.863951619, 87: 12.861178829, 88: 11.858606593, 89: 10.856234872, 90: 10.854063625, 91: 11.751892812, 92: 10.749542434, 93: 9.747392525, 94: 10.645443047, 95: 9.643313958, 96: 8.641385294999999, 97: 7.639657018, 98: 6.638129087, 99: 5.636801461, 100: 4.635674101, 101: 3.634746966, 102: 4.534020016, 103: 4.533113212, 104: 5.43220659, 105: 5.431120148, 106: 4.430033924, 107: 4.429147918, 108: 5.328262088, 109: 6.227196436, 110: 7.125950996, 111: 7.124525806, 112: 8.023100900999999, 113: 8.021496280999999, 114: 8.919891981999999, 115: 7.918108003, 116: 7.916524382, 117: 8.814941077, 118: 9.713178087999999, 119: 10.611235453, 120: 10.609113206, 121: 11.506991383, 122: 10.504689985, 123: 11.402589047, 124: 12.300308529, 125: 12.297848467, 126: 12.295388898, 127: 11.29292982, 128: 11.290671234, 129: 12.1884131, 130: 13.085975417, 131: 13.083358222, 132: 12.08074155, 133: 12.978325402, 134: 13.875729737, 135: 14.772954591, 136: 15.67, 137: 14.666866, 138: 14.663932627, 139: 15.56099984, 140: 15.55788764, 141: 15.554776063, 142: 14.551665108, 143: 14.548754775, 144: 13.545845024, 145: 12.543135855, 146: 12.540627227, 147: 12.538119102, 148: 12.535611478, 149: 11.533104356, 150: 11.530797735, 151: 11.528491575, 152: 10.526185877, 153: 9.524080639999999, 154: 8.522175824, 155: 9.420471388999999, 156: 8.418587294, 157: 7.416903577, 158: 6.415420196, 159: 5.414137112, 160: 4.413054285, 161: 3.412171674, 162: 4.31148924, 163: 4.310626942, 164: 4.309764816, 165: 5.208902863, 166: 4.207861083, 167: 5.107019511, 168: 6.005998107, 169: 6.904796907, 170: 5.903415948, 171: 6.802235264, 172: 5.800874817, 173: 5.799714642, 174: 6.6985547, 175: 7.597214989, 176: 7.595695546, 177: 8.494176405999999, 178: 7.492477571, 179: 8.390979076000001, 180: 8.38930088, 181: 8.387623019999999, 182: 9.285945495, 183: 10.184088306, 184: 10.061854729, 185: 10.059842358, 186: 10.95783039, 187: 11.855638824, 188: 10.853267696, 189: 11.751097042, 190: 10.748746823, 191: 10.746597073];
cost = [0: 0.860224396, 1: 0.858880416, 2: 0.800317227, 3: 0.864928326, 4: 0.860835296, 5: 0.859918946, 6: 0.0, 7: 0.0, 8: 0.13523926, 9: 0.13022988, 10: 0.859613496, 11: 0.865539226, 12: 0.865417046, 13: 0.0, 14: 0.860835296, 15: 0.0, 16: 0.866638846, 17: 0.0, 18: 0.145544056, 19: 0.863584346, 20: 0.13603343, 21: 0.0, 22: 0.869998796, 23: 0.0, 24: 0.0, 25: 0.256569458, 26: 1.570295624, 27: 0.0, 28: 1.493209544, 29: 0.021623458, 30: 0.103705858, 31: 1.409461704, 32: 0.0, 33: 0.0, 34: 0.0, 35: 0.265134578, 36: 1.423617944, 37: 0.0, 38: 1.367423075, 39: 0.0, 40: 0.0, 41: 0.0, 42: 0.0, 43: 0.118178165, 44: 0.0, 45: 0.0, 46: 0.0, 47: 0.571269544, 48: 0.386048824, 49: 1.412673624, 50: 0.0, 51: 0.115839778, 52: 0.460390346, 53: 0.0, 54: 0.320799696, 55: 0.0, 56: 0.7913148759999999, 57: 0.42792145, 58: 0.0, 59: 0.48699548, 60: 0.0, 61: 0.0, 62: 1.833435144, 63: 0.0, 64: 0.0, 65: 1.063882904, 66: 1.424331704, 67: 0.0, 68: 0.0, 69: 0.013451383, 70: 0.0, 71: 0.0, 72: 1.292642984, 73: 0.0, 74: 1.423617944, 75: 0.09942329799999999, 76: 0.0, 77: 0.09561657799999999, 78: 1.401967224, 79: 0.104895458, 80: 0.103348978, 81: 0.09442697799999999, 82: 0.094783858, 83: 0.114055378, 84: 0.0, 85: 1.432302024, 86: 1.419216424, 87: 0.0, 88: 0.0, 89: 0.0, 90: 0.06547448, 91: 0.789054546, 92: 0.0, 93: 0.0, 94: 0.958884746, 95: 0.0, 96: 0.0, 97: 0.0, 98: 0.0, 99: 0.0, 100: 0.0, 101: 0.0, 102: 0.884049496, 103: 0.15955308, 104: 0.888753426, 105: 0.13982101, 106: 0.0, 107: 0.13358983, 108: 0.868593726, 109: 0.868288276, 110: 0.868593726, 111: 0.13462836, 112: 0.863889796, 113: 0.14061518, 114: 0.869693346, 115: 0.0, 116: 0.13481163, 117: 0.864011976, 118: 0.869510076, 119: 0.869387896, 120: 0.269655058, 121: 1.566726824, 122: 0.0, 123: 1.410889224, 124: 1.382338824, 125: 0.095021778, 126: 0.094783858, 127: 0.0, 128: 0.103348978, 129: 1.410056504, 130: 1.410532344, 131: 0.0, 132: 0.0, 133: 0.703909944, 134: 1.423974824, 135: 1.422190424, 136: 0.622779224, 137: 0.0, 138: 0.120122338, 139: 1.428138424, 140: 0.0, 141: 0.0, 142: 0.0, 143: 0.0, 144: 0.0, 145: 0.0, 146: 0.106679858, 147: 0.0, 148: 0.05887676, 149: 0.0, 150: 0.05539463, 151: 0.0, 152: 0.0, 153: 0.0, 154: 0.0, 155: 1.220838666, 156: 0.0, 157: 0.0, 158: 0.0, 159: 0.0, 160: 0.0, 161: 0.0, 162: 1.427900504, 163: 0.0, 164: 0.0, 165: 0.806334504, 166: 0.0, 167: 1.422428344, 168: 1.239943704, 169: 1.233638824, 170: 0.0, 171: 1.345223304, 172: 0.0, 173: 0.105728178, 174: 1.410889224, 175: 1.402562024, 176: 0.09442697799999999, 177: 1.410294424, 178: 0.0, 179: 1.412673624, 180: 0.112627858, 181: 0.113222658, 182: 1.431350344, 183: 1.433134744, 184: 0.0, 185: 0.05948766, 186: 0.789054546, 187: 0.793147576, 188: 0.0, 189: 0.891991196, 190: 0.0, 191: 0.25650291];
earn = [0: 0.0, 1: 0.0, 2: 0.0, 3: 0.0, 4: 0.0, 5: 0.0, 6: 0.289332802, 7: 0.0, 8: 0.0, 9: 0.0, 10: 0.0, 11: 0.0, 12: 0.0, 13: 0.263605332, 14: 0.0, 15: 0.276736941, 16: 0.0, 17: 0.2840463, 18: 0.0, 19: 0.0, 20: 0.0, 21: 0.345363586, 22: 0.0, 23: 0.0, 24: 0.415549281, 25: 0.0, 26: 0.0, 27: 0.557339712, 28: 0.0, 29: 0.0, 30: 0.0, 31: 0.0, 32: 0.63785353, 33: 0.051131623, 34: 0.66389688, 35: 0.0, 36: 0.0, 37: 0.267694431, 38: 0.0, 39: 0.71955878, 40: 0.649955614, 41: 0.37288997, 42: 0.42991873, 43: 0.055550521, 44: 0.441483794, 45: 0.675010239, 46: 0.829015239, 47: 0.0, 48: 0.0, 49: 0.0, 50: 0.567737952, 51: 0.0, 52: 0.0, 53: 0.414989243, 54: 0.0, 55: 0.214138534, 56: 0.0, 57: 0.0, 58: 0.7902155320000001, 59: 0.0, 60: 0.228441124, 61: 0.238859759, 62: 0.0, 63: 0.245208826, 64: 0.442681352, 65: 0.0, 66: 0.0, 67: 0.154741791, 68: 0.50823827, 69: 0.0, 70: 0.641955088, 71: 0.6242712580000001, 72: 0.0, 73: 0.7138506100000001, 74: 0.0, 75: 0.0, 76: 0.81393604, 77: 0.0, 78: 0.0, 79: 0.0, 80: 0.0, 81: 0.0, 82: 0.0, 83: 0.0, 84: 0.58158088, 85: 0.0, 86: 0.0, 87: 0.54995502, 88: 0.552984425, 89: 0.513626861, 90: 0.0, 91: 0.0, 92: 0.479686693, 93: 0.365480583, 94: 0.0, 95: 0.298184203, 96: 0.319976084, 97: 0.301120006, 98: 0.310900733, 99: 0.3321475, 100: 0.326626368, 101: 0.33449197, 102: 0.0, 103: 0.0, 104: 0.0, 105: 0.0, 106: 0.373502594, 107: 0.0, 108: 0.0, 109: 0.0, 110: 0.0, 111: 0.0, 112: 0.0, 113: 0.0, 114: 0.0, 115: 0.374899912, 116: 0.0, 117: 0.0, 118: 0.0, 119: 0.0, 120: 0.0, 121: 0.0, 122: 0.56748797, 123: 0.0, 124: 0.0, 125: 0.0, 126: 0.0, 127: 0.755186746, 128: 0.0, 129: 0.0, 130: 0.0, 131: 0.240589837, 132: 0.65603571, 133: 0.0, 134: 0.0, 135: 0.0, 136: 0.0, 137: 1.004083449, 138: 0.0, 139: 0.0, 140: 0.53376603, 141: 1.03266522, 142: 0.471345948, 143: 0.0, 144: 0.928024692, 145: 0.918180115, 146: 0.0, 147: 0.347912219, 148: 0.0, 149: 0.441683391, 150: 0.0, 151: 0.177498346, 152: 0.588922602, 153: 0.050738359, 154: 0.356637518, 155: 0.0, 156: 0.236337835, 157: 0.520769364, 158: 0.690286724, 159: 0.707399236, 160: 0.424146807, 161: 0.772321522, 162: 0.0, 163: 0.672996269, 164: 0.209934222, 165: 0.0, 166: 0.649337605, 167: 0.0, 168: 0.0, 169: 0.0, 170: 0.7599340959999999, 171: 0.0, 172: 0.748068174, 173: 0.0, 174: 0.0, 175: 0.0, 176: 0.0, 177: 0.0, 178: 0.755599162, 179: 0.0, 180: 0.0, 181: 0.0, 182: 0.0, 183: 0.0, 184: 0.0, 185: 0.0, 186: 0.0, 187: 0.0, 188: 0.591197351, 189: 0.0, 190: 0.359449383, 191: 0.0];
total_cost = 82.18767577600001;
total_earn = 38.00889842;
