production = [0: 0.0, 1: 0.0, 2: 0.0, 3: 0.0, 4: 0.0, 5: 0.0, 6: 0.0, 7: 0.0, 8: 0.0, 9: 0.0, 10: 0.0, 11: 0.0, 12: 0.0, 13: 0.0, 14: 0.0, 15: 0.0, 16: 0.0, 17: 0.0, 18: 0.0, 19: 0.0, 20: 0.0, 21: 0.0, 22: 0.0, 23: 0.0, 24: 0.0, 25: 0.0, 26: 0.0, 27: 0.0245, 28: 0.0, 29: 0.06, 30: 0.1013, 31: 0.1623, 32: 0.2055, 33: 0.0, 34: 0.2943, 35: 0.2577, 36: 0.38, 37: 0.0, 38: 0.0, 39: 0.5212, 40: 0.6475, 41: 0.928, 42: 1.0248, 43: 0.0, 44: 0.0, 45: 0.0, 46: 1.5045, 47: 0.7145, 48: 0.0, 49: 0.5285, 50: 0.9223, 51: 0.0, 52: 0.5285, 53: 1.1767, 54: 0.0, 55: 0.0, 56: 0.6987, 57: 0.0, 58: 0.0, 59: 0.0, 60: 0.0, 61: 0.0, 62: 0.2918, 63: 0.3668, 64: 0.0, 65: 0.303, 66: 0.4733, 67: 0.0, 68: 0.3247, 69: 0.212, 70: 0.0, 71: 0.0, 72: 0.1037, 73: 0.078, 74: 0.0, 75: 0.0123, 76: 0.005, 77: 0.0, 78: 0.0005, 79: 0.0, 80: 0.0, 81: 0.0, 82: 0.0, 83: 0.0, 84: 0.0, 85: 0.0, 86: 0.0, 87: 0.0, 88: 0.0, 89: 0.0, 90: 0.0, 91: 0.0, 92: 0.0, 93: 0.0, 94: 0.0, 95: 0.0, 96: 0.0, 97: 0.0, 98: 0.0, 99: 0.0, 100: 0.0, 101: 0.0, 102: 0.0, 103: 0.0, 104: 0.0, 105: 0.0, 106: 0.0, 107: 0.0, 108: 0.0, 109: 0.0, 110: 0.0, 111: 0.0, 112: 0.0, 113: 0.0, 114: 0.0, 115: 0.0, 116: 0.0, 117: 0.0, 118: 0.0, 119: 0.0, 120: 0.0, 121: 0.0, 122: 0.0022, 123: 0.0, 124: 0.023, 125: 0.0558, 126: 0.082, 127: 0.0, 128: 0.208, 129: 0.0, 130: 0.0, 131: 0.3957, 132: 0.385, 133: 0.6048, 134: 0.0, 135: 0.7502, 136: 0.6655, 137: 0.0, 138: 0.0, 139: 0.0, 140: 0.0, 141: 0.0, 142: 1.9252, 143: 0.0, 144: 0.852, 145: 0.8393, 146: 0.0, 147: 0.7392, 148: 0.638, 149: 0.0, 150: 0.4532, 151: 0.0, 152: 0.0, 153: 0.0, 154: 0.0, 155: 0.596, 156: 0.264, 157: 0.5643, 158: 0.0, 159: 0.826, 160: 0.0, 161: 0.0, 162: 0.6248, 163: 1.097977083, 164: 0.0, 165: 0.0, 166: 0.2338, 167: 0.285, 168: 0.1562, 169: 0.0, 170: 0.118, 171: 0.0592, 172: 0.0318, 173: 0.0, 174: 0.0, 175: 0.0005, 176: 0.0, 177: 0.0, 178: 0.0, 179: 0.0, 180: 0.0, 181: 0.0, 182: 0.0, 183: 0.0, 184: 0.0, 185: 0.0, 186: 0.0, 187: 0.0, 188: 0.0, 189: 0.0, 190: 0.0, 191: 0.0];
buy = [0: 0.0, 1: 1.212477083, 2: 0.0, 3: 0.0, 4: 0.215677083, 5: 0.0, 6: 0.219377083, 7: 0.0, 8: 1.221377083, 9: 1.213177083, 10: 0.0, 11: 0.0, 12: 0.0, 13: 1.222177083, 14: 1.215677083, 15: 0.215177083, 16: 0.0, 17: 0.223377083, 18: 0.228677083, 19: 0.0, 20: 1.222677083, 21: 0.0, 22: 0.230677083, 23: 1.225877083, 24: 1.217877083, 25: 0.0, 26: 0.0, 27: 1.196377083, 28: 1.212177083, 29: 0.0, 30: 0.0, 31: 0.0, 32: 1.011377083, 33: 1.212177083, 34: 0.0, 35: 0.0, 36: 0.717377083, 37: 1.096877083, 38: 0.088677083, 39: 0.567977083, 40: 0.450177083, 41: 0.168877083, 42: 0.064377083, 43: 1.090977083, 44: 1.091677083, 45: 1.097177083, 46: 0.0, 47: 0.0, 48: 1.087677083, 49: 0.0, 50: 0.174877083, 51: 0.0, 52: 0.560177083, 53: 0.0, 54: 0.101477083, 55: 1.101477083, 56: 0.0, 57: 0.0, 58: 0.0, 59: 1.797177083, 60: 0.100177083, 61: 0.0, 62: 0.0, 63: 0.0, 64: 0.096877083, 65: 0.794977083, 66: 0.0, 67: 1.087877083, 68: 0.0, 69: 0.886177083, 70: 0.0, 71: 1.098977083, 72: 0.9872770830000001, 73: 0.0, 74: 0.0, 75: 0.083577083, 76: 1.081877083, 77: 1.080377083, 78: 0.0, 79: 1.088177083, 80: 1.086877083, 81: 0.0, 82: 0.0, 83: 0.0, 84: 1.102877083, 85: 0.104677083, 86: 0.0, 87: 1.094677083, 88: 0.0, 89: 0.0, 90: 0.0, 91: 0.098177083, 92: 1.097177083, 93: 0.274177083, 94: 0.376177083, 95: 0.380877083, 96: 1.373377083, 97: 0.376677083, 98: 1.354177083, 99: 1.310877083, 100: 1.305377083, 101: 1.296877083, 102: 0.253677083, 103: 0.261177083, 104: 0.261377083, 105: 1.228877083, 106: 0.218177083, 107: 0.218677083, 108: 0.228377083, 109: 0.227877083, 110: 1.228377083, 111: 0.0, 112: 1.220677083, 113: 1.230177083, 114: 1.230177083, 115: 0.0, 116: 1.220677083, 117: 0.220877083, 118: 0.164881525, 119: 0.0, 120: 0.0, 121: 0.217677083, 122: 0.0, 123: 0.0, 124: 0.0, 125: 0.0, 126: 0.997677083, 127: 0.078877083, 128: 0.878877083, 129: 0.085977083, 130: 1.086377083, 131: 0.0, 132: 0.0, 133: 0.0, 134: 0.0, 135: 0.345977083, 136: 0.0, 137: 0.0, 138: 1.100977083, 139: 1.101177083, 140: 0.089377083, 141: 0.092477083, 142: 0.0, 143: 0.0, 144: 0.0, 145: 0.250377083, 146: 1.089677083, 147: 0.357977083, 148: 0.0, 149: 1.097377083, 150: 0.6374770830000001, 151: 1.090477083, 152: 1.088677083, 153: 0.0, 154: 1.821677083, 155: 1.208977083, 156: 0.162377083, 157: 0.0, 158: 0.449677083, 159: 0.0, 160: 1.093177083, 161: 1.092677083, 162: 0.0, 163: 0.0, 164: 1.098677083, 165: 0.0, 166: 0.0, 167: 0.0, 168: 0.0, 169: 0.0, 170: 0.0, 171: 0.0, 172: 0.0, 173: 0.0, 174: 0.086677083, 175: 1.079177083, 176: 0.0, 177: 1.086177083, 178: 1.087877083, 179: 0.088177083, 180: 1.094677083, 181: 0.0, 182: 0.0, 183: 1.105377083, 184: 1.108177083, 185: 0.0, 186: 0.098177083, 187: 0.0, 188: 0.0, 189: 1.266677083, 190: 0.0, 191: 0.419877083];
sell = [0: 0.685322917, 1: 0.0, 2: 0.677322917, 3: 0.677622917, 4: 0.0, 5: 0.685822917, 6: 0.0, 7: 0.677122917, 8: 0.0, 9: 0.0, 10: 0.686322917, 11: 0.676622917, 12: 0.676822917, 13: 0.0, 14: 0.0, 15: 0.0, 16: 0.674822917, 17: 0.0, 18: 0.0, 19: 0.679822917, 20: 0.0, 21: 0.676122917, 22: 0.0, 23: 0.0, 24: 0.0, 25: 0.684322917, 26: 0.679322917, 27: 0.0, 28: 0.0, 29: 0.881822917, 30: 0.014122917, 31: 0.976822917, 32: 0.0, 33: 0.0, 34: 0.982822917, 35: 0.934822917, 36: 0.0, 37: 0.0, 38: 0.0, 39: 0.0, 40: 0.0, 41: 0.0, 42: 0.0, 43: 0.0, 44: 0.0, 45: 0.0, 46: 1.406022917, 47: 0.619122917, 48: 0.0, 49: 0.440322917, 50: 0.0, 51: 0.802622917, 52: 0.0, 53: 0.085222917, 54: 0.0, 55: 0.0, 56: 1.496822917, 57: 0.199522917, 58: 0.318322917, 59: 0.0, 60: 0.0, 61: 0.457322917, 62: 0.0, 63: 0.826422917, 64: 0.0, 65: 0.0, 66: 1.275322917, 67: 0.0, 68: 1.136322917, 69: 0.0, 70: 0.801322917, 71: 0.0, 72: 0.0, 73: 0.882822917, 74: 0.802622917, 75: 0.0, 76: 0.0, 77: 0.0, 78: 0.820822917, 79: 0.0, 80: 0.0, 81: 0.820622917, 82: 0.820322917, 83: 0.804122917, 84: 0.0, 85: 0.0, 86: 0.806322917, 87: 0.0, 88: 0.802822917, 89: 0.792022917, 90: 0.792822917, 91: 0.0, 92: 0.0, 93: 0.0, 94: 0.0, 95: 0.0, 96: 0.0, 97: 0.0, 98: 0.0, 99: 0.0, 100: 0.0, 101: 0.0, 102: 0.0, 103: 0.0, 104: 0.0, 105: 0.0, 106: 0.0, 107: 0.0, 108: 0.0, 109: 0.0, 110: 0.0, 111: 0.679622917, 112: 0.0, 113: 0.0, 114: 0.0, 115: 0.671622917, 116: 0.0, 117: 0.0, 118: 0.0, 119: 0.670322917, 120: 0.0, 121: 0.0, 122: 0.684522917, 123: 0.813322917, 124: 0.8373229170000001, 125: 0.875922917, 126: 0.0, 127: 0.0, 128: 0.0, 129: 0.0, 130: 0.0, 131: 1.206522917, 132: 0.296322917, 133: 0.0, 134: 0.802322917, 135: 0.0, 136: 1.475822917, 137: 0.8101229170000001, 138: 0.0, 139: 0.0, 140: 0.0, 141: 0.0, 142: 2.732022917, 143: 0.801322917, 144: 1.654822917, 145: 0.0, 146: 0.0, 147: 0.0, 148: 1.441622917, 149: 0.0, 150: 0.0, 151: 0.0, 152: 0.0, 153: 0.101822917, 154: 0.0, 155: 0.0, 156: 0.0, 157: 1.017922917, 158: 0.0, 159: 1.274822917, 160: 0.0, 161: 0.0, 162: 1.423822917, 163: 0.0, 164: 0.0, 165: 0.808022917, 166: 0.499882148, 167: 1.088622917, 168: 0.957022917, 169: 0.801522917, 170: 0.026522917, 171: 0.8685229169999999, 172: 0.844122917, 173: 0.8111229170000001, 174: 0.0, 175: 0.0, 176: 0.820322917, 177: 0.0, 178: 0.0, 179: 0.0, 180: 0.0, 181: 0.804822917, 182: 0.796122917, 183: 0.0, 184: 0.0, 185: 0.802622917, 186: 0.0, 187: 0.795122917, 188: 0.791322917, 189: 0.0, 190: 0.487322917, 191: 0.0];
charge = [0: 0.0, 1: 1.0, 2: 0.0, 3: 0.0, 4: 0.0, 5: 0.0, 6: 0.0, 7: 0.0, 8: 1.0, 9: 1.0, 10: 0.0, 11: 0.0, 12: 0.0, 13: 1.0, 14: 1.0, 15: 0.0, 16: 0.0, 17: 0.0, 18: 0.0, 19: 0.0, 20: 1.0, 21: 0.0, 22: 0.0, 23: 1.0, 24: 1.0, 25: 0.0, 26: 0.0, 27: 1.0, 28: 1.0, 29: 0.0, 30: 0.0, 31: 0.0, 32: 1.0, 33: 1.0, 34: 0.0, 35: 0.0, 36: 1.0, 37: 1.0, 38: 0.0, 39: 1.0, 40: 1.0, 41: 1.0, 42: 1.0, 43: 1.0, 44: 1.0, 45: 1.0, 46: 0.0, 47: 0.0, 48: 1.0, 49: 0.0, 50: 1.0, 51: 0.0, 52: 1.0, 53: 1.0, 54: 0.0, 55: 1.0, 56: 0.0, 57: 0.0, 58: 0.0, 59: 1.0, 60: 0.0, 61: 0.0, 62: 0.0, 63: 0.0, 64: 0.0, 65: 1.0, 66: 0.0, 67: 1.0, 68: 0.0, 69: 1.0, 70: 0.0, 71: 1.0, 72: 1.0, 73: 0.0, 74: 0.0, 75: 0.0, 76: 1.0, 77: 1.0, 78: 0.0, 79: 1.0, 80: 1.0, 81: 0.0, 82: 0.0, 83: 0.0, 84: 1.0, 85: 0.0, 86: 0.0, 87: 1.0, 88: 0.0, 89: 0.0, 90: 0.0, 91: 0.0, 92: 1.0, 93: 0.0, 94: 0.0, 95: 0.0, 96: 1.0, 97: 0.0, 98: 1.0, 99: 1.0, 100: 1.0, 101: 1.0, 102: 0.0, 103: 0.0, 104: 0.0, 105: 1.0, 106: 0.0, 107: 0.0, 108: 0.0, 109: 0.0, 110: 1.0, 111: 0.0, 112: 1.0, 113: 1.0, 114: 1.0, 115: 0.0, 116: 1.0, 117: 0.0, 118: 0.0, 119: 0.0, 120: 0.0, 121: 0.0, 122: 0.0, 123: 0.0, 124: 0.0, 125: 0.0, 126: 1.0, 127: 0.0, 128: 1.0, 129: 0.0, 130: 1.0, 131: 0.0, 132: 0.0, 133: 0.507622917, 134: 0.0, 135: 1.0, 136: 0.0, 137: 0.0, 138: 1.0, 139: 1.0, 140: 0.0, 141: 0.0, 142: 0.0, 143: 0.0, 144: 0.0, 145: 1.0, 146: 1.0, 147: 1.0, 148: 0.0, 149: 1.0, 150: 1.0, 151: 1.0, 152: 1.0, 153: 0.0, 154: 1.0, 155: 1.0, 156: 0.0, 157: 0.0, 158: 0.0, 159: 0.0, 160: 1.0, 161: 1.0, 162: 0.0, 163: 1.0, 164: 1.0, 165: 0.0, 166: 0.0, 167: 0.0, 168: 0.0, 169: 0.0, 170: 0.0, 171: 0.0, 172: 0.0, 173: 0.0, 174: 0.0, 175: 1.0, 176: 0.0, 177: 1.0, 178: 1.0, 179: 0.0, 180: 1.0, 181: 0.0, 182: 0.0, 183: 1.0, 184: 1.0, 185: 0.0, 186: 0.0, 187: 0.0, 188: 0.0, 189: 1.0, 190: 0.0, 191: 0.0];
discharge = [0: 1.0, 1: 0.0, 2: 1.0, 3: 1.0, 4: 0.0, 5: 1.0, 6: 0.0, 7: 1.0, 8: 0.0, 9: 0.0, 10: 1.0, 11: 1.0, 12: 1.0, 13: 0.0, 14: 0.0, 15: 0.0, 16: 1.0, 17: 0.0, 18: 0.0, 19: 1.0, 20: 0.0, 21: 1.0, 22: 0.0, 23: 0.0, 24: 0.0, 25: 1.0, 26: 1.0, 27: 0.0, 28: 0.0, 29: 1.0, 30: 0.0, 31: 1.0, 32: 0.0, 33: 0.0, 34: 1.0, 35: 1.0, 36: 0.0, 37: 0.0, 38: 0.0, 39: 0.0, 40: 0.0, 41: 0.0, 42: 0.0, 43: 0.0, 44: 0.0, 45: 0.0, 46: 0.0, 47: 0.0, 48: 0.0, 49: 0.0, 50: 0.0, 51: 1.0, 52: 0.0, 53: 0.0, 54: 0.0, 55: 0.0, 56: 1.0, 57: 1.0, 58: 1.0, 59: 0.0, 60: 0.0, 61: 1.0, 62: 0.166752315, 63: 1.0, 64: 0.0, 65: 0.0, 66: 1.0, 67: 0.0, 68: 1.0, 69: 0.0, 70: 1.0, 71: 0.0, 72: 0.0, 73: 1.0, 74: 1.0, 75: 0.0, 76: 0.0, 77: 0.0, 78: 1.0, 79: 0.0, 80: 0.0, 81: 1.0, 82: 1.0, 83: 1.0, 84: 0.0, 85: 0.0, 86: 1.0, 87: 0.0, 88: 1.0, 89: 1.0, 90: 1.0, 91: 0.0, 92: 0.0, 93: 0.0, 94: 0.0, 95: 0.0, 96: 0.0, 97: 0.0, 98: 0.0, 99: 0.0, 100: 0.0, 101: 0.0, 102: 0.0, 103: 0.0, 104: 0.0, 105: 0.0, 106: 0.0, 107: 0.0, 108: 0.0, 109: 0.0, 110: 0.0, 111: 1.0, 112: 0.0, 113: 0.0, 114: 0.0, 115: 1.0, 116: 0.0, 117: 0.0, 118: 0.07221728700000001, 119: 1.0, 120: 0.251863426, 121: 0.0, 122: 1.0, 123: 1.0, 124: 1.0, 125: 1.0, 126: 0.0, 127: 0.0, 128: 0.0, 129: 0.0, 130: 0.0, 131: 1.0, 132: 0.0, 133: 0.0, 134: 1.0, 135: 0.0, 136: 1.0, 137: 1.0, 138: 0.0, 139: 0.0, 140: 0.0, 141: 0.0, 142: 1.0, 143: 1.0, 144: 1.0, 145: 0.0, 146: 0.0, 147: 0.0, 148: 1.0, 149: 0.0, 150: 0.0, 151: 0.0, 152: 0.0, 153: 1.0, 154: 0.0, 155: 0.0, 156: 0.0, 157: 1.0, 158: 0.0, 159: 1.0, 160: 0.0, 161: 0.0, 162: 1.0, 163: 0.0, 164: 0.0, 165: 1.0, 166: 0.394732479, 167: 1.0, 168: 1.0, 169: 1.0, 170: 0.0, 171: 1.0, 172: 1.0, 173: 1.0, 174: 0.0, 175: 0.0, 176: 1.0, 177: 0.0, 178: 0.0, 179: 0.0, 180: 0.0, 181: 1.0, 182: 1.0, 183: 0.0, 184: 0.0, 185: 1.0, 186: 0.0, 187: 1.0, 188: 1.0, 189: 0.0, 190: 1.0, 191: 0.0];
soc = [0: 7.928214, 1: 8.826628357000001, 2: 7.824863032, 3: 6.823298059, 4: 6.821933399, 5: 5.820569013, 6: 5.819404899, 7: 4.818241018, 8: 5.71727737, 9: 6.616133914, 10: 5.614810687, 11: 4.613687725, 12: 3.612764988, 13: 4.512042435, 14: 5.411140026, 15: 5.410057798, 16: 4.408975787, 17: 4.408093991, 18: 4.407212373, 19: 3.40633093, 20: 4.305649664, 21: 3.304788534, 22: 3.304127576, 23: 4.203466751, 24: 5.102626058, 25: 4.101605532, 26: 3.100785211, 27: 4.000165054, 28: 4.899365021, 29: 3.898385148, 30: 3.897605471, 31: 2.89682595, 32: 3.796246585, 33: 4.695487336, 34: 3.694548238, 35: 2.693809328, 36: 3.593270567, 37: 4.492551912, 38: 4.491653402, 39: 5.390755071, 40: 6.28967692, 41: 7.188418985, 42: 8.086981301, 43: 8.985363905, 44: 9.883566832, 45: 10.781590119, 46: 10.779433801, 47: 10.777277914, 48: 11.675122458, 49: 11.672787434, 50: 12.570452876, 51: 11.567938786, 52: 12.465625198, 53: 13.363132073, 54: 13.360459447, 55: 14.257787355, 56: 13.254935797, 57: 12.25228481, 58: 11.249834353, 59: 12.147584386, 60: 12.145154869, 61: 11.142725838, 62: 10.973744978, 63: 9.971550229, 64: 9.969555918999999, 65: 10.867562008, 66: 9.865388496, 67: 10.763415418, 68: 9.761262735000001, 69: 10.659310482, 70: 9.65717862, 71: 10.555247185, 72: 11.453136135, 73: 10.450845508, 74: 9.448755339, 75: 9.446865588, 76: 10.344976215, 77: 11.242907219, 78: 10.240658638, 79: 11.138610506, 80: 12.036382784, 81: 11.033975508, 82: 10.031768713, 83: 9.029762358999999, 84: 9.927956406, 85: 9.925970814999999, 86: 8.923985621, 87: 9.822200823999999, 88: 8.820236383999999, 89: 7.818472336, 90: 6.816908642, 91: 6.81554526, 92: 7.714182151, 93: 7.712639315, 94: 7.711096787, 95: 7.709554567, 96: 8.608012657, 97: 8.606291054, 98: 9.504569796, 99: 10.402668882, 100: 11.300588348, 101: 12.19832823, 102: 12.195888565, 103: 12.193449387, 104: 12.191010697, 105: 13.088572495, 106: 13.08595478, 107: 13.08333759, 108: 13.080720922, 109: 13.078104778, 110: 13.975489157, 111: 12.972694059, 112: 13.87009952, 113: 14.7673255, 114: 15.664372035, 115: 14.661239161, 116: 15.558306913, 117: 15.555195252, 118: 15.479866926, 119: 14.476770953, 120: 14.222012172, 121: 14.21916777, 122: 13.216323936, 123: 12.213680672, 124: 11.211237936, 125: 10.208995688, 126: 11.106953889, 127: 11.104732498, 128: 12.002511552, 129: 12.000111049, 130: 12.897711027, 131: 11.895131485, 132: 11.892752459, 133: 12.347234533, 134: 11.344765086, 135: 12.242496133, 136: 11.240047634, 137: 10.237799624, 138: 11.135752064, 139: 12.033524914, 140: 12.031118209, 141: 12.028711985, 142: 11.026306243, 143: 10.024100982, 144: 9.022096162, 145: 9.920291742, 146: 10.818307684, 147: 11.716144022, 148: 10.713800794, 149: 11.611658033, 150: 12.509335702, 151: 13.406833835, 152: 14.304152468, 153: 13.301291637, 154: 14.198631379, 155: 15.095791653, 156: 15.092772495, 157: 14.08975394, 158: 14.086935989, 159: 13.084118602, 160: 13.981501778, 161: 14.878705478, 162: 13.875729737, 163: 14.772954591, 164: 15.67, 165: 14.666866, 166: 14.269200148, 167: 13.266346308, 168: 12.263693038, 169: 11.2612403, 170: 11.258988052, 171: 10.256736254, 172: 9.254684907, 173: 8.252833969999999, 174: 8.251183403000001, 175: 9.149533165999999, 176: 8.14770326, 177: 9.046073719000001, 178: 9.944264504, 179: 9.942275650999999, 180: 10.840287196, 181: 9.838119139, 182: 8.836151514999999, 183: 9.734384285000001, 184: 10.632437408, 185: 9.630310919999999, 186: 9.628384858, 187: 8.626459181, 188: 7.624733889, 189: 8.523208943, 190: 7.521504301, 191: 7.52];
cost = [0: 0.0, 1: 0.858880416, 2: 0.0, 3: 0.0, 4: 0.13175713, 5: 0.0, 6: 0.13401746, 7: 0.0, 8: 0.8643174260000001, 9: 0.859308046, 10: 0.0, 11: 0.0, 12: 0.0, 13: 0.8648061460000001, 14: 0.860835296, 15: 0.13145168, 16: 0.0, 17: 0.13646106, 18: 0.13969883, 19: 0.0, 20: 0.865111596, 21: 0.0, 22: 0.14092063, 23: 0.867066476, 24: 1.566964744, 25: 0.0, 26: 0.0, 27: 1.541388344, 28: 1.560184024, 29: 0.0, 30: 0.0, 31: 0.0, 32: 1.321312344, 33: 1.560184024, 34: 0.0, 35: 0.0, 36: 0.971569944, 37: 1.423023144, 38: 0.105490258, 39: 0.793843704, 40: 0.653708824, 41: 0.319074344, 42: 0.194761144, 43: 1.416004504, 44: 1.416837224, 45: 1.423380024, 46: 0.0, 47: 0.0, 48: 1.412078824, 49: 0.0, 50: 0.326211944, 51: 0.0, 52: 0.460390346, 53: 0.118178165, 54: 0.06199235, 55: 0.791070516, 56: 0.0, 57: 0.0, 58: 0.0, 59: 1.216073646, 60: 0.119170658, 61: 0.0, 62: 0.0, 63: 0.0, 64: 0.115244978, 65: 1.063882904, 66: 0.0, 67: 1.412316744, 68: 0.0, 69: 1.172374424, 70: 0.0, 71: 1.425521304, 72: 1.292642984, 73: 0.0, 74: 0.0, 75: 0.09942329799999999, 76: 1.405179144, 77: 1.403394744, 78: 0.0, 79: 1.412673624, 80: 1.411127144, 81: 0.0, 82: 0.0, 83: 0.0, 84: 1.430160744, 85: 0.124523858, 86: 0.0, 87: 1.420406024, 88: 0.0, 89: 0.0, 90: 0.0, 91: 0.05997638, 92: 0.7884436460000001, 93: 0.16749478, 94: 0.22980658, 95: 0.23267781, 96: 0.957174226, 97: 0.23011203, 98: 0.945444946, 99: 0.918992976, 100: 0.915633026, 101: 0.9104403760000001, 102: 0.15497133, 103: 0.15955308, 104: 0.15967526, 105: 0.868899176, 106: 0.13328438, 107: 0.13358983, 108: 0.13951556, 109: 0.13921011, 110: 0.868593726, 111: 0.0, 112: 0.863889796, 113: 0.869693346, 114: 0.869693346, 115: 0.0, 116: 0.863889796, 117: 0.13493381, 118: 0.100726124, 119: 0.0, 120: 0.0, 121: 0.258948658, 122: 0.0, 123: 0.0, 124: 0.0, 125: 0.0, 126: 1.305014824, 127: 0.093832178, 128: 1.163690344, 129: 0.102278338, 130: 1.410532344, 131: 0.0, 132: 0.0, 133: 0.059989945, 134: 0.0, 135: 0.529752504, 136: 0.0, 137: 0.0, 138: 1.427900504, 139: 1.428138424, 140: 0.106322978, 141: 0.110010738, 142: 0.0, 143: 0.0, 144: 0.0, 145: 0.416026744, 146: 1.414458024, 147: 0.544027704, 148: 0.0, 149: 0.788565826, 150: 0.507612916, 151: 0.784350616, 152: 0.783250996, 153: 0.0, 154: 1.231040696, 155: 0.856742266, 156: 0.193163778, 157: 0.0, 158: 0.534935858, 159: 0.0, 160: 1.418621624, 161: 1.418026824, 162: 0.0, 163: 0.118178165, 164: 1.425164424, 165: 0.0, 166: 0.0, 167: 0.0, 168: 0.0, 169: 0.0, 170: 0.0, 171: 0.0, 172: 0.0, 173: 0.0, 174: 0.103111058, 175: 1.401967224, 176: 0.0, 177: 1.410294424, 178: 1.412316744, 179: 0.104895458, 180: 1.420406024, 181: 0.0, 182: 0.0, 183: 1.433134744, 184: 0.7951635460000001, 185: 0.0, 186: 0.05997638, 187: 0.0, 188: 0.0, 189: 0.891991196, 190: 0.0, 191: 0.25650291];
earn = [0: 0.35438048, 1: 0.0, 2: 0.341235285, 3: 0.33650754, 4: 0.0, 5: 0.30855173, 6: 0.0, 7: 0.272000276, 8: 0.0, 9: 0.0, 10: 0.252086407, 11: 0.248997233, 12: 0.251778125, 13: 0.0, 14: 0.0, 15: 0.0, 16: 0.27532775, 17: 0.0, 18: 0.0, 19: 0.310475126, 20: 0.0, 21: 0.345363586, 22: 0.0, 23: 0.0, 24: 0.0, 25: 0.461165214, 26: 0.489723891, 27: 0.0, 28: 0.0, 29: 0.770625047, 30: 0.012819371, 31: 0.807539505, 32: 0.0, 33: 0.0, 34: 0.66389688, 35: 0.579496726, 36: 0.0, 37: 0.0, 38: 0.0, 39: 0.0, 40: 0.0, 41: 0.0, 42: 0.0, 43: 0.0, 44: 0.0, 45: 0.0, 46: 0.505465239, 47: 0.202391281, 48: 0.0, 49: 0.149973985, 50: 0.0, 51: 0.254110415, 52: 0.0, 53: 0.032589243, 54: 0.0, 55: 0.0, 56: 0.6234267449999999, 57: 0.085136429, 58: 0.149770932, 59: 0.0, 60: 0.0, 61: 0.238859759, 62: 0.0, 63: 0.440896626, 64: 0.0, 65: 0.0, 66: 0.701810201, 67: 0.0, 68: 0.71156541, 69: 0.0, 70: 0.527591008, 71: 0.0, 72: 0.0, 73: 0.7138506100000001, 74: 0.640733874, 75: 0.0, 76: 0.0, 77: 0.0, 78: 0.898801094, 79: 0.0, 80: 0.0, 81: 0.795347731, 82: 0.759454956, 83: 0.711729194, 84: 0.0, 85: 0.0, 86: 0.576843415, 87: 0.0, 88: 0.552984425, 89: 0.513626861, 90: 0.503204705, 91: 0.0, 92: 0.0, 93: 0.0, 94: 0.0, 95: 0.0, 96: 0.0, 97: 0.0, 98: 0.0, 99: 0.0, 100: 0.0, 101: 0.0, 102: 0.0, 103: 0.0, 104: 0.0, 105: 0.0, 106: 0.0, 107: 0.0, 108: 0.0, 109: 0.0, 110: 0.0, 111: 0.37277317, 112: 0.0, 113: 0.0, 114: 0.0, 115: 0.374899912, 116: 0.0, 117: 0.0, 118: 0.0, 119: 0.435575831, 120: 0.0, 121: 0.0, 122: 0.56931771, 123: 0.733617271, 124: 0.76874617, 125: 0.824856611, 126: 0.0, 127: 0.0, 128: 0.0, 129: 0.0, 130: 0.0, 131: 0.946999837, 132: 0.23960671, 133: 0.0, 134: 0.571414381, 135: 0.0, 136: 1.014333091, 137: 0.530225449, 138: 0.0, 139: 0.0, 140: 0.0, 141: 0.0, 142: 1.596047788, 143: 0.459318296, 144: 0.928024692, 145: 0.0, 146: 0.0, 147: 0.0, 148: 0.8308072869999999, 149: 0.0, 150: 0.0, 151: 0.0, 152: 0.0, 153: 0.050738359, 154: 0.0, 155: 0.0, 156: 0.0, 157: 0.520769364, 158: 0.0, 159: 0.707399236, 160: 0.0, 161: 0.0, 162: 0.831797348, 163: 0.0, 164: 0.0, 165: 0.495318048, 166: 0.310726743, 167: 0.731881187, 168: 0.702263416, 169: 0.619737519, 170: 0.021754096, 171: 0.698639834, 172: 0.777352794, 173: 0.789465935, 174: 0.0, 175: 0.0, 176: 0.794154616, 177: 0.0, 178: 0.0, 179: 0.0, 180: 0.0, 181: 0.689894204, 182: 0.667549066, 183: 0.0, 184: 0.0, 185: 0.640412825, 186: 0.0, 187: 0.615186601, 188: 0.591197351, 189: 0.0, 190: 0.359449383, 191: 0.0];
total_cost = 85.353050534;
total_earn = 41.184386445;
