production = [0: 0.0, 1: 0.0, 2: 0.0, 3: 0.0, 4: 0.0, 5: 0.0, 6: 0.0, 7: 0.0, 8: 0.0, 9: 0.0, 10: 0.0, 11: 0.0, 12: 0.0, 13: 0.0, 14: 0.0, 15: 0.0, 16: 0.0, 17: 0.0, 18: 0.0, 19: 0.0, 20: 0.0, 21: 0.0, 22: 0.0, 23: 0.0, 24: 0.0, 25: 0.0003, 26: 0.0, 27: 0.0245, 28: 0.0, 29: 0.06, 30: 0.0, 31: 0.1623, 32: 0.2055, 33: 0.0, 34: 0.0, 35: 0.2577, 36: 0.38, 37: 0.0, 38: 0.7758, 39: 0.0, 40: 0.0, 41: 0.928, 42: 1.0248, 43: 1.2277, 44: 0.0, 45: 0.0, 46: 1.5045, 47: 0.0, 48: 0.8625, 49: 0.5285, 50: 0.9223, 51: 0.0, 52: 0.0, 53: 1.1767, 54: 0.7698, 55: 0.0, 56: 0.6987, 57: 0.0, 58: 0.0, 59: 0.0, 60: 0.5467, 61: 0.0, 62: 0.0, 63: 0.0, 64: 0.4075, 65: 0.0, 66: 0.4733, 67: 0.0, 68: 0.0, 69: 0.0, 70: 0.1737, 71: 0.0, 72: 0.0, 73: 0.0, 74: 0.0, 75: 0.0, 76: 0.0, 77: 0.0018, 78: 0.0005, 79: 0.0, 80: 0.0, 81: 0.0, 82: 0.0, 83: 0.0, 84: 0.0, 85: 0.0, 86: 0.0, 87: 0.0, 88: 0.0, 89: 0.0, 90: 0.0, 91: 0.0, 92: 0.0, 93: 0.0, 94: 0.0, 95: 0.0, 96: 0.0, 97: 0.0, 98: 0.0, 99: 0.0, 100: 0.0, 101: 0.0, 102: 0.0, 103: 0.0, 104: 0.0, 105: 0.0, 106: 0.0, 107: 0.0, 108: 0.0, 109: 0.0, 110: 0.0, 111: 0.0, 112: 0.0, 113: 0.0, 114: 0.0, 115: 0.0, 116: 0.0, 117: 0.0, 118: 0.0, 119: 0.0, 120: 0.0, 121: 0.0, 122: 0.0, 123: 0.0073, 124: 0.0, 125: 0.0558, 126: 0.082, 127: 0.0, 128: 0.0, 129: 0.0, 130: 0.379, 131: 0.0, 132: 0.385, 133: 0.6048, 134: 0.5155, 135: 0.0, 136: 0.6655, 137: 0.724, 138: 0.0, 139: 0.0, 140: 1.0043, 141: 0.0, 142: 0.09317708299999999, 143: 0.0, 144: 0.852, 145: 0.8393, 146: 1.0237, 147: 0.7392, 148: 0.638, 149: 0.3043, 150: 0.0, 151: 0.0, 152: 0.3765, 153: 0.0, 154: 0.6162, 155: 0.596, 156: 0.0, 157: 0.5643, 158: 0.0, 159: 0.0, 160: 0.5985, 161: 0.585, 162: 0.6248, 163: 1.21, 164: 0.0, 165: 0.0, 166: 0.0, 167: 0.285, 168: 0.0, 169: 0.1608, 170: 0.118, 171: 0.0592, 172: 0.0318, 173: 0.006, 174: 0.0018, 175: 0.0005, 176: 0.0003, 177: 0.0, 178: 0.0, 179: 0.0, 180: 0.0, 181: 0.0, 182: 0.0, 183: 0.0, 184: 0.0, 185: 0.0, 186: 0.0, 187: 0.0, 188: 0.0, 189: 0.0, 190: 0.0, 191: 0.0];
buy = [0: 1.214677083, 1: 0.212477083, 2: 0.0, 3: 1.222377083, 4: 1.215677083, 5: 1.214177083, 6: 0.0, 7: 1.222877083, 8: 1.221377083, 9: 0.213177083, 10: 0.213677083, 11: 0.223377083, 12: 1.223177083, 13: 0.0, 14: 1.215677083, 15: 0.0, 16: 0.0, 17: 1.223377083, 18: 0.0, 19: 1.220177083, 20: 1.222677083, 21: 1.223877083, 22: 1.230677083, 23: 0.0, 24: 0.796600239, 25: 0.215377083, 26: 1.220677083, 27: 0.0, 28: 0.0, 29: 1.018177083, 30: 0.087177083, 31: 0.923177083, 32: 1.011377083, 33: 0.0, 34: 1.211477083, 35: 0.0, 36: 0.0, 37: 0.096877083, 38: 0.0, 39: 0.0, 40: 0.0, 41: 0.0, 42: 0.064377083, 43: 0.0, 44: 1.091677083, 45: 1.097177083, 46: 0.0, 47: 0.0, 48: 0.0, 49: 0.0, 50: 0.174877083, 51: 0.097377083, 52: 1.088677083, 53: 0.0, 54: 0.331677083, 55: 0.0, 56: 0.0, 57: 1.700477083, 58: 0.581677083, 59: 1.797177083, 60: 0.553477083, 61: 1.442677083, 62: 0.0, 63: 0.0, 64: 0.0, 65: 0.09797708300000001, 66: 0.0, 67: 0.0, 68: 0.0, 69: 0.0, 70: 0.0, 71: 0.0, 72: 0.0, 73: 1.095177083, 74: 1.097377083, 75: 0.095877083, 76: 1.086877083, 77: 1.078577083, 78: 0.0, 79: 0.0, 80: 1.086877083, 81: 0.079377083, 82: 1.079677083, 83: 0.095877083, 84: 0.102877083, 85: 1.104677083, 86: 1.093677083, 87: 0.094677083, 88: 0.0, 89: 1.107977083, 90: 0.0, 91: 0.098177083, 92: 1.097177083, 93: 0.274177083, 94: 0.376177083, 95: 1.380877083, 96: 0.373377083, 97: 1.376677083, 98: 0.293509673, 99: 0.310877083, 100: 0.305377083, 101: 0.296877083, 102: 0.0, 103: 0.0, 104: 1.261377083, 105: 1.228877083, 106: 1.218177083, 107: 1.218677083, 108: 0.228377083, 109: 0.0, 110: 0.228377083, 111: 0.0, 112: 0.220677083, 113: 1.230177083, 114: 0.0, 115: 0.0, 116: 0.0, 117: 1.220877083, 118: 0.229877083, 119: 0.229677083, 120: 1.226677083, 121: 1.217677083, 122: 0.0, 123: 1.079377083, 124: 1.085677083, 125: 0.0, 126: 0.0, 127: 0.078877083, 128: 0.0, 129: 0.0, 130: 0.707377083, 131: 0.0, 132: 0.703677083, 133: 0.0, 134: 0.582177083, 135: 1.096177083, 136: 0.0, 137: 0.0, 138: 1.100977083, 139: 0.817827218, 140: 0.085077083, 141: 0.0, 142: 0.0, 143: 0.0, 144: 0.245177083, 145: 0.0, 146: 0.0, 147: 0.357977083, 148: 0.0, 149: 0.0, 150: 0.09067708300000001, 151: 0.0, 152: 0.0, 153: 0.798177083, 154: 0.0, 155: 0.0, 156: 0.0, 157: 0.0, 158: 1.449677083, 159: 0.451177083, 160: 0.494677083, 161: 0.507677083, 162: 0.476177083, 163: 0.0, 164: 1.098677083, 165: 0.0, 166: 0.0, 167: 0.0, 168: 0.099177083, 169: 0.0, 170: 0.0, 171: 0.0, 172: 0.0, 173: 1.082877083, 174: 1.084877083, 175: 0.0, 176: 1.079377083, 177: 1.086177083, 178: 0.08787708299999999, 179: 0.0, 180: 0.608030862, 181: 0.0, 182: 0.103877083, 183: 1.105377083, 184: 0.0, 185: 0.0, 186: 1.098177083, 187: 1.104877083, 188: 0.0, 189: 1.266677083, 190: 0.0, 191: 0.0];
sell = [0: 0.0, 1: 0.0, 2: 0.677322917, 3: 0.0, 4: 0.0, 5: 0.0, 6: 0.680622917, 7: 0.0, 8: 0.0, 9: 0.0, 10: 0.0, 11: 0.0, 12: 0.0, 13: 0.677822917, 14: 0.0, 15: 0.684822917, 16: 0.674822917, 17: 0.0, 18: 0.671322917, 19: 0.0, 20: 0.0, 21: 0.0, 22: 0.0, 23: 0.674122917, 24: 0.0, 25: 0.0, 26: 0.0, 27: 0.703622917, 28: 0.687822917, 29: 0.0, 30: 0.0, 31: 0.0, 32: 0.0, 33: 0.687822917, 34: 0.0, 35: 0.934822917, 36: 0.0, 37: 0.0, 38: 1.587122917, 39: 0.810822917, 40: 0.802322917, 41: 1.731122917, 42: 0.0, 43: 0.136722917, 44: 0.0, 45: 0.0, 46: 0.406022917, 47: 0.804622917, 48: 1.674822917, 49: 1.340322917, 50: 0.0, 51: 0.0, 52: 0.0, 53: 1.985222917, 54: 0.0, 55: 0.798522917, 56: 1.496822917, 57: 0.0, 58: 0.0, 59: 0.0, 60: 0.0, 61: 0.0, 62: 0.458122917, 63: 0.459622917, 64: 1.210622917, 65: 0.0, 66: 1.275322917, 67: 0.8121229170000001, 68: 0.811622917, 69: 0.801822917, 70: 0.07502291699999999, 71: 0.8010229169999999, 72: 0.0, 73: 0.0, 74: 0.0, 75: 0.0, 76: 0.0, 77: 0.0, 78: 0.820822917, 79: 0.811822917, 80: 0.0, 81: 0.0, 82: 0.0, 83: 0.0, 84: 0.0, 85: 0.0, 86: 0.0, 87: 0.0, 88: 0.802822917, 89: 0.0, 90: 0.792822917, 91: 0.0, 92: 0.0, 93: 0.0, 94: 0.0, 95: 0.0, 96: 0.0, 97: 0.0, 98: 0.0, 99: 0.0, 100: 0.0, 101: 0.0, 102: 0.646322917, 103: 0.638822917, 104: 0.0, 105: 0.0, 106: 0.0, 107: 0.0, 108: 0.0, 109: 0.672122917, 110: 0.0, 111: 0.096274686, 112: 0.0, 113: 0.0, 114: 0.669822917, 115: 0.671622917, 116: 0.679322917, 117: 0.0, 118: 0.0, 119: 0.0, 120: 0.0, 121: 0.0, 122: 0.682322917, 123: 0.0, 124: 0.0, 125: 0.875922917, 126: 0.002322917, 127: 0.0, 128: 0.8131229169999999, 129: 0.814022917, 130: 0.0, 131: 0.810822917, 132: 0.0, 133: 0.507622917, 134: 0.0, 135: 0.0, 136: 1.475822917, 137: 1.534122917, 138: 0.0, 139: 0.0, 140: 0.0, 141: 0.807522917, 142: 0.0, 143: 0.0, 144: 0.0, 145: 0.500021445, 146: 1.834022917, 147: 0.0, 148: 1.441622917, 149: 1.106922917, 150: 0.0, 151: 0.809522917, 152: 1.187822917, 153: 0.0, 154: 0.694522917, 155: 0.691022917, 156: 0.473622917, 157: 1.017922917, 158: 0.0, 159: 0.0, 160: 0.0, 161: 0.0, 162: 0.0, 163: 1.112022917, 164: 0.0, 165: 0.808022917, 166: 0.810822917, 167: 1.088622917, 168: 0.0, 169: 0.062322917, 170: 0.026522917, 171: 0.8685229169999999, 172: 0.844122917, 173: 0.0, 174: 0.0, 175: 0.820822917, 176: 0.0, 177: 0.0, 178: 0.0, 179: 0.811822917, 180: 0.0, 181: 0.804822917, 182: 0.0, 183: 0.0, 184: 0.0, 185: 0.802622917, 186: 0.0, 187: 0.0, 188: 0.791322917, 189: 0.0, 190: 0.487322917, 191: 0.480122917];
charge = [0: 1.0, 1: 0.0, 2: 0.0, 3: 1.0, 4: 1.0, 5: 1.0, 6: 0.0, 7: 1.0, 8: 1.0, 9: 0.0, 10: 0.0, 11: 0.0, 12: 1.0, 13: 0.0, 14: 1.0, 15: 0.0, 16: 0.0, 17: 1.0, 18: 0.0, 19: 1.0, 20: 1.0, 21: 1.0, 22: 1.0, 23: 0.0, 24: 0.578723156, 25: 0.0, 26: 1.0, 27: 0.0, 28: 0.0, 29: 1.0, 30: 0.0, 31: 1.0, 32: 1.0, 33: 0.0, 34: 1.0, 35: 0.0, 36: 0.282622917, 37: 0.0, 38: 0.0, 39: 0.0, 40: 0.0, 41: 0.0, 42: 1.0, 43: 1.0, 44: 1.0, 45: 1.0, 46: 1.0, 47: 0.0, 48: 0.0, 49: 0.0, 50: 1.0, 51: 0.0, 52: 1.0, 53: 0.0, 54: 1.0, 55: 0.0, 56: 0.0, 57: 1.0, 58: 0.0, 59: 1.0, 60: 1.0, 61: 1.0, 62: 0.0, 63: 0.0, 64: 0.0, 65: 0.0, 66: 0.0, 67: 0.0, 68: 0.0, 69: 0.0, 70: 0.0, 71: 0.0, 72: 0.0, 73: 1.0, 74: 1.0, 75: 0.0, 76: 1.0, 77: 1.0, 78: 0.0, 79: 0.0, 80: 1.0, 81: 0.0, 82: 1.0, 83: 0.0, 84: 0.0, 85: 1.0, 86: 1.0, 87: 0.0, 88: 0.0, 89: 1.0, 90: 0.0, 91: 0.0, 92: 1.0, 93: 0.0, 94: 0.0, 95: 1.0, 96: 0.0, 97: 1.0, 98: 0.0, 99: 0.0, 100: 0.0, 101: 0.0, 102: 0.0, 103: 0.0, 104: 1.0, 105: 1.0, 106: 1.0, 107: 1.0, 108: 0.0, 109: 0.0, 110: 0.0, 111: 0.0, 112: 0.0, 113: 1.0, 114: 0.0, 115: 0.0, 116: 0.0, 117: 1.0, 118: 0.0, 119: 0.0, 120: 1.0, 121: 1.0, 122: 0.0, 123: 1.0, 124: 1.0, 125: 0.0, 126: 0.0, 127: 0.0, 128: 0.0, 129: 0.0, 130: 1.0, 131: 0.0, 132: 1.0, 133: 0.0, 134: 1.0, 135: 1.0, 136: 0.0, 137: 0.0, 138: 1.0, 139: 0.716650135, 140: 1.0, 141: 0.0, 142: 0.0, 143: 0.0, 144: 1.0, 145: 0.249601472, 146: 0.0, 147: 1.0, 148: 0.0, 149: 0.0, 150: 0.0, 151: 0.0, 152: 0.0, 153: 0.0, 154: 0.0, 155: 0.0, 156: 0.0, 157: 0.0, 158: 1.0, 159: 0.0, 160: 1.0, 161: 1.0, 162: 1.0, 163: 0.0, 164: 1.0, 165: 0.0, 166: 0.0, 167: 0.0, 168: 0.0, 169: 0.0, 170: 0.0, 171: 0.0, 172: 0.0, 173: 1.0, 174: 1.0, 175: 0.0, 176: 1.0, 177: 1.0, 178: 0.0, 179: 0.0, 180: 0.513353778, 181: 0.0, 182: 0.0, 183: 1.0, 184: 0.0, 185: 0.0, 186: 1.0, 187: 1.0, 188: 0.0, 189: 1.0, 190: 0.0, 191: 0.0];
discharge = [0: 0.0, 1: 0.0, 2: 1.0, 3: 0.0, 4: 0.0, 5: 0.0, 6: 1.0, 7: 0.0, 8: 0.0, 9: 0.0, 10: 0.0, 11: 0.0, 12: 0.0, 13: 1.0, 14: 0.0, 15: 1.0, 16: 1.0, 17: 0.0, 18: 1.0, 19: 0.0, 20: 0.0, 21: 0.0, 22: 0.0, 23: 1.0, 24: 0.0, 25: 0.0, 26: 0.0, 27: 1.0, 28: 1.0, 29: 0.0, 30: 0.0, 31: 0.0, 32: 0.0, 33: 1.0, 34: 0.0, 35: 1.0, 36: 0.0, 37: 0.0, 38: 1.0, 39: 1.0, 40: 1.0, 41: 1.0, 42: 0.0, 43: 0.0, 44: 0.0, 45: 0.0, 46: 0.0, 47: 1.0, 48: 1.0, 49: 1.0, 50: 0.0, 51: 0.0, 52: 0.0, 53: 1.0, 54: 0.0, 55: 1.0, 56: 1.0, 57: 0.0, 58: 0.0, 59: 0.0, 60: 0.0, 61: 0.0, 62: 1.0, 63: 1.0, 64: 1.0, 65: 0.0, 66: 1.0, 67: 1.0, 68: 1.0, 69: 1.0, 70: 0.0, 71: 1.0, 72: 0.101085648, 73: 0.0, 74: 0.0, 75: 0.0, 76: 0.0, 77: 0.0, 78: 1.0, 79: 1.0, 80: 0.0, 81: 0.0, 82: 0.0, 83: 0.0, 84: 0.0, 85: 0.0, 86: 0.0, 87: 0.0, 88: 1.0, 89: 0.0, 90: 1.0, 91: 0.0, 92: 0.0, 93: 0.0, 94: 0.0, 95: 0.0, 96: 0.0, 97: 0.0, 98: 0.067408234, 99: 0.0, 100: 0.0, 101: 0.0, 102: 1.0, 103: 1.0, 104: 0.0, 105: 0.0, 106: 0.0, 107: 0.0, 108: 0.0, 109: 1.0, 110: 0.0, 111: 0.351835299, 112: 0.0, 113: 0.0, 114: 1.0, 115: 1.0, 116: 1.0, 117: 0.0, 118: 0.0, 119: 0.0, 120: 0.0, 121: 0.0, 122: 1.0, 123: 0.0, 124: 0.0, 125: 1.0, 126: 0.0, 127: 0.0, 128: 1.0, 129: 1.0, 130: 0.0, 131: 1.0, 132: 0.0, 133: 0.0, 134: 0.0, 135: 0.0, 136: 1.0, 137: 1.0, 138: 0.0, 139: 0.0, 140: 0.0, 141: 1.0, 142: 0.0, 143: 0.109641204, 144: 0.0, 145: 0.0, 146: 1.0, 147: 0.0, 148: 1.0, 149: 1.0, 150: 0.0, 151: 1.0, 152: 1.0, 153: 0.0, 154: 1.0, 155: 1.0, 156: 1.0, 157: 1.0, 158: 0.0, 159: 0.0, 160: 0.0, 161: 0.0, 162: 0.0, 163: 0.0, 164: 0.0, 165: 1.0, 166: 1.0, 167: 1.0, 168: 0.0, 169: 0.0, 170: 0.0, 171: 1.0, 172: 1.0, 173: 0.0, 174: 0.0, 175: 1.0, 176: 0.0, 177: 0.0, 178: 0.0, 179: 1.0, 180: 0.0, 181: 1.0, 182: 0.0, 183: 0.0, 184: 0.120196759, 185: 1.0, 186: 0.0, 187: 0.0, 188: 1.0, 189: 0.0, 190: 1.0, 191: 1.0];
soc = [0: 9.828213999999999, 1: 9.826248357000001, 2: 8.824283107999999, 3: 9.722518251, 4: 10.620573747, 5: 11.518449633, 6: 10.516145943, 7: 11.414042713, 8: 12.311759905, 9: 12.309297553, 10: 12.306835693, 11: 12.304374326, 12: 13.201913451, 13: 12.199273069, 14: 13.096833214, 15: 12.094213847, 16: 11.091795005, 17: 11.989576646, 18: 10.98717873, 19: 11.884981295, 20: 12.782604298, 21: 13.680047777, 22: 14.577311768, 23: 13.574396306, 24: 14.092532266, 25: 14.08971376, 26: 14.986895817, 27: 13.983898438, 28: 12.981101658, 29: 13.878505438, 30: 13.875729737, 31: 14.772954591, 32: 15.67, 33: 14.666866, 34: 15.563932627, 35: 14.56081984, 36: 14.812268301, 37: 14.809305848, 38: 13.806343986, 39: 12.803582718, 40: 11.801022001, 41: 10.798661797, 42: 11.696502064, 43: 12.594162764, 44: 13.491643931, 45: 14.388945603, 46: 15.286067814, 47: 14.2830106, 48: 13.280153998, 49: 12.277497967, 50: 13.175042467, 51: 13.172407459, 52: 14.069772977, 53: 13.066959023, 54: 13.964345631, 55: 12.961552762, 56: 11.958960451, 57: 12.856568659, 58: 12.853997346, 59: 13.751426546, 60: 14.648676261, 61: 15.545746526, 62: 14.542637376, 63: 13.539728849, 64: 12.537020903, 65: 12.534513499, 66: 11.532006596, 67: 10.529700195, 68: 9.527594255, 69: 8.525688735999999, 70: 8.523983597999999, 71: 7.522278801, 72: 7.419688697, 73: 8.31820476, 74: 9.216541119, 75: 9.214697811000001, 76: 10.112854871, 77: 11.0108323, 78: 10.008630134, 79: 9.006628407999999, 80: 9.904827082000001, 81: 9.902846115999999, 82: 10.800865547, 83: 10.798705374, 84: 10.796545633, 85: 11.694386324, 86: 12.592047447, 87: 12.589529037, 88: 11.587011131, 89: 12.484693729, 90: 11.48219679, 91: 11.479900351, 92: 12.377604371, 93: 12.37512885, 94: 12.372653824, 95: 13.270179294, 96: 13.267525258, 97: 14.164871753, 98: 14.094630544, 99: 14.091811618, 100: 14.088993256, 101: 14.086175457, 102: 13.083358222, 103: 12.08074155, 104: 12.978325402, 105: 13.875729737, 106: 14.772954591, 107: 15.67, 108: 15.666866, 109: 14.663732627, 110: 14.66079988, 111: 14.306032422, 112: 14.303171215, 113: 15.200310581, 114: 14.197270519, 115: 13.194431065, 116: 12.191792178, 117: 13.08935382, 118: 13.086735949, 119: 13.084118602, 120: 13.981501778, 121: 14.878705478, 122: 13.875729737, 123: 14.772954591, 124: 15.67, 125: 14.666866, 126: 14.663932627, 127: 14.66099984, 128: 13.65806764, 129: 12.655336027, 130: 13.55280496, 131: 12.550094399, 132: 13.44758438, 133: 13.444894863, 134: 14.342205884, 135: 15.239337443, 136: 14.236289575, 137: 13.233442317, 138: 14.130795629, 139: 14.772954591, 140: 15.67, 141: 14.666866, 142: 14.663932627, 143: 14.551358637, 144: 15.448448365, 145: 15.67, 146: 14.666866, 147: 15.563932627, 148: 14.56081984, 149: 13.557907676, 150: 13.555196095, 151: 12.552485056, 152: 11.549974559, 153: 11.547664564, 154: 10.545355031, 155: 9.54324596, 156: 8.541337310999999, 157: 7.539629043, 158: 8.438121117, 159: 8.436433492999999, 160: 9.334746206, 161: 10.232879257, 162: 11.130832681, 163: 11.128606515, 164: 12.026380793, 165: 11.023975517, 166: 10.021770722, 167: 9.019766368000001, 168: 9.017962415, 169: 9.016158822, 170: 9.014355589999999, 171: 8.012552719, 172: 7.010950209, 173: 7.909548019, 174: 8.807966109000001, 175: 7.806204516, 176: 8.704643275, 177: 9.602902346, 178: 9.600981766, 179: 8.59906157, 180: 9.059360158, 181: 8.057548285999999, 182: 8.055936775999999, 183: 8.954325589, 184: 8.832337964000001, 185: 7.830571497, 186: 8.729005382, 187: 9.627259581000001, 188: 8.625334130000001, 189: 9.523609063, 190: 8.521704341, 191: 7.52];
cost = [0: 0.860224396, 1: 0.12980225, 2: 0.0, 3: 0.864928326, 4: 0.860835296, 5: 0.859918946, 6: 0.0, 7: 0.865233776, 8: 0.8643174260000001, 9: 0.13022988, 10: 0.13053533, 11: 0.13646106, 12: 0.865417046, 13: 0.0, 14: 0.860835296, 15: 0.0, 16: 0.0, 17: 0.865539226, 18: 0.0, 19: 0.863584346, 20: 0.865111596, 21: 0.865844676, 22: 0.869998796, 23: 0.0, 24: 1.016028085, 25: 0.256212578, 26: 1.570295624, 27: 0.0, 28: 0.0, 29: 1.329401624, 30: 0.103705858, 31: 1.216389624, 32: 1.321312344, 33: 0.0, 34: 1.559351304, 35: 0.0, 36: 0.033399858, 37: 0.115244978, 38: 0.0, 39: 0.0, 40: 0.0, 41: 0.0, 42: 0.194761144, 43: 0.118178165, 44: 1.416837224, 45: 1.423380024, 46: 0.118178165, 47: 0.0, 48: 0.0, 49: 0.0, 50: 0.326211944, 51: 0.115839778, 52: 0.783250996, 53: 0.0, 54: 0.320799696, 55: 0.0, 56: 0.0, 57: 1.156999616, 58: 0.35534653, 59: 1.216073646, 60: 0.776594504, 61: 1.834386824, 62: 0.0, 63: 0.0, 64: 0.0, 65: 0.116553538, 66: 0.0, 67: 0.0, 68: 0.0, 69: 0.0, 70: 0.0, 71: 0.0, 72: 0.0, 73: 1.421000824, 74: 1.423617944, 75: 0.114055378, 76: 1.411127144, 77: 1.401253464, 78: 0.0, 79: 0.0, 80: 1.411127144, 81: 0.09442697799999999, 82: 1.402562024, 83: 0.114055378, 84: 0.122382578, 85: 1.432302024, 86: 1.419216424, 87: 0.112627858, 88: 0.0, 89: 0.795041366, 90: 0.0, 91: 0.05997638, 92: 0.7884436460000001, 93: 0.16749478, 94: 0.22980658, 95: 0.961755976, 96: 0.22809606, 97: 0.959190196, 98: 0.179305059, 99: 0.18991481, 100: 0.18655486, 101: 0.18136221, 102: 0.0, 103: 0.0, 104: 0.888753426, 105: 0.868899176, 106: 0.862362546, 107: 0.862667996, 108: 0.13951556, 109: 0.0, 110: 0.13951556, 111: 0.0, 112: 0.13481163, 113: 0.869693346, 114: 0.0, 115: 0.0, 116: 0.0, 117: 0.864011976, 118: 0.14043191, 119: 0.14030973, 120: 1.577433224, 121: 1.566726824, 122: 0.0, 123: 1.402205144, 124: 1.409699624, 125: 0.0, 126: 0.0, 127: 0.093832178, 128: 0.0, 129: 0.0, 130: 0.9596739439999999, 131: 0.0, 132: 0.955272424, 133: 0.0, 134: 0.810736024, 135: 1.422190424, 136: 0.0, 137: 0.0, 138: 1.427900504, 139: 1.057579657, 140: 0.219385864, 141: 0.0, 142: 0.0, 143: 0.0, 144: 0.409840824, 145: 0.029497444, 146: 0.0, 147: 0.544027704, 148: 0.0, 149: 0.0, 150: 0.05539463, 151: 0.0, 152: 0.0, 153: 0.48760638, 154: 0.0, 155: 0.0, 156: 0.0, 157: 0.0, 158: 1.842714024, 159: 0.536720258, 160: 0.706646024, 161: 0.722110824, 162: 0.684638424, 163: 0.0, 164: 1.425164424, 165: 0.0, 166: 0.0, 167: 0.0, 168: 0.117981058, 169: 0.0, 170: 0.0, 171: 0.0, 172: 0.0, 173: 1.406368744, 174: 1.408747944, 175: 0.0, 176: 1.402205144, 177: 1.410294424, 178: 0.104538578, 179: 0.0, 180: 0.783980721, 181: 0.0, 182: 0.123572178, 183: 1.433134744, 184: 0.0, 185: 0.0, 186: 0.789054546, 187: 0.793147576, 188: 0.0, 189: 0.891991196, 190: 0.0, 191: 0.0];
earn = [0: 0.0, 1: 0.0, 2: 0.341235285, 3: 0.0, 4: 0.0, 5: 0.0, 6: 0.289332802, 7: 0.0, 8: 0.0, 9: 0.0, 10: 0.0, 11: 0.0, 12: 0.0, 13: 0.263605332, 14: 0.0, 15: 0.276736941, 16: 0.27532775, 17: 0.0, 18: 0.299879947, 19: 0.0, 20: 0.0, 21: 0.0, 22: 0.0, 23: 0.363015191, 24: 0.0, 25: 0.0, 26: 0.0, 27: 0.557339712, 28: 0.591390144, 29: 0.0, 30: 0.0, 31: 0.0, 32: 0.0, 33: 0.471296263, 34: 0.0, 35: 0.579496726, 36: 0.0, 37: 0.0, 38: 0.8708543439999999, 39: 0.43800654, 40: 0.359681364, 41: 0.80376037, 42: 0.0, 43: 0.055550521, 44: 0.0, 45: 0.0, 46: 0.145965239, 47: 0.263031231, 48: 0.604778555, 49: 0.456513985, 50: 0.0, 51: 0.0, 52: 0.0, 53: 0.759149243, 54: 0.0, 55: 0.297369934, 56: 0.6234267449999999, 57: 0.0, 58: 0.0, 59: 0.0, 60: 0.0, 61: 0.0, 62: 0.239598285, 63: 0.245208826, 64: 0.667295352, 65: 0.0, 66: 0.701810201, 67: 0.458037325, 68: 0.50823827, 69: 0.502261875, 70: 0.049395088, 71: 0.542052208, 72: 0.0, 73: 0.0, 74: 0.0, 75: 0.0, 76: 0.0, 77: 0.0, 78: 0.898801094, 79: 0.905994375, 80: 0.0, 81: 0.0, 82: 0.0, 83: 0.0, 84: 0.0, 85: 0.0, 86: 0.0, 87: 0.0, 88: 0.552984425, 89: 0.0, 90: 0.503204705, 91: 0.0, 92: 0.0, 93: 0.0, 94: 0.0, 95: 0.0, 96: 0.0, 97: 0.0, 98: 0.0, 99: 0.0, 100: 0.0, 101: 0.0, 102: 0.357093411, 103: 0.353524602, 104: 0.0, 105: 0.0, 106: 0.0, 107: 0.0, 108: 0.0, 109: 0.366508626, 110: 0.0, 111: 0.052806665, 112: 0.0, 113: 0.0, 114: 0.369943197, 115: 0.374899912, 116: 0.378518729, 117: 0.0, 118: 0.0, 119: 0.0, 120: 0.0, 121: 0.0, 122: 0.56748797, 123: 0.0, 124: 0.0, 125: 0.824856611, 126: 0.002175179, 127: 0.0, 128: 0.761245675, 129: 0.731806602, 130: 0.0, 131: 0.636414907, 132: 0.0, 133: 0.37701154, 134: 0.0, 135: 0.0, 136: 1.014333091, 137: 1.004083449, 138: 0.0, 139: 0.0, 140: 0.0, 141: 0.45172832, 142: 0.0, 143: 0.0, 144: 0.0, 145: 0.278311936, 146: 1.010179822, 147: 0.0, 148: 0.8308072869999999, 149: 0.609139681, 150: 0.0, 151: 0.383147196, 152: 0.588922602, 153: 0.0, 154: 0.356637518, 155: 0.353181813, 156: 0.236337835, 157: 0.520769364, 158: 0.0, 159: 0.0, 160: 0.0, 161: 0.0, 162: 0.0, 163: 0.672996269, 164: 0.0, 165: 0.495318048, 166: 0.504007525, 167: 0.731881187, 168: 0.0, 169: 0.048188079, 170: 0.021754096, 171: 0.698639834, 172: 0.777352794, 173: 0.0, 174: 0.0, 175: 0.823285385, 176: 0.0, 177: 0.0, 178: 0.0, 179: 0.745415802, 180: 0.0, 181: 0.689894204, 182: 0.0, 183: 0.0, 184: 0.0, 185: 0.640412825, 186: 0.0, 187: 0.0, 188: 0.591197351, 189: 0.0, 190: 0.359449383, 191: 0.344584217];
total_cost = 84.28323491499999;
total_earn = 38.697876736;
