production = [0: 0.0, 1: 0.0, 2: 0.0, 3: 0.0, 4: 0.0, 5: 0.0, 6: 0.0, 7: 0.0, 8: 0.0, 9: 0.0, 10: 0.0, 11: 0.0, 12: 0.0, 13: 0.0, 14: 0.0, 15: 0.0, 16: 0.0, 17: 0.0, 18: 0.0, 19: 0.0, 20: 0.0, 21: 0.0, 22: 0.0, 23: 0.0, 24: 0.0, 25: 0.0003, 26: 0.0, 27: 0.0, 28: 0.0563, 29: 0.06, 30: 0.0, 31: 0.1623, 32: 0.0, 33: 0.2868, 34: 0.2943, 35: 0.2577, 36: 0.38, 37: 0.5417, 38: 0.7758, 39: 0.0, 40: 0.0, 41: 0.0, 42: 0.0, 43: 1.2277, 44: 0.0, 45: 1.0025, 46: 0.0, 47: 0.7145, 48: 0.8625, 49: 0.0, 50: 0.9223, 51: 0.8139999999999999, 52: 0.5285, 53: 1.1767, 54: 0.0, 55: 0.6765, 56: 0.6987, 57: 0.0, 58: 2.2612, 59: 0.0, 60: 0.5467, 61: 0.1737, 62: 0.2918, 63: 0.0, 64: 0.0, 65: 0.0, 66: 0.0, 67: 0.3395, 68: 0.0, 69: 0.0, 70: 0.0, 71: 0.1215, 72: 0.1037, 73: 0.078, 74: 0.0, 75: 0.0, 76: 0.0, 77: 0.0018, 78: 0.0, 79: 0.0, 80: 0.0, 81: 0.0, 82: 0.0, 83: 0.0, 84: 0.0, 85: 0.0, 86: 0.0, 87: 0.0, 88: 0.0, 89: 0.0, 90: 0.0, 91: 0.0, 92: 0.0, 93: 0.0, 94: 0.0, 95: 0.0, 96: 0.0, 97: 0.0, 98: 0.0, 99: 0.0, 100: 0.0, 101: 0.0, 102: 0.0, 103: 0.0, 104: 0.0, 105: 0.0, 106: 0.0, 107: 0.0, 108: 0.0, 109: 0.0, 110: 0.0, 111: 0.0, 112: 0.0, 113: 0.0, 114: 0.0, 115: 0.0, 116: 0.0, 117: 0.0, 118: 0.0, 119: 0.0, 120: 0.0, 121: 0.0, 122: 0.0022, 123: 0.0073, 124: 0.023, 125: 0.0558, 126: 0.0, 127: 0.0, 128: 0.208, 129: 0.14, 130: 0.0, 131: 0.3957, 132: 0.0, 133: 0.6048, 134: 0.5155, 135: 0.0, 136: 0.0, 137: 0.724, 138: 1.1715, 139: 2.0145, 140: 0.0, 141: 0.0, 142: 1.9252, 143: 0.0, 144: 0.0, 145: 0.8393, 146: 1.0237, 147: 0.0, 148: 0.0, 149: 0.0, 150: 0.0, 151: 0.4655, 152: 0.3765, 153: 0.0, 154: 0.0, 155: 0.0, 156: 0.0, 157: 0.0, 158: 0.8708, 159: 0.826, 160: 0.5985, 161: 0.585, 162: 0.0, 163: 0.0, 164: 0.447, 165: 0.0, 166: 0.0, 167: 0.0, 168: 0.1562, 169: 0.0, 170: 0.118, 171: 0.0, 172: 0.0318, 173: 0.006, 174: 0.0018, 175: 0.0, 176: 0.0, 177: 0.0, 178: 0.0, 179: 0.0, 180: 0.0, 181: 0.0, 182: 0.0, 183: 0.0, 184: 0.0, 185: 0.0, 186: 0.0, 187: 0.0, 188: 0.0, 189: 0.0, 190: 0.0, 191: 0.0];
buy = [0: 0.0, 1: 0.212477083, 2: 0.0, 3: 1.222377083, 4: 1.215677083, 5: 0.0, 6: 0.0, 7: 0.0, 8: 1.221377083, 9: 1.213177083, 10: 0.0, 11: 1.223377083, 12: 0.223177083, 13: 1.222177083, 14: 1.215677083, 15: 1.215177083, 16: 1.1451832, 17: 0.0, 18: 0.0, 19: 1.220177083, 20: 0.222677083, 21: 0.223877083, 22: 0.0, 23: 1.225877083, 24: 1.217877083, 25: 0.0, 26: 1.220677083, 27: 1.220877083, 28: 0.0, 29: 1.018177083, 30: 1.087177083, 31: 0.0, 32: 1.216877083, 33: 0.0, 34: 0.917177083, 35: 0.0, 36: 0.717377083, 37: 0.0, 38: 0.0, 39: 1.089177083, 40: 0.0, 41: 1.096877083, 42: 0.0, 43: 0.0, 44: 0.09167708300000001, 45: 0.0, 46: 1.098477083, 47: 0.380877083, 48: 0.0, 49: 1.088177083, 50: 0.0, 51: 0.0, 52: 0.560177083, 53: 0.0, 54: 1.101477083, 55: 0.0, 56: 0.0, 57: 1.700477083, 58: 0.0, 59: 0.800659306, 60: 0.0, 61: 0.0, 62: 0.23746826, 63: 0.0, 64: 0.096877083, 65: 0.0, 66: 0.0, 67: 0.0, 68: 1.088377083, 69: 0.0, 70: 1.098677083, 71: 0.977477083, 72: 0.0, 73: 1.017177083, 74: 0.097377083, 75: 1.095877083, 76: 0.08687708299999999, 77: 0.07857708300000001, 78: 1.079677083, 79: 0.088177083, 80: 0.0, 81: 0.0, 82: 0.079677083, 83: 0.0, 84: 0.0, 85: 1.104677083, 86: 0.0, 87: 0.0, 88: 0.0, 89: 1.107977083, 90: 1.107177083, 91: 1.098177083, 92: 0.0, 93: 0.0, 94: 1.376177083, 95: 1.380877083, 96: 1.373377083, 97: 1.376677083, 98: 0.0, 99: 1.310877083, 100: 0.0, 101: 1.296877083, 102: 0.0, 103: 1.261177083, 104: 1.261377083, 105: 1.228877083, 106: 0.218177083, 107: 0.0, 108: 0.0, 109: 1.227877083, 110: 0.0, 111: 0.0, 112: 0.0, 113: 0.230177083, 114: 0.230177083, 115: 1.228377083, 116: 0.0, 117: 1.220877083, 118: 1.229877083, 119: 1.229677083, 120: 0.226677083, 121: 1.217677083, 122: 0.215477083, 123: 0.0, 124: 0.06267708299999999, 125: 1.024077083, 126: 0.0, 127: 0.0, 128: 0.0, 129: 0.0, 130: 1.086377083, 131: 0.693477083, 132: 0.0, 133: 0.0, 134: 0.582177083, 135: 1.096177083, 136: 0.089677083, 137: 0.365877083, 138: 0.0, 139: 0.0, 140: 1.089377083, 141: 0.092477083, 142: 0.0, 143: 0.098677083, 144: 0.0, 145: 0.0, 146: 0.0, 147: 1.097177083, 148: 1.096377083, 149: 0.097377083, 150: 1.090677083, 151: 0.0, 152: 0.0, 153: 1.798177083, 154: 1.821677083, 155: 0.582712404, 156: 0.426377083, 157: 0.446377083, 158: 0.0, 159: 0.625177083, 160: 0.0, 161: 0.507677083, 162: 0.0, 163: 1.097977083, 164: 0.0, 165: 0.0, 166: 1.089177083, 167: 0.096377083, 168: 0.942977083, 169: 0.082630987, 170: 0.0, 171: 0.094159306, 172: 0.0, 173: 0.0, 174: 1.084877083, 175: 0.0, 176: 1.079677083, 177: 0.0, 178: 1.087877083, 179: 0.088177083, 180: 1.094677083, 181: 0.0, 182: 0.103877083, 183: 0.0, 184: 0.0, 185: 1.097377083, 186: 0.098177083, 187: 1.104877083, 188: 1.108677083, 189: 0.0, 190: 0.0, 191: 0.0];
sell = [0: 0.685322917, 1: 0.0, 2: 0.677322917, 3: 0.0, 4: 0.0, 5: 0.685822917, 6: 0.680622917, 7: 0.677122917, 8: 0.0, 9: 0.0, 10: 0.686322917, 11: 0.0, 12: 0.0, 13: 0.0, 14: 0.0, 15: 0.0, 16: 0.0, 17: 0.676622917, 18: 0.671322917, 19: 0.0, 20: 0.0, 21: 0.0, 22: 0.0, 23: 0.0, 24: 0.0, 25: 0.684622917, 26: 0.0, 27: 0.0, 28: 0.744122917, 29: 0.0, 30: 0.0, 31: 0.076822917, 32: 0.0, 33: 0.974622917, 34: 0.0, 35: 0.034822917, 36: 0.0, 37: 1.344822917, 38: 1.587122917, 39: 0.0, 40: 0.802322917, 41: 0.0, 42: 0.810822917, 43: 1.136722917, 44: 0.0, 45: 0.905322917, 46: 0.0, 47: 0.0, 48: 1.674822917, 49: 0.0, 50: 0.825122917, 51: 0.716622917, 52: 0.0, 53: 1.985222917, 54: 0.0, 55: 1.475022917, 56: 0.596822917, 57: 0.0, 58: 0.679522917, 59: 0.0, 60: 0.446522917, 61: 0.631022917, 62: 0.0, 63: 0.459622917, 64: 0.0, 65: 0.8020229169999999, 66: 0.8020229169999999, 67: 0.251622917, 68: 0.0, 69: 0.801822917, 70: 0.0, 71: 0.0, 72: 0.912722917, 73: 0.0, 74: 0.0, 75: 0.0, 76: 0.0, 77: 0.0, 78: 0.0, 79: 0.0, 80: 0.8131229169999999, 81: 0.820622917, 82: 0.0, 83: 0.804122917, 84: 0.797122917, 85: 0.0, 86: 0.806322917, 87: 0.805322917, 88: 0.802822917, 89: 0.0, 90: 0.0, 91: 0.0, 92: 0.802822917, 93: 0.625822917, 94: 0.0, 95: 0.0, 96: 0.0, 97: 0.0, 98: 0.545822917, 99: 0.0, 100: 0.594622917, 101: 0.0, 102: 0.646322917, 103: 0.0, 104: 0.0, 105: 0.0, 106: 0.0, 107: 0.681322917, 108: 0.671622917, 109: 0.0, 110: 0.671622917, 111: 0.679622917, 112: 0.679322917, 113: 0.0, 114: 0.0, 115: 0.0, 116: 0.0, 117: 0.0, 118: 0.0, 119: 0.0, 120: 0.0, 121: 0.0, 122: 0.0, 123: 0.820622917, 124: 0.0, 125: 0.0, 126: 0.820322917, 127: 0.821122917, 128: 1.021122917, 129: 0.954022917, 130: 0.0, 131: 0.0, 132: 0.811322917, 133: 1.407622917, 134: 0.0, 135: 0.0, 136: 0.0, 137: 0.0, 138: 1.070522917, 139: 1.913322917, 140: 0.0, 141: 0.0, 142: 0.832022917, 143: 0.0, 144: 0.802822917, 145: 1.649622917, 146: 0.934022917, 147: 0.0, 148: 0.0, 149: 0.0, 150: 0.0, 151: 1.275022917, 152: 1.187822917, 153: 0.0, 154: 0.0, 155: 0.0, 156: 0.0, 157: 0.0, 158: 1.321122917, 159: 0.0, 160: 1.405322917, 161: 0.0, 162: 0.7990229170000001, 163: 0.0, 164: 0.348322917, 165: 0.808022917, 166: 0.0, 167: 0.0, 168: 0.0, 169: 0.0, 170: 0.0, 171: 0.0, 172: 0.844122917, 173: 0.8171229169999999, 174: 0.0, 175: 0.820322917, 176: 0.0, 177: 0.813822917, 178: 0.0, 179: 0.0, 180: 0.0, 181: 0.804822917, 182: 0.0, 183: 0.794622917, 184: 0.791822917, 185: 0.0, 186: 0.0, 187: 0.0, 188: 0.0, 189: 0.633322917, 190: 0.487322917, 191: 0.480122917];
charge = [0: 0.0, 1: 0.0, 2: 0.0, 3: 1.0, 4: 1.0, 5: 0.0, 6: 0.0, 7: 0.0, 8: 1.0, 9: 1.0, 10: 0.0, 11: 1.0, 12: 0.0, 13: 1.0, 14: 1.0, 15: 1.0, 16: 0.920006116, 17: 0.0, 18: 0.0, 19: 1.0, 20: 0.0, 21: 0.0, 22: 0.0, 23: 1.0, 24: 1.0, 25: 0.0, 26: 1.0, 27: 1.0, 28: 0.0, 29: 1.0, 30: 1.0, 31: 0.0, 32: 1.0, 33: 0.0, 34: 1.0, 35: 0.0, 36: 1.0, 37: 0.0, 38: 0.0, 39: 1.0, 40: 0.0, 41: 1.0, 42: 0.0, 43: 0.0, 44: 0.0, 45: 0.0, 46: 1.0, 47: 1.0, 48: 0.0, 49: 1.0, 50: 0.0, 51: 0.0, 52: 1.0, 53: 0.0, 54: 1.0, 55: 0.0, 56: 0.0, 57: 1.0, 58: 1.0, 59: 0.003482222, 60: 0.0, 61: 0.0, 62: 0.087391176, 63: 0.0, 64: 0.0, 65: 0.0, 66: 0.0, 67: 0.0, 68: 1.0, 69: 0.0, 70: 1.0, 71: 1.0, 72: 0.0, 73: 1.0, 74: 0.0, 75: 1.0, 76: 0.0, 77: 0.0, 78: 1.0, 79: 0.0, 80: 0.0, 81: 0.0, 82: 0.0, 83: 0.0, 84: 0.0, 85: 1.0, 86: 0.0, 87: 0.0, 88: 0.0, 89: 1.0, 90: 1.0, 91: 1.0, 92: 0.0, 93: 0.0, 94: 1.0, 95: 1.0, 96: 1.0, 97: 1.0, 98: 0.0, 99: 1.0, 100: 0.0, 101: 1.0, 102: 0.0, 103: 1.0, 104: 1.0, 105: 1.0, 106: 0.0, 107: 0.0, 108: 0.0, 109: 1.0, 110: 0.0, 111: 0.0, 112: 0.0, 113: 0.0, 114: 0.0, 115: 1.0, 116: 0.0, 117: 1.0, 118: 1.0, 119: 1.0, 120: 0.0, 121: 1.0, 122: 0.0, 123: 0.0, 124: 0.0, 125: 1.0, 126: 0.0, 127: 0.0, 128: 0.0, 129: 0.0, 130: 1.0, 131: 1.0, 132: 0.0, 133: 0.0, 134: 1.0, 135: 1.0, 136: 0.0, 137: 1.0, 138: 0.0, 139: 0.0, 140: 1.0, 141: 0.0, 142: 1.0, 143: 0.0, 144: 0.0, 145: 0.0, 146: 0.0, 147: 1.0, 148: 1.0, 149: 0.0, 150: 1.0, 151: 0.0, 152: 0.0, 153: 1.0, 154: 1.0, 155: 0.0, 156: 0.0, 157: 0.0, 158: 0.0, 159: 1.0, 160: 0.0, 161: 1.0, 162: 0.0, 163: 1.0, 164: 0.0, 165: 0.0, 166: 1.0, 167: 0.0, 168: 1.0, 169: 0.0, 170: 0.026522917, 171: 0.003482222, 172: 0.0, 173: 0.0, 174: 1.0, 175: 0.0, 176: 1.0, 177: 0.0, 178: 1.0, 179: 0.0, 180: 1.0, 181: 0.0, 182: 0.0, 183: 0.0, 184: 0.0, 185: 1.0, 186: 0.0, 187: 1.0, 188: 1.0, 189: 0.0, 190: 0.0, 191: 0.0];
discharge = [0: 1.0, 1: 0.0, 2: 1.0, 3: 0.0, 4: 0.0, 5: 1.0, 6: 1.0, 7: 1.0, 8: 0.0, 9: 0.0, 10: 1.0, 11: 0.0, 12: 0.0, 13: 0.0, 14: 0.0, 15: 0.0, 16: 0.0, 17: 1.0, 18: 1.0, 19: 0.0, 20: 0.0, 21: 0.0, 22: 0.25630787, 23: 0.0, 24: 0.0, 25: 1.0, 26: 0.0, 27: 0.0, 28: 1.0, 29: 0.0, 30: 0.0, 31: 0.0, 32: 0.0, 33: 1.0, 34: 0.0, 35: 0.0, 36: 0.0, 37: 1.0, 38: 1.0, 39: 0.0, 40: 1.0, 41: 0.0, 42: 1.0, 43: 0.0, 44: 0.0, 45: 0.0, 46: 0.0, 47: 0.0, 48: 1.0, 49: 0.0, 50: 0.0, 51: 0.0, 52: 0.0, 53: 1.0, 54: 0.0, 55: 1.0, 56: 0.0, 57: 0.0, 58: 0.0, 59: 0.0, 60: 0.0, 61: 1.0, 62: 0.0, 63: 1.0, 64: 0.0, 65: 1.0, 66: 1.0, 67: 0.0, 68: 0.0, 69: 1.0, 70: 0.0, 71: 0.0, 72: 1.0, 73: 0.0, 74: 0.0, 75: 0.0, 76: 0.0, 77: 0.0, 78: 0.0, 79: 0.0, 80: 1.0, 81: 1.0, 82: 0.0, 83: 1.0, 84: 1.0, 85: 0.0, 86: 1.0, 87: 1.0, 88: 1.0, 89: 0.0, 90: 0.0, 91: 0.0, 92: 1.0, 93: 1.0, 94: 0.0, 95: 0.0, 96: 0.0, 97: 0.0, 98: 1.0, 99: 0.0, 100: 1.0, 101: 0.0, 102: 1.0, 103: 0.0, 104: 0.0, 105: 0.0, 106: 0.0, 107: 1.0, 108: 1.0, 109: 0.0, 110: 1.0, 111: 1.0, 112: 1.0, 113: 0.0, 114: 0.0, 115: 0.0, 116: 0.245196759, 117: 0.0, 118: 0.0, 119: 0.0, 120: 0.0, 121: 0.0, 122: 0.0, 123: 1.0, 124: 0.0, 125: 0.0, 126: 1.0, 127: 1.0, 128: 1.0, 129: 1.0, 130: 0.0, 131: 0.0, 132: 1.0, 133: 1.0, 134: 0.0, 135: 0.0, 136: 0.0, 137: 0.0, 138: 0.0, 139: 0.0, 140: 0.0, 141: 0.0, 142: 0.0, 143: 0.0, 144: 1.0, 145: 1.0, 146: 0.0, 147: 0.0, 148: 0.0, 149: 0.0, 150: 0.0, 151: 1.0, 152: 1.0, 153: 0.0, 154: 0.0, 155: 0.246960755, 156: 0.0, 157: 0.0, 158: 1.0, 159: 0.0, 160: 1.0, 161: 0.0, 162: 1.0, 163: 0.0, 164: 0.0, 165: 1.0, 166: 0.0, 167: 0.0, 168: 0.0, 169: 0.017606773, 170: 0.0, 171: 0.0, 172: 1.0, 173: 1.0, 174: 0.0, 175: 1.0, 176: 0.0, 177: 1.0, 178: 0.0, 179: 0.0, 180: 0.0, 181: 1.0, 182: 0.0, 183: 1.0, 184: 1.0, 185: 0.0, 186: 0.0, 187: 0.0, 188: 0.0, 189: 1.0, 190: 1.0, 191: 1.0];
soc = [0: 7.928214, 1: 7.926628357, 2: 6.925043032, 3: 7.823658023, 4: 8.722093291, 5: 7.720348873, 6: 6.718804803, 7: 5.717460317, 8: 6.61631755, 9: 7.514994286, 10: 6.513492063, 11: 7.412188589, 12: 7.410706151, 13: 8.309224009999999, 14: 9.207562165000001, 15: 10.105720653, 16: 10.931705013, 17: 9.929518672, 18: 8.927532769000001, 19: 9.825747262, 20: 9.823782113, 21: 9.821817356, 22: 9.563545122000001, 23: 10.461632413, 24: 11.359540087, 25: 10.357268179, 26: 11.255196725, 27: 12.152945686, 28: 11.150515097, 29: 12.048284994, 30: 12.945875337, 31: 12.943286162, 32: 13.840697504, 33: 12.837929365, 34: 13.735361779, 35: 13.732614707, 36: 14.629868184, 37: 13.62694221, 38: 12.624216822, 39: 13.521691978, 40: 12.51898764, 41: 13.416483842, 42: 12.413800546, 43: 12.411317785, 44: 12.408835522, 45: 12.406353755, 46: 13.303872484, 47: 14.20121171, 48: 13.198371467, 49: 14.095731793, 50: 14.092912647, 51: 14.090094064, 52: 14.987276045, 53: 13.98427859, 54: 14.881481734, 55: 13.878505438, 56: 13.875729737, 57: 14.772954591, 58: 15.67, 59: 15.67, 60: 15.666866, 61: 14.663732627, 62: 14.739451939, 63: 13.736504048, 64: 13.733756748, 65: 12.731009996, 66: 11.728463794, 67: 11.726118102, 68: 12.623772878, 69: 11.621248123, 70: 12.518923874, 71: 13.416420089, 72: 12.413736805, 73: 13.311254058, 74: 13.308591807, 75: 14.205930088, 76: 14.203088902, 77: 14.200248285, 78: 15.097408235, 79: 15.094388753, 80: 14.091369876, 81: 13.088551602, 82: 13.085933891, 83: 12.083316704, 84: 11.080900041, 85: 11.978683861, 86: 10.976288124, 87: 9.974092867, 88: 8.972098047999999, 89: 9.870303629, 90: 10.768329568, 91: 11.666175902, 92: 10.663842667, 93: 9.661709898, 94: 10.559777556, 95: 11.457665601, 96: 12.355374068, 97: 13.252902993, 98: 12.250252412, 99: 13.147802362, 100: 12.145172801, 101: 13.042743767, 102: 12.040135218, 103: 12.937727191, 104: 13.835139645, 105: 14.732372618, 106: 14.729426143, 107: 13.726480258, 108: 12.723734962, 109: 13.621190215, 110: 12.618465977, 111: 11.615942283, 112: 10.613619095, 113: 10.611496371, 114: 10.609374072, 115: 11.507252197, 116: 11.259753987, 117: 12.157502037, 118: 13.055070536, 119: 13.952459522, 120: 13.94966903, 121: 14.846879096, 122: 14.843909721, 123: 13.840940939, 124: 13.83817275, 125: 14.735405116, 126: 13.732458035, 127: 12.729711543, 128: 11.727165601, 129: 10.724820168, 130: 11.622675204, 131: 12.520350669, 132: 11.517846599, 133: 10.515543029, 134: 11.413439921, 135: 12.311157233, 136: 12.308695001, 137: 13.206233262, 138: 13.203592016, 139: 13.200951297, 140: 14.098311107, 141: 14.095491445, 142: 14.992672346, 143: 14.989673812, 144: 13.986675877, 145: 12.983878542, 146: 12.981281766, 147: 13.87868551, 148: 14.775909773, 149: 14.772954591, 150: 15.67, 151: 14.666866, 152: 13.663932627, 153: 14.56119984, 154: 15.4582876, 155: 15.208235188, 156: 15.205193541, 157: 15.202152502, 158: 14.199112072, 159: 15.096272249, 160: 14.093252995, 161: 14.990434344, 162: 13.987436257, 163: 14.88463877, 164: 14.881661842, 165: 13.87868551, 166: 14.775909773, 167: 14.772954591, 168: 15.67, 169: 15.649259227, 170: 15.67, 171: 15.67, 172: 14.666866, 173: 13.663932627, 174: 14.56119984, 175: 13.5582876, 176: 14.455575943, 177: 13.452684828, 178: 14.349994291, 179: 14.347124292, 180: 15.244254867, 181: 14.241206016, 182: 14.238357775, 183: 13.235510103, 184: 12.232863001, 185: 13.130416429, 186: 13.127790345, 187: 14.025164787, 188: 14.922359754, 189: 13.919375282, 190: 12.916591407, 191: 11.914008089];
cost = [0: 0.0, 1: 0.12980225, 2: 0.0, 3: 0.864928326, 4: 0.860835296, 5: 0.0, 6: 0.0, 7: 0.0, 8: 0.8643174260000001, 9: 0.859308046, 10: 0.0, 11: 0.865539226, 12: 0.13633888, 13: 0.8648061460000001, 14: 0.860835296, 15: 0.860529846, 16: 0.808317052, 17: 0.0, 18: 0.0, 19: 0.863584346, 20: 0.13603343, 21: 0.13676651, 22: 0.0, 23: 0.867066476, 24: 1.566964744, 25: 0.0, 26: 1.570295624, 27: 1.570533544, 28: 0.0, 29: 1.329401624, 30: 1.411484024, 31: 0.0, 32: 1.565775144, 33: 0.0, 34: 1.209252024, 35: 0.0, 36: 0.971569944, 37: 0.0, 38: 0.0, 39: 1.413863224, 40: 0.0, 41: 1.423023144, 42: 0.0, 43: 0.0, 44: 0.109059058, 45: 0.0, 46: 1.424926504, 47: 0.571269544, 48: 0.0, 49: 1.412673624, 50: 0.0, 51: 0.0, 52: 0.460390346, 53: 0.0, 54: 0.791070516, 55: 0.0, 56: 0.0, 57: 1.156999616, 58: 0.118178165, 59: 0.489534292, 60: 0.0, 61: 0.0, 62: 0.29281997, 63: 0.0, 64: 0.115244978, 65: 0.0, 66: 0.0, 67: 0.0, 68: 1.412911544, 69: 0.0, 70: 1.425164424, 71: 1.280984904, 72: 0.0, 73: 1.328212024, 74: 0.115839778, 75: 1.421833544, 76: 0.103348978, 77: 0.093475298, 78: 1.402562024, 79: 0.104895458, 80: 0.0, 81: 0.0, 82: 0.094783858, 83: 0.0, 84: 0.0, 85: 1.432302024, 86: 0.0, 87: 0.0, 88: 0.0, 89: 0.795041366, 90: 0.794552646, 91: 0.789054546, 92: 0.0, 93: 0.0, 94: 0.958884746, 95: 0.961755976, 96: 0.957174226, 97: 0.959190196, 98: 0.0, 99: 0.918992976, 100: 0.0, 101: 0.9104403760000001, 102: 0.0, 103: 0.888631246, 104: 0.888753426, 105: 0.868899176, 106: 0.13328438, 107: 0.0, 108: 0.0, 109: 0.868288276, 110: 0.0, 111: 0.0, 112: 0.0, 113: 0.14061518, 114: 0.14061518, 115: 0.868593726, 116: 0.0, 117: 0.864011976, 118: 0.869510076, 119: 0.869387896, 120: 0.269655058, 121: 1.566726824, 122: 0.256331538, 123: 0.0, 124: 0.074560658, 125: 1.336420264, 126: 0.0, 127: 0.0, 128: 0.0, 129: 0.0, 130: 1.410532344, 131: 0.943138504, 132: 0.0, 133: 0.0, 134: 0.810736024, 135: 1.422190424, 136: 0.106679858, 137: 0.553425544, 138: 0.0, 139: 0.0, 140: 1.414101144, 141: 0.110010738, 142: 0.118178165, 143: 0.117386258, 144: 0.0, 145: 0.0, 146: 0.0, 147: 1.423380024, 148: 0.7879549260000001, 149: 0.05948766, 150: 0.784472796, 151: 0.0, 152: 0.0, 153: 1.216684546, 154: 1.231040696, 155: 0.355979008, 156: 0.507218178, 157: 0.5310101780000001, 158: 0.0, 159: 0.861888824, 160: 0.0, 161: 0.722110824, 162: 0.0, 163: 1.424331704, 164: 0.0, 165: 0.0, 166: 1.413863224, 167: 0.114650178, 168: 1.239943704, 169: 0.09829782300000001, 170: 0.00313443, 171: 0.112423433, 172: 0.0, 173: 0.0, 174: 1.408747944, 175: 0.0, 176: 1.402562024, 177: 0.0, 178: 1.412316744, 179: 0.104895458, 180: 1.420406024, 181: 0.0, 182: 0.123572178, 183: 0.0, 184: 0.0, 185: 0.788565826, 186: 0.05997638, 187: 0.793147576, 188: 0.795468996, 189: 0.0, 190: 0.0, 191: 0.0];
earn = [0: 0.35438048, 1: 0.0, 2: 0.341235285, 3: 0.0, 4: 0.0, 5: 0.30855173, 6: 0.289332802, 7: 0.272000276, 8: 0.0, 9: 0.0, 10: 0.252086407, 11: 0.0, 12: 0.0, 13: 0.0, 14: 0.0, 15: 0.0, 16: 0.0, 17: 0.2840463, 18: 0.299879947, 19: 0.0, 20: 0.0, 21: 0.0, 22: 0.0, 23: 0.0, 24: 0.0, 25: 0.461367384, 26: 0.0, 27: 0.0, 28: 0.639796884, 29: 0.0, 30: 0.0, 31: 0.06350950499999999, 32: 0.0, 33: 0.667811623, 34: 0.0, 35: 0.021586726, 36: 0.0, 37: 0.809314431, 38: 0.8708543439999999, 39: 0.0, 40: 0.359681364, 41: 0.0, 42: 0.37257313, 43: 0.461850521, 44: 0.0, 45: 0.338500239, 46: 0.0, 47: 0.0, 48: 0.604778555, 49: 0.0, 50: 0.271547952, 51: 0.226882815, 52: 0.0, 53: 0.759149243, 54: 0.0, 55: 0.5492985339999999, 56: 0.248576745, 57: 0.0, 58: 0.319715532, 59: 0.0, 60: 0.228441124, 61: 0.329583269, 62: 0.0, 63: 0.245208826, 64: 0.0, 65: 0.437423299, 66: 0.441353211, 67: 0.141915325, 68: 0.0, 69: 0.502261875, 70: 0.0, 71: 0.0, 72: 0.751992411, 73: 0.0, 74: 0.0, 75: 0.0, 76: 0.0, 77: 0.0, 78: 0.0, 79: 0.0, 80: 0.795234213, 81: 0.795347731, 82: 0.0, 83: 0.711729194, 84: 0.58158088, 85: 0.0, 86: 0.576843415, 87: 0.54995502, 88: 0.552984425, 89: 0.0, 90: 0.0, 91: 0.0, 92: 0.479686693, 93: 0.365480583, 94: 0.0, 95: 0.0, 96: 0.0, 97: 0.0, 98: 0.310900733, 99: 0.0, 100: 0.326626368, 101: 0.0, 102: 0.357093411, 103: 0.0, 104: 0.0, 105: 0.0, 106: 0.0, 107: 0.372751768, 108: 0.36603449, 109: 0.0, 110: 0.368183683, 111: 0.37277317, 112: 0.375257979, 113: 0.0, 114: 0.0, 115: 0.0, 116: 0.0, 117: 0.0, 118: 0.0, 119: 0.0, 120: 0.0, 121: 0.0, 122: 0.0, 123: 0.740201871, 124: 0.0, 125: 0.0, 126: 0.768150379, 127: 0.755186746, 128: 0.955975275, 129: 0.857666602, 130: 0.0, 131: 0.0, 132: 0.65603571, 133: 1.04544154, 134: 0.0, 135: 0.0, 136: 0.0, 137: 0.0, 138: 0.679353843, 139: 1.180137575, 140: 0.0, 141: 0.0, 142: 0.486067788, 143: 0.0, 144: 0.450223092, 145: 0.918180115, 146: 0.514459823, 147: 0.0, 148: 0.0, 149: 0.0, 150: 0.0, 151: 0.603468346, 152: 0.588922602, 153: 0.0, 154: 0.0, 155: 0.0, 156: 0.0, 157: 0.0, 158: 0.690286724, 159: 0.0, 160: 0.738778257, 161: 0.0, 162: 0.466789188, 163: 0.0, 164: 0.209934222, 165: 0.495318048, 166: 0.0, 167: 0.0, 168: 0.0, 169: 0.0, 170: 0.0, 171: 0.0, 172: 0.777352794, 173: 0.795305735, 174: 0.0, 175: 0.822783885, 176: 0.0, 177: 0.773701447, 178: 0.0, 179: 0.0, 180: 0.0, 181: 0.689894204, 182: 0.0, 183: 0.651749716, 184: 0.646602594, 185: 0.0, 186: 0.0, 187: 0.0, 188: 0.0, 189: 0.468722291, 190: 0.359449383, 191: 0.344584217];
total_cost = 88.322934289;
total_earn = 41.915675863;
% _objective = 46.40725842600001;