production = [0: 0.0, 1: 0.0, 2: 0.0, 3: 0.0, 4: 0.0, 5: 0.0, 6: 0.0, 7: 0.0, 8: 0.0, 9: 0.0, 10: 0.0, 11: 0.0, 12: 0.0, 13: 0.0, 14: 0.0, 15: 0.0, 16: 0.0, 17: 0.0, 18: 0.0, 19: 0.0, 20: 0.0, 21: 0.0, 22: 0.0, 23: 0.0, 24: 0.0, 25: 0.0003, 26: 0.007, 27: 0.0, 28: 0.0, 29: 0.06, 30: 0.0, 31: 0.0, 32: 0.2055, 33: 0.0, 34: 0.2943, 35: 0.0, 36: 0.38, 37: 0.0, 38: 0.0, 39: 0.5212, 40: 0.0, 41: 0.928, 42: 0.0, 43: 1.2277, 44: 0.0, 45: 0.0, 46: 0.0, 47: 0.0, 48: 0.8625, 49: 0.0, 50: 0.9223, 51: 0.0, 52: 0.5285, 53: 1.1767, 54: 0.7698, 55: 0.6765, 56: 0.6987, 57: 0.9573, 58: 1.581677083, 59: 0.6368, 60: 0.0, 61: 0.0, 62: 0.2918, 63: 0.0, 64: 0.0, 65: 0.0, 66: 0.0, 67: 0.0, 68: 0.3247, 69: 0.212, 70: 0.1737, 71: 0.0, 72: 0.1037, 73: 0.0, 74: 0.0248, 75: 0.0, 76: 0.005, 77: 0.0018, 78: 0.0005, 79: 0.0, 80: 0.0, 81: 0.0, 82: 0.0, 83: 0.0, 84: 0.0, 85: 0.0, 86: 0.0, 87: 0.0, 88: 0.0, 89: 0.0, 90: 0.0, 91: 0.0, 92: 0.0, 93: 0.0, 94: 0.0, 95: 0.0, 96: 0.0, 97: 0.0, 98: 0.0, 99: 0.0, 100: 0.0, 101: 0.0, 102: 0.0, 103: 0.0, 104: 0.0, 105: 0.0, 106: 0.0, 107: 0.0, 108: 0.0, 109: 0.0, 110: 0.0, 111: 0.0, 112: 0.0, 113: 0.0, 114: 0.0, 115: 0.0, 116: 0.0, 117: 0.0, 118: 0.0, 119: 0.0, 120: 0.0, 121: 0.0005, 122: 0.0022, 123: 0.0, 124: 0.0, 125: 0.0, 126: 0.0, 127: 0.0, 128: 0.208, 129: 0.14, 130: 0.0, 131: 0.3957, 132: 0.385, 133: 0.0, 134: 0.5155, 135: 0.7502, 136: 0.6655, 137: 0.724, 138: 0.0, 139: 0.0, 140: 0.0, 141: 0.0, 142: 1.9252, 143: 2.3258, 144: 0.852, 145: 0.8393, 146: 0.0, 147: 0.7392, 148: 0.638, 149: 0.0, 150: 0.0, 151: 0.4655, 152: 0.0, 153: 0.2467, 154: 0.0, 155: 0.0, 156: 0.0, 157: 0.0, 158: 0.8708, 159: 0.0, 160: 0.0, 161: 0.585, 162: 0.6248, 163: 0.0, 164: 0.447, 165: 0.0, 166: 0.2338, 167: 0.285, 168: 0.0, 169: 0.0, 170: 0.118, 171: 0.0592, 172: 0.0318, 173: 0.0, 174: 0.0018, 175: 0.0005, 176: 0.0003, 177: 0.0, 178: 0.0, 179: 0.0, 180: 0.0, 181: 0.0, 182: 0.0, 183: 0.0, 184: 0.0, 185: 0.0, 186: 0.0, 187: 0.0, 188: 0.0, 189: 0.0, 190: 0.0, 191: 0.0];
buy = [0: 0.214677083, 1: 1.212477083, 2: 0.0, 3: 1.222377083, 4: 0.215677083, 5: 0.214177083, 6: 1.219377083, 7: 0.0, 8: 0.0, 9: 1.213177083, 10: 1.213677083, 11: 1.223377083, 12: 1.223177083, 13: 1.222177083, 14: 1.215677083, 15: 0.215177083, 16: 1.225177083, 17: 0.0, 18: 1.228677083, 19: 0.0, 20: 1.222677083, 21: 0.0, 22: 1.230677083, 23: 0.235632861, 24: 0.0, 25: 0.0, 26: 1.213677083, 27: 1.220877083, 28: 0.212177083, 29: 0.018177083, 30: 1.087177083, 31: 0.0, 32: 1.011377083, 33: 0.0, 34: 0.917177083, 35: 0.222877083, 36: 0.0, 37: 0.0, 38: 0.088677083, 39: 0.567977083, 40: 0.0, 41: 0.0, 42: 1.089177083, 43: 0.0, 44: 1.091677083, 45: 0.097177083, 46: 0.0, 47: 0.0, 48: 0.225177083, 49: 0.0, 50: 0.0, 51: 1.097377083, 52: 0.560177083, 53: 0.0, 54: 0.0, 55: 0.0, 56: 0.0, 57: 0.743177083, 58: 0.0, 59: 1.160377083, 60: 1.100177083, 61: 1.442677083, 62: 0.150077083, 63: 1.440377083, 64: 0.0, 65: 0.0, 66: 1.097977083, 67: 0.0, 68: 0.119403521, 69: 0.886177083, 70: 0.924977083, 71: 0.09897708299999999, 72: 0.0, 73: 0.0, 74: 0.0, 75: 1.095877083, 76: 1.081877083, 77: 0.0, 78: 1.079177083, 79: 0.0, 80: 1.086877083, 81: 1.079377083, 82: 0.0, 83: 0.095877083, 84: 1.102877083, 85: 0.104677083, 86: 0.0, 87: 0.0, 88: 0.097177083, 89: 0.107977083, 90: 0.0, 91: 0.0, 92: 1.097177083, 93: 0.274177083, 94: 1.376177083, 95: 1.380877083, 96: 1.373377083, 97: 0.0, 98: 0.354177083, 99: 1.310877083, 100: 1.031209001, 101: 0.0, 102: 0.253677083, 103: 1.261177083, 104: 0.261377083, 105: 0.0, 106: 0.0, 107: 1.218677083, 108: 0.228377083, 109: 0.0, 110: 1.228377083, 111: 0.0, 112: 1.220677083, 113: 0.0, 114: 1.230177083, 115: 0.228377083, 116: 0.0, 117: 0.220877083, 118: 0.0, 119: 1.229677083, 120: 1.226677083, 121: 0.0, 122: 0.294922118, 123: 0.0, 124: 1.085677083, 125: 1.079877083, 126: 0.0, 127: 0.078877083, 128: 0.0, 129: 0.0, 130: 0.08637708299999999, 131: 0.693477083, 132: 0.0, 133: 1.097177083, 134: 0.582177083, 135: 0.345977083, 136: 0.0, 137: 0.365877083, 138: 0.0, 139: 0.101177083, 140: 0.449054176, 141: 0.0, 142: 0.0, 143: 0.0, 144: 0.0, 145: 0.0, 146: 0.0, 147: 0.357977083, 148: 0.458377083, 149: 1.097377083, 150: 0.09067708300000001, 151: 0.0, 152: 1.088677083, 153: 0.0, 154: 1.821677083, 155: 0.0, 156: 0.0, 157: 1.446377083, 158: 0.0, 159: 1.451177083, 160: 0.09317708299999999, 161: 0.0, 162: 0.0, 163: 1.097977083, 164: 0.0, 165: 0.091977083, 166: 0.0, 167: 0.0, 168: 0.0, 169: 0.0, 170: 0.973477083, 171: 1.031477083, 172: 0.0, 173: 1.088877083, 174: 1.084877083, 175: 1.079177083, 176: 0.0, 177: 0.086177083, 178: 0.08787708299999999, 179: 1.088177083, 180: 0.0, 181: 1.095177083, 182: 1.103877083, 183: 1.105377083, 184: 0.0, 185: 0.097377083, 186: 0.0, 187: 1.104877083, 188: 0.108677083, 189: 1.266677083, 190: 1.412677083, 191: 0.0];
sell = [0: 0.0, 1: 0.0, 2: 0.677322917, 3: 0.0, 4: 0.0, 5: 0.0, 6: 0.0, 7: 0.677122917, 8: 0.678622917, 9: 0.0, 10: 0.0, 11: 0.0, 12: 0.0, 13: 0.0, 14: 0.0, 15: 0.0, 16: 0.0, 17: 0.676622917, 18: 0.0, 19: 0.679822917, 20: 0.0, 21: 0.676122917, 22: 0.0, 23: 0.0, 24: 0.6821229170000001, 25: 0.684622917, 26: 0.0, 27: 0.0, 28: 0.0, 29: 0.0, 30: 0.0, 31: 0.814522917, 32: 0.0, 33: 0.687822917, 34: 0.0, 35: 0.0, 36: 1.182622917, 37: 0.803122917, 38: 0.0, 39: 0.0, 40: 0.802322917, 41: 0.831122917, 42: 0.0, 43: 2.036722917, 44: 0.0, 45: 0.0, 46: 0.801522917, 47: 0.0, 48: 0.0, 49: 0.811822917, 50: 1.725122917, 51: 0.0, 52: 0.0, 53: 1.985222917, 54: 0.668322917, 55: 1.475022917, 56: 1.496822917, 57: 0.0, 58: 0.0, 59: 0.0, 60: 0.0, 61: 0.0, 62: 0.0, 63: 0.0, 64: 0.803122917, 65: 0.8020229169999999, 66: 0.0, 67: 0.8121229170000001, 68: 0.0, 69: 0.0, 70: 0.0, 71: 0.0, 72: 0.433833609, 73: 0.804822917, 74: 0.827422917, 75: 0.0, 76: 0.0, 77: 0.821422917, 78: 0.0, 79: 0.811822917, 80: 0.0, 81: 0.0, 82: 0.820322917, 83: 0.0, 84: 0.0, 85: 0.0, 86: 0.806322917, 87: 0.805322917, 88: 0.0, 89: 0.0, 90: 0.792822917, 91: 0.801822917, 92: 0.0, 93: 0.0, 94: 0.0, 95: 0.0, 96: 0.0, 97: 0.523322917, 98: 0.0, 99: 0.0, 100: 0.0, 101: 0.603122917, 102: 0.0, 103: 0.0, 104: 0.0, 105: 0.0, 106: 0.681822917, 107: 0.0, 108: 0.0, 109: 0.14608805, 110: 0.0, 111: 0.679622917, 112: 0.0, 113: 0.669822917, 114: 0.0, 115: 0.0, 116: 0.679322917, 117: 0.0, 118: 0.670122917, 119: 0.0, 120: 0.0, 121: 0.682822917, 122: 0.0, 123: 0.813322917, 124: 0.0, 125: 0.0, 126: 0.820322917, 127: 0.0, 128: 1.021122917, 129: 0.054022917, 130: 0.0, 131: 0.0, 132: 1.196322917, 133: 0.0, 134: 0.0, 135: 0.0, 136: 1.475822917, 137: 0.0, 138: 0.7990229170000001, 139: 0.0, 140: 0.0, 141: 0.807522917, 142: 0.832022917, 143: 1.227122917, 144: 1.654822917, 145: 1.649622917, 146: 0.810322917, 147: 0.0, 148: 0.0, 149: 0.0, 150: 0.0, 151: 1.275022917, 152: 0.0, 153: 0.348522917, 154: 0.0, 155: 0.095022917, 156: 0.473622917, 157: 0.0, 158: 1.321122917, 159: 0.0, 160: 0.0, 161: 0.492322917, 162: 1.423822917, 163: 0.0, 164: 1.248322917, 165: 0.0, 166: 1.044622917, 167: 1.088622917, 168: 0.800822917, 169: 0.801522917, 170: 0.0, 171: 0.0, 172: 0.844122917, 173: 0.0, 174: 0.0, 175: 0.0, 176: 0.820622917, 177: 0.0, 178: 0.0, 179: 0.0, 180: 0.805322917, 181: 0.0, 182: 0.0, 183: 0.0, 184: 0.0, 185: 0.0, 186: 0.801822917, 187: 0.0, 188: 0.0, 189: 0.0, 190: 0.0, 191: 0.0];
charge = [0: 0.0, 1: 1.0, 2: 0.0, 3: 1.0, 4: 0.0, 5: 0.0, 6: 1.0, 7: 0.0, 8: 0.0, 9: 1.0, 10: 1.0, 11: 1.0, 12: 1.0, 13: 1.0, 14: 1.0, 15: 0.0, 16: 1.0, 17: 0.0, 18: 1.0, 19: 0.0, 20: 1.0, 21: 0.0, 22: 1.0, 23: 0.009755778, 24: 0.0, 25: 0.0, 26: 1.0, 27: 1.0, 28: 0.0, 29: 0.0, 30: 1.0, 31: 0.0, 32: 1.0, 33: 0.0, 34: 1.0, 35: 0.0, 36: 0.0, 37: 0.0, 38: 0.0, 39: 1.0, 40: 0.0, 41: 0.0, 42: 1.0, 43: 0.0, 44: 1.0, 45: 0.0, 46: 0.0, 47: 0.0, 48: 1.0, 49: 0.0, 50: 0.0, 51: 1.0, 52: 1.0, 53: 0.0, 54: 0.0, 55: 0.0, 56: 0.0, 57: 1.0, 58: 1.0, 59: 1.0, 60: 1.0, 61: 1.0, 62: 0.0, 63: 1.0, 64: 0.0, 65: 0.0, 66: 1.0, 67: 0.0, 68: 0.355726438, 69: 1.0, 70: 1.0, 71: 0.0, 72: 0.0, 73: 0.0, 74: 0.0, 75: 1.0, 76: 1.0, 77: 0.0, 78: 1.0, 79: 0.0, 80: 1.0, 81: 1.0, 82: 0.0, 83: 0.0, 84: 1.0, 85: 0.0, 86: 0.0, 87: 0.0, 88: 0.0, 89: 0.0, 90: 0.0, 91: 0.0, 92: 1.0, 93: 0.0, 94: 1.0, 95: 1.0, 96: 1.0, 97: 0.0, 98: 0.0, 99: 1.0, 100: 0.725831918, 101: 0.0, 102: 0.0, 103: 1.0, 104: 0.0, 105: 0.0, 106: 0.0, 107: 1.0, 108: 0.0, 109: 0.0, 110: 1.0, 111: 0.0, 112: 1.0, 113: 0.0, 114: 1.0, 115: 0.0, 116: 0.0, 117: 0.0, 118: 0.0, 119: 1.0, 120: 1.0, 121: 0.0, 122: 0.079445034, 123: 0.0, 124: 1.0, 125: 1.0, 126: 0.0, 127: 0.0, 128: 0.0, 129: 0.0, 130: 0.0, 131: 1.0, 132: 0.0, 133: 1.0, 134: 1.0, 135: 1.0, 136: 0.0, 137: 1.0, 138: 0.0, 139: 0.0, 140: 0.359677092, 141: 0.0, 142: 1.0, 143: 1.0, 144: 0.0, 145: 0.0, 146: 0.0, 147: 1.0, 148: 1.0, 149: 1.0, 150: 0.0, 151: 0.0, 152: 1.0, 153: 0.0, 154: 1.0, 155: 0.0, 156: 0.0, 157: 1.0, 158: 0.0, 159: 1.0, 160: 0.0, 161: 0.0, 162: 0.0, 163: 1.0, 164: 0.0, 165: 0.0, 166: 0.0, 167: 0.0, 168: 0.0, 169: 0.0, 170: 1.0, 171: 1.0, 172: 0.0, 173: 1.0, 174: 1.0, 175: 1.0, 176: 0.0, 177: 0.0, 178: 0.0, 179: 1.0, 180: 0.0, 181: 1.0, 182: 1.0, 183: 1.0, 184: 0.0, 185: 0.0, 186: 0.0, 187: 1.0, 188: 0.0, 189: 1.0, 190: 1.0, 191: 0.0];
discharge = [0: 0.0, 1: 0.0, 2: 1.0, 3: 0.0, 4: 0.0, 5: 0.0, 6: 0.0, 7: 1.0, 8: 1.0, 9: 0.0, 10: 0.0, 11: 0.0, 12: 0.0, 13: 0.0, 14: 0.0, 15: 0.0, 16: 0.0, 17: 1.0, 18: 0.0, 19: 1.0, 20: 0.0, 21: 1.0, 22: 0.0, 23: 0.0, 24: 1.0, 25: 1.0, 26: 0.0, 27: 0.0, 28: 0.0, 29: 0.0, 30: 0.0, 31: 1.0, 32: 0.0, 33: 1.0, 34: 0.0, 35: 0.0, 36: 1.0, 37: 1.0, 38: 0.0, 39: 0.0, 40: 1.0, 41: 0.0, 42: 0.0, 43: 1.0, 44: 0.0, 45: 0.0, 46: 1.0, 47: 0.105974537, 48: 0.0, 49: 1.0, 50: 1.0, 51: 0.0, 52: 0.0, 53: 1.0, 54: 0.0, 55: 1.0, 56: 1.0, 57: 0.0, 58: 0.0, 59: 0.0, 60: 0.0, 61: 0.0, 62: 0.0, 63: 0.0, 64: 1.0, 65: 1.0, 66: 0.0, 67: 1.0, 68: 0.0, 69: 0.0, 70: 0.0, 71: 0.0, 72: 0.46790077, 73: 1.0, 74: 1.0, 75: 0.0, 76: 0.0, 77: 1.0, 78: 0.0, 79: 1.0, 80: 0.0, 81: 0.0, 82: 1.0, 83: 0.0, 84: 0.0, 85: 0.0, 86: 1.0, 87: 1.0, 88: 0.0, 89: 0.0, 90: 1.0, 91: 1.0, 92: 0.0, 93: 0.0, 94: 0.0, 95: 0.0, 96: 0.0, 97: 1.0, 98: 0.0, 99: 0.0, 100: 0.0, 101: 1.0, 102: 0.0, 103: 0.0, 104: 0.0, 105: 0.25430787, 106: 1.0, 107: 0.0, 108: 0.0, 109: 0.415516815, 110: 0.0, 111: 1.0, 112: 0.0, 113: 1.0, 114: 0.0, 115: 0.0, 116: 1.0, 117: 0.0, 118: 1.0, 119: 0.0, 120: 0.0, 121: 1.0, 122: 0.0, 123: 1.0, 124: 0.0, 125: 0.0, 126: 1.0, 127: 0.0, 128: 1.0, 129: 0.0, 130: 0.0, 131: 0.0, 132: 1.0, 133: 0.0, 134: 0.0, 135: 0.0, 136: 1.0, 137: 0.0, 138: 1.0, 139: 0.0, 140: 0.0, 141: 1.0, 142: 0.0, 143: 0.0, 144: 1.0, 145: 1.0, 146: 1.0, 147: 0.0, 148: 0.0, 149: 0.0, 150: 0.0, 151: 1.0, 152: 0.0, 153: 1.0, 154: 0.0, 155: 1.0, 156: 1.0, 157: 0.0, 158: 1.0, 159: 0.0, 160: 0.0, 161: 0.0, 162: 1.0, 163: 0.0, 164: 1.0, 165: 0.0, 166: 1.0, 167: 1.0, 168: 1.0, 169: 1.0, 170: 0.0, 171: 0.0, 172: 1.0, 173: 0.0, 174: 0.0, 175: 0.0, 176: 1.0, 177: 0.0, 178: 0.0, 179: 0.0, 180: 1.0, 181: 0.0, 182: 0.0, 183: 0.0, 184: 0.120196759, 185: 0.0, 186: 1.0, 187: 0.0, 188: 0.0, 189: 0.0, 190: 0.0, 191: 0.466530093];
soc = [0: 8.928214000000001, 1: 9.826428356999999, 2: 8.824463072, 3: 9.722698179, 4: 9.720753639, 5: 9.718809489, 6: 10.616865727, 7: 9.614742354000001, 8: 8.612819405, 9: 9.511096841000001, 10: 10.409194622, 11: 11.307112783, 12: 12.20485136, 13: 13.10241039, 14: 13.999789908, 15: 13.99698995, 16: 14.894190552, 17: 13.891211714, 18: 14.788433472, 19: 13.785475785, 20: 14.68271869, 21: 13.679782146, 22: 14.57704619, 23: 14.58291098, 24: 13.579994398, 25: 12.577278399, 26: 13.474762944, 27: 14.372067991, 28: 14.369193578, 29: 14.366319739, 30: 15.263446475, 31: 14.260393786, 32: 15.157541707, 33: 14.154510198, 34: 15.051679296, 35: 15.048668961, 36: 14.045659227, 37: 13.042850095, 38: 13.040241525, 39: 13.937633477, 40: 12.93484595, 41: 12.932258981, 42: 13.829672529, 43: 12.826906594, 44: 13.724341213, 45: 13.721596345, 46: 12.718852026, 47: 12.610333718, 48: 13.507811651, 49: 12.505110089, 50: 11.502609067, 51: 12.400308545, 52: 13.297828484, 53: 12.295168918, 54: 12.292709884, 55: 11.290251342, 56: 10.287993292, 57: 11.185935693, 58: 12.083698506, 59: 12.981281766, 60: 13.87868551, 61: 14.775909773, 62: 14.772954591, 63: 15.67, 64: 14.666866, 65: 13.663932627, 66: 14.56119984, 67: 13.5582876, 68: 13.875729737, 69: 14.772954591, 70: 15.67, 71: 15.666866, 72: 15.195831857, 73: 14.192792691, 74: 13.189954132, 75: 14.087316141, 76: 14.984498678, 77: 13.981501778, 78: 14.878705478, 79: 13.875729737, 80: 14.772954591, 81: 15.67, 82: 14.666866, 83: 14.663932627, 84: 15.56099984, 85: 15.55788764, 86: 14.554776063, 87: 13.551865108, 88: 13.549154735, 89: 13.546444904, 90: 12.543735615, 91: 11.541226867, 92: 12.438918622, 93: 12.436430838, 94: 13.333943552, 95: 14.231276764, 96: 15.128430508, 97: 14.125404822, 98: 14.122579741, 99: 15.019755225, 100: 15.67, 101: 14.666866, 102: 14.663932627, 103: 15.56099984, 104: 15.55788764, 105: 15.300468192, 106: 14.297408099, 107: 15.194548617, 108: 15.191509707, 109: 14.772954591, 110: 15.67, 111: 14.666866, 112: 15.563932627, 113: 14.56081984, 114: 15.457907676, 115: 15.454816095, 116: 14.451725132, 117: 14.448834787, 118: 13.44594502, 119: 14.343255831, 120: 15.240387179, 121: 14.237339102, 122: 14.305992165, 123: 13.303130967, 124: 14.20047034, 125: 15.097630246, 126: 14.09461072, 127: 14.091791798, 128: 13.08897344, 129: 13.086355645, 130: 13.083738374, 131: 13.981121626, 132: 12.978325402, 133: 13.875729737, 134: 14.772954591, 135: 15.67, 136: 14.666866, 137: 15.563932627, 138: 14.56081984, 139: 14.557907676, 140: 14.878705478, 141: 13.875729737, 142: 14.772954591, 143: 15.67, 144: 14.666866, 145: 13.663932627, 146: 12.66119984, 147: 13.5586676, 148: 14.455955867, 149: 15.353064676, 150: 15.349994063, 151: 14.346924064, 152: 15.244054679, 153: 14.241005868, 154: 15.138157667, 155: 14.135130035, 156: 13.132303009, 157: 14.029676549, 158: 13.026870613, 159: 13.924265239, 160: 13.921480386, 161: 13.91869609, 162: 12.915912351, 163: 13.813329169, 164: 12.810566503, 165: 12.808004389, 166: 11.805442789, 167: 10.8030817, 168: 9.800921084000001, 169: 8.798960899000001, 170: 9.697201107, 171: 10.595261667, 172: 9.593142615, 173: 10.491223986, 174: 11.389125741, 175: 12.286847916, 176: 11.284390547, 177: 11.282133669, 178: 11.279877242, 179: 12.177621266, 180: 11.175185742, 181: 12.072950705, 182: 12.970536115, 183: 13.867942008, 184: 13.74497166, 185: 13.742222666, 186: 12.739474221, 187: 13.636926326, 188: 13.634198941, 189: 14.531472101, 190: 15.428565807, 191: 14.958950001];
cost = [0: 0.13114623, 1: 0.858880416, 2: 0.0, 3: 0.864928326, 4: 0.13175713, 5: 0.13084078, 6: 0.863095626, 7: 0.0, 8: 0.0, 9: 0.859308046, 10: 0.859613496, 11: 0.865539226, 12: 0.865417046, 13: 0.8648061460000001, 14: 0.860835296, 15: 0.13145168, 16: 0.866638846, 17: 0.0, 18: 0.868776996, 19: 0.0, 20: 0.865111596, 21: 0.0, 22: 0.869998796, 23: 0.145101035, 24: 0.0, 25: 0.0, 26: 1.561968424, 27: 1.570533544, 28: 0.252405858, 29: 0.021623458, 30: 1.411484024, 31: 0.0, 32: 1.321312344, 33: 0.0, 34: 1.209252024, 35: 0.265134578, 36: 0.0, 37: 0.0, 38: 0.105490258, 39: 0.793843704, 40: 0.0, 41: 0.0, 42: 1.413863224, 43: 0.0, 44: 1.416837224, 45: 0.115601858, 46: 0.0, 47: 0.0, 48: 0.386048824, 49: 0.0, 50: 0.0, 51: 1.423617944, 52: 0.460390346, 53: 0.0, 54: 0.0, 55: 0.0, 56: 0.0, 57: 0.572185046, 58: 0.118178165, 59: 0.827052526, 60: 1.426948824, 61: 1.834386824, 62: 0.178531698, 63: 1.831650744, 64: 0.0, 65: 0.0, 66: 1.424331704, 67: 0.0, 68: 0.184081527, 69: 1.172374424, 70: 1.218530904, 71: 0.117743138, 72: 0.0, 73: 0.0, 74: 0.0, 75: 1.421833544, 76: 1.405179144, 77: 0.0, 78: 1.401967224, 79: 0.0, 80: 1.411127144, 81: 1.402205144, 82: 0.0, 83: 0.114055378, 84: 1.430160744, 85: 0.124523858, 86: 0.0, 87: 0.0, 88: 0.05936548, 89: 0.0659632, 90: 0.0, 91: 0.0, 92: 0.7884436460000001, 93: 0.16749478, 94: 0.958884746, 95: 0.961755976, 96: 0.957174226, 97: 0.0, 98: 0.21636678, 99: 0.918992976, 100: 0.715743063, 101: 0.0, 102: 0.15497133, 103: 0.888631246, 104: 0.15967526, 105: 0.0, 106: 0.0, 107: 0.862667996, 108: 0.13951556, 109: 0.0, 110: 0.868593726, 111: 0.0, 112: 0.863889796, 113: 0.0, 114: 0.869693346, 115: 0.13951556, 116: 0.0, 117: 0.13493381, 118: 0.0, 119: 0.869387896, 120: 1.577433224, 121: 0.0, 122: 0.36022802, 123: 0.0, 124: 1.409699624, 125: 1.402799944, 126: 0.0, 127: 0.093832178, 128: 0.0, 129: 0.0, 130: 0.102754178, 131: 0.943138504, 132: 0.0, 133: 1.423380024, 134: 0.810736024, 135: 0.529752504, 136: 0.0, 137: 0.553425544, 138: 0.0, 139: 0.120360258, 140: 0.5767008260000001, 141: 0.0, 142: 0.118178165, 143: 0.118178165, 144: 0.0, 145: 0.0, 146: 0.0, 147: 0.544027704, 148: 0.398200726, 149: 0.788565826, 150: 0.05539463, 151: 0.0, 152: 0.783250996, 153: 0.0, 154: 1.231040696, 155: 0.0, 156: 0.0, 157: 1.838788344, 158: 0.0, 159: 1.844498424, 160: 0.110843458, 161: 0.0, 162: 0.0, 163: 1.424331704, 164: 0.0, 165: 0.109415938, 166: 0.0, 167: 0.0, 168: 0.0, 169: 0.0, 170: 1.276226504, 171: 1.345223304, 172: 0.0, 173: 1.413506344, 174: 1.408747944, 175: 1.401967224, 176: 0.0, 177: 0.102516258, 178: 0.104538578, 179: 1.412673624, 180: 0.0, 181: 1.421000824, 182: 1.431350344, 183: 1.433134744, 184: 0.0, 185: 0.05948766, 186: 0.0, 187: 0.793147576, 188: 0.06639083, 189: 0.891991196, 190: 0.981182596, 191: 0.0];
earn = [0: 0.0, 1: 0.0, 2: 0.341235285, 3: 0.0, 4: 0.0, 5: 0.0, 6: 0.0, 7: 0.272000276, 8: 0.280949888, 9: 0.0, 10: 0.0, 11: 0.0, 12: 0.0, 13: 0.0, 14: 0.0, 15: 0.0, 16: 0.0, 17: 0.2840463, 18: 0.0, 19: 0.310475126, 20: 0.0, 21: 0.345363586, 22: 0.0, 23: 0.0, 24: 0.415549281, 25: 0.461367384, 26: 0.0, 27: 0.0, 28: 0.0, 29: 0.0, 30: 0.0, 31: 0.673366095, 32: 0.0, 33: 0.471296263, 34: 0.0, 35: 0.0, 36: 0.672321128, 37: 0.483319371, 38: 0.0, 39: 0.0, 40: 0.359681364, 41: 0.38589037, 42: 0.0, 43: 0.827520521, 44: 0.0, 45: 0.0, 46: 0.288147489, 47: 0.0, 48: 0.0, 49: 0.276506885, 50: 0.567737952, 51: 0.0, 52: 0.0, 53: 0.759149243, 54: 0.251623578, 55: 0.5492985339999999, 56: 0.6234267449999999, 57: 0.0, 58: 0.0, 59: 0.0, 60: 0.0, 61: 0.0, 62: 0.0, 63: 0.0, 64: 0.442681352, 65: 0.437423299, 66: 0.0, 67: 0.458037325, 68: 0.0, 69: 0.0, 70: 0.0, 71: 0.0, 72: 0.357435511, 73: 0.65077981, 74: 0.660531714, 75: 0.0, 76: 0.0, 77: 0.88138679, 78: 0.0, 79: 0.905994375, 80: 0.0, 81: 0.0, 82: 0.759454956, 83: 0.0, 84: 0.0, 85: 0.0, 86: 0.576843415, 87: 0.54995502, 88: 0.0, 89: 0.0, 90: 0.503204705, 91: 0.494965286, 92: 0.0, 93: 0.0, 94: 0.0, 95: 0.0, 96: 0.0, 97: 0.301120006, 98: 0.0, 99: 0.0, 100: 0.0, 101: 0.33449197, 102: 0.0, 103: 0.0, 104: 0.0, 105: 0.0, 106: 0.373502594, 107: 0.0, 108: 0.0, 109: 0.079661814, 110: 0.0, 111: 0.37277317, 112: 0.0, 113: 0.372421542, 114: 0.0, 115: 0.0, 116: 0.378518729, 117: 0.0, 118: 0.398254049, 119: 0.0, 120: 0.0, 121: 0.518808852, 122: 0.0, 123: 0.733617271, 124: 0.0, 125: 0.0, 126: 0.768150379, 127: 0.0, 128: 0.955975275, 129: 0.048566602, 130: 0.0, 131: 0.0, 132: 0.9673467100000001, 133: 0.0, 134: 0.0, 135: 0.0, 136: 1.014333091, 137: 0.0, 138: 0.507059943, 139: 0.0, 140: 0.0, 141: 0.45172832, 142: 0.486067788, 143: 0.7033868559999999, 144: 0.928024692, 145: 0.918180115, 146: 0.446325862, 147: 0.0, 148: 0.0, 149: 0.0, 150: 0.0, 151: 0.603468346, 152: 0.0, 153: 0.173668969, 154: 0.0, 155: 0.048566213, 156: 0.236337835, 157: 0.0, 158: 0.690286724, 159: 0.0, 160: 0.0, 161: 0.273091522, 162: 0.831797348, 163: 0.0, 164: 0.752364222, 165: 0.0, 166: 0.649337605, 167: 0.731881187, 168: 0.587643856, 169: 0.619737519, 170: 0.0, 171: 0.0, 172: 0.777352794, 173: 0.0, 174: 0.0, 175: 0.0, 176: 0.794445046, 177: 0.0, 178: 0.0, 179: 0.0, 180: 0.661492244, 181: 0.0, 182: 0.0, 183: 0.0, 184: 0.0, 185: 0.0, 186: 0.62558224, 187: 0.0, 188: 0.0, 189: 0.0, 190: 0.0, 191: 0.0];
total_cost = 91.823403615;
total_earn = 38.69433552;
% _objective = 53.129068095;