production = [0: 0.0, 1: 0.0, 2: 0.0, 3: 0.0, 4: 0.0, 5: 0.0, 6: 0.0, 7: 0.0, 8: 0.0, 9: 0.0, 10: 0.0, 11: 0.0, 12: 0.0, 13: 0.0, 14: 0.0, 15: 0.0, 16: 0.0, 17: 0.0, 18: 0.0, 19: 0.0, 20: 0.0, 21: 0.0, 22: 0.0, 23: 0.0, 24: 0.0, 25: 0.0, 26: 0.0, 27: 0.0245, 28: 0.0563, 29: 0.06, 30: 0.0, 31: 0.1623, 32: 0.2055, 33: 0.0, 34: 0.2943, 35: 0.2577, 36: 0.38, 37: 0.5417, 38: 0.0, 39: 0.5212, 40: 0.6475, 41: 0.928, 42: 0.0, 43: 0.0, 44: 0.0, 45: 1.0025, 46: 0.0, 47: 0.0, 48: 0.8625, 49: 0.0, 50: 0.0, 51: 0.8139999999999999, 52: 0.0, 53: 1.1767, 54: 0.0, 55: 0.0, 56: 0.0, 57: 0.9573, 58: 2.2612, 59: 0.0, 60: 0.0, 61: 0.1737, 62: 0.2918, 63: 0.0, 64: 0.0, 65: 0.0, 66: 0.0, 67: 0.0, 68: 0.0, 69: 0.212, 70: 0.0, 71: 0.1215, 72: 0.0, 73: 0.078, 74: 0.0248, 75: 0.0, 76: 0.0, 77: 0.0018, 78: 0.0, 79: 0.0, 80: 0.0, 81: 0.0, 82: 0.0, 83: 0.0, 84: 0.0, 85: 0.0, 86: 0.0, 87: 0.0, 88: 0.0, 89: 0.0, 90: 0.0, 91: 0.0, 92: 0.0, 93: 0.0, 94: 0.0, 95: 0.0, 96: 0.0, 97: 0.0, 98: 0.0, 99: 0.0, 100: 0.0, 101: 0.0, 102: 0.0, 103: 0.0, 104: 0.0, 105: 0.0, 106: 0.0, 107: 0.0, 108: 0.0, 109: 0.0, 110: 0.0, 111: 0.0, 112: 0.0, 113: 0.0, 114: 0.0, 115: 0.0, 116: 0.0, 117: 0.0, 118: 0.0, 119: 0.0, 120: 0.0, 121: 0.0, 122: 0.0022, 123: 0.0073, 124: 0.023, 125: 0.0558, 126: 0.082, 127: 0.0, 128: 0.208, 129: 0.0, 130: 0.379, 131: 0.3957, 132: 0.385, 133: 0.097177083, 134: 0.0, 135: 0.7502, 136: 0.0, 137: 0.0, 138: 0.0, 139: 2.0145, 140: 1.0043, 141: 1.9385, 142: 1.9252, 143: 2.3258, 144: 0.852, 145: 0.8393, 146: 1.0237, 147: 0.7392, 148: 0.0, 149: 0.3043, 150: 0.4532, 151: 0.0, 152: 0.3765, 153: 0.2467, 154: 0.0, 155: 0.596, 156: 0.264, 157: 0.0, 158: 0.8708, 159: 0.826, 160: 0.0, 161: 0.0, 162: 0.0, 163: 0.0, 164: 0.447, 165: 0.5135, 166: 0.0, 167: 0.285, 168: 0.1562, 169: 0.1608, 170: 0.0, 171: 0.0592, 172: 0.0318, 173: 0.0, 174: 0.0, 175: 0.0005, 176: 0.0003, 177: 0.0, 178: 0.0, 179: 0.0, 180: 0.0, 181: 0.0, 182: 0.0, 183: 0.0, 184: 0.0, 185: 0.0, 186: 0.0, 187: 0.0, 188: 0.0, 189: 0.0, 190: 0.0, 191: 0.0];
buy = [0: 1.214677083, 1: 1.212477083, 2: 0.0, 3: 0.222377083, 4: 0.215677083, 5: 1.214177083, 6: 1.219377083, 7: 0.0, 8: 0.0, 9: 0.213177083, 10: 1.213677083, 11: 1.223377083, 12: 0.0, 13: 0.0, 14: 0.0, 15: 1.215177083, 16: 0.0, 17: 0.0, 18: 0.228677083, 19: 0.0, 20: 0.222677083, 21: 1.223877083, 22: 0.230677083, 23: 0.0, 24: 0.0, 25: 0.0, 26: 0.220677083, 27: 0.0, 28: 0.155877083, 29: 1.018177083, 30: 1.087177083, 31: 0.0, 32: 0.0, 33: 0.0, 34: 0.0, 35: 0.965177083, 36: 0.0, 37: 0.0, 38: 1.088677083, 39: 0.567977083, 40: 0.450177083, 41: 0.0, 42: 1.089177083, 43: 0.090977083, 44: 0.09167708300000001, 45: 0.094677083, 46: 1.098477083, 47: 1.095377083, 48: 0.225177083, 49: 1.088177083, 50: 1.097177083, 51: 0.283377083, 52: 1.088677083, 53: 0.0, 54: 0.0, 55: 0.0, 56: 1.101877083, 57: 0.0, 58: 0.0, 59: 0.797177083, 60: 0.0, 61: 0.268977083, 62: 0.150077083, 63: 1.440377083, 64: 0.096877083, 65: 0.09797708300000001, 66: 1.097977083, 67: 1.087877083, 68: 0.0, 69: 0.886177083, 70: 0.098677083, 71: 0.977477083, 72: 0.0, 73: 0.017177083, 74: 0.0, 75: 1.095877083, 76: 1.086877083, 77: 0.07857708300000001, 78: 1.079677083, 79: 0.0, 80: 0.08687708299999999, 81: 0.079377083, 82: 0.0, 83: 0.0, 84: 0.102877083, 85: 0.0, 86: 1.093677083, 87: 1.094677083, 88: 0.097177083, 89: 0.107977083, 90: 0.0, 91: 0.098177083, 92: 1.097177083, 93: 1.274177083, 94: 0.0, 95: 0.0, 96: 0.373377083, 97: 0.0, 98: 1.354177083, 99: 1.310877083, 100: 0.305377083, 101: 1.296877083, 102: 0.0, 103: 0.0, 104: 0.0, 105: 1.228877083, 106: 1.218177083, 107: 0.0, 108: 0.0, 109: 1.227877083, 110: 0.0, 111: 1.220377083, 112: 0.220677083, 113: 0.230177083, 114: 1.230177083, 115: 1.228377083, 116: 0.0, 117: 1.220877083, 118: 1.229877083, 119: 0.229677083, 120: 0.226677083, 121: 0.0, 122: 0.0, 123: 0.0, 124: 1.062677083, 125: 1.024077083, 126: 0.0, 127: 0.0, 128: 0.0, 129: 0.085977083, 130: 0.0, 131: 0.693477083, 132: 0.703677083, 133: 0.0, 134: 0.0, 135: 0.345977083, 136: 0.0, 137: 0.0, 138: 0.0, 139: 0.0, 140: 0.0, 141: 0.0, 142: 0.0, 143: 0.0, 144: 0.245177083, 145: 0.250377083, 146: 0.0, 147: 0.0, 148: 0.096377083, 149: 0.793077083, 150: 0.6374770830000001, 151: 1.090477083, 152: 0.712177083, 153: 0.0, 154: 1.821677083, 155: 0.0, 156: 1.162377083, 157: 0.446377083, 158: 0.0, 159: 0.625177083, 160: 0.0, 161: 1.092677083, 162: 1.100977083, 163: 0.09797708300000001, 164: 0.0, 165: 0.0, 166: 0.089177083, 167: 0.0, 168: 0.942977083, 169: 0.0, 170: 0.091477083, 171: 0.0, 172: 1.055877083, 173: 1.088877083, 174: 1.086677083, 175: 0.079177083, 176: 0.0, 177: 0.0, 178: 1.087877083, 179: 0.0, 180: 0.0, 181: 1.095177083, 182: 0.0, 183: 1.105377083, 184: 0.0, 185: 0.097377083, 186: 0.098177083, 187: 0.104877083, 188: 0.0, 189: 0.0, 190: 0.412677083, 191: 0.0];
sell = [0: 0.0, 1: 0.0, 2: 0.677322917, 3: 0.0, 4: 0.0, 5: 0.0, 6: 0.0, 7: 0.677122917, 8: 0.678622917, 9: 0.0, 10: 0.0, 11: 0.0, 12: 0.676822917, 13: 0.677822917, 14: 0.684322917, 15: 0.0, 16: 0.674822917, 17: 0.676622917, 18: 0.0, 19: 0.679822917, 20: 0.0, 21: 0.0, 22: 0.0, 23: 0.674122917, 24: 0.6821229170000001, 25: 0.684322917, 26: 0.0, 27: 0.703622917, 28: 0.0, 29: 0.0, 30: 0.0, 31: 0.076822917, 32: 0.0, 33: 0.687822917, 34: 0.982822917, 35: 0.0, 36: 0.900500199, 37: 0.444822917, 38: 0.0, 39: 0.0, 40: 0.0, 41: 0.831122917, 42: 0.0, 43: 0.0, 44: 0.0, 45: 0.0, 46: 0.0, 47: 0.0, 48: 0.0, 49: 0.0, 50: 0.0, 51: 0.0, 52: 0.0, 53: 0.085222917, 54: 0.798522917, 55: 0.0, 56: 0.0, 57: 1.156822917, 58: 2.579522917, 59: 0.0, 60: 0.799822917, 61: 0.0, 62: 0.0, 63: 0.0, 64: 0.0, 65: 0.0, 66: 0.0, 67: 0.0, 68: 0.811622917, 69: 0.0, 70: 0.0, 71: 0.0, 72: 0.809022917, 73: 0.0, 74: 0.827422917, 75: 0.0, 76: 0.0, 77: 0.0, 78: 0.0, 79: 0.811822917, 80: 0.0, 81: 0.0, 82: 0.820322917, 83: 0.804122917, 84: 0.0, 85: 0.795322917, 86: 0.0, 87: 0.0, 88: 0.0, 89: 0.0, 90: 0.792822917, 91: 0.0, 92: 0.0, 93: 0.0, 94: 0.5238229170000001, 95: 0.519122917, 96: 0.0, 97: 0.523322917, 98: 0.0, 99: 0.0, 100: 0.0, 101: 0.0, 102: 0.646322917, 103: 0.638822917, 104: 0.638622917, 105: 0.0, 106: 0.0, 107: 0.681322917, 108: 0.671622917, 109: 0.0, 110: 0.671622917, 111: 0.0, 112: 0.0, 113: 0.0, 114: 0.0, 115: 0.0, 116: 0.679322917, 117: 0.0, 118: 0.0, 119: 0.0, 120: 0.0, 121: 0.682322917, 122: 0.684522917, 123: 0.820622917, 124: 0.0, 125: 0.0, 126: 0.002322917, 127: 0.821122917, 128: 1.021122917, 129: 0.0, 130: 0.292622917, 131: 0.0, 132: 0.0, 133: 0.0, 134: 0.802322917, 135: 0.0, 136: 0.810322917, 137: 0.8101229170000001, 138: 0.7990229170000001, 139: 2.813322917, 140: 0.9149229169999999, 141: 2.746022917, 142: 0.832022917, 143: 3.127122917, 144: 0.0, 145: 0.0, 146: 0.934022917, 147: 0.0, 148: 0.0, 149: 0.0, 150: 0.0, 151: 0.0, 152: 0.0, 153: 0.348522917, 154: 0.0, 155: 0.691022917, 156: 0.0, 157: 0.0, 158: 0.421122917, 159: 0.0, 160: 0.806822917, 161: 0.0, 162: 0.0, 163: 0.0, 164: 1.248322917, 165: 0.421522917, 166: 0.0, 167: 1.088622917, 168: 0.0, 169: 0.9623229170000001, 170: 0.0, 171: 0.8685229169999999, 172: 0.0, 173: 0.0, 174: 0.0, 175: 0.0, 176: 0.820622917, 177: 0.813822917, 178: 0.0, 179: 0.811822917, 180: 0.805322917, 181: 0.0, 182: 0.796122917, 183: 0.0, 184: 0.791822917, 185: 0.0, 186: 0.0, 187: 0.0, 188: 0.791322917, 189: 0.633322917, 190: 0.0, 191: 0.480122917];
charge = [0: 1.0, 1: 1.0, 2: 0.0, 3: 0.0, 4: 0.0, 5: 1.0, 6: 1.0, 7: 0.0, 8: 0.0, 9: 0.0, 10: 1.0, 11: 1.0, 12: 0.0, 13: 0.0, 14: 0.0, 15: 1.0, 16: 0.0, 17: 0.0, 18: 0.0, 19: 0.0, 20: 0.0, 21: 1.0, 22: 0.0, 23: 0.0, 24: 0.0, 25: 0.0, 26: 0.0, 27: 0.0, 28: 0.0, 29: 1.0, 30: 1.0, 31: 0.0, 32: 0.0, 33: 0.0, 34: 0.0, 35: 1.0, 36: 0.0, 37: 0.0, 38: 1.0, 39: 1.0, 40: 1.0, 41: 0.0, 42: 1.0, 43: 0.0, 44: 0.0, 45: 1.0, 46: 1.0, 47: 1.0, 48: 1.0, 49: 1.0, 50: 1.0, 51: 1.0, 52: 1.0, 53: 1.0, 54: 0.0, 55: 0.0, 56: 1.0, 57: 0.0, 58: 0.0, 59: 0.0, 60: 0.0, 61: 0.0, 62: 0.0, 63: 1.0, 64: 0.0, 65: 0.0, 66: 1.0, 67: 1.0, 68: 0.0, 69: 1.0, 70: 0.0, 71: 1.0, 72: 0.0, 73: 0.0, 74: 0.0, 75: 1.0, 76: 1.0, 77: 0.0, 78: 1.0, 79: 0.0, 80: 0.0, 81: 0.0, 82: 0.0, 83: 0.0, 84: 0.0, 85: 0.0, 86: 1.0, 87: 1.0, 88: 0.0, 89: 0.0, 90: 0.0, 91: 0.0, 92: 1.0, 93: 1.0, 94: 0.0, 95: 0.0, 96: 0.0, 97: 0.0, 98: 1.0, 99: 1.0, 100: 0.0, 101: 1.0, 102: 0.0, 103: 0.0, 104: 0.0, 105: 1.0, 106: 1.0, 107: 0.0, 108: 0.0, 109: 1.0, 110: 0.0, 111: 1.0, 112: 0.0, 113: 0.0, 114: 1.0, 115: 1.0, 116: 0.0, 117: 1.0, 118: 1.0, 119: 0.0, 120: 0.0, 121: 0.0, 122: 0.0, 123: 0.0, 124: 1.0, 125: 1.0, 126: 0.0, 127: 0.0, 128: 0.0, 129: 0.0, 130: 0.0, 131: 1.0, 132: 1.0, 133: 0.0, 134: 0.0, 135: 1.0, 136: 0.0, 137: 0.0, 138: 0.0, 139: 0.0, 140: 0.0, 141: 0.0, 142: 1.0, 143: 0.0, 144: 1.0, 145: 1.0, 146: 0.0, 147: 0.642022917, 148: 0.0, 149: 1.0, 150: 1.0, 151: 1.0, 152: 1.0, 153: 0.0, 154: 1.0, 155: 0.0, 156: 1.0, 157: 0.0, 158: 0.0, 159: 1.0, 160: 0.0, 161: 1.0, 162: 1.0, 163: 0.0, 164: 0.0, 165: 0.0, 166: 0.0, 167: 0.0, 168: 1.0, 169: 0.0, 170: 0.0, 171: 0.0, 172: 1.0, 173: 1.0, 174: 1.0, 175: 0.0, 176: 0.0, 177: 0.0, 178: 1.0, 179: 0.0, 180: 0.0, 181: 1.0, 182: 0.0, 183: 1.0, 184: 0.0, 185: 0.0, 186: 0.0, 187: 0.0, 188: 0.0, 189: 0.0, 190: 0.0, 191: 0.0];
discharge = [0: 0.0, 1: 0.0, 2: 1.0, 3: 0.0, 4: 0.0, 5: 0.0, 6: 0.0, 7: 1.0, 8: 1.0, 9: 0.0, 10: 0.0, 11: 0.0, 12: 1.0, 13: 1.0, 14: 1.0, 15: 0.0, 16: 1.0, 17: 1.0, 18: 0.0, 19: 1.0, 20: 0.0, 21: 0.0, 22: 0.0, 23: 1.0, 24: 1.0, 25: 1.0, 26: 0.0, 27: 1.0, 28: 0.0, 29: 0.0, 30: 0.0, 31: 0.0, 32: 0.012641204, 33: 1.0, 34: 1.0, 35: 0.0, 36: 0.686530314, 37: 0.0, 38: 0.0, 39: 0.0, 40: 0.0, 41: 0.0, 42: 0.0, 43: 0.0, 44: 0.0, 45: 0.0, 46: 0.0, 47: 0.0, 48: 0.0, 49: 0.0, 50: 0.0, 51: 0.0, 52: 0.0, 53: 0.0, 54: 1.0, 55: 0.112752315, 56: 0.0, 57: 1.0, 58: 1.0, 59: 0.0, 60: 1.0, 61: 0.0, 62: 0.0, 63: 0.0, 64: 0.0, 65: 0.0, 66: 0.0, 67: 0.0, 68: 1.0, 69: 0.0, 70: 0.0, 71: 0.0, 72: 1.0, 73: 0.0, 74: 1.0, 75: 0.0, 76: 0.0, 77: 0.0, 78: 0.0, 79: 1.0, 80: 0.0, 81: 0.0, 82: 1.0, 83: 1.0, 84: 0.0, 85: 1.0, 86: 0.0, 87: 0.0, 88: 0.0, 89: 0.0, 90: 1.0, 91: 0.0, 92: 0.0, 93: 0.0, 94: 1.0, 95: 1.0, 96: 0.0, 97: 1.0, 98: 0.0, 99: 0.0, 100: 0.0, 101: 0.0, 102: 1.0, 103: 1.0, 104: 1.0, 105: 0.0, 106: 0.0, 107: 1.0, 108: 1.0, 109: 0.0, 110: 1.0, 111: 0.0, 112: 0.0, 113: 0.0, 114: 0.0, 115: 0.0, 116: 1.0, 117: 0.0, 118: 0.0, 119: 0.0, 120: 0.0, 121: 1.0, 122: 1.0, 123: 1.0, 124: 0.0, 125: 0.0, 126: 0.0, 127: 1.0, 128: 1.0, 129: 0.0, 130: 0.0, 131: 0.0, 132: 0.0, 133: 0.0, 134: 1.0, 135: 0.0, 136: 1.0, 137: 1.0, 138: 1.0, 139: 1.0, 140: 0.0, 141: 1.0, 142: 0.0, 143: 1.0, 144: 0.0, 145: 0.0, 146: 0.0, 147: 0.0, 148: 0.0, 149: 0.0, 150: 0.0, 151: 0.0, 152: 0.0, 153: 1.0, 154: 0.0, 155: 1.0, 156: 0.0, 157: 0.0, 158: 0.0, 159: 0.0, 160: 1.0, 161: 0.0, 162: 0.0, 163: 0.0, 164: 1.0, 165: 0.0, 166: 0.0, 167: 1.0, 168: 0.0, 169: 1.0, 170: 0.0, 171: 1.0, 172: 0.0, 173: 0.0, 174: 0.0, 175: 0.0, 176: 1.0, 177: 1.0, 178: 0.0, 179: 1.0, 180: 1.0, 181: 0.0, 182: 1.0, 183: 0.0, 184: 1.0, 185: 0.0, 186: 0.0, 187: 0.0, 188: 1.0, 189: 1.0, 190: 0.0, 191: 1.0];
soc = [0: 9.828213999999999, 1: 10.726248357, 2: 9.724103108, 3: 9.722158286999999, 4: 9.720213855000001, 5: 10.618269812, 6: 11.516146159, 7: 10.513842929, 8: 9.511740161000001, 9: 9.509837813000001, 10: 10.407935845, 11: 11.305854258, 12: 10.303593087, 13: 9.301532368, 14: 8.299672062000001, 15: 9.198012128, 16: 8.196172525, 17: 7.194533291, 18: 7.193094384, 19: 6.191655765, 20: 6.190417434, 21: 7.08917935, 22: 7.087761515, 23: 6.086343962, 24: 5.085126694, 25: 4.084109668, 26: 4.083292846, 27: 3.082476188, 28: 3.081859692, 29: 3.98124332, 30: 4.880447072, 31: 4.879470982, 32: 4.865853885, 33: 3.864880714, 34: 2.864107738, 35: 3.763534916, 36: 3.076251895, 37: 3.075636645, 38: 3.975021517, 39: 4.874226513, 40: 5.773251668, 41: 5.772097017, 42: 6.670942598, 43: 6.669608409, 44: 6.668274488, 45: 7.566940833, 46: 8.465427445, 47: 9.363734359, 48: 10.261861612, 49: 11.15980924, 50: 12.057577278, 51: 12.955165763, 52: 13.852574729, 53: 14.749804215, 54: 13.746854254, 55: 13.631352568, 56: 14.528626298, 57: 13.525720572, 58: 12.523015428, 59: 12.520510825, 60: 11.518006723, 61: 11.515703122, 62: 11.513399981, 63: 12.411097301, 64: 12.408615081, 65: 12.406133358, 66: 13.303652132, 67: 14.200991401, 68: 13.198151203, 69: 14.095511573, 70: 14.092692471, 71: 14.989873932, 72: 13.986875957, 73: 13.984078582, 74: 12.981281766, 75: 13.87868551, 76: 14.775909773, 77: 14.772954591, 78: 15.67, 79: 14.666866, 80: 14.663932627, 81: 14.66099984, 82: 13.65806764, 83: 12.655336027, 84: 12.65280496, 85: 11.650274399, 86: 12.547944344, 87: 13.445434755, 88: 13.442745668, 89: 13.440057119, 90: 12.437369107, 91: 12.434881634, 92: 13.332394657, 93: 14.229728178, 94: 13.226882233, 95: 12.224236856, 96: 12.221792009, 97: 11.21934765, 98: 12.117103781, 99: 13.01468036, 100: 13.012077424, 101: 13.909475009, 102: 12.906693114, 103: 11.904111775, 104: 10.901730953, 105: 11.799550606, 106: 12.697190696, 107: 11.694651258, 108: 10.692312328, 109: 11.590173865, 110: 10.587855831, 111: 11.485738259, 112: 11.483441112, 113: 11.481144424, 114: 12.378848195, 115: 13.276372425, 116: 12.273717151, 117: 13.171262407, 118: 14.068628155, 119: 14.065814429, 120: 14.063001266, 121: 13.060188666, 122: 12.057576628, 123: 11.055165113, 124: 11.95295408, 125: 12.850563489, 126: 12.847993376, 127: 11.845423778, 128: 10.843054693, 129: 10.840886082, 130: 10.838717905, 131: 11.736550161, 132: 12.634202851, 133: 12.631676011, 134: 11.629149675, 135: 12.526823845, 136: 11.524318481, 137: 10.522013617, 138: 9.519909214, 139: 8.518005232, 140: 8.516301630999999, 141: 7.514598371, 142: 8.413095451, 143: 7.411412832, 144: 8.309930550000001, 145: 9.208268564000001, 146: 9.206426909999999, 147: 9.782406248999999, 148: 9.780449768, 149: 10.678493678, 150: 11.57635798, 151: 12.474042708, 152: 13.371547899, 153: 12.36887359, 154: 13.266399815, 155: 12.263746535, 156: 13.161293786, 157: 13.158661527, 158: 13.156029795, 159: 14.053398589, 160: 13.050587909, 161: 13.947977791, 162: 14.845188196, 163: 14.842219158, 164: 13.839250714, 165: 13.836482864, 166: 13.833715568, 167: 12.830948825, 168: 13.728382635, 169: 12.725636958, 170: 12.723091831, 171: 11.720547213, 172: 12.618203103, 173: 13.515679463, 174: 14.412976327, 175: 14.410093731, 176: 13.407211713, 177: 12.40453027, 178: 13.302049364, 179: 12.299388954, 180: 11.296929077, 181: 12.194669691, 182: 11.192230757, 183: 12.089992311, 184: 11.087574312, 185: 11.085356797, 186: 11.083139726, 187: 11.080923098, 188: 10.078706913, 189: 9.076691172, 190: 9.074875834, 191: 8.073060859];
cost = [0: 0.860224396, 1: 0.858880416, 2: 0.0, 3: 0.13585016, 4: 0.13175713, 5: 0.859918946, 6: 0.863095626, 7: 0.0, 8: 0.0, 9: 0.13022988, 10: 0.859613496, 11: 0.865539226, 12: 0.0, 13: 0.0, 14: 0.0, 15: 0.860529846, 16: 0.0, 17: 0.0, 18: 0.13969883, 19: 0.0, 20: 0.13603343, 21: 0.865844676, 22: 0.14092063, 23: 0.0, 24: 0.0, 25: 0.0, 26: 0.262517458, 27: 0.0, 28: 0.185431378, 29: 1.329401624, 30: 1.411484024, 31: 0.0, 32: 0.0, 33: 0.0, 34: 0.0, 35: 1.266352824, 36: 0.0, 37: 0.0, 38: 1.413268424, 39: 0.793843704, 40: 0.653708824, 41: 0.0, 42: 1.413863224, 43: 0.108226338, 44: 0.109059058, 45: 0.230806024, 46: 1.424926504, 47: 1.421238744, 48: 0.386048824, 49: 1.412673624, 50: 1.423380024, 51: 0.455283544, 52: 0.783250996, 53: 0.118178165, 54: 0.0, 55: 0.0, 56: 0.7913148759999999, 57: 0.0, 58: 0.0, 59: 0.48699548, 60: 0.0, 61: 0.319975138, 62: 0.178531698, 63: 1.831650744, 64: 0.115244978, 65: 0.116553538, 66: 1.424331704, 67: 1.412316744, 68: 0.0, 69: 1.172374424, 70: 0.117386258, 71: 1.280984904, 72: 0.0, 73: 0.020433858, 74: 0.0, 75: 1.421833544, 76: 1.411127144, 77: 0.093475298, 78: 1.402562024, 79: 0.0, 80: 0.103348978, 81: 0.09442697799999999, 82: 0.0, 83: 0.0, 84: 0.122382578, 85: 0.0, 86: 1.419216424, 87: 1.420406024, 88: 0.05936548, 89: 0.0659632, 90: 0.0, 91: 0.05997638, 92: 0.7884436460000001, 93: 0.896572946, 94: 0.0, 95: 0.0, 96: 0.22809606, 97: 0.0, 98: 0.945444946, 99: 0.918992976, 100: 0.18655486, 101: 0.9104403760000001, 102: 0.0, 103: 0.0, 104: 0.0, 105: 0.868899176, 106: 0.862362546, 107: 0.0, 108: 0.0, 109: 0.868288276, 110: 0.0, 111: 0.863706526, 112: 0.13481163, 113: 0.14061518, 114: 0.869693346, 115: 0.868593726, 116: 0.0, 117: 0.864011976, 118: 0.869510076, 119: 0.14030973, 120: 0.269655058, 121: 0.0, 122: 0.0, 123: 0.0, 124: 1.382338824, 125: 1.336420264, 126: 0.0, 127: 0.0, 128: 0.0, 129: 0.102278338, 130: 0.0, 131: 0.943138504, 132: 0.955272424, 133: 0.0, 134: 0.0, 135: 0.529752504, 136: 0.0, 137: 0.0, 138: 0.0, 139: 0.0, 140: 0.0, 141: 0.0, 142: 0.118178165, 143: 0.0, 144: 0.409840824, 145: 0.416026744, 146: 0.0, 147: 0.07587309, 148: 0.05887676, 149: 0.602668956, 150: 0.507612916, 151: 0.784350616, 152: 0.553247146, 153: 0.0, 154: 1.231040696, 155: 0.0, 156: 1.500941944, 157: 0.5310101780000001, 158: 0.0, 159: 0.861888824, 160: 0.0, 161: 1.418026824, 162: 1.427900504, 163: 0.116553538, 164: 0.0, 165: 0.0, 166: 0.106085058, 167: 0.0, 168: 1.239943704, 169: 0.0, 170: 0.108821138, 171: 0.0, 172: 1.374249544, 173: 1.413506344, 174: 1.410889224, 175: 0.09418905800000001, 176: 0.0, 177: 0.0, 178: 1.412316744, 179: 0.0, 180: 0.0, 181: 1.421000824, 182: 0.0, 183: 1.433134744, 184: 0.0, 185: 0.05948766, 186: 0.05997638, 187: 0.06406940999999999, 188: 0.0, 189: 0.0, 190: 0.25210443, 191: 0.0];
earn = [0: 0.0, 1: 0.0, 2: 0.341235285, 3: 0.0, 4: 0.0, 5: 0.0, 6: 0.0, 7: 0.272000276, 8: 0.280949888, 9: 0.0, 10: 0.0, 11: 0.0, 12: 0.251778125, 13: 0.263605332, 14: 0.271881495, 15: 0.0, 16: 0.27532775, 17: 0.2840463, 18: 0.0, 19: 0.310475126, 20: 0.0, 21: 0.0, 22: 0.0, 23: 0.363015191, 24: 0.415549281, 25: 0.461165214, 26: 0.0, 27: 0.557339712, 28: 0.0, 29: 0.0, 30: 0.0, 31: 0.06350950499999999, 32: 0.0, 33: 0.471296263, 34: 0.66389688, 35: 0.0, 36: 0.5119343629999999, 37: 0.267694431, 38: 0.0, 39: 0.0, 40: 0.0, 41: 0.38589037, 42: 0.0, 43: 0.0, 44: 0.0, 45: 0.0, 46: 0.0, 47: 0.0, 48: 0.0, 49: 0.0, 50: 0.0, 51: 0.0, 52: 0.0, 53: 0.032589243, 54: 0.300643878, 55: 0.0, 56: 0.0, 57: 0.493616339, 58: 1.213665532, 59: 0.0, 60: 0.409189404, 61: 0.0, 62: 0.0, 63: 0.0, 64: 0.0, 65: 0.0, 66: 0.0, 67: 0.0, 68: 0.50823827, 69: 0.0, 70: 0.0, 71: 0.0, 72: 0.666553981, 73: 0.0, 74: 0.660531714, 75: 0.0, 76: 0.0, 77: 0.0, 78: 0.0, 79: 0.905994375, 80: 0.0, 81: 0.0, 82: 0.759454956, 83: 0.711729194, 84: 0.0, 85: 0.623692231, 86: 0.0, 87: 0.0, 88: 0.0, 89: 0.0, 90: 0.503204705, 91: 0.0, 92: 0.0, 93: 0.0, 94: 0.304288732, 95: 0.298184203, 96: 0.0, 97: 0.301120006, 98: 0.0, 99: 0.0, 100: 0.0, 101: 0.0, 102: 0.357093411, 103: 0.353524602, 104: 0.349390598, 105: 0.0, 106: 0.0, 107: 0.372751768, 108: 0.36603449, 109: 0.0, 110: 0.368183683, 111: 0.0, 112: 0.0, 113: 0.0, 114: 0.0, 115: 0.0, 116: 0.378518729, 117: 0.0, 118: 0.0, 119: 0.0, 120: 0.0, 121: 0.5184289520000001, 122: 0.56931771, 123: 0.740201871, 124: 0.0, 125: 0.0, 126: 0.002175179, 127: 0.755186746, 128: 0.955975275, 129: 0.0, 130: 0.24363784, 131: 0.0, 132: 0.0, 133: 0.0, 134: 0.571414381, 135: 0.0, 136: 0.556934941, 137: 0.530225449, 138: 0.507059943, 139: 1.735257575, 140: 0.53376603, 141: 1.53612522, 142: 0.486067788, 143: 1.792466856, 144: 0.0, 145: 0.0, 146: 0.514459823, 147: 0.0, 148: 0.0, 149: 0.0, 150: 0.0, 151: 0.0, 152: 0.0, 153: 0.173668969, 154: 0.0, 155: 0.353181813, 156: 0.0, 157: 0.0, 158: 0.220036724, 159: 0.0, 160: 0.424146807, 161: 0.0, 162: 0.0, 163: 0.0, 164: 0.752364222, 165: 0.258393548, 166: 0.0, 167: 0.731881187, 168: 0.0, 169: 0.744068079, 170: 0.0, 171: 0.698639834, 172: 0.0, 173: 0.0, 174: 0.0, 175: 0.0, 176: 0.794445046, 177: 0.773701447, 178: 0.0, 179: 0.745415802, 180: 0.661492244, 181: 0.0, 182: 0.667549066, 183: 0.0, 184: 0.646602594, 185: 0.0, 186: 0.0, 187: 0.0, 188: 0.591197351, 189: 0.468722291, 190: 0.0, 191: 0.344584217];
total_cost = 80.06127430399999;
total_earn = 40.549577651;
% _objective = 39.51169665299999;