open = [1, 1, 1, 1, 1, 1, 1, 1];
satisfied = 
[| 0.0,         0.0,    0.0, 0.0, 0.499999444,       0.0, 0.0, 0.0,    0.0, 1.0, 0.0, 0.0
 | 0.0, 0.666665833,    0.0, 0.0,         0.0,       0.0, 0.0, 0.0,    0.0, 0.0, 1.0, 0.0
 | 1.0,         0.0,    0.0, 0.0, 0.222143889,       0.0, 0.0, 0.0, 0.0001, 0.0, 1.0, 1.0
 | 0.0,         0.0,    0.0, 0.0,         0.0, 0.6399996, 0.0, 1.0,    0.0, 1.0, 0.0, 1.0
 | 0.0,         0.0, 0.0001, 0.0,         0.0, 0.2399196, 1.0, 1.0,    0.0, 0.0, 0.0, 0.0
 | 1.0,         0.0,    1.0, 0.0,         0.0, 0.1201808, 1.0, 0.0,    0.0, 0.0, 0.0, 1.0
 | 0.0, 0.916665833,    0.0, 1.0,         0.0,       0.0, 0.0, 0.0,    0.0, 1.0, 0.0, 0.0
 | 0.0,         0.0,    0.0, 1.0,         1.0,       0.0, 0.0, 0.0,    1.0, 1.0, 0.0, 0.0
 |];
% _objective = 19738.05260932;