open = [1, 1, 1, 1, 1, 1, 1, 1];
satisfied = 
[|         0.0,         0.0,    0.0, 0.0,    0.055555,       0.0, 1.0, 1.0,                 0.0,         0.0,    0.0, 0.0
 |         0.0,         0.0,    0.0, 0.0,         0.0,       0.0, 0.0, 1.0,                 0.0, 0.999999091,    0.0, 0.0
 | 0.333332667,         0.0,    0.0, 0.0,         0.0,       0.0, 0.0, 1.0,                 1.0,         0.0,    1.0, 0.0
 |         0.0,         0.0,    0.0, 0.0,         1.0, 0.2402092, 0.0, 0.0, 0.07105428599999999,         1.0,    0.0, 1.0
 |         0.0, 0.416499167, 0.0001, 0.0,         0.0,       0.0, 0.0, 1.0,                 0.0,         1.0,    0.0, 0.0
 | 0.000181333,         0.0,    0.0, 1.0,         0.0, 0.7598908, 1.0, 0.0,                 1.0,         0.0,    0.0, 1.0
 |    0.666586,         0.0,    0.0, 0.0,         0.0,       0.0, 0.0, 1.0,                 0.0,         1.0, 0.0001, 0.0
 |         0.0,         1.0,    1.0, 1.0, 0.333332778,       0.0, 0.0, 0.0,                 1.0,         1.0,    0.0, 1.0
 |];
% _objective = 20255.598980719;