open = [1, 1, 1, 1, 1, 1, 1, 1];
satisfied = 
[|         0.0,    0.0,       0.0, 0.0,                0.0,       0.0,      0.0, 0.0, 0.0,         0.0, 0.916665833, 1.0
 |         0.0,    0.0,       0.0, 1.0,                0.0,       0.0, 0.299999, 1.0, 0.0,         0.0,         0.0, 0.0
 |         0.0,    0.0,       0.0, 1.0,                0.0,       0.0,      0.0, 0.0, 1.0, 0.545453636,         1.0, 0.0
 |         0.0,    1.0,       0.0, 0.0,                0.0, 0.9199996,      1.0, 0.0, 0.0,         0.0,         0.0, 0.0
 | 0.933252667, 0.0001,       0.0, 0.0,                0.0,       0.0,      0.0, 0.0, 0.0,         1.0,         0.0, 0.0
 |         1.0,    0.0, 0.4499995, 0.0,                0.0,       0.0,      1.0, 0.0, 1.0,         0.0,         1.0, 0.0
 |         0.0,    0.0,       0.0, 0.0,                1.0,       0.0, 0.299999, 0.0, 0.0,         0.0,         0.0, 1.0
 |         0.0,    0.0,       1.0, 0.0, 0.8333327780000001,       1.0,      0.0, 1.0, 0.0,         1.0,         0.0, 0.0
 |];
% _objective = 18883.059389783;