open = [1, 1, 1, 1, 1, 1, 1, 1];
satisfied = 
[|    0.0,         0.0,    0.0,    1.0,         0.0, 0.0, 0.0,         0.0,         0.0,    0.0, 0.999999167,    0.0
 | 0.0001,         0.0,    0.0,    0.0,         0.0, 0.0, 0.0, 0.666398889,         1.0,    0.0,         0.0, 0.0001
 |    0.0,         1.0, 0.0001,    0.0, 0.888716111, 0.0, 0.0,         0.0,         0.0, 0.0001,         1.0,    0.0
 |    0.0,         1.0,    0.0,    0.0,         0.0, 0.0, 1.0,         0.0, 0.857142143,    1.0,         0.0,    0.0
 |    0.0,         0.0,    0.0, 0.0001, 0.333288333, 0.0, 1.0,         0.0,         0.0,    0.0,         0.0,    1.0
 |    0.0,         0.0,    1.0,    0.0,         0.0, 1.0, 0.0,         1.0,         0.0,    0.0, 0.499999167,    0.0
 |    0.0, 0.999999167,    0.0,    0.0,         1.0, 0.0, 0.0,         0.0,         0.0,    0.0,         0.0,    0.0
 |    1.0,         0.0,    0.0,    0.0, 0.277777222, 1.0, 0.0,         1.0,         1.0,    0.0,         1.0,    0.0
 |];
% _objective = 20563.196460648;