production = [0: 0.0, 1: 0.0, 2: 0.0, 3: 0.0, 4: 0.0, 5: 0.0, 6: 0.0, 7: 0.0, 8: 0.0, 9: 0.0, 10: 0.0, 11: 0.0, 12: 0.0, 13: 0.0, 14: 0.0, 15: 0.0, 16: 0.0, 17: 0.0, 18: 0.0, 19: 0.0, 20: 0.0, 21: 0.0, 22: 0.0, 23: 0.0, 24: 0.0, 25: 0.00023, 26: 0.004066, 27: 0.00554, 28: 0.016537, 29: 0.040865, 30: 0.055637, 31: 0.116122, 32: 0.186916, 33: 0.049753, 34: 0.25372, 35: 0.141877, 36: 0.271393, 37: 0.094386, 38: 0.582362, 39: 0.287624, 40: 0.218486, 41: 0.492829, 42: 0.93159, 43: 0.114042, 44: 0.542372, 45: 0.803625, 46: 0.511385, 47: 0.587574, 48: 0.363316, 49: 0.328727, 50: 0.380847, 51: 0.576583, 52: 0.145373, 53: 0.848978, 54: 0.6526650000000001, 55: 0.271602, 56: 0.315767, 57: 0.8212390000000001, 58: 2.116898, 59: 0.418719, 60: 0.1033, 61: 0.072807, 62: 0.135246, 63: 0.330853, 64: 0.236883, 65: 0.171354, 66: 0.197464, 67: 0.232117, 68: 0.210268, 69: 0.112243, 70: 0.129343, 71: 0.06794799999999999, 72: 0.021579, 73: 0.076531, 74: 0.019127, 75: 0.00486, 76: 0.002224, 77: 0.001024, 78: 0.000254, 79: 0.0, 80: 0.0, 81: 0.0, 82: 0.0, 83: 0.0, 84: 0.0, 85: 0.0, 86: 0.0, 87: 0.0, 88: 0.0, 89: 0.0, 90: 0.0, 91: 0.0, 92: 0.0, 93: 0.0, 94: 0.0, 95: 0.0, 96: 0.0, 97: 0.0, 98: 0.0, 99: 0.0, 100: 0.0, 101: 0.0, 102: 0.0, 103: 0.0, 104: 0.0, 105: 0.0, 106: 0.0, 107: 0.0, 108: 0.0, 109: 0.0, 110: 0.0, 111: 0.0, 112: 0.0, 113: 0.0, 114: 0.0, 115: 0.0, 116: 0.0, 117: 0.0, 118: 0.0, 119: 0.0, 120: 0.0, 121: 0.000446, 122: 0.001103, 123: 0.003934, 124: 0.001709, 125: 0.021014, 126: 0.077681, 127: 0.003497, 128: 0.164399, 129: 0.106708, 130: 0.132858, 131: 0.284939, 132: 0.156527, 133: 0.020659, 134: 0.32833, 135: 0.729684, 136: 0.347568, 137: 0.341854, 138: 0.158963, 139: 0.851564, 140: 0.754417, 141: 1.102874, 142: 1.378591, 143: 1.477386, 144: 0.638775, 145: 0.138966, 146: 0.01422, 147: 0.370875, 148: 0.216055, 149: 0.025553, 150: 0.219435, 151: 0.092988, 152: 0.28003, 153: 0.177826, 154: 0.213109, 155: 0.592903, 156: 0.184084, 157: 0.293401, 158: 0.499393, 159: 0.450185, 160: 0.149447, 161: 0.09743, 162: 0.174673, 163: 1.01588, 164: 0.247008, 165: 0.433825, 166: 0.125591, 167: 0.016689, 168: 0.099352, 169: 0.000878, 170: 0.08016, 171: 0.026803, 172: 0.029258, 173: 0.00025, 174: 0.001744, 175: 0.000264, 176: 0.000225, 177: 0.0, 178: 0.0, 179: 0.0, 180: 0.0, 181: 0.0, 182: 0.0, 183: 0.0, 184: 0.0, 185: 0.0, 186: 0.0, 187: 0.0, 188: 0.0, 189: 0.0, 190: 0.0, 191: 0.0];
buy = [0: 408.908402, 1: 383.735867, 2: 318.312728, 3: 864.706817, 4: 453.033696, 5: 577.136876, 6: 63.918802, 7: 349.803497, 8: 184.744346, 9: 620.878784, 10: 256.587767, 11: 863.644672, 12: 964.643776, 13: 696.349695, 14: 383.838358, 15: 955.719624, 16: 330.720042, 17: 458.554706, 18: 961.611882, 19: 449.75092, 20: 230.261179, 21: 486.276762, 22: 266.452072, 23: 465.318296, 24: 733.770863, 25: 15.674, 26: 942.333241, 27: 706.898379, 28: 46.682461, 29: 385.464145, 30: 63.305953, 31: 451.355521, 32: 863.102764, 33: 836.803449, 34: 714.137616, 35: 795.756218, 36: 626.413518, 37: 965.706712, 38: 881.736401, 39: 329.307236, 40: 226.549124, 41: 129.086049, 42: 740.361208, 43: 103.194779, 44: 346.955585, 45: 362.188944, 46: 354.299358, 47: 526.164116, 48: 182.355441, 49: 387.0566, 50: 528.568589, 51: 964.266353, 52: 917.97088, 53: 950.607797, 54: 380.629083, 55: 591.765067, 56: 708.997338, 57: 332.159966, 58: 398.043364, 59: 371.256211, 60: 880.354149, 61: 881.8695729999999, 62: 383.617289, 63: 848.993678, 64: 62.12828, 65: 19.393385, 66: 17.580069, 67: 406.562313, 68: 689.084835, 69: 719.214981, 70: 55.612896, 71: 836.352522, 72: 539.2633939999999, 73: 368.42137, 74: 910.424699, 75: 508.151003, 76: 701.168498, 77: 142.922789, 78: 362.055912, 79: 522.5107420000001, 80: 89.585739, 81: 884.484267, 82: 282.518871, 83: 148.563377, 84: 882.886733, 85: 524.684047, 86: 685.8997000000001, 87: 28.98288, 88: 609.79588, 89: 764.235226, 90: 232.993696, 91: 167.714417, 92: 545.444768, 93: 541.833899, 94: 674.328122, 95: 613.597391, 96: 484.106949, 97: 417.050661, 98: 504.583717, 99: 97.272719, 100: 984.518506, 101: 886.532753, 102: 105.135975, 103: 764.599888, 104: 262.56721, 105: 316.413203, 106: 950.975815, 107: 781.612735, 108: 472.918052, 109: 273.148933, 110: 543.0853090000001, 111: 456.034335, 112: 860.987757, 113: 836.595327, 114: 792.9419820000001, 115: 210.064368, 116: 607.491598, 117: 11.209331, 118: 581.770138, 119: 201.335522, 120: 762.611219, 121: 625.071872, 122: 702.9294149999999, 123: 833.019805, 124: 866.44929, 125: 701.876944, 126: 874.779775, 127: 655.840445, 128: 554.394061, 129: 86.878377, 130: 172.971825, 131: 555.869056, 132: 116.311824, 133: 917.700506, 134: 777.791616, 135: 30.72784, 136: 951.317912, 137: 202.918391, 138: 295.442969, 139: 798.824126, 140: 121.372893, 141: 72.312288, 142: 341.936729, 143: 824.1340719999999, 144: 55.981293, 145: 230.521305, 146: 275.801545, 147: 562.4545900000001, 148: 209.528261, 149: 710.466504, 150: 649.347993, 151: 627.913726, 152: 121.267686, 153: 220.565108, 154: 126.549744, 155: 583.264272, 156: 574.7113900000001, 157: 900.219171, 158: 696.956593, 159: 334.235274, 160: 338.998401, 161: 493.099793, 162: 141.998344, 163: 813.466987, 164: 921.1622640000001, 165: 35.619688, 166: 776.1230430000001, 167: 641.090611, 168: 129.50356, 169: 819.451467, 170: 370.741678, 171: 412.375959, 172: 608.432893, 173: 291.061996, 174: 308.439375, 175: 699.875239, 176: 79.239183, 177: 703.988216, 178: 972.0794100000001, 179: 979.54928, 180: 576.756634, 181: 476.677963, 182: 449.504709, 183: 455.925238, 184: 640.327727, 185: 464.438691, 186: 626.53932, 187: 900.96772, 188: 208.568773, 189: 552.9895770000001, 190: 257.918028, 191: 612.572453];
sell = [0: 0.18366, 1: 0.498955, 2: 0.920645, 3: 0.085324, 4: 0.723783, 5: 0.483012, 6: 1.213894, 7: 1.284954, 8: 0.664864, 9: 1.323433, 10: 0.116508, 11: 2.735309, 12: 3.398937, 13: 3.456263, 14: 2.375496, 15: 3.805677, 16: 2.563033, 17: 2.833013, 18: 3.824194, 19: 3.532835, 20: 3.324802, 21: 1.812604, 22: 0.767059, 23: 3.572146, 24: 3.629897, 25: 1.049582, 26: 2.956581, 27: 0.848472, 28: 1.710841, 29: 0.9029509999999999, 30: 1.271362, 31: 2.199362, 32: 0.14045, 33: 0.662411, 34: 0.824403, 35: 0.130344, 36: 2.019791, 37: 3.62676, 38: 1.452129, 39: 0.909704, 40: 3.279512, 41: 0.517449, 42: 2.015882, 43: 3.398946, 44: 3.291696, 45: 0.683204, 46: 1.844559, 47: 1.903848, 48: 1.212521, 49: 0.840206, 50: 1.3145, 51: 1.766144, 52: 1.558304, 53: 0.977536, 54: 2.425665, 55: 2.954042, 56: 2.304744, 57: 1.151075, 58: 1.257374, 59: 2.315798, 60: 0.454339, 61: 2.23482, 62: 3.838261, 63: 3.775748, 64: 0.7615150000000001, 65: 1.413387, 66: 2.904913, 67: 3.236332, 68: 1.580234, 69: 0.018987, 70: 2.294198, 71: 0.220146, 72: 3.004743, 73: 1.689866, 74: 3.148522, 75: 2.348514, 76: 3.692229, 77: 1.797646, 78: 3.882208, 79: 3.129828, 80: 0.327723, 81: 2.177812, 82: 2.042644, 83: 3.26172, 84: 2.329787, 85: 2.905835, 86: 0.290159, 87: 1.331292, 88: 0.804433, 89: 0.760226, 90: 1.738392, 91: 1.866187, 92: 2.750992, 93: 1.819175, 94: 1.106699, 95: 0.842962, 96: 0.7650400000000001, 97: 1.156547, 98: 1.115763, 99: 3.692005, 100: 0.136476, 101: 1.889559, 102: 0.558265, 103: 0.487491, 104: 1.412397, 105: 0.631208, 106: 2.950468, 107: 1.982615, 108: 2.221232, 109: 2.095619, 110: 1.428203, 111: 0.630474, 112: 3.848414, 113: 3.376378, 114: 1.068491, 115: 3.613897, 116: 1.025662, 117: 1.249982, 118: 0.100613, 119: 3.943946, 120: 0.430576, 121: 1.399008, 122: 0.544007, 123: 1.577333, 124: 0.66173, 125: 3.669195, 126: 1.972023, 127: 0.045106, 128: 1.335897, 129: 0.160871, 130: 0.997878, 131: 2.114851, 132: 1.215498, 133: 2.704275, 134: 1.595392, 135: 1.986935, 136: 3.953121, 137: 2.37385, 138: 2.393916, 139: 1.261353, 140: 3.498838, 141: 1.601002, 142: 0.853281, 143: 2.961789, 144: 0.734225, 145: 0.833973, 146: 2.421644, 147: 2.221475, 148: 3.120848, 149: 3.372968, 150: 0.85404, 151: 3.664691, 152: 0.416103, 153: 2.956736, 154: 2.863377, 155: 2.072205, 156: 3.407641, 157: 2.353905, 158: 2.532431, 159: 1.690246, 160: 0.579859, 161: 2.959435, 162: 1.219755, 163: 2.508048, 164: 1.081271, 165: 2.557847, 166: 1.583312, 167: 2.165752, 168: 2.301862, 169: 2.64494, 170: 2.813367, 171: 3.764055, 172: 3.371777, 173: 1.660974, 174: 1.663299, 175: 3.736738, 176: 0.707534, 177: 0.9427990000000001, 178: 3.177721, 179: 0.92463, 180: 1.863452, 181: 1.298451, 182: 2.673206, 183: 2.743808, 184: 0.817529, 185: 0.9008620000000001, 186: 3.879917, 187: 1.545775, 188: 1.902559, 189: 2.206662, 190: 3.933808, 191: 2.478165];
charge = [0: 0.919974, 1: 0.561436, 2: 0.120551, 3: 0.351685, 4: 0.176759, 5: 0.8063399999999999, 6: 0.858321, 7: 0.164557, 8: 0.188475, 9: 0.43465, 10: 0.07909099999999999, 11: 0.706664, 12: 0.631777, 13: 0.247034, 14: 0.804214, 15: 0.548127, 16: 0.113109, 17: 0.067567, 18: 0.65169, 19: 0.759978, 20: 0.361336, 21: 0.822398, 22: 0.754311, 23: 0.280383, 24: 0.619947, 25: 0.724882, 26: 0.769262, 27: 0.847285, 28: 0.798919, 29: 0.158773, 30: 0.6941850000000001, 31: 0.518434, 32: 0.801999, 33: 0.32219, 34: 0.346566, 35: 0.065181, 36: 0.915644, 37: 0.772118, 38: 0.923432, 39: 0.443163, 40: 0.538454, 41: 0.207167, 42: 0.372056, 43: 0.583771, 44: 0.310429, 45: 0.594807, 46: 0.360745, 47: 0.8449, 48: 0.484534, 49: 0.781998, 50: 0.769539, 51: 0.62607, 52: 0.07105, 53: 0.254538, 54: 0.407322, 55: 0.358763, 56: 0.317818, 57: 0.978001, 58: 0.4263, 59: 0.018294, 60: 0.604765, 61: 0.656039, 62: 0.425787, 63: 0.895746, 64: 0.795315, 65: 0.266451, 66: 0.751165, 67: 0.369812, 68: 0.665034, 69: 0.12073, 70: 0.306695, 71: 0.159091, 72: 0.527397, 73: 0.967626, 74: 0.402309, 75: 0.715603, 76: 0.584761, 77: 0.9698830000000001, 78: 0.340073, 79: 0.349511, 80: 0.958778, 81: 0.08572399999999999, 82: 0.212257, 83: 0.12413, 84: 0.279384, 85: 0.7852710000000001, 86: 0.682195, 87: 0.568796, 88: 0.822089, 89: 0.180435, 90: 0.706452, 91: 0.552982, 92: 0.900987, 93: 0.203969, 94: 0.972008, 95: 0.180394, 96: 0.269959, 97: 0.196604, 98: 0.885462, 99: 0.257354, 100: 0.390844, 101: 0.890292, 102: 0.012856, 103: 0.623495, 104: 0.312473, 105: 0.151015, 106: 0.027626, 107: 0.634076, 108: 0.06051, 109: 0.344083, 110: 0.836573, 111: 0.615854, 112: 0.18418, 113: 0.904098, 114: 0.5252019999999999, 115: 0.958759, 116: 0.7319369999999999, 117: 0.586045, 118: 0.408706, 119: 0.69536, 120: 0.671629, 121: 0.449486, 122: 0.019725, 123: 0.209349, 124: 0.669339, 125: 0.747378, 126: 0.292056, 127: 0.412666, 128: 0.448844, 129: 0.594866, 130: 0.714022, 131: 0.477484, 132: 0.852756, 133: 0.125717, 134: 0.923746, 135: 0.952895, 136: 0.623026, 137: 0.09292400000000001, 138: 0.842536, 139: 0.483911, 140: 0.888796, 141: 0.374548, 142: 0.189388, 143: 0.241018, 144: 0.204669, 145: 0.999111, 146: 0.083649, 147: 0.454647, 148: 0.511406, 149: 0.927005, 150: 0.324048, 151: 0.196614, 152: 0.981279, 153: 0.663752, 154: 0.228696, 155: 0.18384, 156: 0.563826, 157: 0.355107, 158: 0.490132, 159: 0.212304, 160: 0.127012, 161: 0.211846, 162: 0.275801, 163: 0.305189, 164: 0.671214, 165: 0.823011, 166: 0.192664, 167: 0.586642, 168: 0.072742, 169: 0.526313, 170: 0.667857, 171: 0.321293, 172: 0.163605, 173: 0.589618, 174: 0.259319, 175: 0.373206, 176: 0.732351, 177: 0.268592, 178: 0.107834, 179: 0.132603, 180: 0.834696, 181: 0.042524, 182: 0.531049, 183: 0.07777000000000001, 184: 0.44565, 185: 0.111243, 186: 0.323268, 187: 0.268739, 188: 0.570962, 189: 0.563851, 190: 0.047099, 191: 0.305574];
discharge = [0: 0.03512, 1: 0.334944, 2: 0.278879, 3: 0.447512, 4: 0.123391, 5: 0.419743, 6: 0.5661119999999999, 7: 0.215257, 8: 0.383408, 9: 0.317537, 10: 0.237265, 11: 0.143397, 12: 0.139236, 13: 0.395104, 14: 0.306382, 15: 0.287087, 16: 0.619806, 17: 0.677516, 18: 0.551512, 19: 0.727677, 20: 0.434572, 21: 0.178441, 22: 0.749985, 23: 0.074155, 24: 0.295331, 25: 0.341664, 26: 0.331473, 27: 0.898028, 28: 0.504076, 29: 0.560604, 30: 0.683069, 31: 0.325438, 32: 0.134777, 33: 0.026707, 34: 0.485134, 35: 0.502613, 36: 0.5241980000000001, 37: 0.005847, 38: 0.811254, 39: 0.087751, 40: 0.615749, 41: 0.370901, 42: 0.579597, 43: 0.76856, 44: 0.252512, 45: 0.092353, 46: 0.684783, 47: 0.030128, 48: 0.193162, 49: 0.532243, 50: 0.743924, 51: 0.939594, 52: 0.317757, 53: 0.800451, 54: 0.303882, 55: 0.09096600000000001, 56: 0.793566, 57: 0.79612, 58: 0.159329, 59: 0.637647, 60: 0.137549, 61: 0.303868, 62: 0.587152, 63: 0.588925, 64: 0.522054, 65: 0.64868, 66: 0.086038, 67: 0.024703, 68: 0.350171, 69: 0.52252, 70: 0.491142, 71: 0.872268, 72: 0.562823, 73: 0.4315, 74: 0.092205, 75: 0.176254, 76: 0.707826, 77: 0.7318, 78: 0.514835, 79: 0.707334, 80: 0.946847, 81: 0.428849, 82: 0.37094, 83: 0.456528, 84: 0.301945, 85: 0.610618, 86: 0.276968, 87: 0.347729, 88: 0.219135, 89: 0.44913, 90: 0.869154, 91: 0.249344, 92: 0.717875, 93: 0.466625, 94: 0.837045, 95: 0.680831, 96: 0.778085, 97: 0.41334, 98: 0.62127, 99: 0.66744, 100: 0.232259, 101: 0.294988, 102: 0.511854, 103: 0.47918, 104: 0.981349, 105: 0.7337630000000001, 106: 0.959024, 107: 0.385738, 108: 0.053829, 109: 0.017414, 110: 0.147009, 111: 0.759239, 112: 0.024384, 113: 0.112646, 114: 0.466208, 115: 0.232344, 116: 0.013709, 117: 0.7269409999999999, 118: 0.337352, 119: 0.012124, 120: 0.254821, 121: 0.570688, 122: 0.07722900000000001, 123: 0.521115, 124: 0.302486, 125: 0.779938, 126: 0.142145, 127: 0.028081, 128: 0.523689, 129: 0.284924, 130: 0.041974, 131: 0.156122, 132: 0.372197, 133: 0.047352, 134: 0.664061, 135: 0.409395, 136: 0.203695, 137: 0.275162, 138: 0.685377, 139: 0.758475, 140: 0.463509, 141: 0.190453, 142: 0.960569, 143: 0.194809, 144: 0.636324, 145: 0.24747, 146: 0.970546, 147: 0.216203, 148: 0.878374, 149: 0.711525, 150: 0.608477, 151: 0.176216, 152: 0.72094, 153: 0.621315, 154: 0.052912, 155: 0.6545299999999999, 156: 0.682284, 157: 0.170811, 158: 0.790558, 159: 0.221518, 160: 0.934378, 161: 0.337858, 162: 0.033331, 163: 0.623892, 164: 0.709967, 165: 0.355798, 166: 0.06436500000000001, 167: 0.623688, 168: 0.974233, 169: 0.673257, 170: 0.7665960000000001, 171: 0.065334, 172: 0.296002, 173: 0.408942, 174: 0.667838, 175: 0.757988, 176: 0.5366030000000001, 177: 0.463776, 178: 0.736012, 179: 0.77585, 180: 0.933801, 181: 0.032072, 182: 0.414085, 183: 0.079568, 184: 0.185415, 185: 0.140944, 186: 0.89794, 187: 0.422227, 188: 0.6711009999999999, 189: 0.573399, 190: 0.519828, 191: 0.212611];
soc = [0: 8.472797, 1: 7.253958, 2: 8.736371, 3: 6.360172, 4: 11.140792, 5: 13.460629, 6: 13.280303, 7: 5.390556, 8: 4.577434, 9: 5.136669, 10: 4.403673, 11: 9.710559999999999, 12: 10.463147, 13: 7.774007, 14: 3.928006, 15: 11.006097, 16: 4.306185, 17: 12.434855, 18: 13.90913, 19: 4.14097, 20: 10.231457, 21: 13.440484, 22: 5.381577, 23: 12.985115, 24: 8.819189, 25: 7.140894, 26: 7.354851, 27: 4.891896, 28: 8.297497999999999, 29: 4.446122, 30: 13.82451, 31: 7.778613, 32: 15.390163, 33: 7.336221, 34: 15.181546, 35: 5.085301, 36: 3.10153, 37: 15.361231, 38: 10.570356, 39: 3.06807, 40: 4.603418, 41: 5.187685, 42: 10.814442, 43: 12.574436, 44: 14.592131, 45: 15.214257, 46: 8.198525, 47: 11.145493, 48: 11.303614, 49: 6.145453, 50: 14.254281, 51: 6.070265, 52: 8.069426, 53: 8.634588000000001, 54: 5.999301, 55: 3.962569, 56: 3.666743, 57: 7.481879, 58: 7.549376, 59: 4.647981, 60: 12.704472, 61: 8.954332000000001, 62: 4.201512, 63: 9.640554, 64: 11.207287, 65: 5.374165, 66: 7.329146, 67: 14.139583, 68: 10.863229, 69: 5.702859, 70: 14.961695, 71: 12.618182, 72: 13.955554, 73: 3.238948, 74: 7.722469, 75: 14.80891, 76: 9.021056, 77: 4.246651, 78: 6.90036, 79: 12.600314, 80: 14.875972, 81: 14.979451, 82: 14.643202, 83: 10.787608, 84: 13.682409, 85: 7.104879, 86: 10.043579, 87: 15.393051, 88: 12.170853, 89: 9.169955, 90: 6.131916, 91: 11.215626, 92: 11.31573, 93: 9.719886000000001, 94: 2.879132, 95: 4.707502, 96: 6.614036, 97: 8.325668, 98: 3.150875, 99: 3.099215, 100: 5.625661, 101: 14.531397, 102: 9.828177, 103: 15.201192, 104: 4.120704, 105: 10.57355, 106: 6.713832, 107: 12.073933, 108: 8.784157, 109: 7.489218, 110: 10.882691, 111: 14.941601, 112: 11.954346, 113: 6.375633, 114: 12.486837, 115: 3.926077, 116: 6.133184, 117: 7.309168, 118: 2.836447, 119: 14.345239, 120: 7.968978, 121: 3.65428, 122: 10.244452, 123: 8.721187, 124: 10.125081, 125: 2.738751, 126: 6.590666, 127: 14.828944, 128: 15.53618, 129: 8.333402, 130: 6.680419, 131: 9.157780000000001, 132: 15.541062, 133: 8.224693, 134: 5.69051, 135: 14.948711, 136: 7.565372, 137: 13.340884, 138: 2.920519, 139: 14.842424, 140: 2.749501, 141: 6.748218, 142: 5.577826, 143: 7.995567, 144: 13.411786, 145: 14.760513, 146: 4.345876, 147: 13.194229, 148: 10.930261, 149: 8.659789, 150: 11.301871, 151: 8.114307, 152: 12.030314, 153: 12.888481, 154: 12.902213, 155: 12.404547, 156: 13.511201, 157: 10.15429, 158: 6.725787, 159: 12.726102, 160: 4.686702, 161: 14.208039, 162: 13.080216, 163: 12.125441, 164: 7.465887, 165: 11.059152, 166: 5.534764, 167: 6.955882, 168: 14.479543, 169: 4.573005, 170: 15.206848, 171: 2.956425, 172: 8.701979, 173: 15.58607, 174: 3.823348, 175: 6.173024, 176: 10.969303, 177: 7.557855, 178: 12.432384, 179: 13.943752, 180: 4.760281, 181: 15.394368, 182: 12.716182, 183: 12.95908, 184: 14.757563, 185: 8.652041000000001, 186: 13.173318, 187: 3.627865, 188: 8.537601, 189: 10.68345, 190: 6.696946, 191: 10.173595];
cost = [0: 511.94631, 1: 342.188768, 2: 460.638187, 3: 441.372267, 4: 305.762284, 5: 275.26404, 6: 357.690533, 7: 384.223891, 8: 382.670208, 9: 367.675946, 10: 162.313032, 11: 577.950634, 12: 190.199806, 13: 37.80636, 14: 591.866011, 15: 270.442296, 16: 175.600629, 17: 511.150112, 18: 534.966752, 19: 109.489489, 20: 532.5804440000001, 21: 214.389644, 22: 347.341559, 23: 352.582726, 24: 367.030251, 25: 865.997813, 26: 512.3933039999999, 27: 39.926613, 28: 357.518196, 29: 1075.474038, 30: 729.8226090000001, 31: 207.056477, 32: 104.621983, 33: 153.296303, 34: 1089.158058, 35: 402.781575, 36: 861.263807, 37: 629.722524, 38: 197.726871, 39: 24.087738, 40: 511.643893, 41: 73.998245, 42: 911.378504, 43: 329.233411, 44: 10.847541, 45: 1084.830405, 46: 760.602587, 47: 421.647333, 48: 843.313528, 49: 48.960675, 50: 159.385958, 51: 5.947413, 52: 344.347746, 53: 93.492515, 54: 490.29308, 55: 478.089365, 56: 523.88398, 57: 227.551558, 58: 87.66304700000001, 59: 207.945808, 60: 1077.141174, 61: 808.405195, 62: 999.143694, 63: 639.371847, 64: 227.224966, 65: 977.867676, 66: 748.539563, 67: 984.361901, 68: 1141.919707, 69: 297.774196, 70: 290.874665, 71: 1089.567157, 72: 752.91758, 73: 1055.484535, 74: 803.574919, 75: 724.425919, 76: 377.199369, 77: 15.228305, 78: 642.277184, 79: 124.477675, 80: 440.350887, 81: 10.909527, 82: 278.022981, 83: 632.359335, 84: 985.9838, 85: 578.051989, 86: 647.8481880000001, 87: 434.646789, 88: 348.438295, 89: 310.679404, 90: 522.0004730000001, 91: 346.695108, 92: 100.792774, 93: 397.904226, 94: 548.7090920000001, 95: 348.969542, 96: 379.984045, 97: 122.587459, 98: 367.34841, 99: 152.151795, 100: 297.678954, 101: 91.45941999999999, 102: 53.570761, 103: 580.117395, 104: 485.3012, 105: 150.396766, 106: 501.529082, 107: 432.694117, 108: 300.59009, 109: 126.752776, 110: 239.620929, 111: 606.3937089999999, 112: 367.728651, 113: 23.562568, 114: 117.522219, 115: 246.551157, 116: 85.401134, 117: 331.43227, 118: 539.816735, 119: 600.050937, 120: 577.3163060000001, 121: 1119.862493, 122: 282.953023, 123: 1141.667069, 124: 491.456198, 125: 1052.474573, 126: 26.8527, 127: 181.038639, 128: 214.641236, 129: 1135.579684, 130: 170.406074, 131: 121.805185, 132: 1157.010888, 133: 879.525445, 134: 808.363138, 135: 255.286394, 136: 830.735517, 137: 574.559337, 138: 576.629385, 139: 387.001609, 140: 691.131071, 141: 744.277917, 142: 532.557279, 143: 20.715003, 144: 28.973655, 145: 868.822526, 146: 629.034166, 147: 808.144629, 148: 602.894913, 149: 387.14182, 150: 211.410589, 151: 546.9521140000001, 152: 251.493682, 153: 394.111364, 154: 546.313527, 155: 21.445968, 156: 465.212317, 157: 534.475131, 158: 913.855699, 159: 85.574522, 160: 373.284478, 161: 1045.225791, 162: 71.982657, 163: 869.474584, 164: 1180.629163, 165: 560.169672, 166: 1161.725535, 167: 163.501127, 168: 42.579375, 169: 323.832845, 170: 25.476008, 171: 420.464339, 172: 531.83843, 173: 1064.95808, 174: 701.898321, 175: 935.959426, 176: 832.622915, 177: 922.27092, 178: 721.396326, 179: 1153.827002, 180: 56.951719, 181: 61.479624, 182: 208.909181, 183: 641.034751, 184: 526.407656, 185: 350.990677, 186: 112.448121, 187: 528.723343, 188: 258.091945, 189: 61.190052, 190: 460.850381, 191: 12.971051];
earn = [0: 0.219984, 1: 0.594782, 2: 0.844626, 3: 1.957971, 4: 0.019435, 5: 0.643302, 6: 1.247756, 7: 0.031231, 8: 0.611511, 9: 1.473752, 10: 1.31222, 11: 0.543771, 12: 0.353938, 13: 0.250446, 14: 0.334649, 15: 0.333487, 16: 0.753096, 17: 0.619768, 18: 1.681649, 19: 1.2025, 20: 1.693745, 21: 1.569272, 22: 0.451453, 23: 0.9756590000000001, 24: 1.593029, 25: 1.820454, 26: 1.613671, 27: 0.063557, 28: 0.523895, 29: 2.365873, 30: 1.124863, 31: 2.0628, 32: 2.133918, 33: 0.456158, 34: 2.609293, 35: 1.57445, 36: 0.08056099999999999, 37: 1.115892, 38: 0.216159, 39: 0.763256, 40: 0.614249, 41: 1.066196, 42: 0.204334, 43: 1.596934, 44: 0.940508, 45: 1.096526, 46: 1.300258, 47: 1.115057, 48: 0.964446, 49: 0.294314, 50: 1.00206, 51: 1.059493, 52: 1.434442, 53: 1.097668, 54: 0.378375, 55: 0.14812, 56: 0.243902, 57: 1.491219, 58: 0.891599, 59: 0.8259649999999999, 60: 1.359558, 61: 1.642438, 62: 0.912528, 63: 0.823265, 64: 1.182544, 65: 0.667671, 66: 0.535342, 67: 0.831914, 68: 2.391785, 69: 0.879512, 70: 2.173525, 71: 1.055322, 72: 0.025445, 73: 1.572791, 74: 1.473927, 75: 0.734924, 76: 3.511066, 77: 2.605099, 78: 2.101553, 79: 3.114136, 80: 1.555146, 81: 2.982564, 82: 2.532183, 83: 0.320751, 84: 2.307291, 85: 0.022679, 86: 1.217297, 87: 1.338649, 88: 0.273112, 89: 0.496004, 90: 1.259159, 91: 0.759059, 92: 0.175116, 93: 0.769605, 94: 0.260248, 95: 0.016886, 96: 2.176925, 97: 2.036809, 98: 0.788147, 99: 0.133332, 100: 0.264359, 101: 0.188812, 102: 2.02213, 103: 1.118482, 104: 0.986792, 105: 1.436188, 106: 0.107225, 107: 0.475109, 108: 0.127413, 109: 0.196649, 110: 0.558168, 111: 1.419044, 112: 0.036007, 113: 0.632756, 114: 2.002076, 115: 0.975338, 116: 0.694533, 117: 1.108497, 118: 0.121112, 119: 1.765435, 120: 1.446939, 121: 1.852077, 122: 0.06868299999999999, 123: 2.425703, 124: 3.35635, 125: 1.277545, 126: 1.45918, 127: 3.554188, 128: 0.277218, 129: 3.465377, 130: 0.647455, 131: 3.01812, 132: 0.468022, 133: 0.295796, 134: 1.402428, 135: 2.626128, 136: 2.593871, 137: 2.004679, 138: 0.8497710000000001, 139: 0.593772, 140: 2.052514, 141: 1.189678, 142: 1.05911, 143: 2.18145, 144: 1.59926, 145: 1.656482, 146: 1.526511, 147: 0.030206, 148: 1.821551, 149: 1.310497, 150: 0.683296, 151: 1.384325, 152: 1.885481, 153: 0.682074, 154: 0.480934, 155: 0.941309, 156: 0.155694, 157: 0.486723, 158: 0.572038, 159: 0.079966, 160: 0.421104, 161: 2.031227, 162: 1.701859, 163: 0.736939, 164: 2.220957, 165: 1.095606, 166: 0.653803, 167: 2.255544, 168: 1.686047, 169: 0.282192, 170: 2.752309, 171: 2.283022, 172: 1.660636, 173: 0.848864, 174: 0.946425, 175: 0.864253, 176: 3.132919, 177: 3.439903, 178: 0.090625, 179: 2.229867, 180: 2.41403, 181: 0.335185, 182: 1.439467, 183: 2.891417, 184: 2.066997, 185: 2.036502, 186: 2.53272, 187: 2.142262, 188: 2.435056, 189: 1.170532, 190: 2.630839, 191: 2.746175];
total_cost = 91.60777974058036;
total_earn = 40.2605801593052;
