production = [0: 0.0, 1: 0.0, 2: 0.0, 3: 0.0, 4: 0.0, 5: 0.0, 6: 0.0, 7: 0.0, 8: 0.0, 9: 0.0, 10: 0.0, 11: 0.0, 12: 0.0, 13: 0.0, 14: 0.0, 15: 0.0, 16: 0.0, 17: 0.0, 18: 0.0, 19: 0.0, 20: 0.0, 21: 0.0, 22: 0.0, 23: 0.0, 24: 0.0, 25: 0.000203, 26: 0.001249, 27: 0.007551, 28: 0.024441, 29: 0.025641, 30: 0.047038, 31: 0.032718, 32: 0.157592, 33: 0.135671, 34: 0.159792, 35: 0.058779, 36: 0.325471, 37: 0.516952, 38: 0.734084, 39: 0.448588, 40: 0.02762, 41: 0.06482499999999999, 42: 0.764679, 43: 0.328786, 44: 0.418174, 45: 0.755063, 46: 1.479607, 47: 0.280695, 48: 0.640225, 49: 0.373805, 50: 0.513205, 51: 0.282898, 52: 0.452884, 53: 0.513106, 54: 0.59178, 55: 0.439225, 56: 0.541816, 57: 0.044259, 58: 0.9431389999999999, 59: 0.407916, 60: 0.052366, 61: 0.052376, 62: 0.132872, 63: 0.162548, 64: 0.30983, 65: 0.234825, 66: 0.090111, 67: 0.260006, 68: 0.127645, 69: 0.165543, 70: 0.014367, 71: 0.118796, 72: 0.015241, 73: 0.06804200000000001, 74: 0.017515, 75: 0.009634999999999999, 76: 0.002588, 77: 0.0006489999999999999, 78: 0.000423, 79: 0.0, 80: 0.0, 81: 0.0, 82: 0.0, 83: 0.0, 84: 0.0, 85: 0.0, 86: 0.0, 87: 0.0, 88: 0.0, 89: 0.0, 90: 0.0, 91: 0.0, 92: 0.0, 93: 0.0, 94: 0.0, 95: 0.0, 96: 0.0, 97: 0.0, 98: 0.0, 99: 0.0, 100: 0.0, 101: 0.0, 102: 0.0, 103: 0.0, 104: 0.0, 105: 0.0, 106: 0.0, 107: 0.0, 108: 0.0, 109: 0.0, 110: 0.0, 111: 0.0, 112: 0.0, 113: 0.0, 114: 0.0, 115: 0.0, 116: 0.0, 117: 0.0, 118: 0.0, 119: 0.0, 120: 0.0, 121: 0.00031, 122: 0.000208, 123: 0.003509, 124: 0.009455, 125: 0.021215, 126: 0.081871, 127: 0.039435, 128: 0.19691, 129: 0.126667, 130: 0.314018, 131: 0.243062, 132: 0.277864, 133: 0.424932, 134: 0.054635, 135: 0.68471, 136: 0.401139, 137: 0.574078, 138: 0.930953, 139: 1.292943, 140: 0.569756, 141: 0.632007, 142: 1.583882, 143: 1.686454, 144: 0.256058, 145: 0.206887, 146: 0.917861, 147: 0.48697, 148: 0.200994, 149: 0.035471, 150: 0.102026, 151: 0.164368, 152: 0.338217, 153: 0.153084, 154: 0.426464, 155: 0.234197, 156: 0.255809, 157: 0.258923, 158: 0.129849, 159: 0.542371, 160: 0.28293, 161: 0.177124, 162: 0.446269, 163: 1.044907, 164: 0.217003, 165: 0.062987, 166: 0.099289, 167: 0.047213, 168: 0.123475, 169: 0.122497, 170: 0.07538300000000001, 171: 0.015931, 172: 0.007241, 173: 0.000843, 174: 0.001702, 175: 0.000448, 176: 0.000214, 177: 0.0, 178: 0.0, 179: 0.0, 180: 0.0, 181: 0.0, 182: 0.0, 183: 0.0, 184: 0.0, 185: 0.0, 186: 0.0, 187: 0.0, 188: 0.0, 189: 0.0, 190: 0.0, 191: 0.0];
buy = [0: 12.317397, 1: 573.174269, 2: 690.3389079999999, 3: 616.437873, 4: 500.784902, 5: 736.779395, 6: 566.07613, 7: 935.962868, 8: 748.261923, 9: 322.44317, 10: 629.766944, 11: 640.84568, 12: 112.389577, 13: 434.844439, 14: 15.226376, 15: 172.428479, 16: 701.1617230000001, 17: 645.5319930000001, 18: 885.171351, 19: 245.837538, 20: 745.626126, 21: 135.842711, 22: 11.763336, 23: 740.438845, 24: 899.141747, 25: 712.593377, 26: 803.523884, 27: 143.49987, 28: 943.992478, 29: 496.693355, 30: 175.026806, 31: 328.002721, 32: 948.039404, 33: 867.790351, 34: 816.360053, 35: 609.124288, 36: 903.486172, 37: 402.340102, 38: 489.296125, 39: 749.350287, 40: 991.55913, 41: 29.961838, 42: 364.134217, 43: 303.156559, 44: 35.935357, 45: 313.026113, 46: 703.046697, 47: 570.172759, 48: 56.23579, 49: 564.0223549999999, 50: 758.673304, 51: 708.745801, 52: 381.42731, 53: 864.556736, 54: 157.491483, 55: 348.232823, 56: 201.091791, 57: 431.517694, 58: 314.227646, 59: 662.855642, 60: 771.563075, 61: 25.731174, 62: 121.284999, 63: 349.853703, 64: 787.136718, 65: 431.851071, 66: 896.823965, 67: 932.256467, 68: 497.97402, 69: 768.994299, 70: 482.294746, 71: 800.831766, 72: 814.886316, 73: 608.141424, 74: 234.961382, 75: 930.43987, 76: 900.779503, 77: 120.439259, 78: 659.031568, 79: 149.224494, 80: 222.625311, 81: 309.816308, 82: 707.520387, 83: 227.634023, 84: 800.286472, 85: 910.6101629999999, 86: 798.278847, 87: 515.327189, 88: 969.68726, 89: 743.951728, 90: 357.208769, 91: 162.161326, 92: 28.1248, 93: 576.100552, 94: 521.401712, 95: 167.380559, 96: 806.452313, 97: 454.272727, 98: 330.007224, 99: 761.770696, 100: 38.691518, 101: 666.505709, 102: 922.638264, 103: 779.817856, 104: 630.972499, 105: 468.25118, 106: 406.978678, 107: 206.976481, 108: 38.226956, 109: 41.541163, 110: 679.292803, 111: 724.54814, 112: 592.731527, 113: 584.629412, 114: 470.925645, 115: 537.158989, 116: 306.974326, 117: 486.126793, 118: 672.025661, 119: 748.838308, 120: 675.584259, 121: 540.878341, 122: 581.120509, 123: 151.594716, 124: 535.9513439999999, 125: 29.140421, 126: 708.38573, 127: 438.343487, 128: 664.750726, 129: 346.776546, 130: 535.3729970000001, 131: 340.011433, 132: 70.71697, 133: 113.837851, 134: 783.562414, 135: 793.909075, 136: 193.262915, 137: 303.184809, 138: 417.592213, 139: 212.185411, 140: 687.995646, 141: 258.714787, 142: 157.482058, 143: 73.34675, 144: 199.951887, 145: 353.167001, 146: 602.556782, 147: 133.542037, 148: 426.10734, 149: 629.300234, 150: 652.211467, 151: 381.134767, 152: 180.656581, 153: 642.585974, 154: 354.203063, 155: 937.992387, 156: 612.07994, 157: 894.9440970000001, 158: 333.294023, 159: 743.036005, 160: 380.736303, 161: 274.772721, 162: 740.3560670000001, 163: 560.101464, 164: 610.0055620000001, 165: 9.224079, 166: 699.906956, 167: 455.667836, 168: 568.596886, 169: 395.210602, 170: 253.332129, 171: 26.94731, 172: 195.813741, 173: 334.455231, 174: 752.797533, 175: 375.756787, 176: 0.492699, 177: 955.721035, 178: 806.811715, 179: 124.779858, 180: 723.172908, 181: 539.405125, 182: 148.408214, 183: 416.700241, 184: 469.168383, 185: 701.042826, 186: 591.194338, 187: 652.415155, 188: 846.068841, 189: 609.668463, 190: 128.576931, 191: 421.011344];
sell = [0: 2.760471, 1: 2.726759, 2: 2.663585, 3: 0.213187, 4: 0.934469, 5: 3.385551, 6: 3.803557, 7: 1.405358, 8: 0.636419, 9: 1.381653, 10: 3.33983, 11: 2.803735, 12: 3.991204, 13: 3.44129, 14: 0.406024, 15: 1.764449, 16: 1.631894, 17: 0.187828, 18: 0.896802, 19: 1.747023, 20: 3.376981, 21: 0.808795, 22: 2.938411, 23: 2.223493, 24: 2.009415, 25: 0.07801, 26: 2.295962, 27: 2.24488, 28: 0.232607, 29: 3.404871, 30: 3.425126, 31: 0.487374, 32: 3.123751, 33: 0.388461, 34: 3.766718, 35: 1.924778, 36: 3.996371, 37: 3.415995, 38: 0.182118, 39: 1.36562, 40: 2.905373, 41: 1.02466, 42: 0.569695, 43: 3.254649, 44: 2.321601, 45: 3.303359, 46: 3.726348, 47: 0.752024, 48: 1.016003, 49: 0.07378, 50: 0.5208469999999999, 51: 1.942867, 52: 3.893734, 53: 0.089168, 54: 3.851318, 55: 1.774156, 56: 0.032021, 57: 1.000028, 58: 0.352961, 59: 0.879741, 60: 2.385835, 61: 0.122487, 62: 3.683609, 63: 3.918786, 64: 0.8902099999999999, 65: 3.043044, 66: 0.126296, 67: 2.77478, 68: 2.966145, 69: 2.291922, 70: 3.137232, 71: 0.305619, 72: 3.499264, 73: 1.722791, 74: 2.269226, 75: 1.037829, 76: 3.693278, 77: 2.725675, 78: 2.029008, 79: 1.152953, 80: 0.132556, 81: 0.94762, 82: 0.2507, 83: 3.101871, 84: 1.417796, 85: 3.667048, 86: 0.776834, 87: 1.513819, 88: 1.251478, 89: 3.827037, 90: 2.365939, 91: 1.832057, 92: 0.191254, 93: 3.029539, 94: 2.878224, 95: 0.08225300000000001, 96: 1.520747, 97: 1.53134, 98: 1.252152, 99: 1.682668, 100: 3.331424, 101: 3.914843, 102: 1.672809, 103: 3.851121, 104: 1.433082, 105: 0.29135, 106: 3.282207, 107: 1.82122, 108: 3.928852, 109: 1.233435, 110: 3.759245, 111: 1.078004, 112: 2.793509, 113: 3.164267, 114: 1.616651, 115: 3.696962, 116: 0.670274, 117: 3.866097, 118: 0.76217, 119: 1.846722, 120: 0.205794, 121: 0.72322, 122: 1.349666, 123: 3.29338, 124: 2.632183, 125: 0.342188, 126: 3.932981, 127: 2.258509, 128: 0.967519, 129: 0.908509, 130: 3.620437, 131: 0.718892, 132: 2.857477, 133: 3.44463, 134: 1.060159, 135: 3.065042, 136: 3.141956, 137: 1.825535, 138: 2.381407, 139: 2.490149, 140: 0.160764, 141: 1.245096, 142: 0.378129, 143: 3.74712, 144: 1.299576, 145: 0.55308, 146: 1.012408, 147: 2.957743, 148: 0.396264, 149: 3.561186, 150: 3.850786, 151: 1.599523, 152: 1.37716, 153: 1.278133, 154: 3.631238, 155: 0.616018, 156: 2.601545, 157: 2.126553, 158: 3.788926, 159: 0.374458, 160: 3.496603, 161: 0.98727, 162: 3.770926, 163: 1.589432, 164: 2.008095, 165: 2.239522, 166: 2.548346, 167: 3.229527, 168: 1.024917, 169: 0.034903, 170: 1.671177, 171: 3.128653, 172: 2.017279, 173: 3.079464, 174: 0.5315029999999999, 175: 1.829648, 176: 1.26739, 177: 3.982422, 178: 2.778201, 179: 2.794511, 180: 2.868406, 181: 0.159135, 182: 2.112938, 183: 3.714754, 184: 1.235162, 185: 0.407643, 186: 3.513318, 187: 2.897544, 188: 1.301188, 189: 3.061381, 190: 3.876823, 191: 3.338496];
charge = [0: 0.907606, 1: 0.324635, 2: 0.676345, 3: 0.131524, 4: 0.993934, 5: 0.336254, 6: 0.648163, 7: 0.645558, 8: 0.089576, 9: 0.036348, 10: 0.083257, 11: 0.315936, 12: 0.436443, 13: 0.370545, 14: 0.911409, 15: 0.16504, 16: 0.588241, 17: 0.359921, 18: 0.929406, 19: 0.907314, 20: 0.744111, 21: 0.553857, 22: 0.380054, 23: 0.888706, 24: 0.801324, 25: 0.899706, 26: 0.005775, 27: 0.8699480000000001, 28: 0.287147, 29: 0.331565, 30: 0.5684709999999999, 31: 0.735964, 32: 0.299544, 33: 0.941671, 34: 0.812121, 35: 0.329446, 36: 0.788166, 37: 0.413255, 38: 0.228597, 39: 0.693998, 40: 0.490693, 41: 0.884229, 42: 0.696704, 43: 0.255997, 44: 0.795346, 45: 0.437766, 46: 0.391678, 47: 0.500932, 48: 0.360916, 49: 0.500722, 50: 0.578971, 51: 0.16553, 52: 0.77663, 53: 0.102953, 54: 0.332989, 55: 0.03222, 56: 0.392709, 57: 0.671903, 58: 0.557474, 59: 0.843022, 60: 0.922144, 61: 0.065164, 62: 0.4163, 63: 0.771226, 64: 0.27562, 65: 0.483085, 66: 0.613907, 67: 0.608127, 68: 0.183258, 69: 0.200187, 70: 0.271011, 71: 0.92717, 72: 0.422133, 73: 0.971182, 74: 0.334533, 75: 0.586421, 76: 0.303024, 77: 0.547898, 78: 0.401958, 79: 0.43443, 80: 0.868112, 81: 0.415431, 82: 0.040043, 83: 0.402116, 84: 0.794466, 85: 0.358458, 86: 0.697684, 87: 0.225791, 88: 0.801976, 89: 0.862734, 90: 0.157451, 91: 0.117198, 92: 0.762223, 93: 0.077454, 94: 0.366801, 95: 0.523023, 96: 0.737416, 97: 0.06340899999999999, 98: 0.887961, 99: 0.064652, 100: 0.445713, 101: 0.624783, 102: 0.784971, 103: 0.470341, 104: 0.574796, 105: 0.058355, 106: 0.472714, 107: 0.200465, 108: 0.148941, 109: 0.821557, 110: 0.09092500000000001, 111: 0.832714, 112: 0.819427, 113: 0.289501, 114: 0.016407, 115: 0.931848, 116: 0.217958, 117: 0.952681, 118: 0.270092, 119: 0.137791, 120: 0.280997, 121: 0.745268, 122: 0.9998010000000001, 123: 0.91471, 124: 0.868028, 125: 0.5216730000000001, 126: 0.495122, 127: 0.167096, 128: 0.48716, 129: 0.782308, 130: 0.357109, 131: 0.177024, 132: 0.617765, 133: 0.202579, 134: 0.706461, 135: 0.900487, 136: 0.95853, 137: 0.696621, 138: 0.518882, 139: 0.35182, 140: 0.701098, 141: 0.7884, 142: 0.240073, 143: 0.324138, 144: 0.044141, 145: 0.923123, 146: 0.892533, 147: 0.712291, 148: 0.786524, 149: 0.8710059999999999, 150: 0.274226, 151: 0.846556, 152: 0.892194, 153: 0.356202, 154: 0.250977, 155: 0.00214, 156: 0.436216, 157: 0.236824, 158: 0.306263, 159: 0.277374, 160: 0.320897, 161: 0.37288, 162: 0.65105, 163: 0.642046, 164: 0.144753, 165: 0.02713, 166: 0.534954, 167: 0.954546, 168: 0.69539, 169: 0.918423, 170: 0.560079, 171: 0.16735, 172: 0.503047, 173: 0.444659, 174: 0.084241, 175: 0.391622, 176: 0.42246, 177: 0.124897, 178: 0.741995, 179: 0.916001, 180: 0.339031, 181: 0.280022, 182: 0.718197, 183: 0.328968, 184: 0.874238, 185: 0.426023, 186: 0.429494, 187: 0.104945, 188: 0.687371, 189: 0.598516, 190: 0.975545, 191: 0.285071];
discharge = [0: 0.000547, 1: 0.001227, 2: 0.399664, 3: 0.084636, 4: 0.172171, 5: 0.389037, 6: 0.452066, 7: 0.128369, 8: 0.303292, 9: 0.495606, 10: 0.525747, 11: 0.132742, 12: 0.666341, 13: 0.766721, 14: 0.244571, 15: 0.951097, 16: 0.655551, 17: 0.666797, 18: 0.179603, 19: 0.86086, 20: 0.700402, 21: 0.214539, 22: 0.492349, 23: 0.628918, 24: 0.712188, 25: 0.370986, 26: 0.404652, 27: 0.472954, 28: 0.380163, 29: 0.747932, 30: 0.918998, 31: 0.396128, 32: 0.5029670000000001, 33: 0.485044, 34: 0.15975, 35: 0.713829, 36: 0.4752, 37: 0.553864, 38: 0.735924, 39: 0.442208, 40: 0.620603, 41: 0.307945, 42: 0.204246, 43: 0.351047, 44: 0.901697, 45: 0.833079, 46: 0.126476, 47: 0.727855, 48: 0.246446, 49: 0.175677, 50: 0.040751, 51: 0.819122, 52: 0.589439, 53: 0.668418, 54: 0.291199, 55: 0.286443, 56: 0.397317, 57: 0.059753, 58: 0.690236, 59: 0.260751, 60: 0.453518, 61: 0.15382, 62: 0.099874, 63: 0.57337, 64: 0.64469, 65: 0.8774960000000001, 66: 0.929295, 67: 0.222197, 68: 0.171942, 69: 0.109454, 70: 0.07127699999999999, 71: 0.2937, 72: 0.742293, 73: 0.831105, 74: 0.162865, 75: 0.760988, 76: 0.567682, 77: 0.384628, 78: 0.755426, 79: 0.736136, 80: 0.317079, 81: 0.523084, 82: 0.532919, 83: 0.744297, 84: 0.860954, 85: 0.766915, 86: 0.995829, 87: 0.970836, 88: 0.793371, 89: 0.6073730000000001, 90: 0.595184, 91: 0.665211, 92: 0.177751, 93: 0.722432, 94: 0.929219, 95: 0.930296, 96: 0.81102, 97: 0.355207, 98: 0.7501, 99: 0.776749, 100: 0.213027, 101: 0.266771, 102: 0.151599, 103: 0.439337, 104: 0.171235, 105: 0.668085, 106: 0.372898, 107: 0.65682, 108: 0.264593, 109: 0.799428, 110: 0.551177, 111: 0.290775, 112: 0.138183, 113: 0.162269, 114: 0.803764, 115: 0.259771, 116: 0.870571, 117: 0.539731, 118: 0.528367, 119: 0.422311, 120: 0.947679, 121: 0.8014289999999999, 122: 0.239791, 123: 0.690939, 124: 0.010527, 125: 0.188289, 126: 0.803023, 127: 0.053132, 128: 0.8706930000000001, 129: 0.619435, 130: 0.29048, 131: 0.018351, 132: 0.817089, 133: 0.83887, 134: 0.435432, 135: 0.831032, 136: 0.278214, 137: 0.856173, 138: 0.916741, 139: 0.345463, 140: 0.202085, 141: 0.434827, 142: 0.467871, 143: 0.906986, 144: 0.028898, 145: 0.814406, 146: 0.519141, 147: 0.976537, 148: 0.901874, 149: 0.801804, 150: 0.8367019999999999, 151: 0.356217, 152: 0.817212, 153: 0.997086, 154: 0.359616, 155: 0.262212, 156: 0.451142, 157: 0.846987, 158: 0.883308, 159: 0.553397, 160: 0.114972, 161: 0.958194, 162: 0.54771, 163: 0.77845, 164: 0.728527, 165: 0.095233, 166: 0.774876, 167: 0.698942, 168: 0.813995, 169: 0.982944, 170: 0.67925, 171: 0.296474, 172: 0.247709, 173: 0.9204329999999999, 174: 0.894826, 175: 0.259489, 176: 0.08776200000000001, 177: 0.060014, 178: 0.646437, 179: 0.429334, 180: 0.847068, 181: 0.044126, 182: 0.562974, 183: 0.944039, 184: 0.695173, 185: 0.019483, 186: 0.310879, 187: 0.457636, 188: 0.269739, 189: 0.426122, 190: 0.399939, 191: 0.937755];
soc = [0: 7.9375, 1: 10.593698, 2: 7.159464, 3: 11.924162, 4: 7.541727, 5: 9.518488, 6: 7.026516, 7: 8.665117, 8: 8.09219, 9: 12.517803, 10: 4.191182, 11: 8.729666, 12: 3.187782, 13: 4.325705, 14: 14.810581, 15: 9.083887000000001, 16: 8.491009999999999, 17: 3.233917, 18: 3.648494, 19: 9.955336000000001, 20: 13.61658, 21: 14.276806, 22: 9.718781999999999, 23: 15.208335, 24: 11.730363, 25: 12.827299, 26: 10.076966, 27: 14.185496, 28: 5.300724, 29: 7.022941, 30: 14.799518, 31: 10.262882, 32: 6.216922, 33: 9.454858, 34: 12.48248, 35: 15.434331, 36: 13.427484, 37: 12.489573, 38: 9.735127, 39: 4.898975, 40: 3.124357, 41: 7.42719, 42: 11.529596, 43: 8.154823, 44: 6.070718, 45: 5.386768, 46: 7.913036, 47: 12.475029, 48: 3.777144, 49: 6.036365, 50: 3.31434, 51: 12.666293, 52: 10.443968, 53: 11.863925, 54: 14.355302, 55: 11.496482, 56: 13.593763, 57: 6.651682, 58: 10.780191, 59: 5.487726, 60: 14.654532, 61: 5.16829, 62: 14.51048, 63: 3.671833, 64: 7.975464, 65: 9.796131000000001, 66: 7.035027, 67: 4.531361, 68: 13.378648, 69: 15.525414, 70: 6.232238, 71: 4.712053, 72: 5.614292, 73: 4.261008, 74: 8.299588999999999, 75: 9.654170000000001, 76: 4.527767, 77: 11.411767, 78: 7.18229, 79: 10.814373, 80: 6.021827, 81: 12.331981, 82: 12.315578, 83: 2.892309, 84: 15.028123, 85: 7.026107, 86: 12.028818, 87: 13.133688, 88: 9.882524, 89: 10.310985, 90: 7.32643, 91: 4.681764, 92: 8.303355, 93: 4.572159, 94: 11.578882, 95: 11.326453, 96: 2.758006, 97: 5.860093, 98: 4.34275, 99: 7.565151, 100: 7.365215, 101: 3.978456, 102: 5.447068, 103: 14.546932, 104: 14.949363, 105: 9.424986000000001, 106: 8.724577, 107: 10.427843, 108: 9.916164999999999, 109: 13.920792, 110: 15.354766, 111: 7.57207, 112: 13.649244, 113: 7.650339, 114: 10.007745, 115: 7.390474, 116: 8.209899999999999, 117: 13.239104, 118: 10.630901, 119: 2.785409, 120: 9.471356999999999, 121: 12.717937, 122: 12.405764, 123: 5.712251, 124: 8.311646, 125: 14.124956, 126: 9.449992, 127: 15.527794, 128: 10.78491, 129: 8.439145, 130: 6.188544, 131: 3.548257, 132: 13.293139, 133: 9.103325, 134: 4.111871, 135: 7.557254, 136: 14.997923, 137: 7.894037, 138: 10.205231, 139: 11.741349, 140: 3.906157, 141: 4.409429, 142: 5.975873, 143: 4.310521, 144: 12.616914, 145: 10.407597, 146: 10.436094, 147: 5.551858, 148: 13.37664, 149: 7.369149, 150: 5.822204, 151: 4.348528, 152: 6.30882, 153: 10.545336, 154: 9.216256, 155: 7.949808, 156: 10.44451, 157: 8.500603, 158: 11.522987, 159: 14.269544, 160: 14.598215, 161: 11.754685, 162: 12.252133, 163: 6.901836, 164: 9.851793000000001, 165: 6.680259, 166: 2.991343, 167: 4.049771, 168: 11.494685, 169: 13.42221, 170: 13.848565, 171: 14.705555, 172: 8.800554, 173: 3.142021, 174: 12.166343, 175: 7.817525, 176: 12.919549, 177: 3.179798, 178: 8.866065000000001, 179: 10.657726, 180: 3.438693, 181: 5.521353, 182: 6.277545, 183: 2.937357, 184: 9.059787, 185: 7.010544, 186: 5.275799, 187: 13.564477, 188: 5.225709, 189: 10.426666, 190: 12.323716, 191: 10.137852];
cost = [0: 246.113466, 1: 64.58997100000001, 2: 601.390371, 3: 63.493749, 4: 331.356466, 5: 579.682646, 6: 113.182809, 7: 353.460299, 8: 354.128978, 9: 11.085317, 10: 443.795222, 11: 343.519727, 12: 137.045465, 13: 127.3591, 14: 503.550995, 15: 379.862049, 16: 309.634192, 17: 600.550463, 18: 87.28741100000001, 19: 201.60788, 20: 123.937556, 21: 76.07887100000001, 22: 19.628973, 23: 321.876635, 24: 558.331697, 25: 201.535762, 26: 1021.143982, 27: 880.0628850000001, 28: 698.1658210000001, 29: 629.1953580000001, 30: 1147.492748, 31: 702.778044, 32: 1130.531439, 33: 658.67206, 34: 266.407284, 35: 854.2294419999999, 36: 874.309072, 37: 1126.632564, 38: 894.708074, 39: 1053.271785, 40: 340.00062, 41: 838.85965, 42: 1045.304702, 43: 648.552161, 44: 694.1225930000001, 45: 234.92371, 46: 143.076103, 47: 570.812952, 48: 969.8752930000001, 49: 269.635398, 50: 462.294133, 51: 441.391788, 52: 79.08841099999999, 53: 520.051835, 54: 292.143615, 55: 516.845321, 56: 521.770178, 57: 226.867068, 58: 128.584091, 59: 225.285662, 60: 864.802095, 61: 470.358733, 62: 567.660151, 63: 984.464882, 64: 778.051108, 65: 141.46741, 66: 400.005782, 67: 436.278654, 68: 1164.829805, 69: 950.97517, 70: 377.1273, 71: 1076.491966, 72: 665.596245, 73: 976.4827309999999, 74: 331.989668, 75: 1123.566348, 76: 926.4323889999999, 77: 780.119792, 78: 443.085321, 79: 46.27301, 80: 514.807025, 81: 378.343579, 82: 1071.808611, 83: 408.94624, 84: 189.455512, 85: 1087.803505, 86: 422.238472, 87: 251.264453, 88: 380.547952, 89: 96.638234, 90: 147.781263, 91: 245.463256, 92: 554.243352, 93: 590.938007, 94: 144.413584, 95: 534.23585, 96: 500.178365, 97: 501.539396, 98: 510.969396, 99: 266.325432, 100: 482.843601, 101: 303.199608, 102: 212.013893, 103: 470.636359, 104: 458.143565, 105: 350.107545, 106: 34.746699, 107: 281.739817, 108: 237.473928, 109: 230.481018, 110: 337.08022, 111: 44.494778, 112: 438.032067, 113: 2.172307, 114: 117.210647, 115: 561.3715539999999, 116: 567.524331, 117: 316.16727, 118: 147.040972, 119: 340.736346, 120: 82.215654, 121: 108.497484, 122: 936.247191, 123: 985.787108, 124: 26.24923, 125: 989.830944, 126: 795.608292, 127: 934.519416, 128: 144.000179, 129: 363.984972, 130: 416.45836, 131: 650.477224, 132: 1062.469346, 133: 37.11532, 134: 623.689678, 135: 811.499225, 136: 589.602364, 137: 784.054872, 138: 171.049412, 139: 871.749859, 140: 530.7212, 141: 702.197209, 142: 131.453304, 143: 495.66015, 144: 759.678738, 145: 1045.350452, 146: 364.09609, 147: 542.257873, 148: 186.361522, 149: 224.051241, 150: 309.671482, 151: 133.055993, 152: 257.076829, 153: 563.057832, 154: 573.914036, 155: 568.290262, 156: 742.567954, 157: 1044.678759, 158: 959.298314, 159: 932.206817, 160: 774.74857, 161: 973.407189, 162: 736.809827, 163: 6.01976, 164: 666.357543, 165: 676.358898, 166: 244.74139, 167: 718.692559, 168: 748.097277, 169: 227.337613, 170: 585.5417179999999, 171: 925.144033, 172: 461.301336, 173: 526.210475, 174: 217.929295, 175: 288.724342, 176: 418.259071, 177: 289.479664, 178: 1149.823514, 179: 393.99751, 180: 625.346516, 181: 943.125297, 182: 1107.861656, 183: 23.715513, 184: 89.351117, 185: 489.009239, 186: 608.664652, 187: 412.348126, 188: 397.248938, 189: 59.342359, 190: 341.361705, 191: 169.252931];
earn = [0: 1.448149, 1: 0.394819, 2: 0.824343, 3: 0.6988839999999999, 4: 0.042314, 5: 1.488942, 6: 1.561194, 7: 0.392938, 8: 0.628432, 9: 0.775196, 10: 0.29446, 11: 1.066401, 12: 0.450633, 13: 0.480756, 14: 0.204156, 15: 0.329155, 16: 1.201745, 17: 0.6082649999999999, 18: 0.320162, 19: 1.683195, 20: 0.06350600000000001, 21: 0.16647, 22: 1.871355, 23: 1.840945, 24: 0.624873, 25: 1.264502, 26: 0.011992, 27: 0.506327, 28: 2.090949, 29: 2.733293, 30: 3.269279, 31: 2.924607, 32: 2.245906, 33: 1.666613, 34: 1.123315, 35: 0.267653, 36: 1.523744, 37: 2.000756, 38: 0.859603, 39: 0.368005, 40: 1.32347, 41: 1.242386, 42: 0.313276, 43: 1.361303, 44: 1.250057, 45: 1.333132, 46: 1.169141, 47: 1.231828, 48: 0.733831, 49: 1.025621, 50: 0.099119, 51: 1.044042, 52: 1.214244, 53: 0.011913, 54: 0.933043, 55: 1.038413, 56: 1.413695, 57: 1.061685, 58: 0.653295, 59: 1.50018, 60: 1.424326, 61: 1.541765, 62: 2.089633, 63: 0.240283, 64: 1.253735, 65: 0.663913, 66: 0.374516, 67: 0.912729, 68: 1.249257, 69: 1.526544, 70: 0.221743, 71: 0.908231, 72: 0.616324, 73: 1.51397, 74: 1.757557, 75: 0.0643, 76: 2.404839, 77: 3.117395, 78: 1.623252, 79: 0.873009, 80: 1.209558, 81: 0.738473, 82: 1.291241, 83: 1.243361, 84: 2.648955, 85: 1.291347, 86: 1.657311, 87: 0.367101, 88: 1.745376, 89: 1.407551, 90: 0.054195, 91: 1.202136, 92: 0.875488, 93: 2.116469, 94: 1.694521, 95: 0.257997, 96: 0.574219, 97: 1.88517, 98: 1.732637, 99: 1.113307, 100: 1.950426, 101: 0.961137, 102: 1.112039, 103: 0.645984, 104: 1.71098, 105: 0.70655, 106: 0.6922779999999999, 107: 0.324961, 108: 1.464306, 109: 1.307918, 110: 0.244914, 111: 1.684046, 112: 0.775501, 113: 2.213377, 114: 0.594727, 115: 1.726191, 116: 1.957564, 117: 1.9236, 118: 0.50324, 119: 0.157528, 120: 2.426979, 121: 1.675358, 122: 3.172675, 123: 1.423433, 124: 0.08422499999999999, 125: 0.362042, 126: 0.483686, 127: 1.324163, 128: 2.797713, 129: 1.140162, 130: 2.995077, 131: 2.150726, 132: 2.404181, 133: 0.358021, 134: 1.355786, 135: 1.686574, 136: 2.512038, 137: 1.670978, 138: 1.520687, 139: 1.412833, 140: 1.296684, 141: 0.605116, 142: 0.937907, 143: 1.530956, 144: 1.881123, 145: 0.139026, 146: 0.121703, 147: 1.332957, 148: 0.347752, 149: 0.7139990000000001, 150: 1.163702, 151: 0.9597329999999999, 152: 0.395497, 153: 0.099941, 154: 1.163411, 155: 1.19614, 156: 1.148168, 157: 0.76489, 158: 1.33222, 159: 0.40132, 160: 0.8360109999999999, 161: 1.589943, 162: 0.084622, 163: 1.285329, 164: 0.902188, 165: 0.515172, 166: 1.344407, 167: 1.430932, 168: 0.338182, 169: 2.453611, 170: 0.6999339999999999, 171: 0.597755, 172: 0.6477579999999999, 173: 2.918604, 174: 2.032939, 175: 1.107791, 176: 0.489402, 177: 2.498256, 178: 1.646952, 179: 0.76076, 180: 2.930648, 181: 1.761943, 182: 0.7939850000000001, 183: 0.358073, 184: 0.171025, 185: 2.302568, 186: 0.224888, 187: 2.594275, 188: 0.162208, 189: 1.404279, 190: 2.883524, 191: 0.462061];
total_cost = 96.88155868004921;
total_earn = 47.68597724984892;
