production = [0.0, 0.0, 0.0, 0.0, 0.0, 0.0, 0.0, 0.0, 0.0, 0.0, 0.0, 0.0, 0.0, 0.0, 0.0, 0.0, 0.0, 0.0, 0.0, 0.0, 0.0, 0.0, 0.0005, 0.0055, 0.0, 0.064, 0.0, 0.0, 0.0, 0.3118, 0.3152, 0.547, 0.0, 0.93, 0.9958, 0.0, 0.0, 0.0, 0.0, 0.5175, 0.0, 0.1335, 0.0638, 0.061, 0.0, 0.0, 0.0, 0.07049999999999999, 0.0635, 0.0638, 0.0, 1.348, 0.0, 0.6965, 0.0, 0.4195, 0.2815, 0.1542, 0.2052, 0.2437, 0.0, 0.1345, 0.112, 0.0892, 0.1547, 0.1045, 0.08649999999999999, 0.155, 0.2387, 0.0, 0.08699999999999999, 0.0727, 0.0737, 0.0, 0.0, 0.0003, 0.0, 0.0, 0.0, 0.0, 0.0, 0.0, 0.0, 0.0, 0.0, 0.0, 0.0, 0.0, 0.0, 0.0, 0.0, 0.0, 0.0, 0.0, 0.0, 0.0];
buy = [0.0, 0.0, 0.0, 1.077325, 0.076625, 0.07792499999999999, 0.0, 0.08412500000000001, 0.077325, 0.077125, 0.0, 1.085625, 1.085125, 1.077125, 0.0, 0.08462500000000001, 0.0, 0.0, 0.076625, 0.0, 1.075625, 1.085125, 1.084325, 0.0, 0.0, 0.0, 0.077325, 0.0, 0.0, 0.760825, 0.762725, 0.531125, 0.0, 0.0, 0.0, 0.0, 0.081625, 1.083125, 1.075625, 1.003125, 0.0, 0.0, 1.009325, 1.011125, 1.071625, 1.080625, 1.084625, 1.007125, 1.013125, 0.0, 0.0, 0.0, 0.0, 0.391625, 1.086425, 0.0, 0.0, 0.0, 0.0, 0.0, 0.0, 0.0, 0.958125, 0.980425, 0.915725, 0.0, 0.0, 1.055325, 0.002625, 0.0, 0.0, 1.125425, 1.096625, 1.059325, 0.0, 1.068025, 0.0, 0.059625, 0.0, 0.067325, 0.068125, 1.193925, 1.187925, 1.187425, 0.0, 0.198625, 0.0, 0.0, 0.191925, 0.201125, 0.0, 1.194925, 1.192625, 0.0, 1.200125, 1.201325];
sell = [0.813375, 0.814875, 0.813875, 0.0, 0.0, 0.0, 0.815175, 0.0, 0.0, 0.0, 0.822875, 0.0, 0.0, 0.0, 0.822875, 0.0, 0.814375, 0.814875, 0.0, 0.823375, 0.0, 0.0, 0.0, 0.834875, 0.828575, 0.8850749999999999, 0.0, 0.823375, 0.828075, 0.0, 0.0, 0.0, 0.410176216, 1.759875, 1.826975, 0.823675, 0.0, 0.0, 0.0, 0.0, 0.767075, 0.895075, 0.0, 0.0, 0.0, 0.0, 0.0, 0.0, 0.0, 0.891875, 0.823175, 2.170675, 0.790175, 0.0, 0.0, 1.237875, 0.985175, 0.269875, 0.331075, 0.987075, 0.822375, 0.055575, 0.0, 0.0, 0.0, 0.924875, 0.907075, 0.0, 0.0, 0.660675, 0.762375, 0.0, 0.0, 0.0, 0.831375, 0.0, 0.8326750000000001, 0.0, 0.840675, 0.0, 0.0, 0.0, 0.0, 0.0, 0.702675, 0.0, 0.707575, 0.706575, 0.0, 0.0, 0.700375, 0.0, 0.0, 0.699875, 0.0, 0.0];
charge = [0.0, 0.0, 0.0, 1.0, 0.0, 0.0, 0.0, 0.0, 0.0, 0.0, 0.0, 1.0, 1.0, 1.0, 0.0, 0.0, 0.0, 0.0, 0.0, 0.0, 1.0, 1.0, 1.0, 0.0, 0.0, 0.0, 0.0, 0.0, 0.0, 1.0, 1.0, 1.0, 0.0, 0.0, 0.0, 0.0, 0.0, 1.0, 1.0, 1.0, 0.0, 0.0, 1.0, 1.0, 1.0, 1.0, 1.0, 1.0, 1.0, 0.0, 0.0, 0.0, 0.0, 1.0, 1.0, 0.0, 0.0, 0.0, 0.0, 0.0, 0.0, 0.0, 1.0, 1.0, 1.0, 0.0, 0.0, 1.0, 0.0, 0.0, 0.0, 1.0, 1.0, 1.0, 0.0, 1.0, 0.0, 0.0, 0.0, 0.0, 0.0, 1.0, 1.0, 1.0, 0.0, 0.0, 0.0, 0.0, 0.0, 0.0, 0.0, 1.0, 1.0, 0.0, 1.0, 1.0];
discharge = [1.0, 1.0, 1.0, 0.0, 0.0, 0.0, 1.0, 0.0, 0.0, 0.0, 1.0, 0.0, 0.0, 0.0, 1.0, 0.0, 1.0, 1.0, 0.0, 1.0, 0.0, 0.0, 0.0, 1.0, 1.0, 1.0, 0.0, 1.0, 1.0, 0.0, 0.0, 0.0, 0.541445796, 1.0, 1.0, 1.0, 0.0, 0.0, 0.0, 0.0, 1.0, 1.0, 0.0, 0.0, 0.0, 0.0, 0.0, 0.0, 0.0, 1.0, 1.0, 1.0, 1.0, 0.0, 0.0, 1.0, 1.0, 1.0, 1.0, 1.0, 1.0, 0.0, 0.0, 0.0, 0.0, 1.0, 1.0, 0.0, 0.0, 1.0, 1.0, 0.0, 0.0, 0.0, 1.0, 0.0, 1.0, 0.0, 1.0, 0.0, 0.0, 0.0, 0.0, 0.0, 1.0, 0.0, 1.0, 1.0, 0.0, 0.0, 1.0, 0.0, 0.0, 1.0, 0.0, 0.0];
soc = [12.627274, 11.624748545, 10.622423595, 11.520299111, 11.517995051, 11.515691452, 10.513388314, 10.511285636, 10.509183379, 10.507081542, 9.504980126, 10.40307913, 11.300998514, 12.198738314, 11.196298567, 11.194059307, 10.191820495, 9.189782130999999, 9.187944175, 8.186106585999999, 9.084469364, 9.982652471, 10.88065594, 9.878479809, 8.876504112999999, 7.874728812, 7.873153866, 6.871579236, 5.87020492, 6.769030879, 7.667677073, 8.566143537, 8.022984513000001, 7.021379916, 6.01997564, 5.018771645, 5.01776789, 5.916764337, 6.815580984, 7.714217868, 6.712675024, 5.711332489, 6.610190223, 7.508868185, 8.407366411, 9.305684938000001, 10.203823801, 11.101783036, 11.999562679, 10.997162767, 9.994963333999999, 8.992964342, 7.991165749, 8.889567516, 9.787789602, 8.785832043999999, 7.784074878, 6.782518063, 5.781161559, 4.780005327, 3.779049326, 3.778293516, 4.677537857, 5.57660235, 6.475487029, 5.474191932, 4.473097093, 5.372202474, 5.371128033, 4.370053808, 3.369179797, 4.268505961, 5.16765226, 6.066618729, 5.065405406, 5.964392325, 4.963199446, 4.962206806, 3.961214365, 3.960422122, 3.959630038, 4.858838112, 5.757866344, 6.656714771, 5.655383428, 5.654252351, 4.653121501, 3.652190876, 3.651460438, 3.650730146, 2.65, 3.54947, 4.448760106, 3.447870354, 4.34718078, 5.246311344];
cost = [0.0, 0.0, 0.0, 0.776316008, 0.046810213, 0.047604383, 0.0, 0.051391963, 0.047237843, 0.047115663, 0.0, 0.7813864780000001, 0.781081028, 0.776193828, 0.0, 0.051697413, 0.0, 0.0, 0.046810213, 0.0, 0.775277478, 0.781081028, 0.780592308, 0.0, 0.0, 0.0, 0.09198582, 0.0, 0.0, 1.023255585, 1.025515825, 0.750004465, 0.0, 0.0, 0.0, 0.0, 0.0971011, 1.406663665, 1.397741665, 1.311495665, 0.0, 0.0, 1.318871185, 1.321012465, 1.392983265, 1.403689665, 1.408448065, 1.316254065, 1.323391665, 0.0, 0.0, 0.0, 0.0, 0.357421878, 0.781875198, 0.0, 0.0, 0.0, 0.0, 0.0, 0.0, 0.0, 1.257963665, 1.284491745, 1.207524625, 0.0, 0.0, 1.373592785, 0.0031227, 0.0, 0.0, 1.456983745, 1.422723265, 1.378351185, 0.0, 1.388700705, 0.0, 0.0709299, 0.0, 0.08008982000000001, 0.0810415, 1.538471345, 1.531333745, 1.530738945, 0.0, 0.2362843, 0.0, 0.0, 0.117246982, 0.122867262, 0.0, 0.848157848, 0.846752778, 0.0, 0.851334528, 0.852067608];
earn = [0.2921643, 0.251714888, 0.238790925, 0.0, 0.0, 0.0, 0.160997063, 0.0, 0.0, 0.0, 0.114461913, 0.0, 0.0, 0.0, 0.115613938, 0.0, 0.149845, 0.149529563, 0.0, 0.16368695, 0.0, 0.0, 0.0, 0.258644275, 0.330932855, 0.391026135, 0.0, 0.34812295, 0.35209749, 0.0, 0.0, 0.0, 0.027440789, 0.09784905000000001, -0.069607748, -0.02734601, 0.0, 0.0, 0.0, 0.0, -0.039044118, -0.010561885, 0.0, 0.0, 0.0, 0.0, 0.0, 0.0, 0.0, -0.001605375, -0.000411588, -0.0, -0.00221249, 0.0, 0.0, 0.011140875, 0.105315208, 0.030630813, 0.043238395, 0.178759283, 0.281498963, 0.023502668, 0.0, 0.0, 0.0, 0.521352038, 0.534539298, 0.0, 0.0, 0.5203476299999999, 0.627510863, 0.0, 0.0, 0.0, 0.938622375, 0.0, 0.774221215, 0.0, 0.76299663, 0.0, 0.0, 0.0, 0.0, 0.0, 0.485899763, 0.0, 0.461975718, 0.44740329, 0.0, 0.0, 0.424637363, 0.0, 0.0, 0.382831625, 0.0, 0.0];
total_cost = 42.999078075;
total_earn = 10.848552876;
% _objective = 32.150525199;