production = [0: 0.0, 1: 0.0, 2: 0.0, 3: 0.0, 4: 0.0, 5: 0.0, 6: 0.0, 7: 0.0, 8: 0.0, 9: 0.0, 10: 0.0, 11: 0.0, 12: 0.0, 13: 0.0, 14: 0.0, 15: 0.0, 16: 0.0, 17: 0.0, 18: 0.0, 19: 0.0, 20: 0.0, 21: 0.0005, 22: 0.0005, 23: 0.0, 24: 0.0335, 25: 0.0, 26: 0.076, 27: 0.1442, 28: 0.2152, 29: 0.3118, 30: 0.0, 31: 0.547, 32: 0.9307, 33: 0.93, 34: 0.0, 35: 0.5218, 36: 0.0, 37: 0.0725, 38: 0.065, 39: 0.0, 40: 0.1665, 41: 0.0, 42: 0.0638, 43: 0.061, 44: 0.0, 45: 0.0725, 46: 0.0542, 47: 0.07049999999999999, 48: 0.0635, 49: 0.0, 50: 0.0612, 51: 1.348, 52: 0.0, 53: 0.6965, 54: 0.0, 55: 0.0, 56: 0.2815, 57: 0.0, 58: 0.2052, 59: 0.0, 60: 0.0, 61: 0.0, 62: 0.112, 63: 0.0, 64: 0.0, 65: 0.1045, 66: 0.0, 67: 0.155, 68: 0.2387, 69: 0.0, 70: 0.0, 71: 0.0727, 72: 0.0737, 73: 0.0, 74: 0.0, 75: 0.0, 76: 0.0, 77: 0.0, 78: 0.0, 79: 0.0, 80: 0.0, 81: 0.0, 82: 0.0, 83: 0.0, 84: 0.0, 85: 0.0, 86: 0.0, 87: 0.0, 88: 0.0, 89: 0.0, 90: 0.0, 91: 0.0, 92: 0.0, 93: 0.0, 94: 0.0, 95: 0.0];
buy = [0: 0.08662499999999999, 1: 0.0, 2: 0.0, 3: 1.077325, 4: 0.076625, 5: 1.077925, 6: 0.0, 7: 0.0, 8: 1.077325, 9: 0.0, 10: 0.0, 11: 1.085625, 12: 1.085125, 13: 1.077125, 14: 0.0, 15: 0.08462500000000001, 16: 0.08562500000000001, 17: 0.08512500000000001, 18: 1.076625, 19: 1.076625, 20: 0.075625, 21: 1.084625, 22: 0.0, 23: 0.07062499999999999, 24: 1.037925, 25: 1.078925, 26: 0.0, 27: 0.0, 28: 0.856725, 29: 0.0, 30: 0.07792499999999999, 31: 0.0, 32: 0.146425, 33: 0.0, 34: 0.068825, 35: 0.0, 36: 0.081625, 37: 1.010625, 38: 0.0, 39: 0.520625, 40: 0.0, 41: 0.138425, 42: 1.009325, 43: 1.011125, 44: 1.071625, 45: 0.0, 46: 0.0, 47: 1.007125, 48: 1.013125, 49: 0.0, 50: 0.0, 51: 0.0, 52: 1.109825, 53: 0.0, 54: 1.086425, 55: 0.0, 56: 0.914825, 57: 0.0, 58: 0.568925, 59: 0.156625, 60: 0.0, 61: 1.078925, 62: 0.0, 63: 0.06962500000000001, 64: 1.070425, 65: 0.0, 66: 0.079425, 67: 1.055325, 68: 0.0, 69: 0.239325, 70: 0.224625, 71: 1.125425, 72: 0.0, 73: 0.0, 74: 0.0, 75: 1.068325, 76: 1.067325, 77: 1.059625, 78: 0.0, 79: 0.067325, 80: 0.068125, 81: 0.0, 82: 0.0, 83: 1.187425, 84: 1.197325, 85: 0.198625, 86: 1.192425, 87: 0.0, 88: 0.0, 89: 1.201125, 90: 1.199625, 91: 1.194925, 92: 1.192625, 93: 0.0, 94: 1.200125, 95: 0.201325];
sell = [0: 0.0, 1: 0.814875, 2: 0.813875, 3: 0.0, 4: 0.0, 5: 0.0, 6: 0.815175, 7: 0.62999192, 8: 0.0, 9: 0.822875, 10: 0.822875, 11: 0.0, 12: 0.0, 13: 0.0, 14: 0.822875, 15: 0.0, 16: 0.0, 17: 0.0, 18: 0.0, 19: 0.0, 20: 0.0, 21: 0.0, 22: 0.815675, 23: 0.0, 24: 0.0, 25: 0.0, 26: 0.898675, 27: 0.067575, 28: 0.0, 29: 1.139175, 30: 0.0, 31: 1.368875, 32: 0.0, 33: 0.8598749999999999, 34: 0.0, 35: 1.345475, 36: 0.0, 37: 0.0, 38: 0.889375, 39: 0.0, 40: 0.933575, 41: 0.0, 42: 0.0, 43: 0.0, 44: 0.0, 45: 0.891875, 46: 0.162608167, 47: 0.0, 48: 0.0, 49: 0.828075, 50: 0.884375, 51: 0.270675, 52: 0.0, 53: 1.508375, 54: 0.0, 55: 0.818375, 56: 0.0, 57: 0.115675, 58: 0.0, 59: 0.0, 60: 0.822375, 61: 0.0, 62: 0.941875, 63: 0.0, 64: 0.0, 65: 0.024875, 66: 0.0, 67: 0.0, 68: 0.897375, 69: 0.0, 70: 0.0, 71: 0.0, 72: 0.803375, 73: 0.840675, 74: 0.831375, 75: 0.0, 76: 0.0, 77: 0.0, 78: 0.840675, 79: 0.0, 80: 0.0, 81: 0.706075, 82: 0.712075, 83: 0.0, 84: 0.0, 85: 0.0, 86: 0.0, 87: 0.706575, 88: 0.708075, 89: 0.0, 90: 0.0, 91: 0.0, 92: 0.0, 93: 0.699875, 94: 0.0, 95: 0.0];
charge = [0: 0.0, 1: 0.0, 2: 0.0, 3: 1.0, 4: 0.0, 5: 1.0, 6: 0.0, 7: 0.0, 8: 1.0, 9: 0.0, 10: 0.0, 11: 1.0, 12: 1.0, 13: 1.0, 14: 0.0, 15: 0.0, 16: 0.0, 17: 0.0, 18: 1.0, 19: 1.0, 20: 0.0, 21: 1.0, 22: 0.0, 23: 0.0, 24: 1.0, 25: 1.0, 26: 0.0, 27: 0.0, 28: 1.0, 29: 0.0, 30: 0.0, 31: 0.0, 32: 1.0, 33: 0.0, 34: 0.0, 35: 0.0, 36: 0.0, 37: 1.0, 38: 0.0, 39: 0.0, 40: 0.0, 41: 0.0, 42: 1.0, 43: 1.0, 44: 1.0, 45: 0.0, 46: 0.0, 47: 1.0, 48: 1.0, 49: 0.0, 50: 0.0, 51: 1.0, 52: 1.0, 53: 0.0, 54: 1.0, 55: 0.0, 56: 1.0, 57: 0.0, 58: 0.0, 59: 0.0, 60: 0.0, 61: 1.0, 62: 0.0, 63: 0.0, 64: 1.0, 65: 0.0, 66: 0.0, 67: 1.0, 68: 0.0, 69: 0.0, 70: 0.0, 71: 1.0, 72: 0.0, 73: 0.0, 74: 0.0, 75: 1.0, 76: 1.0, 77: 1.0, 78: 0.0, 79: 0.0, 80: 0.0, 81: 0.0, 82: 0.0, 83: 1.0, 84: 1.0, 85: 0.0, 86: 1.0, 87: 0.0, 88: 0.0, 89: 1.0, 90: 1.0, 91: 1.0, 92: 1.0, 93: 0.0, 94: 1.0, 95: 0.0];
discharge = [0: 0.0, 1: 1.0, 2: 1.0, 3: 0.0, 4: 0.0, 5: 0.0, 6: 1.0, 7: 0.793463244, 8: 0.0, 9: 1.0, 10: 1.0, 11: 0.0, 12: 0.0, 13: 0.0, 14: 1.0, 15: 0.0, 16: 0.0, 17: 0.0, 18: 0.0, 19: 0.0, 20: 0.0, 21: 0.0, 22: 1.0, 23: 0.0, 24: 0.0, 25: 0.0, 26: 1.0, 27: 0.0, 28: 0.0, 29: 1.0, 30: 0.0, 31: 1.0, 32: 0.0, 33: 0.0, 34: 0.0, 35: 1.0, 36: 0.0, 37: 0.0, 38: 1.0, 39: 0.0, 40: 1.0, 41: 0.0, 42: 0.0, 43: 0.0, 44: 0.0, 45: 1.0, 46: 0.214481297, 47: 0.0, 48: 0.0, 49: 1.0, 50: 1.0, 51: 0.0, 52: 0.0, 53: 1.0, 54: 0.0, 55: 1.0, 56: 0.0, 57: 1.0, 58: 0.0, 59: 0.0, 60: 1.0, 61: 0.0, 62: 1.0, 63: 0.0, 64: 0.0, 65: 0.0, 66: 0.0, 67: 0.0, 68: 1.0, 69: 0.0, 70: 0.0, 71: 0.0, 72: 1.0, 73: 1.0, 74: 1.0, 75: 0.0, 76: 0.0, 77: 0.0, 78: 1.0, 79: 0.0, 80: 0.0, 81: 1.0, 82: 1.0, 83: 0.0, 84: 0.0, 85: 0.0, 86: 0.0, 87: 1.0, 88: 1.0, 89: 0.0, 90: 0.0, 91: 0.0, 92: 0.0, 93: 1.0, 94: 0.0, 95: 0.0];
soc = [0: 13.627274, 1: 12.624548545, 2: 11.622023635, 3: 12.519699231, 4: 12.517195291, 5: 13.414691852, 6: 12.412008913, 7: 11.616063267, 8: 12.513740055, 9: 11.511237307, 10: 10.508935059, 11: 11.406833272, 12: 12.304551906, 13: 13.202090995, 14: 12.199450577, 15: 12.197010687, 16: 12.194571285, 17: 12.19213237, 18: 13.089693944, 19: 13.987076005, 20: 13.98427859, 21: 14.881481734, 22: 13.878505438, 23: 13.875729737, 24: 14.772954591, 25: 15.67, 26: 14.666866, 27: 14.663932627, 28: 15.56099984, 29: 14.55788764, 30: 14.554976063, 31: 13.552065068, 32: 14.449354655, 33: 14.446464784, 34: 14.443575491, 35: 13.440686776, 36: 13.437998638, 37: 14.335311038, 38: 13.332443976, 39: 13.329777487, 40: 12.327111532, 41: 12.32464611, 42: 13.22218118, 43: 14.119536744, 44: 15.016712837, 45: 14.013709494, 46: 13.796425456, 47: 14.693666171, 48: 15.590727437, 49: 14.587609292, 50: 13.58469177, 51: 14.481974832, 52: 15.379078437, 53: 14.376002621, 54: 15.27312742, 55: 14.270072795, 56: 15.16721878, 57: 14.164185337, 58: 14.1613525, 59: 14.158520229, 60: 13.155688525, 61: 14.053057387, 62: 13.050246776, 63: 13.047636726, 64: 13.945027199, 65: 13.942238194, 66: 13.939449746, 67: 14.836661856, 68: 13.833694524, 69: 13.830927785, 70: 13.828161599, 71: 14.725395967, 72: 13.722450888, 73: 12.719706398, 74: 11.717162456, 75: 12.614819024, 76: 13.51229606, 77: 14.409593601, 78: 13.406711682, 79: 13.40403034, 80: 13.401349534, 81: 12.398669264, 82: 11.39618953, 83: 12.293910292, 84: 13.19145151, 85: 13.18881322, 86: 14.086175457, 87: 13.083358222, 88: 12.08074155, 89: 12.978325402, 90: 13.875729737, 91: 14.772954591, 92: 15.67, 93: 14.666866, 94: 15.563932627, 95: 15.56081984];
cost = [0: 0.052919213, 1: 0.0, 2: 0.0, 3: 0.776316008, 4: 0.046810213, 5: 0.776682548, 6: 0.0, 7: 0.0, 8: 0.776316008, 9: 0.0, 10: 0.0, 11: 0.7813864780000001, 12: 0.781081028, 13: 0.776193828, 14: 0.0, 15: 0.051697413, 16: 0.052308313, 17: 0.052002863, 18: 0.775888378, 19: 0.775888378, 20: 0.046199313, 21: 0.780775578, 22: 0.0, 23: 0.043144813, 24: 1.352893745, 25: 1.401667345, 26: 0.0, 27: 0.0, 28: 1.137338225, 29: 0.0, 30: 0.09269958, 31: 0.0, 32: 0.292365345, 33: 0.0, 34: 0.08187422, 35: 0.0, 36: 0.0971011, 37: 1.320417665, 38: 0.0, 39: 0.6193355, 40: 0.0, 41: 0.16467038, 42: 1.318871185, 43: 1.321012465, 44: 1.392983265, 45: 0.0, 46: 0.0, 47: 1.316254065, 48: 1.323391665, 49: 0.0, 50: 0.0, 51: 0.118178165, 52: 0.796170258, 53: 0.0, 54: 0.781875198, 55: 0.0, 56: 0.677044758, 57: 0.0, 58: 0.347556282, 59: 0.095682212, 60: 0.0, 61: 1.401667345, 62: 0.0, 63: 0.08282589999999999, 64: 1.391555745, 65: 0.0, 66: 0.09448398, 67: 1.373592785, 68: 0.0, 69: 0.28470102, 70: 0.2672139, 71: 1.456983745, 72: 0.0, 73: 0.0, 74: 0.0, 75: 1.389057585, 76: 1.387867985, 77: 1.378708065, 78: 0.0, 79: 0.08008982000000001, 80: 0.0810415, 81: 0.0, 82: 0.0, 83: 1.530738945, 84: 1.542515985, 85: 0.2362843, 86: 1.536686945, 87: 0.0, 88: 0.0, 89: 0.8519454279999999, 90: 0.851029078, 91: 0.848157848, 92: 0.846752778, 93: 0.0, 94: 0.851334528, 95: 0.122989442];
earn = [0: 0.0, 1: 0.251714888, 2: 0.238790925, 3: 0.0, 4: 0.0, 5: 0.0, 6: 0.160997063, 7: 0.110437584, 8: 0.0, 9: 0.1138859, 10: 0.114461913, 11: 0.0, 12: 0.0, 13: 0.0, 14: 0.115613938, 15: 0.0, 16: 0.0, 17: 0.0, 18: 0.0, 19: 0.0, 20: 0.0, 21: 0.0, 22: 0.24600758, 23: 0.0, 24: 0.0, 25: 0.0, 26: 0.412941163, 27: 0.02857071, 28: 0.0, 29: 0.462277215, 30: 0.0, 31: 0.3427663, 32: 0.0, 33: 0.04780905, 34: 0.0, 35: -0.04466977, 36: 0.0, 37: 0.0, 38: -0.053273563, 39: 0.0, 40: -0.047518968, 41: 0.0, 42: 0.0, 43: 0.0, 44: 0.0, 45: -0.003478313, 46: -0.000455303, 47: 0.0, 48: 0.0, 49: -0.001490535, 50: -0.000442188, 51: -0.0, 52: 0.0, 53: 0.008296062999999999, 54: 0.0, 55: 0.007365375, 56: 0.0, 57: 0.013129113, 58: 0.0, 59: 0.0, 60: 0.281498963, 61: 0.0, 62: 0.419887875, 63: 0.0, 64: 0.0, 65: 0.014022037, 66: 0.0, 67: 0.0, 68: 0.683261325, 69: 0.0, 70: 0.0, 71: 0.0, 72: 0.8049817500000001, 73: 0.8978409000000001, 74: 0.938622375, 75: 0.0, 76: 0.0, 77: 0.0, 78: 0.76299663, 79: 0.0, 80: 0.0, 81: 0.5641539249999999, 82: 0.564034608, 83: 0.0, 84: 0.0, 85: 0.0, 86: 0.0, 87: 0.44740329, 88: 0.43759035, 89: 0.0, 90: 0.0, 91: 0.0, 92: 0.0, 93: 0.382831625, 94: 0.0, 95: 0.0];
total_cost = 43.283217653;
total_earn = 9.722861791;
% _objective = 33.560355862;