production = [0: 0.0, 1: 0.0, 2: 0.0, 3: 0.0, 4: 0.0, 5: 0.0, 6: 0.0, 7: 0.0, 8: 0.0, 9: 0.0, 10: 0.0, 11: 0.0, 12: 0.0, 13: 0.0, 14: 0.0, 15: 0.0, 16: 0.0, 17: 0.0, 18: 0.0, 19: 0.0, 20: 0.0, 21: 0.0, 22: 0.0, 23: 0.0003, 24: 0.0045, 25: 0.0, 26: 0.0452, 27: 0.0, 28: 0.11, 29: 0.0, 30: 0.218, 31: 0.08423750000000001, 32: 0.0, 33: 0.0, 34: 0.881, 35: 0.9785, 36: 0.0, 37: 0.0, 38: 1.2873, 39: 0.0, 40: 0.0, 41: 1.1013, 42: 1.094, 43: 0.0, 44: 1.1018, 45: 1.102, 46: 0.0, 47: 0.0, 48: 0.0602, 49: 0.0, 50: 0.0525, 51: 0.0, 52: 0.0638, 53: 0.0, 54: 0.3438, 55: 0.3775, 56: 0.0, 57: 1.3277, 58: 0.3829375, 59: 1.068, 60: 1.0217, 61: 0.957, 62: 0.7562, 63: 0.712, 64: 0.0, 65: 0.0, 66: 0.3402, 67: 0.1988, 68: 0.132, 69: 0.0, 70: 0.0, 71: 0.0177, 72: 0.0, 73: 0.0003, 74: 0.0, 75: 0.0, 76: 0.0, 77: 0.0, 78: 0.0, 79: 0.0, 80: 0.0, 81: 0.0, 82: 0.0, 83: 0.0, 84: 0.0, 85: 0.0, 86: 0.0, 87: 0.0, 88: 0.0, 89: 0.0, 90: 0.0, 91: 0.0, 92: 0.0, 93: 0.0, 94: 0.0, 95: 0.0];
buy = [0: 0.4019375, 1: 0.0, 2: 0.0, 3: 1.3124375, 4: 1.30405923, 5: 0.0, 6: 0.3349375, 7: 0.0, 8: 0.2596375, 9: 1.2699375, 10: 1.2684375, 11: 1.2712375, 12: 0.2717375, 13: 1.2734375, 14: 0.0, 15: 1.4647375, 16: 0.2429375, 17: 1.2412375, 18: 0.2319375, 19: 1.2239375, 20: 0.2229375, 21: 1.2234375, 22: 1.2226375, 23: 1.2238375, 24: 0.0787375, 25: 0.08713750000000001, 26: 1.045238095, 27: 0.0, 28: 0.9776375, 29: 1.0871375, 30: 0.826012949, 31: 0.0, 32: 1.0881375, 33: 0.08523749999999999, 34: 0.0, 35: 0.0, 36: 0.0, 37: 0.0, 38: 0.0, 39: 0.0, 40: 0.08273750000000001, 41: 0.0, 42: 0.0, 43: 0.0, 44: 0.0, 45: 0.0, 46: 0.0, 47: 0.0, 48: 1.0302375, 49: 0.0894375, 50: 1.0302375, 51: 0.08423750000000001, 52: 0.0, 53: 0.0, 54: 0.0, 55: 0.0, 56: 0.0, 57: 0.0, 58: 0.0, 59: 0.0, 60: 0.0, 61: 0.1766375, 62: 0.0, 63: 0.4221375, 64: 1.1331375, 65: 0.0, 66: 0.7880374999999999, 67: 0.9311375, 68: 0.9996375, 69: 0.1301375, 70: 1.1186375, 71: 0.0, 72: 1.1201375, 73: 0.0, 74: 0.1204375, 75: 1.0759375, 76: 1.0724375, 77: 0.0749375, 78: 0.0746375, 79: 1.0749375, 80: 0.0, 81: 0.0914375, 82: 1.0932375, 83: 1.0937375, 84: 0.09193750000000001, 85: 1.0924375, 86: 1.0924375, 87: 1.0914375, 88: 1.0924375, 89: 1.2576375, 90: 0.0, 91: 1.3134375, 92: 1.3139375, 93: 0.0, 94: 0.0, 95: 0.2732375];
sell = [0: 0.0, 1: 0.5440625, 2: 0.5445624999999999, 3: 0.0, 4: 0.0, 5: 0.0642625, 6: 0.0, 7: 0.6347625, 8: 0.0, 9: 0.0, 10: 0.0, 11: 0.0, 12: 0.0, 13: 0.0, 14: 0.0, 15: 0.0, 16: 0.0, 17: 0.0, 18: 0.0, 19: 0.0, 20: 0.0, 21: 0.0, 22: 0.0, 23: 0.0, 24: 0.0, 25: 0.0, 26: 0.0, 27: 0.0, 28: 0.0, 29: 0.0, 30: 0.0, 31: 0.0, 32: 0.0, 33: 0.0, 34: 1.6940625, 35: 0.8922625, 36: 0.475929161, 37: 0.8150625, 38: 2.1043625, 39: 0.8180625, 40: 0.0, 41: 1.9138625, 42: 1.9110625, 43: 0.8118625, 44: 1.0198625, 45: 1.0182625, 46: 0.8105625, 47: 0.8157624999999999, 48: 0.0, 49: 0.0, 50: 0.0, 51: 0.0, 52: 0.8771625, 53: 0.5635625, 54: 0.8540624999999999, 55: 0.8792624999999999, 56: 0.4902625, 57: 0.0, 58: 0.0, 59: 1.6115625, 60: 0.8890625, 61: 0.0, 62: 1.355144376, 63: 0.0, 64: 0.0, 65: 0.7712625, 66: 0.0, 67: 0.0, 68: 0.0, 69: 0.0, 70: 0.0, 71: 0.0, 72: 0.0, 73: 0.7806625, 74: 0.0, 75: 0.0, 76: 0.0, 77: 0.0, 78: 0.0, 79: 0.0, 80: 0.8253625, 81: 0.0, 82: 0.0, 83: 0.0, 84: 0.0, 85: 0.0, 86: 0.0, 87: 0.0, 88: 0.0, 89: 0.0, 90: 0.5848625, 91: 0.0, 92: 0.0, 93: 0.6240625, 94: 0.6280625, 95: 0.0];
charge = [0: 0.0, 1: 0.0, 2: 0.0, 3: 1.0, 4: 0.99662173, 5: 0.0, 6: 0.0, 7: 0.0, 8: 0.0, 9: 1.0, 10: 1.0, 11: 1.0, 12: 0.0, 13: 1.0, 14: 0.0, 15: 1.0, 16: 0.0, 17: 1.0, 18: 0.0, 19: 1.0, 20: 0.0, 21: 1.0, 22: 1.0, 23: 1.0, 24: 0.0, 25: 0.0, 26: 1.0, 27: 0.0, 28: 1.0, 29: 1.0, 30: 0.956575449, 31: 0.0, 32: 1.0, 33: 0.0, 34: 0.0, 35: 0.0, 36: 0.0, 37: 0.0, 38: 0.0, 39: 0.0, 40: 0.0, 41: 0.0, 42: 0.0, 43: 0.0, 44: 0.0, 45: 0.0, 46: 0.0, 47: 0.0, 48: 1.0, 49: 0.0, 50: 1.0, 51: 0.0, 52: 0.0, 53: 0.0, 54: 0.0, 55: 0.0, 56: 0.0, 57: 0.9487625, 58: 0.0, 59: 0.0, 60: 0.0, 61: 1.0, 62: 0.0, 63: 1.0, 64: 1.0, 65: 0.0, 66: 1.0, 67: 1.0, 68: 1.0, 69: 0.0, 70: 1.0, 71: 0.0, 72: 1.0, 73: 0.0, 74: 0.0, 75: 1.0, 76: 1.0, 77: 0.0, 78: 0.0, 79: 1.0, 80: 0.0, 81: 0.0, 82: 1.0, 83: 1.0, 84: 0.0, 85: 1.0, 86: 1.0, 87: 1.0, 88: 1.0, 89: 1.0, 90: 0.0, 91: 1.0, 92: 1.0, 93: 0.0, 94: 0.0, 95: 0.0];
discharge = [0: 0.0, 1: 1.0, 2: 1.0, 3: 0.0, 4: 0.0, 5: 1.0, 6: 0.0, 7: 1.0, 8: 0.0, 9: 0.0, 10: 0.0, 11: 0.0, 12: 0.0, 13: 0.0, 14: 0.301930556, 15: 0.0, 16: 0.0, 17: 0.0, 18: 0.0, 19: 0.0, 20: 0.0, 21: 0.0, 22: 0.0, 23: 0.0, 24: 0.0, 25: 0.0, 26: 0.0, 27: 0.096041667, 28: 0.0, 29: 0.0, 30: 0.0, 31: 0.0, 32: 0.0, 33: 0.0, 34: 1.0, 35: 0.0, 36: 0.625629624, 37: 1.0, 38: 1.0, 39: 1.0, 40: 0.0, 41: 1.0, 42: 1.0, 43: 1.0, 44: 0.0, 45: 0.0, 46: 1.0, 47: 1.0, 48: 0.0, 49: 0.0, 50: 0.0, 51: 0.0, 52: 1.0, 53: 1.0, 54: 1.0, 55: 1.0, 56: 1.0, 57: 0.0, 58: 0.0, 59: 1.0, 60: 0.0, 61: 0.0, 62: 0.814535418, 63: 0.0, 64: 0.0, 65: 1.0, 66: 0.0, 67: 0.0, 68: 0.0, 69: 0.0, 70: 0.0, 71: 0.112708333, 72: 0.0, 73: 1.0, 74: 0.0, 75: 0.0, 76: 0.0, 77: 0.0, 78: 0.0, 79: 0.0, 80: 1.0, 81: 0.0, 82: 0.0, 83: 0.0, 84: 0.0, 85: 0.0, 86: 0.0, 87: 0.0, 88: 0.0, 89: 0.0, 90: 1.0, 91: 0.0, 92: 0.0, 93: 1.0, 94: 1.0, 95: 0.0];
soc = [0: 4.859028, 1: 3.858056194, 2: 2.857284583, 3: 3.756713126, 4: 4.652921341, 5: 3.651990756, 6: 3.651260358, 7: 2.650530106, 8: 2.65, 9: 3.54947, 10: 4.448760106, 11: 5.347870354, 12: 5.34680078, 13: 6.24573142, 14: 5.942551718, 15: 6.841363208, 16: 6.839994935, 17: 7.738626936, 18: 7.737079211, 19: 8.635531795, 20: 8.633804688, 21: 9.532077927, 22: 10.430171512, 23: 11.328085478, 24: 11.32581986, 25: 11.323554696, 26: 12.221289986, 27: 12.122804061, 28: 13.0203795, 29: 13.917775424, 30: 14.775909773, 31: 14.772954591, 32: 15.67, 33: 15.666866, 34: 14.663732627, 35: 14.66079988, 36: 14.032238097, 37: 13.029431649, 38: 12.026825763, 39: 11.024420398, 40: 11.022215513, 41: 10.02001107, 42: 9.018007067999999, 43: 8.016203467, 44: 8.014600226000001, 45: 8.012997306000001, 46: 7.011394707, 47: 6.009992428, 48: 6.908790429, 49: 6.907408671, 50: 7.806027189, 51: 7.804465984, 52: 6.802905091, 53: 5.80154451, 54: 4.800384201, 55: 3.799424124, 56: 2.798664239, 57: 3.651990756, 58: 3.651260358, 59: 2.650530106, 60: 2.65, 61: 3.54947, 62: 2.734224688, 63: 3.633677843, 64: 4.532951108, 65: 3.532044517, 66: 4.431338109, 67: 5.330451841, 68: 6.229385751, 69: 6.228139873, 70: 7.126894245, 71: 7.012760533, 72: 7.911357981, 73: 6.90977571, 74: 6.908393754, 75: 7.807012076, 76: 8.705450673, 77: 8.703709583, 78: 8.701968840999999, 79: 9.600228446999999, 80: 8.598308402000001, 81: 8.59658874, 82: 9.494869422000001, 83: 10.392970448, 84: 10.390891854, 85: 11.288813676, 86: 12.186555913, 87: 13.084118602, 88: 13.981501778, 89: 14.878705478, 90: 13.875729737, 91: 14.772954591, 92: 15.67, 93: 14.666866, 94: 13.663932627, 95: 13.66119984];
cost = [0: 0.245543619, 1: 0.0, 2: 0.0, 3: 0.919946234, 4: 0.914428711, 5: 0.0, 6: 0.204613319, 7: 0.0, 8: 0.158612549, 9: 0.893982984, 10: 0.893066634, 11: 0.894777154, 12: 0.166004439, 13: 0.896121134, 14: 0.0, 15: 1.012986304, 16: 0.148410519, 17: 0.876450154, 18: 0.141690619, 19: 0.865881584, 20: 0.136192519, 21: 0.865576134, 22: 0.865087414, 23: 0.8658204940000001, 24: 0.09366613, 25: 0.10365877, 26: 1.361592695, 27: 0.0, 28: 1.281175735, 29: 1.411436935, 30: 1.095671335, 31: 0.0, 32: 1.412626535, 33: 0.10139853, 34: 0.0, 35: 0.0, 36: 0.0, 37: 0.0, 38: 0.0, 39: 0.0, 40: 0.09842453, 41: 0.0, 42: 0.0, 43: 0.0, 44: 0.0, 45: 0.0, 46: 0.0, 47: 0.0, 48: 1.343748695, 49: 0.10639485, 50: 1.343748695, 51: 0.10020893, 52: 0.0, 53: 0.0, 54: 0.0, 55: 0.0, 56: 0.0, 57: 0.112123012, 58: 0.0, 59: 0.0, 60: 0.0, 61: 0.328306135, 62: 0.0, 63: 0.620352935, 64: 1.466158535, 65: 0.0, 66: 1.055627575, 67: 1.225859335, 68: 1.307346935, 69: 0.15481157, 70: 1.448909335, 71: 0.0, 72: 1.450693735, 73: 0.0, 74: 0.14327245, 75: 1.398113415, 76: 1.393949815, 77: 0.08914565000000001, 78: 0.08878877, 79: 1.396923815, 80: 0.0, 81: 0.10877405, 82: 1.418693495, 83: 1.419288295, 84: 0.10936885, 85: 1.417741815, 86: 1.417741815, 87: 1.416552215, 88: 0.785548234, 89: 0.8864689140000001, 90: 0.0, 91: 0.9205571340000001, 92: 0.920862584, 93: 0.0, 94: 0.0, 95: 0.166920789];
earn = [0: 0.0, 1: 0.2898765, 2: 0.290251813, 3: 0.0, 4: 0.0, 5: 0.033744239, 6: 0.0, 7: 0.330838215, 8: 0.0, 9: 0.0, 10: 0.0, 11: 0.0, 12: 0.0, 13: 0.0, 14: 0.0, 15: 0.0, 16: 0.0, 17: 0.0, 18: 0.0, 19: 0.0, 20: 0.0, 21: 0.0, 22: 0.0, 23: 0.0, 24: 0.0, 25: 0.0, 26: 0.0, 27: 0.0, 28: 0.0, 29: 0.0, 30: 0.0, 31: 0.0, 32: 0.0, 33: 0.0, 34: 0.853468688, 35: 0.413206764, 36: 0.195273735, 37: 0.263183681, 38: 0.544398579, 39: 0.1020942, 40: 0.0, 41: -0.032344276, 42: -0.200661562, 43: -0.088736571, 44: -0.026312452, 45: -0.041952415, 46: -0.038825944, 47: -0.040869701, 48: 0.0, 49: 0.0, 50: 0.0, 51: 0.0, 52: -0.019560724, 53: -0.008002588, 54: -0.007430344, 55: -0.000439631, 56: 0.003186706, 57: 0.0, 58: 0.0, 59: 0.07606575, 60: 0.281032656, 61: 0.0, 62: 0.671067495, 63: 0.0, 64: 0.0, 65: 0.456664526, 66: 0.0, 67: 0.0, 68: 0.0, 69: 0.0, 70: 0.0, 71: 0.0, 72: 0.0, 73: 0.778554711, 74: 0.0, 75: 0.0, 76: 0.0, 77: 0.0, 78: 0.0, 79: 0.0, 80: 0.691818848, 81: 0.0, 82: 0.0, 83: 0.0, 84: 0.0, 85: 0.0, 86: 0.0, 87: 0.0, 88: 0.0, 89: 0.0, 90: 0.381213378, 91: 0.0, 92: 0.0, 93: 0.381239781, 94: 0.381296744, 95: 0.0];
total_cost = 46.487846099;
total_earn = 6.913340799;
% _objective = 39.5745053;