production = [0.0, 0.0, 0.0, 0.0, 0.0, 0.0, 0.0, 0.0, 0.0, 0.0, 0.0, 0.0, 0.0, 0.0, 0.0, 0.0, 0.0, 0.0, 0.0, 0.0, 0.0, 0.0, 0.0, 0.0, 0.0045, 0.0283, 0.0, 0.0843, 0.0, 0.0, 0.0, 0.0, 0.631, 0.7712, 0.881, 0.0, 0.0, 1.184, 1.2873, 0.0, 1.4492, 1.1013, 1.094, 1.1045, 0.0, 0.0, 0.4933, 0.0575, 0.0602, 0.0, 0.0525, 0.0, 0.0, 0.0, 0.0, 0.0, 1.39, 1.3277, 0.0, 1.068, 1.0217, 0.0, 0.7562, 0.712, 0.0, 0.0, 0.3402, 0.0, 0.132, 0.0825, 0.0435, 0.0, 0.0, 0.0, 0.0, 0.0, 0.0, 0.0, 0.0, 0.0, 0.0, 0.0, 0.0, 0.0, 0.0, 0.0, 0.0, 0.0, 0.0, 0.0, 0.0, 0.0, 0.0, 0.0, 0.0, 0.0];
buy = [0.0, 0.3559375, 0.0, 0.3124375, 0.3074375, 1.8357375, 0.3349375, 1.2652375, 0.0, 0.2699375, 1.2684375, 1.2712375, 1.2717375, 1.2734375, 0.0, 0.4647375, 0.0, 1.2412375, 1.2319375, 0.2239375, 0.2229375, 1.2234375, 0.2226375, 1.2241375, 0.0, 1.0588375, 1.0904375, 1.0021375, 0.08763749999999999, 0.08713750000000001, 0.0, 0.0, 0.4571375, 0.0, 0.2059375, 1.0862375, 1.0871375, 0.0, 0.0, 0.0, 0.0, 0.0, 0.0, 0.0, 1.0819375, 0.0, 0.0, 0.0267375, 0.0, 0.0, 0.0302375, 0.0, 0.08663750000000001, 1.3364375, 0.0, 0.0, 0.0, 0.0, 0.3829375, 0.2884375, 0.1109375, 0.1336375, 0.3779375, 0.4221375, 0.0, 0.1287375, 0.7880374999999999, 0.1299375, 0.0, 1.0476375, 0.0, 0.0, 0.0, 0.1196375, 0.1204375, 0.0759375, 0.0724375, 0.0, 0.0, 1.0749375, 1.0746375, 0.0, 1.0932375, 0.0, 1.0919375, 0.0, 1.0924375, 0.0, 0.09243750000000001, 1.2576375, 0.3151375, 1.3134375, 1.3139375, 1.2759375, 0.2719375, 0.0];
sell = [0.4980625, 0.0, 0.5445624999999999, 0.0, 0.0, 0.0, 0.0, 0.0, 0.6403624999999999, 0.0, 0.0, 0.0, 0.0, 0.0, 0.6282624999999999, 0.0, 0.6570625, 0.0, 0.0, 0.0, 0.0, 0.0, 0.0, 0.0, 0.0, 0.0, 0.0, 0.0, 0.0, 0.0, 0.8125625, 0.8157624999999999, 0.0, 1.5859625, 0.0, 0.0, 0.0, 1.9990625, 2.1043625, 0.8180625, 1.3664625, 0.0138625, 1.0110625, 0.0163625, 0.0, 0.8162625, 0.4038625, 0.0, 0.8697625, 0.8105625, 0.0, 0.8157624999999999, 0.0, 0.0, 0.5102625, 0.5017625, 0.9802625, 0.461565607, 0.0, 0.0, 0.0, 0.0, 0.0, 0.0, 0.7668625, 0.0, 0.0, 0.0, 0.9003625, 0.0, 0.8248625000000001, 0.7808625, 0.7798625, 0.0, 0.0, 0.0, 0.0, 0.8250625, 0.8253625, 0.0, 0.0, 0.8085625, 0.0, 0.8062625, 0.0, 0.8075625, 0.0, 0.8085625, 0.0, 0.0, 0.0, 0.0, 0.0, 0.0, 0.0, 0.6267625];
charge = [0.0, 0.0, 0.0, 0.0, 0.0, 1.0, 0.0, 1.0, 0.0, 0.0, 1.0, 1.0, 1.0, 1.0, 0.0, 0.0, 0.0, 1.0, 1.0, 0.0, 0.0, 1.0, 0.0, 1.0, 0.0, 1.0, 1.0, 1.0, 0.0, 0.0, 0.0, 0.0, 1.0, 0.0, 1.0, 1.0, 1.0, 0.0, 0.0, 0.0, 0.0, 1.0, 0.0, 1.0, 1.0, 0.0, 0.0, 0.0, 0.0, 0.0, 0.0, 0.0, 0.0, 1.0, 0.0, 0.0, 0.0, 0.487196893, 0.0, 1.0, 1.0, 0.0, 1.0, 1.0, 0.0, 0.0, 1.0, 0.0, 0.0, 1.0, 0.0, 0.0, 0.0, 0.0, 0.0, 0.0, 0.0, 0.0, 0.0, 1.0, 1.0, 0.0, 1.0, 0.0, 1.0, 0.0, 1.0, 0.0, 0.0, 1.0, 0.0, 1.0, 1.0, 1.0, 0.0, 0.0];
discharge = [1.0, 0.0, 1.0, 0.0, 0.0, 0.0, 0.0, 0.0, 1.0, 0.0, 0.0, 0.0, 0.0, 0.0, 1.0, 0.0, 1.0, 0.0, 0.0, 0.0, 0.0, 0.0, 0.0, 0.0, 0.08748611100000001, 0.0, 0.0, 0.0, 0.0, 0.0, 1.0, 1.0, 0.0, 1.0, 0.0, 0.0, 0.0, 1.0, 1.0, 1.0, 0.0, 0.0, 0.0, 0.0, 0.0, 1.0, 0.0, 0.0, 1.0, 1.0, 0.0, 1.0, 0.0, 0.0, 1.0, 1.0, 0.0, 0.0, 0.0, 0.0, 0.0, 0.0, 0.0, 0.0, 1.0, 0.0, 0.0, 0.0, 1.0, 0.0, 1.0, 1.0, 1.0, 0.0, 0.0, 0.0, 0.0, 1.0, 1.0, 0.0, 0.0, 1.0, 0.0, 1.0, 0.0, 1.0, 0.0, 1.0, 0.0, 0.0, 0.0, 0.0, 0.0, 0.0, 0.0, 1.0];
soc = [3.859028, 3.858256194, 2.857484543, 2.856913046, 2.856341664, 3.755770395, 3.755019241, 4.654268237, 3.653337384, 3.652606716, 4.551876195, 5.45096582, 6.349875627, 7.248605651, 6.24715593, 6.245906499, 5.244657318, 6.143608386, 7.042379665, 7.040971189, 7.039562994, 7.938155082, 7.936567451, 8.834980137000001, 8.745727029999999, 9.643977885, 10.542049089, 11.439940679, 11.437652691, 11.435365161, 10.433078088, 9.430991472000001, 10.329105274, 9.327039452999999, 10.225174045, 11.12312901, 12.020904384, 11.018500203, 10.016296503, 9.014293243999999, 9.012490385, 9.910687887, 9.908705749999999, 10.806724009, 11.704562664, 10.702221751, 10.700081307, 10.697941291, 9.695801702000001, 8.693862542, 8.69212377, 7.690385345, 7.688847268, 8.587309498, 7.585592036, 6.584074918, 6.582758103, 7.019918755, 7.018514771, 7.917111068, 8.815527646, 8.813764539999999, 9.712001788, 10.610059387, 9.607936508, 9.606015788000001, 10.504094585, 10.501993766, 9.499893367, 10.397993388, 9.39591379, 8.394034607, 7.3923558, 7.390877329, 7.389399153, 7.387921274, 7.386443689, 6.384966401, 5.383689407, 6.282612669, 7.181356147, 6.179919876, 7.078683892, 6.077268155, 6.976052701, 5.974657491, 6.873462559, 5.872087867, 5.870913449, 6.769739266, 6.768385319, 7.667031641, 8.565498235, 9.463785136, 9.461892378, 8.460000000000001];
cost = [0.0, 0.217442219, 0.0, 0.190868069, 0.187813569, 1.239630204, 0.204613319, 0.891111754, 0.0, 0.164904819, 0.893066634, 0.894777154, 0.8950826039999999, 0.896121134, 0.0, 0.283908139, 0.0, 0.876450154, 0.870768784, 0.136803419, 0.136192519, 0.865576134, 0.136009249, 0.866003764, 0.0, 1.377771255, 1.415362615, 1.310320935, 0.10425357, 0.10365877, 0.0, 0.0, 0.661988935, 0.0, 0.363161415, 1.410366295, 1.411436935, 0.0, 0.0, 0.0, 0.0, 0.118178165, 0.0, 0.118178165, 1.405251015, 0.0, 0.0, 0.03180693, 0.0, 0.0, 0.03597053, 0.0, 0.052926849, 0.934607834, 0.0, 0.0, 0.0, 0.057576035, 0.233936519, 0.294384634, 0.250149415, 0.15897517, 0.567772615, 0.620352935, 0.0, 0.15314613, 1.055627575, 0.15457365, 0.0, 1.364447735, 0.0, 0.0, 0.0, 0.14232077, 0.14327245, 0.09033525000000001, 0.08617165, 0.0, 0.0, 1.396923815, 1.396566935, 0.0, 1.418693495, 0.0, 1.417147015, 0.0, 1.417741815, 0.0, 0.056470069, 0.8864689140000001, 0.192517499, 0.9205571340000001, 0.920862584, 0.897648384, 0.166126619, 0.0];
earn = [0.273087669, 0.0, 0.290251813, 0.0, 0.0, 0.0, 0.0, 0.0, 0.33452537, 0.0, 0.0, 0.0, 0.0, 0.0, 0.331534121, 0.0, 0.347914594, 0.0, 0.0, 0.0, 0.0, 0.0, 0.0, 0.0, 0.0, 0.0, 0.0, 0.0, 0.0, 0.0, 0.589839119, 0.533263946, 0.0, 0.882905324, 0.0, 0.0, 0.0, 0.645497281, 0.544398579, 0.1020942, -0.006012435, -0.000234276, -0.106161562, -0.001788421, 0.0, -0.033630015, -0.019345014, 0.0, -0.039922099, -0.04344615, 0.0, -0.014438996, 0.0, 0.0, -0.004439284, -0.000250881, 0.006371706, 0.006738858, 0.0, 0.0, 0.0, 0.0, 0.0, 0.0, 0.433584058, 0.0, 0.0, 0.0, 0.644299405, 0.0, 0.7149908149999999, 0.725343176, 0.75241134, 0.0, 0.0, 0.0, 0.0, 0.797010375, 0.77121872, 0.0, 0.0, 0.65525905, 0.0, 0.626627215, 0.0, 0.5879055, 0.0, 0.5456988310000001, 0.0, 0.0, 0.0, 0.0, 0.0, 0.0, 0.0, 0.369789875];
total_cost = 38.163150672;
total_earn = 12.242891805;
% _objective = 25.920258867;