production = [0: 0.0, 1: 0.0, 2: 0.0, 3: 0.0, 4: 0.0, 5: 0.0, 6: 0.0, 7: 0.0, 8: 0.0, 9: 0.0, 10: 0.0, 11: 0.0, 12: 0.0, 13: 0.0, 14: 0.0, 15: 0.0, 16: 0.0, 17: 0.0, 18: 0.0, 19: 0.0, 20: 0.0, 21: 0.0, 22: 0.0, 23: 0.0, 24: 0.0045, 25: 0.0, 26: 0.0452, 27: 0.0, 28: 0.0, 29: 0.0, 30: 0.0, 31: 0.4283, 32: 0.0, 33: 0.0, 34: 0.0, 35: 0.9785, 36: 0.0, 37: 1.184, 38: 1.0829375, 39: 0.0, 40: 1.4492, 41: 1.1013, 42: 1.094, 43: 1.1045, 44: 0.0, 45: 1.102, 46: 0.0, 47: 0.0575, 48: 0.0602, 49: 0.0, 50: 0.0, 51: 0.0473, 52: 0.0, 53: 0.0, 54: 0.0, 55: 0.3775, 56: 1.39, 57: 1.3277, 58: 0.0, 59: 1.068, 60: 0.1326375, 61: 0.957, 62: 0.7562, 63: 0.712, 64: 0.5952, 65: 0.0, 66: 0.3402, 67: 0.1988, 68: 0.132, 69: 0.0825, 70: 0.0435, 71: 0.0177, 72: 0.0055, 73: 0.0, 74: 0.0, 75: 0.0, 76: 0.0, 77: 0.0, 78: 0.0, 79: 0.0, 80: 0.0, 81: 0.0, 82: 0.0, 83: 0.0, 84: 0.0, 85: 0.0, 86: 0.0, 87: 0.0, 88: 0.0, 89: 0.0, 90: 0.0, 91: 0.0, 92: 0.0, 93: 0.0, 94: 0.0, 95: 0.0];
buy = [0: 1.4019375, 1: 1.3559375, 2: 0.0, 3: 0.0, 4: 0.3074375, 5: 0.0, 6: 1.3349375, 7: 0.2652375, 8: 0.0, 9: 1.2699375, 10: 0.2684375, 11: 0.0, 12: 0.2717375, 13: 1.2734375, 14: 1.2717375, 15: 1.4647375, 16: 1.2429375, 17: 0.0, 18: 0.0, 19: 0.0, 20: 0.2229375, 21: 0.2234375, 22: 1.2226375, 23: 0.0, 24: 0.0, 25: 1.0871375, 26: 1.045238095, 27: 1.0864375, 28: 1.0876375, 29: 0.08713750000000001, 30: 0.0, 31: 0.0, 32: 0.08813749999999999, 33: 0.08523749999999999, 34: 0.0, 35: 0.1077375, 36: 0.08713750000000001, 37: 0.0, 38: 0.0, 39: 0.0819375, 40: 0.0, 41: 0.0, 42: 0.0, 43: 0.0, 44: 1.0819375, 45: 0.0, 46: 1.0894375, 47: 0.0267375, 48: 1.0302375, 49: 0.0, 50: 1.0827375, 51: 0.0369375, 52: 0.0, 53: 0.0, 54: 1.3897375, 55: 1.0207375, 56: 0.0, 57: 0.0512375, 58: 0.0, 59: 0.2884375, 60: 0.0, 61: 0.0, 62: 0.3779375, 63: 0.4221375, 64: 0.5379375, 65: 1.1287375, 66: 0.7880374999999999, 67: 0.0, 68: 0.9996375, 69: 0.0, 70: 1.0751375, 71: 0.1014375, 72: 0.0, 73: 0.0, 74: 0.0, 75: 0.0, 76: 0.0724375, 77: 0.0, 78: 1.0746375, 79: 0.0, 80: 0.0, 81: 0.0914375, 82: 0.0932375, 83: 1.0937375, 84: 0.0, 85: 1.0924375, 86: 1.0924375, 87: 0.0914375, 88: 1.0924375, 89: 1.2576375, 90: 0.0, 91: 0.0, 92: 0.0, 93: 1.2759375, 94: 0.0, 95: 1.2732375];
sell = [0: 0.0, 1: 0.0, 2: 0.5445624999999999, 3: 0.5875625, 4: 0.0, 5: 0.0642625, 6: 0.0, 7: 0.0, 8: 0.6403624999999999, 9: 0.0, 10: 0.0, 11: 0.6287625, 12: 0.0, 13: 0.0, 14: 0.0, 15: 0.0, 16: 0.0, 17: 0.6587625, 18: 0.6680625, 19: 0.6760625, 20: 0.0, 21: 0.0, 22: 0.0, 23: 0.6758625, 24: 0.8212625, 25: 0.0, 26: 0.0, 27: 0.0, 28: 0.0, 29: 0.0, 30: 0.8125625, 31: 0.3440625, 32: 0.0, 33: 0.0, 34: 0.8130625, 35: 0.0, 36: 0.0, 37: 1.9990625, 38: 0.0, 39: 0.0, 40: 0.3664625, 41: 0.0138625, 42: 1.0110625, 43: 0.0163625, 44: 0.0, 45: 0.0182625, 46: 0.0, 47: 0.0, 48: 0.0, 49: 0.8105625, 50: 0.0, 51: 0.0, 52: 0.8133625, 53: 0.5635625, 54: 0.0, 55: 0.0, 56: 1.8802625, 57: 0.0, 58: 0.5170625, 59: 0.0, 60: 0.0, 61: 1.7233625, 62: 0.0, 63: 0.0, 64: 0.0, 65: 0.0, 66: 0.0, 67: 0.9688625, 68: 0.0, 69: 0.8523625, 70: 0.0, 71: 0.0, 72: 0.7853625, 73: 0.7803625, 74: 0.7795625, 75: 0.8240625, 76: 0.0, 77: 0.8250625, 78: 0.0, 79: 0.8250625, 80: 0.8253625, 81: 0.0, 82: 0.0, 83: 0.0, 84: 0.8080625, 85: 0.0, 86: 0.0, 87: 0.0, 88: 0.0, 89: 0.0, 90: 0.5848625, 91: 0.5865625, 92: 0.5860625, 93: 0.0, 94: 0.6280625, 95: 0.0];
charge = [0: 1.0, 1: 1.0, 2: 0.0, 3: 0.0, 4: 0.0, 5: 0.0, 6: 1.0, 7: 0.0, 8: 0.0, 9: 1.0, 10: 0.0, 11: 0.0, 12: 0.0, 13: 1.0, 14: 1.0, 15: 1.0, 16: 1.0, 17: 0.0, 18: 0.0, 19: 0.0, 20: 0.0, 21: 0.0, 22: 1.0, 23: 0.0, 24: 0.0, 25: 1.0, 26: 1.0, 27: 1.0, 28: 1.0, 29: 0.0, 30: 0.0, 31: 0.0, 32: 0.0, 33: 0.0, 34: 0.0, 35: 1.0, 36: 0.0, 37: 0.0, 38: 1.0, 39: 0.0, 40: 1.0, 41: 1.0, 42: 0.0, 43: 1.0, 44: 1.0, 45: 1.0, 46: 1.0, 47: 0.0, 48: 1.0, 49: 0.0, 50: 1.0, 51: 0.0, 52: 0.0, 53: 0.0, 54: 1.0, 55: 1.0, 56: 0.0, 57: 1.0, 58: 0.0, 59: 1.0, 60: 0.0, 61: 0.0, 62: 1.0, 63: 1.0, 64: 1.0, 65: 1.0, 66: 1.0, 67: 0.0, 68: 1.0, 69: 0.0, 70: 1.0, 71: 0.0, 72: 0.0, 73: 0.0, 74: 0.0, 75: 0.0, 76: 0.0, 77: 0.0, 78: 1.0, 79: 0.0, 80: 0.0, 81: 0.0, 82: 0.0, 83: 1.0, 84: 0.0, 85: 1.0, 86: 1.0, 87: 0.0, 88: 1.0, 89: 1.0, 90: 0.0, 91: 0.0, 92: 0.0, 93: 1.0, 94: 0.0, 95: 1.0];
discharge = [0: 0.0, 1: 0.0, 2: 1.0, 3: 1.0, 4: 0.0, 5: 1.0, 6: 0.0, 7: 0.0, 8: 1.0, 9: 0.0, 10: 0.0, 11: 1.0, 12: 0.0, 13: 0.0, 14: 0.0, 15: 0.0, 16: 0.0, 17: 1.0, 18: 1.0, 19: 1.0, 20: 0.0, 21: 0.0, 22: 0.0, 23: 1.0, 24: 1.0, 25: 0.0, 26: 0.0, 27: 0.0, 28: 0.0, 29: 0.0, 30: 1.0, 31: 0.0, 32: 0.0, 33: 0.0, 34: 1.0, 35: 0.0, 36: 0.0, 37: 1.0, 38: 0.0, 39: 0.0, 40: 0.0, 41: 0.0, 42: 0.0, 43: 0.0, 44: 0.0, 45: 0.0, 46: 0.0, 47: 0.0, 48: 0.0, 49: 1.0, 50: 0.0, 51: 0.0, 52: 1.0, 53: 1.0, 54: 0.0, 55: 0.0, 56: 1.0, 57: 0.0, 58: 1.0, 59: 0.0, 60: 0.0, 61: 1.0, 62: 0.0, 63: 0.0, 64: 0.0, 65: 0.0, 66: 0.0, 67: 1.0, 68: 0.0, 69: 1.0, 70: 0.0, 71: 0.0, 72: 1.0, 73: 1.0, 74: 1.0, 75: 1.0, 76: 0.0, 77: 1.0, 78: 0.0, 79: 1.0, 80: 1.0, 81: 0.0, 82: 0.0, 83: 0.0, 84: 1.0, 85: 0.0, 86: 0.0, 87: 0.0, 88: 0.0, 89: 0.0, 90: 1.0, 91: 1.0, 92: 1.0, 93: 0.0, 94: 1.0, 95: 0.0];
soc = [0: 5.759028, 1: 6.657876194, 2: 5.656544619, 3: 4.65541331, 4: 4.654482228, 5: 3.653551331, 6: 4.552820621, 7: 4.551910057, 8: 3.550999675, 9: 4.450289475, 10: 4.449399417, 11: 3.448509537, 12: 3.447819835, 13: 4.347130271, 14: 5.246260845, 15: 6.145211593, 16: 7.043982551, 17: 6.042573754, 18: 5.041365239, 19: 4.040356966, 20: 4.039548895, 21: 4.038740985, 22: 4.937933237, 23: 3.93694565, 24: 2.936158261, 25: 3.835571029, 26: 4.734803915, 27: 5.633856955, 28: 6.532730183, 29: 6.531423637, 30: 5.530117352, 31: 5.529011329, 32: 5.527905527, 33: 5.526799946, 34: 4.525694586, 35: 5.424789447, 36: 5.423704489, 37: 4.422619748, 38: 5.321735224, 39: 5.320670877, 40: 6.219606743, 41: 7.118362821, 42: 7.116939149, 43: 8.015515761, 44: 8.913912657999999, 45: 9.812129875, 46: 10.710167449, 47: 10.708025416, 48: 11.605883811, 49: 10.603562634, 50: 11.501441921, 51: 11.499141633, 52: 10.496841805, 53: 9.494742435999999, 54: 10.392843488, 55: 11.290764919, 56: 10.288506766, 57: 11.186449065, 58: 10.184211775, 59: 11.082174933, 60: 11.079958498, 61: 10.077742506, 62: 10.975726957, 63: 11.873531812, 64: 12.771157106, 65: 13.668602874, 66: 14.565869154, 67: 13.56295598, 68: 14.460243389, 69: 13.45735134, 70: 14.35465987, 71: 14.351788938, 72: 13.34891858, 73: 12.346248796, 74: 11.343779546, 75: 10.341510791, 76: 10.339442488, 77: 9.3373746, 78: 10.235507125, 79: 9.233460023999999, 80: 8.231613332, 81: 8.229967008999999, 82: 8.228321015000001, 83: 9.126675350999999, 84: 8.124850016, 85: 9.023225046, 86: 9.921420401000001, 87: 9.919436117, 88: 10.81745223, 89: 11.715288739, 90: 10.712945682, 91: 9.710803093000001, 92: 8.708860932, 93: 9.60711916, 94: 8.605197735999999, 95: 9.503476696];
cost = [0: 0.974621784, 1: 0.946520384, 2: 0.0, 3: 0.0, 4: 0.187813569, 5: 0.0, 6: 0.933691484, 7: 0.162033589, 8: 0.0, 9: 0.893982984, 10: 0.163988469, 11: 0.0, 12: 0.166004439, 13: 0.896121134, 14: 0.8950826039999999, 15: 1.012986304, 16: 0.877488684, 17: 0.0, 18: 0.0, 19: 0.0, 20: 0.136192519, 21: 0.136497969, 22: 0.865087414, 23: 0.0, 24: 0.0, 25: 1.411436935, 26: 1.361592695, 27: 1.410604215, 28: 1.412031735, 29: 0.10365877, 30: 0.0, 31: 0.0, 32: 0.10484837, 33: 0.10139853, 34: 0.0, 35: 0.246342695, 36: 0.10365877, 37: 0.0, 38: 0.118178165, 39: 0.09747285, 40: 0.118178165, 41: 0.118178165, 42: 0.0, 43: 0.118178165, 44: 1.405251015, 45: 0.118178165, 46: 1.414173015, 47: 0.03180693, 48: 1.343748695, 49: 0.0, 50: 1.406202695, 51: 0.04394085, 52: 0.0, 53: 0.0, 54: 0.967168804, 55: 0.741746704, 56: 0.0, 57: 0.149479154, 58: 0.0, 59: 0.294384634, 60: 0.0, 61: 0.0, 62: 0.567772615, 63: 0.620352935, 64: 0.758108615, 65: 1.460924295, 66: 1.055627575, 67: 0.0, 68: 1.307346935, 69: 0.0, 70: 1.397161735, 71: 0.12067005, 72: 0.0, 73: 0.0, 74: 0.0, 75: 0.0, 76: 0.08617165, 77: 0.0, 78: 1.396566935, 79: 0.0, 80: 0.0, 81: 0.10877405, 82: 0.11091533, 83: 1.419288295, 84: 0.0, 85: 1.417741815, 86: 1.417741815, 87: 0.10877405, 88: 0.785548234, 89: 0.8864689140000001, 90: 0.0, 91: 0.0, 92: 0.0, 93: 0.897648384, 94: 0.0, 95: 0.895998954];
earn = [0: 0.0, 1: 0.0, 2: 0.290251813, 3: 0.3121132, 4: 0.0, 5: 0.033744239, 6: 0.0, 7: 0.0, 8: 0.33452537, 9: 0.0, 10: 0.0, 11: 0.328276901, 12: 0.0, 13: 0.0, 14: 0.0, 15: 0.0, 16: 0.0, 17: 0.351120413, 18: 0.356812181, 19: 0.361896256, 20: 0.0, 21: 0.0, 22: 0.0, 23: 0.43092993, 24: 0.585478036, 25: 0.0, 26: 0.0, 27: 0.0, 28: 0.0, 29: 0.0, 30: 0.589839119, 31: 0.224913656, 32: 0.0, 33: 0.0, 34: 0.409620888, 35: 0.0, 36: 0.0, 37: 0.645497281, 38: 0.0, 39: 0.0, 40: -0.001612435, 41: -0.000234276, 42: -0.106161562, 43: -0.001788421, 44: 0.0, 45: -0.000752415, 46: 0.0, 47: 0.0, 48: 0.0, 49: -0.04344615, 50: 0.0, 51: 0.0, 52: -0.018137984, 53: -0.008002588, 54: 0.0, 55: 0.0, 56: 0.012221706, 57: 0.0, 58: 0.010444662, 59: 0.0, 60: 0.0, 61: 0.6800388429999999, 62: 0.0, 63: 0.0, 64: 0.0, 65: 0.0, 66: 0.0, 67: 0.70068136, 68: 0.0, 69: 0.687686065, 70: 0.0, 71: 0.0, 72: 0.75771774, 73: 0.778255521, 74: 0.793594625, 75: 0.84054375, 76: 0.0, 77: 0.797010375, 78: 0.0, 79: 0.726880063, 80: 0.691818848, 81: 0.0, 82: 0.0, 83: 0.0, 84: 0.60055205, 85: 0.0, 86: 0.0, 87: 0.0, 88: 0.0, 89: 0.0, 90: 0.381213378, 91: 0.374578812, 92: 0.3713292, 93: 0.0, 94: 0.381296744, 95: 0.0];
total_cost = 40.809555408;
total_earn = 14.660747193;
% _objective = 26.148808215;