production = [0: 0.0, 1: 0.0, 2: 0.0, 3: 0.0, 4: 0.0, 5: 0.0, 6: 0.0, 7: 0.0, 8: 0.0, 9: 0.0, 10: 0.0, 11: 0.0, 12: 0.0, 13: 0.0, 14: 0.0, 15: 0.0, 16: 0.0, 17: 0.0, 18: 0.0, 19: 0.0, 20: 0.0, 21: 0.0, 22: 0.0, 23: 0.0003, 24: 0.0045, 25: 0.0283, 26: 0.0, 27: 0.0, 28: 0.11, 29: 0.145, 30: 0.218, 31: 0.4283, 32: 0.0, 33: 0.7712, 34: 0.881, 35: 0.0, 36: 0.0, 37: 1.184, 38: 0.0, 39: 1.362, 40: 0.0, 41: 0.0, 42: 1.094, 43: 1.1045, 44: 1.1018, 45: 0.0, 46: 0.0, 47: 0.0, 48: 0.0, 49: 0.0, 50: 0.0525, 51: 0.0473, 52: 0.0, 53: 0.0, 54: 0.3438, 55: 0.0, 56: 0.4097375, 57: 1.3277, 58: 1.221, 59: 0.0, 60: 0.0, 61: 0.957, 62: 0.7562, 63: 0.0, 64: 0.5952, 65: 0.4165, 66: 0.3402, 67: 0.1988, 68: 0.0, 69: 0.0, 70: 0.0, 71: 0.0, 72: 0.0, 73: 0.0, 74: 0.0, 75: 0.0, 76: 0.0, 77: 0.0, 78: 0.0, 79: 0.0, 80: 0.0, 81: 0.0, 82: 0.0, 83: 0.0, 84: 0.0, 85: 0.0, 86: 0.0, 87: 0.0, 88: 0.0, 89: 0.0, 90: 0.0, 91: 0.0, 92: 0.0, 93: 0.0, 94: 0.0, 95: 0.0];
buy = [0: 1.4019375, 1: 0.0, 2: 0.0, 3: 1.3124375, 4: 1.3074375, 5: 1.8357375, 6: 0.3349375, 7: 0.662820542, 8: 1.2596375, 9: 1.2699375, 10: 1.2684375, 11: 1.2712375, 12: 0.2717375, 13: 1.2734375, 14: 0.0, 15: 0.4647375, 16: 1.2429375, 17: 1.2412375, 18: 0.0, 19: 0.0, 20: 1.2229375, 21: 0.2234375, 22: 1.2226375, 23: 0.0, 24: 0.0, 25: 0.0, 26: 0.0904375, 27: 0.0864375, 28: 0.9776375, 29: 0.9421375, 30: 0.0, 31: 0.6559375, 32: 0.0, 33: 0.0, 34: 0.0, 35: 1.0862375, 36: 0.08713750000000001, 37: 0.0, 38: 0.0829375, 39: 0.0, 40: 1.0827375, 41: 0.0, 42: 0.0, 43: 0.0, 44: 0.0, 45: 1.0837375, 46: 0.0894375, 47: 0.0, 48: 0.0, 49: 0.0, 50: 1.0302375, 51: 0.0, 52: 0.0, 53: 1.3364375, 54: 1.0459375, 55: 0.3982375, 56: 0.0, 57: 0.0, 58: 0.0, 59: 0.3564375, 60: 1.1326375, 61: 0.0, 62: 0.3779375, 63: 1.1341375, 64: 0.0, 65: 0.0, 66: 0.7880374999999999, 67: 0.0, 68: 1.1316375, 69: 0.1301375, 70: 0.0, 71: 0.0, 72: 1.1201375, 73: 0.1196375, 74: 0.0, 75: 1.0759375, 76: 1.0724375, 77: 1.0749375, 78: 0.0746375, 79: 0.0, 80: 0.0, 81: 0.0914375, 82: 0.0, 83: 0.0937375, 84: 1.0919375, 85: 0.09243750000000001, 86: 0.09243750000000001, 87: 0.0, 88: 1.0924375, 89: 0.0, 90: 0.0, 91: 0.3134375, 92: 0.0, 93: 0.0, 94: 0.2719375, 95: 0.0];
sell = [0: 0.0, 1: 0.0, 2: 0.5445624999999999, 3: 0.0, 4: 0.0, 5: 0.0, 6: 0.0, 7: 0.0, 8: 0.0, 9: 0.0, 10: 0.0, 11: 0.0, 12: 0.0, 13: 0.0, 14: 0.6282624999999999, 15: 0.0, 16: 0.0, 17: 0.0, 18: 0.6680625, 19: 0.6760625, 20: 0.0, 21: 0.0, 22: 0.0, 23: 0.6761625, 24: 0.8212625, 25: 0.8411625, 26: 0.0, 27: 0.0, 28: 0.0, 29: 0.0, 30: 1.0305625, 31: 0.0, 32: 0.8118625, 33: 0.6859625, 34: 0.7940625, 35: 0.0, 36: 0.0, 37: 1.9990625, 38: 0.0, 39: 0.2800625, 40: 0.0, 41: 0.0, 42: 0.0110625, 43: 1.0163625, 44: 1.0198625, 45: 0.0, 46: 0.0, 47: 0.8157624999999999, 48: 0.8095625, 49: 0.8105625, 50: 0.0, 51: 0.8630625, 52: 0.8133625, 53: 0.0, 54: 0.0, 55: 0.0, 56: 0.0, 57: 0.9487625, 58: 1.7380625, 59: 0.0, 60: 0.0, 61: 0.8233625, 62: 0.0, 63: 0.0, 64: 0.0, 65: 0.2877625, 66: 0.0, 67: 0.06886249999999999, 68: 0.0, 69: 0.0, 70: 0.7813625, 71: 0.7808625, 72: 0.0, 73: 0.0, 74: 0.7795625, 75: 0.0, 76: 0.0, 77: 0.0, 78: 0.0, 79: 0.0, 80: 0.0, 81: 0.0, 82: 0.54784615, 83: 0.0, 84: 0.0, 85: 0.0, 86: 0.0, 87: 0.8085625, 88: 0.0, 89: 0.6423624999999999, 90: 0.5848625, 91: 0.0, 92: 0.5860625, 93: 0.6240625, 94: 0.0, 95: 0.6267625];
charge = [0: 1.0, 1: 0.0, 2: 0.0, 3: 1.0, 4: 1.0, 5: 1.0, 6: 0.0, 7: 0.397583042, 8: 1.0, 9: 1.0, 10: 1.0, 11: 1.0, 12: 0.0, 13: 1.0, 14: 0.0, 15: 0.0, 16: 1.0, 17: 1.0, 18: 0.0, 19: 0.0, 20: 1.0, 21: 0.0, 22: 1.0, 23: 0.0, 24: 0.0, 25: 0.0, 26: 0.0, 27: 0.0, 28: 1.0, 29: 1.0, 30: 0.0, 31: 1.0, 32: 0.0, 33: 0.0, 34: 0.0, 35: 1.0, 36: 0.0, 37: 0.0, 38: 0.0, 39: 1.0, 40: 1.0, 41: 0.0, 42: 1.0, 43: 0.0, 44: 0.0, 45: 1.0, 46: 0.0, 47: 0.0, 48: 0.0, 49: 0.0, 50: 1.0, 51: 0.0, 52: 0.0, 53: 1.0, 54: 1.0, 55: 0.0, 56: 0.0, 57: 0.0, 58: 0.0, 59: 0.0, 60: 1.0, 61: 0.0, 62: 1.0, 63: 1.0, 64: 0.4620625, 65: 0.0, 66: 1.0, 67: 0.0, 68: 1.0, 69: 0.0, 70: 0.0, 71: 0.0, 72: 1.0, 73: 0.0, 74: 0.0, 75: 1.0, 76: 1.0, 77: 1.0, 78: 0.0, 79: 0.0, 80: 0.0, 81: 0.0, 82: 0.0, 83: 0.0, 84: 1.0, 85: 0.0, 86: 0.0, 87: 0.0, 88: 1.0, 89: 0.0, 90: 0.0, 91: 0.0, 92: 0.0, 93: 0.0, 94: 0.0, 95: 0.0];
discharge = [0: 0.0, 1: 0.395486111, 2: 1.0, 3: 0.0, 4: 0.0, 5: 0.0, 6: 0.0, 7: 0.0, 8: 0.0, 9: 0.0, 10: 0.0, 11: 0.0, 12: 0.0, 13: 0.0, 14: 1.0, 15: 0.0, 16: 0.0, 17: 0.0, 18: 1.0, 19: 1.0, 20: 0.0, 21: 0.0, 22: 0.0, 23: 1.0, 24: 1.0, 25: 1.0, 26: 0.0, 27: 0.0, 28: 0.0, 29: 0.0, 30: 1.0, 31: 0.0, 32: 1.0, 33: 0.0, 34: 0.0, 35: 0.0, 36: 0.0, 37: 1.0, 38: 0.0, 39: 0.0, 40: 0.0, 41: 0.097152778, 42: 0.0, 43: 0.0, 44: 0.0, 45: 0.0, 46: 0.0, 47: 1.0, 48: 1.0, 49: 1.0, 50: 0.0, 51: 1.0, 52: 1.0, 53: 0.0, 54: 0.0, 55: 0.0, 56: 0.0, 57: 0.0, 58: 1.0, 59: 0.0, 60: 0.0, 61: 0.0, 62: 0.0, 63: 0.0, 64: 0.0, 65: 0.0, 66: 0.0, 67: 0.0, 68: 0.0, 69: 0.0, 70: 1.0, 71: 1.0, 72: 0.0, 73: 0.0, 74: 1.0, 75: 0.0, 76: 0.0, 77: 0.0, 78: 0.0, 79: 0.08326388899999999, 80: 0.082930556, 81: 0.0, 82: 0.712315167, 83: 0.0, 84: 0.0, 85: 0.0, 86: 0.0, 87: 1.0, 88: 0.0, 89: 1.0, 90: 1.0, 91: 0.0, 92: 1.0, 93: 1.0, 94: 0.0, 95: 1.0];
soc = [0: 5.759028, 1: 5.362390083, 2: 4.361317605, 3: 5.260445342, 4: 6.159393253, 5: 7.058161374, 6: 7.056749742, 7: 7.41316313, 8: 8.311680496999999, 9: 9.210018161000001, 10: 10.108176157, 11: 11.006154522, 12: 11.003953291, 13: 11.9017525, 14: 10.89937215, 15: 10.897192276, 16: 11.795012837, 17: 12.692653835, 18: 11.690115304, 19: 10.687777281, 20: 11.585639725, 21: 11.583322597, 22: 12.481005933, 23: 11.478509732, 24: 10.47621403, 25: 9.474118787, 26: 9.472223962999999, 27: 9.470329518, 28: 10.368435452, 29: 11.266361765, 30: 10.264108493, 31: 11.162055671, 32: 10.15982326, 33: 10.157791295, 34: 10.155759737, 35: 11.053728585, 36: 11.05151784, 37: 10.049307536, 38: 10.047297674, 39: 10.945288215, 40: 11.843099157, 41: 11.74357776, 42: 12.641229044, 43: 12.638700798, 44: 12.636173058, 45: 13.533645824, 46: 13.530939094, 47: 12.528232907, 48: 11.52572726, 49: 10.523422115, 50: 11.42131743, 51: 10.419033167, 52: 9.41694936, 53: 10.31506597, 54: 11.213002957, 55: 11.210760356, 56: 11.208518204, 57: 11.206276501, 58: 10.204035245, 59: 10.201994438, 60: 11.099954039, 61: 11.097734049, 62: 11.995514502, 63: 12.893115399, 64: 13.306393026, 65: 13.303731747, 66: 14.201071001, 67: 14.198230787, 68: 15.09539114, 69: 15.092372062, 70: 14.089353588, 71: 13.086535717, 72: 13.98391841, 73: 13.981121626, 74: 12.978325402, 75: 13.875729737, 76: 14.772954591, 77: 15.67, 78: 15.666866, 79: 15.580468738, 80: 15.494422089, 81: 15.491323204, 82: 14.775909773, 83: 14.772954591, 84: 15.67, 85: 15.666866, 86: 15.663732627, 87: 14.66059988, 88: 15.55766776, 89: 14.554556227, 90: 13.551645316, 91: 13.548934986, 92: 12.546225199, 93: 11.543715954, 94: 11.541407211, 95: 10.53909893];
cost = [0: 0.974621784, 1: 0.0, 2: 0.0, 3: 0.919946234, 4: 0.916891734, 5: 1.239630204, 6: 0.204613319, 7: 0.451902704, 8: 0.887690714, 9: 0.893982984, 10: 0.893066634, 11: 0.894777154, 12: 0.166004439, 13: 0.896121134, 14: 0.0, 15: 0.283908139, 16: 0.877488684, 17: 0.876450154, 18: 0.0, 19: 0.0, 20: 0.865270684, 21: 0.136497969, 22: 0.865087414, 23: 0.0, 24: 0.0, 25: 0.0, 26: 0.10758445, 27: 0.10282605, 28: 1.281175735, 29: 1.238944935, 30: 0.0, 31: 0.898481415, 32: 0.0, 33: 0.0, 34: 0.0, 35: 1.410366295, 36: 0.10365877, 37: 0.0, 38: 0.09866245, 39: 0.118178165, 40: 1.406202695, 41: 0.0, 42: 0.118178165, 43: 0.0, 44: 0.0, 45: 1.407392295, 46: 0.10639485, 47: 0.0, 48: 0.0, 49: 0.0, 50: 1.343748695, 51: 0.0, 52: 0.0, 53: 0.934607834, 54: 0.757141384, 55: 0.243283289, 56: 0.0, 57: 0.0, 58: 0.0, 59: 0.217747669, 60: 1.465563735, 61: 0.0, 62: 0.567772615, 63: 1.467348135, 64: 0.054605699, 65: 0.0, 66: 1.055627575, 67: 0.0, 68: 1.464374135, 69: 0.15481157, 70: 0.0, 71: 0.0, 72: 1.450693735, 73: 0.14232077, 74: 0.0, 75: 1.398113415, 76: 1.393949815, 77: 1.396923815, 78: 0.08878877, 79: 0.0, 80: 0.0, 81: 0.10877405, 82: 0.0, 83: 0.11151013, 84: 1.417147015, 85: 0.10996365, 86: 0.10996365, 87: 0.0, 88: 0.785548234, 89: 0.0, 90: 0.0, 91: 0.191478969, 92: 0.0, 93: 0.0, 94: 0.166126619, 95: 0.0];
earn = [0: 0.0, 1: 0.0, 2: 0.290251813, 3: 0.0, 4: 0.0, 5: 0.0, 6: 0.0, 7: 0.0, 8: 0.0, 9: 0.0, 10: 0.0, 11: 0.0, 12: 0.0, 13: 0.0, 14: 0.331534121, 15: 0.0, 16: 0.0, 17: 0.0, 18: 0.356812181, 19: 0.361896256, 20: 0.0, 21: 0.0, 22: 0.0, 23: 0.43112121, 24: 0.585478036, 25: 0.631965386, 26: 0.0, 27: 0.0, 28: 0.0, 29: 0.0, 30: 0.748085319, 31: 0.0, 32: 0.5080635529999999, 33: 0.381875324, 34: 0.400048688, 35: 0.0, 36: 0.0, 37: 0.645497281, 38: 0.0, 39: 0.0349518, 40: 0.0, 41: 0.0, 42: -0.001161562, 43: -0.111088421, 44: -0.026312452, 45: 0.0, 46: 0.0, 47: -0.040869701, 48: -0.037158919, 49: -0.04344615, 50: 0.0, 51: -0.015276206, 52: -0.018137984, 53: 0.0, 54: 0.0, 55: 0.0, 56: 0.0, 57: 0.013851933, 58: 0.035108863, 59: 0.0, 60: 0.0, 61: 0.324898843, 62: 0.0, 63: 0.0, 64: 0.0, 65: 0.170384176, 66: 0.0, 67: 0.04980136, 68: 0.0, 69: 0.0, 70: 0.677285015, 71: 0.725343176, 72: 0.0, 73: 0.0, 74: 0.793594625, 75: 0.0, 76: 0.0, 77: 0.0, 78: 0.0, 79: 0.0, 80: 0.0, 81: 0.0, 82: 0.432250612, 83: 0.0, 84: 0.0, 85: 0.0, 86: 0.0, 87: 0.5456988310000001, 88: 0.0, 89: 0.43012593, 90: 0.381213378, 91: 0.0, 92: 0.3713292, 93: 0.381239781, 94: 0.0, 95: 0.369789875];
total_cost = 40.239933331;
total_earn = 11.116045169;
% _objective = 29.123888162;