t_strength = 
[|    UNSKILLED: SEMI_SKILLED: SKILLED: 
 | 0:       180,          120,      80
 | 1:       132,          135,     105
 | 2:       100,          155,     120
 | 3:        72,          165,     145
 | 4:        20,          187,     199
 |];
u_recruit = 
[| UNSKILLED: SEMI_SKILLED: SKILLED: 
 |        40,            8,      60
 |        14,           40,       0
 |        40,           40,       6
 |        40,           60,      60
 |];
v_US_SS = [2, 25, 25, 0];
v_SS_SK = [0, 20, 43, 10];
v_SK_SS = [27, 0, 16, 0];
v_SK_US = [0, 0, 0, 5];
v_SS_US = [0, 5, 0, 3];
w_redundancy = 
[| UNSKILLED: SEMI_SKILLED: SKILLED: 
 |        47,            0,       0
 |         0,            0,       0
 |        16,            0,       1
 |        74,            1,       0
 |];
x_short = 
[| UNSKILLED: SEMI_SKILLED: SKILLED: 
 |         0,           10,      10
 |         0,           10,       0
 |         0,            0,       8
 |         0,            0,       8
 |];
y_overmanning = 
[| UNSKILLED: SEMI_SKILLED: SKILLED: 
 |        12,            0,       0
 |         0,            0,       0
 |         2,            5,       1
 |         0,            7,       5
 |];
% _objective = 139.0;
