t_strength = 
[|    UNSKILLED: SEMI_SKILLED: SKILLED: 
 | 0:      2500,         1800,    1200
 | 1:      2000,         1750,    1168
 | 2:      1500,         1440,    1234
 | 3:      1000,         1237,     850
 |];
u_recruit = 
[| UNSKILLED: SEMI_SKILLED: SKILLED: 
 |         0,          400,     300
 |         0,          400,     300
 |         0,          400,       0
 |];
v_US_SS = [0, 0, 0];
v_SS_SK = [0, 32, 66];
v_SK_SS = [0, 195, 341];
v_SK_US = [0, 0, 64];
v_SS_US = [0, 20, 526];
w_redundancy = 
[| UNSKILLED: SEMI_SKILLED: SKILLED: 
 |       300,          282,     266
 |       348,          571,       5
 |       616,            1,       6
 |];
x_short = 
[| UNSKILLED: SEMI_SKILLED: SKILLED: 
 |         0,            0,      74
 |         0,           74,      74
 |         0,           74,       0
 |];
y_overmanning = 
[| UNSKILLED: SEMI_SKILLED: SKILLED: 
 |         0,          150,      31
 |         0,            3,     197
 |         0,            0,       0
 |];
% _objective = 2395.0;
