production = [0: 0.0, 1: 0.0, 2: 0.0, 3: 0.0, 4: 0.0, 5: 0.0, 6: 0.0, 7: 0.0, 8: 0.0, 9: 0.0, 10: 0.0, 11: 0.0, 12: 0.0, 13: 0.0, 14: 0.0, 15: 0.0, 16: 0.0, 17: 0.0, 18: 0.0, 19: 0.0, 20: 0.0, 21: 0.0, 22: 0.000104, 23: 0.0, 24: 0.0, 25: 0.000849, 26: 0.013944, 27: 0.038004, 28: 0.013721, 29: 0.011384, 30: 0.074332, 31: 0.092679, 32: 0.426112, 33: 0.316165, 34: 0.297544, 35: 0.364394, 36: 0.7754799999999999, 37: 0.208327, 38: 0.975337, 39: 0.6060759999999999, 40: 0.402537, 41: 0.07270799999999999, 42: 1.402656, 43: 1.171733, 44: 0.799675, 45: 0.407122, 46: 0.828614, 47: 0.878426, 48: 0.554685, 49: 0.543324, 50: 1.160819, 51: 0.158665, 52: 0.029609, 53: 0.342106, 54: 0.197236, 55: 0.011498, 56: 0.131871, 57: 0.092427, 58: 0.088917, 59: 0.667673, 60: 0.263598, 61: 0.695819, 62: 0.025132, 63: 0.092669, 64: 0.274133, 65: 0.162323, 66: 0.169919, 67: 0.166059, 68: 0.035602, 69: 0.063571, 70: 0.050757, 71: 0.186368, 72: 0.08139299999999999, 73: 0.027354, 74: 0.018262, 75: 0.010935, 76: 0.003182, 77: 0.000594, 78: 0.0, 79: 0.0, 80: 0.0, 81: 0.0, 82: 0.0, 83: 0.0, 84: 0.0, 85: 0.0, 86: 0.0, 87: 0.0, 88: 0.0, 89: 0.0, 90: 0.0, 91: 0.0, 92: 0.0, 93: 0.0, 94: 0.0, 95: 0.0];
buy = [0: 804.1244819999999, 1: 176.392992, 2: 900.539352, 3: 554.947014, 4: 437.080129, 5: 772.471841, 6: 594.5359120000001, 7: 951.125496, 8: 901.415061, 9: 554.054972, 10: 94.588909, 11: 14.693255, 12: 634.207264, 13: 455.730806, 14: 594.2171049999999, 15: 726.723079, 16: 381.746401, 17: 325.458722, 18: 192.815003, 19: 267.6368, 20: 144.802886, 21: 468.844401, 22: 569.941968, 23: 869.483279, 24: 219.537066, 25: 59.648451, 26: 933.799748, 27: 725.8079300000001, 28: 921.047963, 29: 890.141163, 30: 739.527931, 31: 898.680682, 32: 699.256974, 33: 448.248446, 34: 789.191931, 35: 118.155223, 36: 183.92425, 37: 205.130552, 38: 123.173268, 39: 964.804321, 40: 143.145847, 41: 177.688615, 42: 652.01031, 43: 39.176467, 44: 934.195347, 45: 347.150832, 46: 637.339872, 47: 964.1329490000001, 48: 577.180337, 49: 307.170705, 50: 389.775022, 51: 872.2412, 52: 242.949675, 53: 616.473136, 54: 568.219306, 55: 835.736148, 56: 902.681792, 57: 43.804031, 58: 463.603742, 59: 997.580008, 60: 167.413467, 61: 688.999295, 62: 946.9787690000001, 63: 415.890864, 64: 593.207406, 65: 254.616337, 66: 676.827937, 67: 443.293009, 68: 311.336744, 69: 923.494075, 70: 608.802629, 71: 393.587729, 72: 426.153741, 73: 345.009587, 74: 73.535895, 75: 35.154909, 76: 494.201996, 77: 345.625037, 78: 274.003036, 79: 672.301748, 80: 674.344452, 81: 74.171684, 82: 359.732775, 83: 836.741401, 84: 238.858469, 85: 115.629332, 86: 408.097632, 87: 807.776422, 88: 98.21888199999999, 89: 402.953721, 90: 803.512612, 91: 579.040867, 92: 429.51673, 93: 714.702221, 94: 843.908531, 95: 181.111683];
sell = [0: 2.158364, 1: 3.768893, 2: 1.036322, 3: 1.606166, 4: 3.285713, 5: 1.146458, 6: 0.769559, 7: 0.9267030000000001, 8: 2.093965, 9: 2.991688, 10: 1.870615, 11: 0.615186, 12: 0.259971, 13: 0.806459, 14: 3.880366, 15: 0.170026, 16: 2.023408, 17: 2.062074, 18: 0.7650439999999999, 19: 3.217233, 20: 0.366665, 21: 3.289425, 22: 2.609375, 23: 3.920596, 24: 2.038006, 25: 1.286847, 26: 2.923941, 27: 0.22361, 28: 3.386281, 29: 3.066858, 30: 3.045876, 31: 2.25334, 32: 1.638861, 33: 0.2079, 34: 1.14997, 35: 0.09308900000000001, 36: 3.982199, 37: 1.64958, 38: 0.76793, 39: 2.559731, 40: 2.954624, 41: 2.390215, 42: 0.35226, 43: 2.300016, 44: 2.153661, 45: 2.022179, 46: 3.411328, 47: 2.265403, 48: 0.513423, 49: 3.821984, 50: 2.426862, 51: 0.062469, 52: 1.702963, 53: 3.052182, 54: 1.411871, 55: 2.72265, 56: 1.929615, 57: 3.659254, 58: 0.153048, 59: 3.413241, 60: 2.695609, 61: 2.307416, 62: 2.472557, 63: 1.628246, 64: 1.052097, 65: 2.17828, 66: 3.610805, 67: 2.210281, 68: 0.744039, 69: 2.562031, 70: 3.602094, 71: 1.680584, 72: 0.269909, 73: 3.370417, 74: 3.051138, 75: 3.429706, 76: 2.509944, 77: 3.311749, 78: 0.200928, 79: 0.343855, 80: 3.507211, 81: 0.427874, 82: 1.848047, 83: 2.565985, 84: 1.753218, 85: 0.746367, 86: 1.958704, 87: 0.774988, 88: 0.324118, 89: 0.648759, 90: 0.655838, 91: 1.947916, 92: 0.7979270000000001, 93: 3.22106, 94: 1.667086, 95: 1.185213];
charge = [0: 0.958422, 1: 0.309094, 2: 0.253957, 3: 0.319729, 4: 0.346835, 5: 0.351715, 6: 0.062328, 7: 0.033614, 8: 0.07684299999999999, 9: 0.227378, 10: 0.521098, 11: 0.776847, 12: 0.740974, 13: 0.17946, 14: 0.810702, 15: 0.224299, 16: 0.505522, 17: 0.635562, 18: 0.775695, 19: 0.242924, 20: 0.04854, 21: 0.489397, 22: 0.207916, 23: 0.507979, 24: 0.369218, 25: 0.193125, 26: 0.112875, 27: 0.950528, 28: 0.497044, 29: 0.41881, 30: 0.031113, 31: 0.489533, 32: 0.380276, 33: 0.297071, 34: 0.701159, 35: 0.6643829999999999, 36: 0.14131, 37: 0.835219, 38: 0.884836, 39: 0.246944, 40: 0.403596, 41: 0.996482, 42: 0.784842, 43: 0.665732, 44: 0.76394, 45: 0.6726259999999999, 46: 0.6915289999999999, 47: 0.6413, 48: 0.875433, 49: 0.394761, 50: 0.093093, 51: 0.066125, 52: 0.123483, 53: 0.325672, 54: 0.651533, 55: 0.624094, 56: 0.269288, 57: 0.658178, 58: 0.660429, 59: 0.829436, 60: 0.611973, 61: 0.339882, 62: 0.175648, 63: 0.243684, 64: 0.2495, 65: 0.356696, 66: 0.62414, 67: 0.776694, 68: 0.496963, 69: 0.007932, 70: 0.58263, 71: 0.8034750000000001, 72: 0.588641, 73: 0.390263, 74: 0.371109, 75: 0.834145, 76: 0.389938, 77: 0.018647, 78: 0.404137, 79: 0.627839, 80: 0.656805, 81: 0.7960390000000001, 82: 0.417629, 83: 0.761525, 84: 0.621045, 85: 0.17389, 86: 0.486069, 87: 0.27118, 88: 0.004583, 89: 0.666546, 90: 0.34973, 91: 0.976058, 92: 0.867138, 93: 0.867347, 94: 0.820721, 95: 0.962989];
discharge = [0: 0.709529, 1: 0.484081, 2: 0.827676, 3: 0.558711, 4: 0.337127, 5: 0.186521, 6: 0.777721, 7: 0.838225, 8: 0.141143, 9: 0.006855, 10: 0.148059, 11: 0.523008, 12: 0.418935, 13: 0.629983, 14: 0.310265, 15: 0.018855, 16: 0.990887, 17: 0.700979, 18: 0.298803, 19: 0.428758, 20: 0.923965, 21: 0.074299, 22: 0.288175, 23: 0.8538249999999999, 24: 0.693042, 25: 0.832944, 26: 0.50273, 27: 0.8983950000000001, 28: 0.233821, 29: 0.757251, 30: 0.167433, 31: 0.128039, 32: 0.932666, 33: 0.567381, 34: 0.884622, 35: 0.487195, 36: 0.231317, 37: 0.035843, 38: 0.106066, 39: 0.7632060000000001, 40: 0.463056, 41: 0.627453, 42: 0.05511, 43: 0.434944, 44: 0.689122, 45: 0.693526, 46: 0.194116, 47: 0.187861, 48: 0.152503, 49: 0.06929200000000001, 50: 0.752974, 51: 0.683772, 52: 0.270622, 53: 0.010302, 54: 0.281781, 55: 0.284401, 56: 0.633648, 57: 0.058679, 58: 0.621383, 59: 0.405754, 60: 0.831819, 61: 0.836099, 62: 0.653372, 63: 0.581633, 64: 0.236695, 65: 0.458966, 66: 0.810741, 67: 0.14517, 68: 0.933495, 69: 0.637864, 70: 0.142945, 71: 0.181249, 72: 0.265593, 73: 0.919415, 74: 0.839226, 75: 0.414407, 76: 0.213878, 77: 0.735619, 78: 0.52367, 79: 0.62221, 80: 0.908473, 81: 0.495536, 82: 0.308146, 83: 0.879786, 84: 0.031031, 85: 0.964225, 86: 0.70564, 87: 0.311013, 88: 0.26038, 89: 0.844183, 90: 0.468848, 91: 0.439479, 92: 0.483049, 93: 0.53141, 94: 0.277877, 95: 0.449047];
soc = [0: 11.006227, 1: 11.515121, 2: 12.81433, 3: 11.098859, 4: 9.781345999999999, 5: 10.289081, 6: 8.41132, 7: 4.406366, 8: 3.620471, 9: 5.163864, 10: 8.914078, 11: 6.668701, 12: 4.649263, 13: 6.937859, 14: 6.545852, 15: 6.509077, 16: 4.57458, 17: 11.96619, 18: 12.823154, 19: 14.315166, 20: 13.248167, 21: 5.605208, 22: 12.512153, 23: 3.390211, 24: 10.144511, 25: 7.075802, 26: 5.635247, 27: 13.171016, 28: 2.740052, 29: 7.420011, 30: 14.036823, 31: 15.067692, 32: 5.036976, 33: 13.151649, 34: 10.396779, 35: 6.588467, 36: 7.381247, 37: 4.074182, 38: 15.583451, 39: 13.650495, 40: 3.871779, 41: 6.661071, 42: 14.735488, 43: 3.089353, 44: 10.865456, 45: 12.863739, 46: 12.231984, 47: 3.340496, 48: 6.779946, 49: 6.153895, 50: 11.03808, 51: 8.276384999999999, 52: 11.47069, 53: 14.773449, 54: 5.553079, 55: 12.114054, 56: 2.936811, 57: 8.208565, 58: 12.964695, 59: 11.793226, 60: 15.434605, 61: 14.890075, 62: 15.276586, 63: 12.254601, 64: 12.977472, 65: 12.592926, 66: 5.867326, 67: 4.428534, 68: 14.426502, 69: 11.25806, 70: 11.391323, 71: 8.742682, 72: 7.712635, 73: 12.85214, 74: 14.110125, 75: 6.816689, 76: 9.287553000000001, 77: 6.49929, 78: 3.742019, 79: 6.743868, 80: 11.825152, 81: 4.022526, 82: 13.139776, 83: 11.918504, 84: 5.061488, 85: 6.162895, 86: 14.000167, 87: 7.050184, 88: 12.449797, 89: 11.766762, 90: 10.70431, 91: 7.162964, 92: 2.985962, 93: 15.281597, 94: 5.281286, 95: 13.874073];
cost = [0: 325.272876, 1: 148.88666, 2: 299.931859, 3: 67.079956, 4: 548.55657, 5: 334.439956, 6: 70.113784, 7: 52.801665, 8: 99.086799, 9: 393.103639, 10: 334.123053, 11: 46.675046, 12: 601.3300379999999, 13: 45.498611, 14: 313.311846, 15: 525.836132, 16: 277.350369, 17: 557.566502, 18: 294.595616, 19: 8.639485000000001, 20: 301.769972, 21: 16.216119, 22: 354.191802, 23: 354.813382, 24: 1016.779787, 25: 322.690424, 26: 42.331593, 27: 1096.477069, 28: 901.1626, 29: 866.688924, 30: 981.937428, 31: 41.821417, 32: 602.095187, 33: 777.715547, 34: 37.15357, 35: 1135.609413, 36: 312.397459, 37: 380.807386, 38: 428.115073, 39: 1082.090817, 40: 393.418496, 41: 1005.618157, 42: 62.380898, 43: 712.825093, 44: 705.1636559999999, 45: 881.661802, 46: 37.423055, 47: 1039.584064, 48: 670.931053, 49: 283.211113, 50: 235.919146, 51: 864.759264, 52: 277.600426, 53: 567.121561, 54: 572.562174, 55: 16.40276, 56: 446.496413, 57: 54.789074, 58: 133.766303, 59: 92.710061, 60: 176.354288, 61: 559.745697, 62: 639.661918, 63: 1171.428266, 64: 737.776371, 65: 927.967713, 66: 131.016614, 67: 250.41555, 68: 994.601553, 69: 1015.14601, 70: 1015.213379, 71: 31.707254, 72: 473.848595, 73: 1043.730406, 74: 950.494296, 75: 598.69789, 76: 518.429169, 77: 216.260942, 78: 525.266178, 79: 772.742887, 80: 372.349282, 81: 668.656264, 82: 138.949434, 83: 127.027425, 84: 642.049115, 85: 349.313348, 86: 360.474468, 87: 142.88227, 88: 247.030504, 89: 247.391305, 90: 608.3562920000001, 91: 532.017536, 92: 481.136609, 93: 120.107136, 94: 473.755281, 95: 208.707227];
earn = [0: 1.59153, 1: 1.262981, 2: 0.209966, 3: 0.885425, 4: 1.247846, 5: 0.412825, 6: 0.299977, 7: 0.673237, 8: 1.350667, 9: 0.987529, 10: 0.948797, 11: 1.042262, 12: 0.420738, 13: 0.261672, 14: 0.351972, 15: 0.27782, 16: 1.168543, 17: 0.136778, 18: 0.848978, 19: 0.834037, 20: 0.288523, 21: 0.359469, 22: 0.5205070000000001, 23: 0.32867, 24: 0.01279, 25: 0.0024, 26: 0.085618, 27: 0.011736, 28: 0.007174, 29: -0.001895, 30: -0.009322, 31: -0.031219, 32: -0.001942, 33: -0.032965, 34: -0.06433700000000001, 35: -0.016156, 36: -0.26809, 37: -0.033288, 38: -0.333642, 39: -0.23771, 40: -0.787272, 41: -0.310556, 42: -0.951337, 43: -1.771943, 44: -0.801675, 45: -1.743643, 46: -2.311545, 47: -1.255967, 48: -2.706278, 49: -3.388749, 50: -0.832377, 51: -1.723555, 52: -0.295667, 53: -2.970165, 54: -2.432437, 55: -1.0849, 56: -0.381442, 57: -0.099676, 58: -2.186038, 59: -1.375064, 60: -0.122206, 61: -1.727611, 62: -0.603374, 63: -0.097209, 64: -0.5810070000000001, 65: -0.102506, 66: -0.33088, 67: -0.189325, 68: -0.116933, 69: -0.039239, 70: -0.016382, 71: -0.078572, 72: 0.042301, 73: 0.091904, 74: 0.021494, 75: 0.095167, 76: 0.297573, 77: 0.933446, 78: 1.415847, 79: 1.052161, 80: 1.60971, 81: 0.910922, 82: 1.254309, 83: 0.645969, 84: 1.378215, 85: 0.262201, 86: 0.084285, 87: 0.210163, 88: 1.137766, 89: 1.044309, 90: 1.179293, 91: 1.201432, 92: 0.978971, 93: 1.408308, 94: 0.928347, 95: 0.300915];
total_cost = 54.55452433616059;
total_earn = 0.7973683622702611;
