production = [0: 0.0, 1: 0.0, 2: 0.0, 3: 0.0, 4: 0.0, 5: 0.0, 6: 0.0, 7: 0.0, 8: 0.0, 9: 0.0, 10: 0.0, 11: 0.0, 12: 0.0, 13: 0.0, 14: 0.0, 15: 0.0, 16: 0.0, 17: 0.0, 18: 0.0, 19: 0.0, 20: 0.0, 21: 0.0, 22: 0.0, 23: 0.0003, 24: 0.0, 25: 0.0, 26: 0.0432, 27: 0.0, 28: 0.0, 29: 0.1938, 30: 0.0, 31: 0.2167, 32: 0.0, 33: 0.0, 34: 0.3673, 35: 0.0, 36: 0.4495, 37: 0.0, 38: 1.4868, 39: 0.0, 40: 1.5822, 41: 0.0, 42: 0.0, 43: 0.729, 44: 1.0395, 45: 0.0, 46: 2.0035, 47: 1.813, 48: 2.108, 49: 0.0, 50: 0.5305, 51: 0.0, 52: 0.0, 53: 0.5545, 54: 0.0, 55: 1.6955, 56: 0.0, 57: 0.0, 58: 0.0, 59: 0.0, 60: 0.0, 61: 0.2812, 62: 0.2893, 63: 0.9045, 64: 0.275, 65: 0.4507, 66: 0.0, 67: 0.099, 68: 0.0, 69: 0.0828, 70: 0.0, 71: 0.0, 72: 0.0, 73: 0.0003, 74: 0.0, 75: 0.0, 76: 0.0, 77: 0.0, 78: 0.0, 79: 0.0, 80: 0.0, 81: 0.0, 82: 0.0, 83: 0.0, 84: 0.0, 85: 0.0, 86: 0.0, 87: 0.0, 88: 0.0, 89: 0.0, 90: 0.0, 91: 0.0, 92: 0.0, 93: 0.0, 94: 0.0, 95: 0.0, 96: 0.0, 97: 0.0, 98: 0.0, 99: 0.0, 100: 0.0, 101: 0.0, 102: 0.0, 103: 0.0, 104: 0.0, 105: 0.0, 106: 0.0, 107: 0.0, 108: 0.0, 109: 0.0, 110: 0.0, 111: 0.0, 112: 0.0, 113: 0.0, 114: 0.0, 115: 0.0, 116: 0.0, 117: 0.0005, 118: 0.0, 119: 0.0, 120: 0.0143, 121: 0.0, 122: 0.0683, 123: 0.0, 124: 0.0, 125: 0.1725, 126: 0.277, 127: 0.0, 128: 0.0, 129: 0.8425, 130: 0.09840625, 131: 1.022, 132: 1.093, 133: 0.0, 134: 0.0, 135: 0.0, 136: 0.0, 137: 1.0973, 138: 1.0973, 139: 1.1022, 140: 1.1155, 141: 0.0, 142: 0.0, 143: 0.0655, 144: 0.0, 145: 0.0, 146: 0.0, 147: 0.0, 148: 0.0, 149: 0.0, 150: 0.5122, 151: 0.721, 152: 0.3825, 153: 0.0, 154: 0.2968, 155: 0.0, 156: 0.304, 157: 0.0, 158: 0.0, 159: 0.5433, 160: 0.6747, 161: 0.255, 162: 0.0, 163: 0.1273, 164: 0.161, 165: 0.0, 166: 0.0, 167: 0.0333, 168: 0.0083, 169: 0.0, 170: 0.0003, 171: 0.0, 172: 0.0, 173: 0.0, 174: 0.0, 175: 0.0, 176: 0.0, 177: 0.0, 178: 0.0, 179: 0.0, 180: 0.0, 181: 0.0, 182: 0.0, 183: 0.0, 184: 0.0, 185: 0.0, 186: 0.0, 187: 0.0, 188: 0.0, 189: 0.0, 190: 0.0, 191: 0.0];
buy = [0: 1.25610625, 1: 1.25810625, 2: 1.21990625, 3: 1.21120625, 4: 0.21090625, 5: 1.21670625, 6: 1.21520625, 7: 0.0, 8: 0.0, 9: 1.21990625, 10: 1.22490625, 11: 0.21820625, 12: 0.0, 13: 0.22460625, 14: 1.22140625, 15: 1.21940625, 16: 0.0, 17: 1.53640625, 18: 1.56420625, 19: 0.0, 20: 0.0, 21: 1.16220625, 22: 0.36990625, 23: 0.0, 24: 1.18620625, 25: 0.0, 26: 1.22750625, 27: 1.22710625, 28: 0.0, 29: 1.02880625, 30: 0.22560625, 31: 0.99000625, 32: 0.0, 33: 0.0, 34: 0.0, 35: 0.0, 36: 0.0, 37: 0.0, 38: 0.0, 39: 0.0, 40: 0.0, 41: 1.08920625, 42: 0.0, 43: 0.35940625, 44: 0.0, 45: 0.0, 46: 0.0, 47: 0.0, 48: 0.0, 49: 1.10860625, 50: 0.0, 51: 0.0, 52: 1.12620625, 53: 1.22370625, 54: 1.85990625, 55: 0.18090625, 56: 0.43740625, 57: 1.44310625, 58: 1.44390625, 59: 1.40940625, 60: 0.0, 61: 0.83770625, 62: 0.0, 63: 0.0, 64: 0.0, 65: 0.6607062500000001, 66: 0.0, 67: 1.03540625, 68: 0.0, 69: 0.0, 70: 0.0, 71: 0.0, 72: 0.33220625, 73: 0.0, 74: 0.0, 75: 0.09910625000000001, 76: 0.0, 77: 0.0, 78: 1.07840625, 79: 0.08570625, 80: 0.0, 81: 1.10320625, 82: 1.09570625, 83: 1.09440625, 84: 1.10470625, 85: 0.10470625, 86: 0.0, 87: 0.0, 88: 1.11140625, 89: 1.28340625, 90: 1.34040625, 91: 1.33470625, 92: 0.482636761, 93: 0.34770625, 94: 0.34870625, 95: 1.31240625, 96: 0.0, 97: 1.29810625, 98: 0.0, 99: 0.0, 100: 0.0, 101: 0.25510625, 102: 0.26190625, 103: 0.0, 104: 0.0, 105: 0.22290625, 106: 1.22160625, 107: 0.0, 108: 0.0, 109: 1.22210625, 110: 1.22190625, 111: 0.22640625, 112: 1.23490625, 113: 0.89190625, 114: 0.0, 115: 1.27490625, 116: 0.0, 117: 1.31260625, 118: 0.30460625, 119: 1.29890625, 120: 0.0, 121: 1.22460625, 122: 0.15530625, 123: 1.09140625, 124: 0.09260625, 125: 0.92760625, 126: 0.0, 127: 1.09590625, 128: 0.09090624999999999, 129: 0.0, 130: 0.0, 131: 0.07710625, 132: 0.0, 133: 0.08840625000000001, 134: 0.08920625, 135: 0.0, 136: 1.09740625, 137: 0.0, 138: 0.0, 139: 0.0, 140: 0.0, 141: 1.08690625, 142: 0.0, 143: 1.02290625, 144: 1.09720625, 145: 1.09490625, 146: 1.08640625, 147: 0.0, 148: 0.10320625, 149: 0.59590625, 150: 0.0, 151: 1.11640625, 152: 0.057954061, 153: 0.38260625, 154: 0.0, 155: 0.0, 156: 0.0, 157: 1.08820625, 158: 1.09440625, 159: 0.55310625, 160: 0.41540625, 161: 0.0, 162: 1.09570625, 163: 0.0, 164: 0.0, 165: 0.08920625, 166: 0.09290625, 167: 1.05240625, 168: 0.07630625000000001, 169: 1.07820625, 170: 1.07790625, 171: 0.08820625, 172: 1.08690625, 173: 0.0, 174: 0.0, 175: 1.07740625, 176: 0.08640625, 177: 1.08540625, 178: 0.09440625, 179: 1.09720625, 180: 1.09690625, 181: 1.10470625, 182: 0.0, 183: 0.0, 184: 1.11370625, 185: 0.0, 186: 1.12190625, 187: 0.12060625, 188: 1.11340625, 189: 0.0, 190: 1.12190625, 191: 1.12140625];
sell = [0: 0.0, 1: 0.0, 2: 0.0, 3: 0.0, 4: 0.0, 5: 0.0, 6: 0.0, 7: 0.67989375, 8: 0.68039375, 9: 0.0, 10: 0.0, 11: 0.0, 12: 0.68259375, 13: 0.0, 14: 0.0, 15: 0.0, 16: 0.39809375, 17: 0.0, 18: 0.0, 19: 0.80189375, 20: 0.80189375, 21: 0.0, 22: 0.0, 23: 0.5338937499999999, 24: 0.0, 25: 0.62959375, 26: 0.0, 27: 0.0, 28: 0.67589375, 29: 0.0, 30: 0.0, 31: 0.0, 32: 0.67989375, 33: 0.0, 34: 1.04989375, 35: 0.6880937499999999, 36: 1.13979375, 37: 0.80989375, 38: 0.39809375, 39: 0.8090937499999999, 40: 0.49259375, 41: 0.0, 42: 0.81259375, 43: 0.0, 44: 0.91739375, 45: 0.79879375, 46: 0.90109375, 47: 0.70379375, 48: 2.90289375, 49: 0.0, 50: 0.0, 51: 0.79079375, 52: 0.0, 53: 0.0, 54: 0.0, 55: 0.0, 56: 0.0, 57: 0.0, 58: 0.0, 59: 0.0, 60: 0.78509375, 61: 0.0, 62: 1.07309375, 63: 0.78159375, 64: 1.06229375, 65: 0.0, 66: 0.77159375, 67: 0.0, 68: 0.7778937500000001, 69: 0.85939375, 70: 0.344250754, 71: 0.78509375, 72: 0.0, 73: 0.80919375, 74: 0.79989375, 75: 0.0, 76: 0.81429375, 77: 0.82339375, 78: 0.0, 79: 0.0, 80: 0.79629375, 81: 0.0, 82: 0.0, 83: 0.0, 84: 0.0, 85: 0.0, 86: 0.75959375, 87: 0.80379375, 88: 0.0, 89: 0.0, 90: 0.0, 91: 0.0, 92: 0.0, 93: 0.0, 94: 0.0, 95: 0.0, 96: 0.60239375, 97: 0.0, 98: 0.6215937499999999, 99: 0.63909375, 100: 0.64859375, 101: 0.0, 102: 0.0, 103: 0.67259375, 104: 0.67259375, 105: 0.0, 106: 0.0, 107: 0.67159375, 108: 0.66939375, 109: 0.0, 110: 0.0, 111: 0.0, 112: 0.0, 113: 0.0, 114: 0.68089375, 115: 0.0, 116: 0.58339375, 117: 0.0, 118: 0.0, 119: 0.0, 120: 0.69539375, 121: 0.0, 122: 0.0, 123: 0.0, 124: 0.0, 125: 0.0, 126: 1.07529375, 127: 0.0, 128: 0.0, 129: 1.65189375, 130: 0.0, 131: 0.0, 132: 0.99709375, 133: 0.0, 134: 0.0, 135: 0.80429375, 136: 0.0, 137: 1.90539375, 138: 0.00789375, 139: 0.00699375, 140: 1.91979375, 141: 0.0, 142: 0.81329375, 143: 0.0, 144: 0.0, 145: 0.0, 146: 0.0, 147: 0.8100937499999999, 148: 0.0, 149: 0.0, 150: 0.86159375, 151: 0.0, 152: 0.0, 153: 0.0, 154: 0.8463937499999999, 155: 0.58189375, 156: 1.11759375, 157: 0.0, 158: 0.0, 159: 0.0, 160: 0.0, 161: 1.06829375, 162: 0.0, 163: 0.02969375, 164: 0.97329375, 165: 0.0, 166: 0.0, 167: 0.0, 168: 0.0, 169: 0.0, 170: 0.0, 171: 0.0, 172: 0.0, 173: 0.81489375, 174: 0.82289375, 175: 0.0, 176: 0.0, 177: 0.0, 178: 0.0, 179: 0.0, 180: 0.0, 181: 0.0, 182: 0.79729375, 183: 0.8040937500000001, 184: 0.0, 185: 0.77859375, 186: 0.0, 187: 0.0, 188: 0.0, 189: 0.78629375, 190: 0.0, 191: 0.0];
charge = [0: 1.0, 1: 1.0, 2: 1.0, 3: 1.0, 4: 0.0, 5: 1.0, 6: 1.0, 7: 0.0, 8: 0.0, 9: 1.0, 10: 1.0, 11: 0.0, 12: 0.0, 13: 0.0, 14: 1.0, 15: 1.0, 16: 0.0, 17: 1.0, 18: 1.0, 19: 0.0, 20: 0.0, 21: 1.0, 22: 0.0, 23: 0.0, 24: 0.0, 25: 0.0, 26: 1.0, 27: 1.0, 28: 0.0, 29: 1.0, 30: 0.0, 31: 1.0, 32: 0.0, 33: 0.0, 34: 0.0, 35: 0.0, 36: 0.0, 37: 0.0, 38: 1.0, 39: 0.0, 40: 1.0, 41: 1.0, 42: 0.0, 43: 1.0, 44: 0.0, 45: 0.0, 46: 1.0, 47: 1.0, 48: 0.0, 49: 1.0, 50: 0.42409375, 51: 0.0, 52: 1.0, 53: 1.0, 54: 1.0, 55: 1.0, 56: 0.0, 57: 1.0, 58: 1.0, 59: 1.0, 60: 0.0, 61: 1.0, 62: 0.0, 63: 0.0, 64: 0.0, 65: 1.0, 66: 0.0, 67: 1.0, 68: 0.0, 69: 0.0, 70: 0.0, 71: 0.0, 72: 0.0, 73: 0.0, 74: 0.0, 75: 0.0, 76: 0.0, 77: 0.0, 78: 1.0, 79: 0.0, 80: 0.0, 81: 1.0, 82: 1.0, 83: 1.0, 84: 1.0, 85: 0.0, 86: 0.0, 87: 0.0, 88: 1.0, 89: 1.0, 90: 1.0, 91: 1.0, 92: 0.147930511, 93: 0.0, 94: 0.0, 95: 1.0, 96: 0.0, 97: 1.0, 98: 0.0, 99: 0.0, 100: 0.0, 101: 0.0, 102: 0.0, 103: 0.0, 104: 0.0, 105: 0.0, 106: 1.0, 107: 0.0, 108: 0.0, 109: 1.0, 110: 1.0, 111: 0.0, 112: 1.0, 113: 0.0, 114: 0.0, 115: 1.0, 116: 0.0, 117: 1.0, 118: 0.0, 119: 1.0, 120: 0.0, 121: 1.0, 122: 0.0, 123: 1.0, 124: 0.0, 125: 1.0, 126: 0.0, 127: 1.0, 128: 0.0, 129: 0.0, 130: 0.0, 131: 1.0, 132: 0.0, 133: 0.0, 134: 0.0, 135: 0.0, 136: 1.0, 137: 0.0, 138: 1.0, 139: 1.0, 140: 0.0, 141: 1.0, 142: 0.0, 143: 1.0, 144: 1.0, 145: 1.0, 146: 1.0, 147: 0.0, 148: 0.0, 149: 0.0, 150: 0.0, 151: 1.0, 152: 0.07654781099999999, 153: 0.0, 154: 0.0, 155: 0.0, 156: 0.0, 157: 1.0, 158: 1.0, 159: 1.0, 160: 1.0, 161: 0.0, 162: 1.0, 163: 0.0, 164: 0.0, 165: 0.0, 166: 0.0, 167: 1.0, 168: 0.0, 169: 1.0, 170: 1.0, 171: 0.0, 172: 1.0, 173: 0.0, 174: 0.0, 175: 1.0, 176: 0.0, 177: 1.0, 178: 0.0, 179: 1.0, 180: 1.0, 181: 1.0, 182: 0.0, 183: 0.0, 184: 1.0, 185: 0.0, 186: 1.0, 187: 0.0, 188: 1.0, 189: 0.0, 190: 1.0, 191: 1.0];
discharge = [0: 0.0, 1: 0.0, 2: 0.0, 3: 0.0, 4: 0.0, 5: 0.0, 6: 0.0, 7: 1.0, 8: 1.0, 9: 0.0, 10: 0.0, 11: 0.0, 12: 1.0, 13: 0.0, 14: 0.0, 15: 0.0, 16: 1.0, 17: 0.0, 18: 0.0, 19: 1.0, 20: 1.0, 21: 0.0, 22: 0.0, 23: 1.0, 24: 0.0, 25: 1.0, 26: 0.0, 27: 0.0, 28: 1.0, 29: 0.0, 30: 0.0, 31: 0.0, 32: 1.0, 33: 0.245451389, 34: 1.0, 35: 1.0, 36: 1.0, 37: 1.0, 38: 0.0, 39: 1.0, 40: 0.0, 41: 0.0, 42: 1.0, 43: 0.0, 44: 0.0, 45: 1.0, 46: 0.0, 47: 0.0, 48: 1.0, 49: 0.0, 50: 0.0, 51: 1.0, 52: 0.0, 53: 0.0, 54: 0.0, 55: 0.0, 56: 0.0, 57: 0.0, 58: 0.0, 59: 0.0, 60: 1.0, 61: 0.0, 62: 1.0, 63: 0.0, 64: 1.0, 65: 0.0, 66: 1.0, 67: 0.0, 68: 1.0, 69: 1.0, 70: 0.533174449, 71: 1.0, 72: 0.0, 73: 1.0, 74: 1.0, 75: 0.0, 76: 1.0, 77: 1.0, 78: 0.0, 79: 0.0, 80: 1.0, 81: 0.0, 82: 0.0, 83: 0.0, 84: 0.0, 85: 0.0, 86: 1.0, 87: 1.0, 88: 0.0, 89: 0.0, 90: 0.0, 91: 0.0, 92: 0.0, 93: 0.0, 94: 0.0, 95: 0.0, 96: 1.0, 97: 0.0, 98: 1.0, 99: 1.0, 100: 1.0, 101: 0.0, 102: 0.0, 103: 1.0, 104: 1.0, 105: 0.0, 106: 0.0, 107: 1.0, 108: 1.0, 109: 0.0, 110: 0.0, 111: 0.0, 112: 0.0, 113: 0.0, 114: 1.0, 115: 0.0, 116: 1.0, 117: 0.0, 118: 0.0, 119: 0.0, 120: 1.0, 121: 0.0, 122: 0.0, 123: 0.0, 124: 0.0, 125: 0.0, 126: 1.0, 127: 0.0, 128: 0.0, 129: 1.0, 130: 0.0, 131: 0.0, 132: 0.0, 133: 0.0, 134: 0.0, 135: 1.0, 136: 0.0, 137: 1.0, 138: 0.0, 139: 0.0, 140: 1.0, 141: 0.0, 142: 1.0, 143: 0.0, 144: 0.0, 145: 0.0, 146: 0.0, 147: 1.0, 148: 0.0, 149: 0.0, 150: 1.0, 151: 0.0, 152: 0.0, 153: 0.0, 154: 1.0, 155: 1.0, 156: 1.0, 157: 0.0, 158: 0.0, 159: 0.0, 160: 0.0, 161: 1.0, 162: 0.0, 163: 0.0, 164: 1.0, 165: 0.0, 166: 0.0, 167: 0.0, 168: 0.0, 169: 0.0, 170: 0.0, 171: 0.0, 172: 0.0, 173: 1.0, 174: 1.0, 175: 0.0, 176: 0.0, 177: 0.0, 178: 0.0, 179: 0.0, 180: 0.0, 181: 0.0, 182: 1.0, 183: 1.0, 184: 0.0, 185: 1.0, 186: 0.0, 187: 0.0, 188: 0.0, 189: 1.0, 190: 0.0, 191: 0.0];
soc = [0: 3.559468, 1: 4.458756106, 2: 5.357864355, 3: 6.256792782, 4: 6.255541424, 5: 7.154290315, 6: 8.052859457, 7: 7.051248886, 8: 6.049838636, 9: 6.948628668, 10: 7.847238942, 11: 7.845669494, 12: 6.844100361, 13: 6.842731541, 14: 7.741362994, 15: 8.639814722000001, 16: 7.638086759, 17: 8.536559141, 18: 9.434851828999999, 19: 8.432964859, 20: 7.431278266, 21: 8.32979201, 22: 8.328126052, 23: 7.326460427, 24: 7.324995135, 25: 6.323530136, 26: 7.22226543, 27: 8.120820976999999, 28: 7.119196812, 29: 8.017772973, 30: 8.016169419000001, 31: 8.914566185, 32: 7.912783271, 33: 7.665749326, 34: 6.664216176, 35: 5.662883333, 36: 4.661750756, 37: 3.660818406, 38: 4.560086242, 39: 3.559174225, 40: 4.45846239, 41: 5.357570698, 42: 4.356499184, 43: 5.255627884, 44: 5.254576758, 45: 4.253525843, 46: 5.152675138, 47: 6.051644603, 48: 5.050434274, 49: 5.949424187, 50: 6.329918677, 51: 5.328652693, 52: 6.227586963, 53: 7.126341445, 54: 8.024916177, 55: 8.923311194, 56: 8.921526532, 57: 9.819742226000001, 58: 10.717778278, 59: 11.615634722, 60: 10.613311595, 61: 11.511188933, 62: 10.508886695, 63: 10.506784918, 64: 9.504683561, 65: 10.402782624, 66: 9.400702067999999, 67: 10.298821927, 68: 9.296762163, 69: 8.29490281, 70: 7.760069381, 71: 6.758517367, 72: 6.757165664, 73: 5.75581423, 74: 4.754663068, 75: 4.753712135, 76: 3.752761393, 77: 2.75201084, 78: 3.651460438, 79: 3.650730146, 80: 2.65, 81: 3.54947, 82: 4.448760106, 83: 5.347870354, 84: 6.24680078, 85: 6.24555142, 86: 5.244302309, 87: 4.243253449, 88: 5.142404798, 89: 6.041376317, 90: 6.940168042, 91: 7.838780008, 92: 7.970349712, 93: 7.968755642, 94: 7.967161891, 95: 8.865568459, 96: 7.863795345, 97: 8.762222586, 98: 7.760470142, 99: 6.758918048, 100: 5.757566264, 101: 5.756414751, 102: 5.755263468, 103: 4.754112415, 104: 3.753161593, 105: 3.75241096, 106: 4.651660478, 107: 3.650730146, 108: 2.65, 109: 3.54947, 110: 4.448760106, 111: 4.447870354, 112: 5.34698078, 113: 5.345911384, 114: 4.344842201, 115: 5.243973233, 116: 4.242924438, 117: 5.142075854, 118: 5.141047438, 119: 6.040019229, 120: 5.038811225, 121: 5.937803463, 122: 5.936615902, 123: 6.835428579, 124: 6.834061493, 125: 7.732694681, 126: 6.731148142, 127: 7.629801912, 128: 7.628275952, 129: 6.626750297, 130: 6.625424947, 131: 7.524099862, 132: 7.522595042, 133: 7.521090523, 134: 7.519586305, 135: 6.518082387, 136: 7.416778771, 137: 6.415295415, 138: 7.314012356, 139: 8.212549554000001, 140: 7.210907044, 141: 8.109464861999999, 142: 7.107842969, 143: 8.006421401000001, 144: 8.904820116, 145: 9.803039152, 146: 10.701078545, 147: 9.698938329000001, 148: 9.696998540999999, 149: 9.695059141, 150: 8.693120130000001, 151: 9.591381505999999, 152: 9.658356259, 153: 9.656424588, 154: 8.654493303000001, 155: 7.652762404, 156: 6.651231852, 157: 7.549901605, 158: 8.448391624999999, 159: 9.346701947, 160: 10.244832606, 161: 9.242783640000001, 162: 10.140935083, 163: 10.138906896, 164: 9.136879114999999, 165: 9.135051739, 166: 9.133224728, 167: 10.031398083, 168: 10.029391804, 169: 10.927385925, 170: 11.825200448, 171: 11.822835408, 172: 12.720470841, 173: 11.717926747, 174: 10.715583162, 175: 11.613440045, 176: 11.611117357, 177: 12.508795133, 178: 12.506293374, 179: 13.403792116, 180: 14.301111357, 181: 15.198251135, 182: 14.195211485, 183: 13.192372443, 184: 14.089733968, 185: 13.086916021, 186: 13.984298638, 187: 13.981501778, 188: 14.878705478, 189: 13.875729737, 190: 14.772954591, 191: 15.67];
cost = [0: 0.885533474, 1: 0.886755274, 2: 0.863418894, 3: 0.8581040640000001, 4: 0.128842628, 5: 0.8614640139999999, 6: 0.860547664, 7: 0.0, 8: 0.0, 9: 0.863418894, 10: 0.866473394, 11: 0.133302198, 12: 0.0, 13: 0.137211958, 14: 0.8643352439999999, 15: 0.863113444, 16: 0.0, 17: 1.056768744, 18: 1.073751764, 19: 0.0, 20: 0.0, 21: 0.828169964, 22: 0.225975728, 23: 0.0, 24: 1.411111111, 25: 0.0, 26: 1.5784196, 27: 1.57794376, 28: 0.0, 29: 1.34204608, 30: 0.268381195, 31: 1.2958896, 32: 0.0, 33: 0.0, 34: 0.0, 35: 0.0, 36: 0.0, 37: 0.0, 38: 0.118178165, 39: 0.0, 40: 0.118178165, 41: 1.41389792, 42: 0.0, 43: 0.54572784, 44: 0.0, 45: 0.0, 46: 0.118178165, 47: 0.118178165, 48: 0.0, 49: 1.43697616, 50: 0.050118621, 51: 0.0, 52: 0.806177564, 53: 0.865740314, 54: 1.254394894, 55: 0.228693794, 56: 0.267211478, 57: 0.9997717739999999, 58: 1.000260494, 59: 0.979184444, 60: 0.0, 61: 1.11471352, 62: 0.0, 63: 0.0, 64: 0.0, 65: 0.90415432, 66: 0.0, 67: 1.34989744, 68: 0.0, 69: 0.0, 70: 0.0, 71: 0.0, 72: 0.395192555, 73: 0.0, 74: 0.0, 75: 0.117896795, 76: 0.0, 77: 0.0, 78: 1.40105024, 79: 0.101956155, 80: 0.0, 81: 1.43055232, 82: 1.42163032, 83: 1.42008384, 84: 1.43233672, 85: 0.124558555, 86: 0.0, 87: 0.0, 88: 0.797136244, 89: 0.902211044, 90: 0.937032344, 91: 0.933550214, 92: 0.312324954, 93: 0.212413748, 94: 0.213024648, 95: 0.919927144, 96: 0.0, 97: 0.911191274, 98: 0.0, 99: 0.0, 100: 0.0, 101: 0.155844408, 102: 0.159998528, 103: 0.0, 104: 0.0, 105: 0.136173428, 106: 0.864457424, 107: 0.0, 108: 0.0, 109: 0.864762874, 110: 0.864640694, 111: 0.138311578, 112: 0.872582394, 113: 0.544865528, 114: 0.0, 115: 0.8970183940000001, 116: 0.0, 117: 0.9200493239999999, 118: 0.186083958, 119: 0.911679994, 120: 0.0, 121: 1.57496976, 122: 0.184752315, 123: 1.41651504, 124: 0.110164395, 125: 1.22165856, 126: 0.0, 127: 1.42186824, 128: 0.108142075, 129: 0.0, 130: 0.0, 131: 0.20990376, 132: 0.0, 133: 0.105168075, 134: 0.106119755, 135: 0.0, 136: 1.42365264, 137: 0.0, 138: 0.118178165, 139: 0.118178165, 140: 0.0, 141: 1.41116184, 142: 0.0, 143: 1.33502744, 144: 1.42341472, 145: 1.42067864, 146: 1.41056704, 147: 0.0, 148: 0.063048698, 149: 0.364039128, 150: 0.0, 151: 0.800190744, 152: 0.044450415, 153: 0.233734158, 154: 0.0, 155: 0.0, 156: 0.0, 157: 1.41270832, 158: 1.42008384, 159: 0.77615336, 160: 0.61234544, 161: 0.0, 162: 1.42163032, 163: 0.0, 164: 0.0, 165: 0.106119755, 166: 0.110521275, 167: 1.37012064, 168: 0.090773915, 169: 1.40081232, 170: 1.40045544, 171: 0.104930155, 172: 1.41116184, 173: 0.0, 174: 0.0, 175: 1.39986064, 176: 0.102788875, 177: 1.40937744, 178: 0.112305675, 179: 1.42341472, 180: 1.42305784, 181: 1.43233672, 182: 0.0, 183: 0.0, 184: 0.7985413139999999, 185: 0.0, 186: 0.803550694, 187: 0.073678358, 188: 0.798358044, 189: 0.0, 190: 0.803550694, 191: 0.803245244];
earn = [0: 0.0, 1: 0.0, 2: 0.0, 3: 0.0, 4: 0.0, 5: 0.0, 6: 0.0, 7: 0.477081444, 8: 0.462463632, 9: 0.0, 10: 0.0, 11: 0.0, 12: 0.464300269, 13: 0.0, 14: 0.0, 15: 0.0, 16: 0.280377428, 17: 0.0, 18: 0.0, 19: 0.567420018, 20: 0.58249562, 21: 0.0, 22: 0.0, 23: 0.397163561, 24: 0.0, 25: 0.480002275, 26: 0.0, 27: 0.0, 28: 0.509015583, 29: 0.0, 30: 0.0, 31: 0.0, 32: 0.401817206, 33: 0.0, 34: 0.532821078, 35: 0.295742694, 36: 0.454207809, 37: 0.262405575, 38: 0.09705525600000001, 39: 0.177110622, 40: 0.077632775, 41: 0.0, 42: 0.09986777199999999, 43: 0.0, 44: 0.035411399, 45: 0.00639035, 46: 0.005586781, 47: 0.001196449, 48: -0.118147776, 49: 0.0, 50: 0.0, 51: 7.907900000000001e-05, 52: 0.0, 53: 0.0, 54: 0.0, 55: 0.0, 56: 0.0, 57: 0.0, 58: 0.0, 59: 0.0, 60: 0.297943078, 61: 0.0, 62: 0.533864141, 63: 0.422216944, 64: 0.64927394, 65: 0.0, 66: 0.521288738, 67: 0.0, 68: 0.5753302179999999, 69: 0.672733428, 70: 0.279979138, 71: 0.651313775, 72: 0.0, 73: 0.736366313, 74: 0.732302728, 75: 0.0, 76: 0.761201798, 77: 0.728868148, 78: 0.0, 79: 0.0, 80: 0.642529427, 81: 0.0, 82: 0.0, 83: 0.0, 84: 0.0, 85: 0.0, 86: 0.520701516, 87: 0.544087989, 88: 0.0, 89: 0.0, 90: 0.0, 91: 0.0, 92: 0.0, 93: 0.0, 94: 0.0, 95: 0.0, 96: 0.337822415, 97: 0.0, 98: 0.343181909, 99: 0.347347453, 100: 0.348035406, 101: 0.0, 102: 0.0, 103: 0.353178978, 104: 0.354994981, 105: 0.0, 106: 0.0, 107: 0.350907734, 108: 0.355381142, 109: 0.0, 110: 0.0, 111: 0.0, 112: 0.0, 113: 0.0, 114: 0.370270021, 115: 0.0, 116: 0.323608513, 117: 0.0, 118: 0.0, 119: 0.0, 120: 0.383926889, 121: 0.0, 122: 0.0, 123: 0.0, 124: 0.0, 125: 0.0, 126: 0.473881956, 127: 0.0, 128: 0.0, 129: 0.324101554, 130: 0.0, 131: 0.0, 132: 0.061919522, 133: 0.0, 134: 0.0, 135: -0.003297604, 136: 0.0, 137: -0.008955351, 138: -8.3674e-05, 139: -0.000127986, 140: -0.105972615, 141: 0.0, 142: -0.062786278, 143: 0.0, 144: 0.0, 145: 0.0, 146: 0.0, 147: -0.030216497, 148: 0.0, 149: 0.0, 150: -0.013699341, 151: 0.0, 152: 0.0, 153: 0.0, 154: -0.001438869, 155: -5.8189e-05, 156: 0.133887731, 157: 0.0, 158: 0.0, 159: 0.0, 160: 0.0, 161: 0.535856145, 162: 0.0, 163: 0.020687636, 164: 0.659017198, 165: 0.0, 166: 0.0, 167: 0.0, 168: 0.0, 169: 0.0, 170: 0.0, 171: 0.0, 172: 0.0, 173: 0.721099479, 174: 0.720690346, 175: 0.0, 176: 0.0, 177: 0.0, 178: 0.0, 179: 0.0, 180: 0.0, 181: 0.0, 182: 0.574370418, 183: 0.586827619, 184: 0.0, 185: 0.557940281, 186: 0.0, 187: 0.0, 188: 0.0, 189: 0.541599135, 190: 0.0, 191: 0.0];
total_cost = 94.56861606;
total_earn = 25.373396275;
% _objective = 69.19521978499999;