production = [0: 0.0, 1: 0.0, 2: 0.0, 3: 0.0, 4: 0.0, 5: 0.0, 6: 0.0, 7: 0.0, 8: 0.0, 9: 0.0, 10: 0.0, 11: 0.0, 12: 0.0, 13: 0.0, 14: 0.0, 15: 0.0, 16: 0.0, 17: 0.0, 18: 0.0, 19: 0.0, 20: 0.0, 21: 0.0, 22: 0.0, 23: 0.0, 24: 0.0, 25: 0.008500000000000001, 26: 0.0432, 27: 0.0, 28: 0.1205, 29: 0.1938, 30: 0.0, 31: 0.0, 32: 0.3045, 33: 0.1725, 34: 0.0, 35: 0.0, 36: 0.4495, 37: 0.583, 38: 0.0, 39: 1.8858, 40: 0.0, 41: 0.0, 42: 0.0, 43: 0.0, 44: 0.0, 45: 2.017, 46: 0.0, 47: 0.0, 48: 0.0, 49: 1.1145, 50: 0.0, 51: 1.8787, 52: 0.0, 53: 0.0, 54: 0.0, 55: 1.6955, 56: 0.63, 57: 0.4012, 58: 0.3528, 59: 0.0, 60: 0.0, 61: 0.0, 62: 0.2893, 63: 0.9045, 64: 0.275, 65: 0.4507, 66: 0.3412, 67: 0.0, 68: 0.115, 69: 0.0, 70: 0.058, 71: 0.0, 72: 0.0, 73: 0.0003, 74: 0.0, 75: 0.0, 76: 0.0, 77: 0.0, 78: 0.0, 79: 0.0, 80: 0.0, 81: 0.0, 82: 0.0, 83: 0.0, 84: 0.0, 85: 0.0, 86: 0.0, 87: 0.0, 88: 0.0, 89: 0.0, 90: 0.0, 91: 0.0, 92: 0.0, 93: 0.0, 94: 0.0, 95: 0.0, 96: 0.0, 97: 0.0, 98: 0.0, 99: 0.0, 100: 0.0, 101: 0.0, 102: 0.0, 103: 0.0, 104: 0.0, 105: 0.0, 106: 0.0, 107: 0.0, 108: 0.0, 109: 0.0, 110: 0.0, 111: 0.0, 112: 0.0, 113: 0.0, 114: 0.0, 115: 0.0, 116: 0.0, 117: 0.0, 118: 0.0, 119: 0.0032, 120: 0.0, 121: 0.0, 122: 0.0683, 123: 0.1022, 124: 0.1172, 125: 0.1725, 126: 0.0, 127: 0.0, 128: 0.0, 129: 0.0, 130: 0.0, 131: 0.0, 132: 0.0, 133: 1.2185, 134: 1.1558, 135: 1.1025, 136: 0.0, 137: 1.0973, 138: 1.0973, 139: 1.1022, 140: 1.1155, 141: 1.097, 142: 1.1122, 143: 0.0655, 144: 0.0, 145: 0.0, 146: 0.0, 147: 0.0, 148: 0.0, 149: 0.5643, 150: 0.5122, 151: 0.721, 152: 0.0, 153: 0.0, 154: 0.2968, 155: 0.259, 156: 0.304, 157: 0.503, 158: 0.4178, 159: 0.5433, 160: 0.6747, 161: 0.255, 162: 0.0, 163: 0.0, 164: 0.0, 165: 0.0, 166: 0.0, 167: 0.0, 168: 0.0083, 169: 0.0008, 170: 0.0003, 171: 0.0, 172: 0.0, 173: 0.0, 174: 0.0, 175: 0.0, 176: 0.0, 177: 0.0, 178: 0.0, 179: 0.0, 180: 0.0, 181: 0.0, 182: 0.0, 183: 0.0, 184: 0.0, 185: 0.0, 186: 0.0, 187: 0.0, 188: 0.0, 189: 0.0, 190: 0.0, 191: 0.0];
buy = [0: 0.24758505, 1: 1.25810625, 2: 0.21990625, 3: 0.0, 4: 1.21090625, 5: 0.0, 6: 1.21520625, 7: 0.0, 8: 1.21960625, 9: 1.21990625, 10: 1.22490625, 11: 0.21820625, 12: 1.21740625, 13: 0.22460625, 14: 0.22140625, 15: 0.21940625, 16: 0.50190625, 17: 1.53640625, 18: 0.0, 19: 0.0, 20: 0.0, 21: 1.16220625, 22: 0.0, 23: 0.0, 24: 1.18620625, 25: 1.26190625, 26: 0.0, 27: 1.22710625, 28: 0.0, 29: 1.02880625, 30: 1.22560625, 31: 1.20670625, 32: 0.91560625, 33: 1.04840625, 34: 0.0, 35: 0.21190625, 36: 0.0, 37: 0.50710625, 38: 0.08870625, 39: 0.0, 40: 1.08960625, 41: 0.0, 42: 1.08740625, 43: 0.0, 44: 1.12210625, 45: 0.0, 46: 0.0, 47: 1.10920625, 48: 0.0, 49: 0.0, 50: 0.10640625, 51: 0.0, 52: 0.12620625, 53: 1.77820625, 54: 0.0, 55: 0.18090625, 56: 0.80740625, 57: 0.04190625, 58: 0.0, 59: 1.40940625, 60: 0.11490625, 61: 0.0, 62: 0.82690625, 63: 0.0, 64: 0.83770625, 65: 0.6607062500000001, 66: 0.78720625, 67: 1.13440625, 68: 0.00710625, 69: 1.12340625, 70: 0.0, 71: 1.11490625, 72: 1.33220625, 73: 0.0, 74: 1.10010625, 75: 1.09910625, 76: 1.08570625, 77: 1.07660625, 78: 0.0, 79: 0.08570625, 80: 0.0, 81: 1.10320625, 82: 0.09570625000000001, 83: 1.09440625, 84: 0.0, 85: 1.10470625, 86: 0.0, 87: 1.09620625, 88: 1.11140625, 89: 0.28340625, 90: 1.34040625, 91: 1.33470625, 92: 0.33470625, 93: 0.0, 94: 0.34870625, 95: 0.31240625, 96: 0.0, 97: 1.29810625, 98: 1.27840625, 99: 1.26090625, 100: 0.0, 101: 1.25510625, 102: 0.0, 103: 0.22740625, 104: 0.22740625, 105: 1.22290625, 106: 0.22160625, 107: 0.0, 108: 0.0, 109: 1.22210625, 110: 0.0, 111: 0.0, 112: 1.23490625, 113: 1.89190625, 114: 0.936997818, 115: 1.27490625, 116: 0.0, 117: 0.0, 118: 1.30460625, 119: 0.0, 120: 0.21890625, 121: 0.22460625, 122: 0.0, 123: 0.0, 124: 0.0, 125: 0.92760625, 126: 0.10170625, 127: 0.0, 128: 0.0, 129: 0.0, 130: 0.0, 131: 0.0, 132: 1.09590625, 133: 0.0, 134: 0.0, 135: 0.0, 136: 0.0, 137: 0.0, 138: 0.0, 139: 0.0, 140: 0.0, 141: 0.0, 142: 0.0, 143: 0.02290625, 144: 1.09720625, 145: 0.663972123, 146: 1.08640625, 147: 0.0, 148: 1.10320625, 149: 0.03160625, 150: 1.03840625, 151: 0.0, 152: 0.0, 153: 1.38260625, 154: 0.05360625, 155: 1.05910625, 156: 0.0, 157: 0.0, 158: 0.67660625, 159: 0.55310625, 160: 0.0, 161: 0.0, 162: 1.09570625, 163: 1.09760625, 164: 1.08770625, 165: 1.08920625, 166: 0.0, 167: 0.0, 168: 0.07630625000000001, 169: 0.0, 170: 0.0, 171: 0.0, 172: 1.08690625, 173: 1.08510625, 174: 1.07710625, 175: 1.07740625, 176: 0.0, 177: 0.08540625, 178: 0.09440625, 179: 0.09720624999999999, 180: 0.0, 181: 0.10470625, 182: 1.10270625, 183: 1.09590625, 184: 0.11370625, 185: 0.12140625, 186: 1.12190625, 187: 1.12060625, 188: 0.0, 189: 1.11370625, 190: 1.12190625, 191: 0.0];
sell = [0: 0.0, 1: 0.0, 2: 0.0, 3: 0.505886707, 4: 0.0, 5: 0.68329375, 6: 0.0, 7: 0.588777845, 8: 0.0, 9: 0.0, 10: 0.0, 11: 0.0, 12: 0.0, 13: 0.0, 14: 0.0, 15: 0.0, 16: 0.0, 17: 0.0, 18: 0.33579375, 19: 0.80189375, 20: 0.80189375, 21: 0.0, 22: 0.53009375, 23: 0.53359375, 24: 0.0, 25: 0.0, 26: 0.67249375, 27: 0.0, 28: 0.79639375, 29: 0.0, 30: 0.0, 31: 0.0, 32: 0.0, 33: 0.0, 34: 0.68259375, 35: 0.0, 36: 0.23979375, 37: 0.0, 38: 0.0, 39: 2.69489375, 40: 0.0, 41: 0.81079375, 42: 0.0, 43: 0.81159375, 44: 0.0, 45: 2.31307861, 46: 0.79759375, 47: 0.0, 48: 0.79489375, 49: 1.90589375, 50: 0.0, 51: 2.66949375, 52: 0.0, 53: 0.0, 54: 0.04009375, 55: 0.0, 56: 0.0, 57: 0.0, 58: 0.80889375, 59: 0.0, 60: 0.0, 61: 0.78109375, 62: 0.0, 63: 0.78159375, 64: 0.0, 65: 0.0, 66: 0.0, 67: 0.0, 68: 0.0, 69: 0.0, 70: 0.82239375, 71: 0.0, 72: 0.0, 73: 0.80919375, 74: 0.0, 75: 0.0, 76: 0.0, 77: 0.0, 78: 0.82159375, 79: 0.0, 80: 0.79629375, 81: 0.0, 82: 0.0, 83: 0.0, 84: 0.79529375, 85: 0.0, 86: 0.75959375, 87: 0.0, 88: 0.0, 89: 0.0, 90: 0.0, 91: 0.0, 92: 0.0, 93: 0.55229375, 94: 0.0, 95: 0.0, 96: 0.60239375, 97: 0.0, 98: 0.0, 99: 0.0, 100: 0.64859375, 101: 0.0, 102: 0.63809375, 103: 0.0, 104: 0.0, 105: 0.0, 106: 0.0, 107: 0.67159375, 108: 0.66939375, 109: 0.0, 110: 0.6780937500000001, 111: 0.67359375, 112: 0.0, 113: 0.0, 114: 0.0, 115: 0.0, 116: 0.58339375, 117: 0.58689375, 118: 0.0, 119: 0.0, 120: 0.0, 121: 0.0, 122: 0.74469375, 123: 0.01079375, 124: 0.02459375, 125: 0.0, 126: 0.0, 127: 0.8040937500000001, 128: 0.0, 129: 0.80939375, 130: 0.80159375, 131: 0.80089375, 132: 0.0, 133: 0.13009375, 134: 1.96659375, 135: 0.00679375, 136: 0.80259375, 137: 1.90539375, 138: 0.00789375, 139: 1.90699375, 140: 1.91979375, 141: 0.01009375, 142: 1.02549375, 143: 0.0, 144: 0.0, 145: 0.0, 146: 0.0, 147: 0.8100937499999999, 148: 0.0, 149: 0.0, 150: 0.0, 151: 0.78359375, 152: 0.53609375, 153: 0.0, 154: 0.0, 155: 0.0, 156: 1.11759375, 157: 0.41479375, 158: 0.0, 159: 0.0, 160: 1.48459375, 161: 1.06829375, 162: 0.0, 163: 0.0, 164: 0.0, 165: 0.0, 166: 0.8070937500000001, 167: 0.81429375, 168: 0.0, 169: 0.82259375, 170: 0.82209375, 171: 0.81179375, 172: 0.0, 173: 0.0, 174: 0.0, 175: 0.0, 176: 0.81359375, 177: 0.0, 178: 0.0, 179: 0.0, 180: 0.8030937500000001, 181: 0.0, 182: 0.0, 183: 0.0, 184: 0.0, 185: 0.0, 186: 0.0, 187: 0.0, 188: 0.78659375, 189: 0.0, 190: 0.0, 191: 0.77859375];
charge = [0: 0.0, 1: 1.0, 2: 0.0, 3: 0.0, 4: 1.0, 5: 0.0, 6: 1.0, 7: 0.0, 8: 1.0, 9: 1.0, 10: 1.0, 11: 0.0, 12: 1.0, 13: 0.0, 14: 0.0, 15: 0.0, 16: 0.0, 17: 1.0, 18: 0.0, 19: 0.0, 20: 0.0, 21: 1.0, 22: 0.0, 23: 0.0, 24: 0.0, 25: 1.0, 26: 0.0, 27: 1.0, 28: 0.0, 29: 1.0, 30: 1.0, 31: 1.0, 32: 1.0, 33: 1.0, 34: 0.0, 35: 0.0, 36: 0.0, 37: 1.0, 38: 0.0, 39: 0.0, 40: 1.0, 41: 0.0, 42: 1.0, 43: 0.0, 44: 1.0, 45: 0.0, 46: 0.0, 47: 1.0, 48: 0.0, 49: 0.0, 50: 0.0, 51: 0.0, 52: 0.0, 53: 1.0, 54: 0.0, 55: 1.0, 56: 1.0, 57: 0.0, 58: 0.0, 59: 1.0, 60: 0.0, 61: 0.0, 62: 1.0, 63: 0.0, 64: 1.0, 65: 1.0, 66: 1.0, 67: 1.0, 68: 0.0, 69: 1.0, 70: 0.0, 71: 1.0, 72: 1.0, 73: 0.0, 74: 1.0, 75: 1.0, 76: 1.0, 77: 1.0, 78: 0.0, 79: 0.0, 80: 0.0, 81: 1.0, 82: 0.0, 83: 1.0, 84: 0.0, 85: 1.0, 86: 0.0, 87: 1.0, 88: 1.0, 89: 0.0, 90: 1.0, 91: 1.0, 92: 0.0, 93: 0.0, 94: 0.0, 95: 0.0, 96: 0.0, 97: 1.0, 98: 1.0, 99: 1.0, 100: 0.0, 101: 1.0, 102: 0.0, 103: 0.0, 104: 0.0, 105: 1.0, 106: 0.0, 107: 0.0, 108: 0.0, 109: 1.0, 110: 0.0, 111: 0.0, 112: 1.0, 113: 1.0, 114: 0.717891568, 115: 1.0, 116: 0.0, 117: 0.0, 118: 1.0, 119: 0.0, 120: 0.0, 121: 0.0, 122: 0.0, 123: 0.0, 124: 0.0, 125: 1.0, 126: 0.0, 127: 0.0, 128: 0.0, 129: 0.0, 130: 0.0, 131: 0.0, 132: 1.0, 133: 1.0, 134: 0.0, 135: 1.0, 136: 0.0, 137: 0.0, 138: 1.0, 139: 0.0, 140: 0.0, 141: 1.0, 142: 0.0, 143: 0.0, 144: 1.0, 145: 0.569065873, 146: 1.0, 147: 0.0, 148: 1.0, 149: 0.0, 150: 1.0, 151: 0.0, 152: 0.0, 153: 1.0, 154: 0.0, 155: 1.0, 156: 0.0, 157: 0.0, 158: 1.0, 159: 1.0, 160: 0.0, 161: 0.0, 162: 1.0, 163: 1.0, 164: 1.0, 165: 1.0, 166: 0.0, 167: 0.0, 168: 0.0, 169: 0.0, 170: 0.0, 171: 0.0, 172: 1.0, 173: 1.0, 174: 1.0, 175: 1.0, 176: 0.0, 177: 0.0, 178: 0.0, 179: 0.0, 180: 0.0, 181: 0.0, 182: 1.0, 183: 1.0, 184: 0.0, 185: 0.0, 186: 1.0, 187: 1.0, 188: 0.0, 189: 1.0, 190: 1.0, 191: 0.0];
discharge = [0: 0.009468000000000001, 1: 0.0, 2: 0.0, 3: 0.796769952, 4: 0.0, 5: 1.0, 6: 0.0, 7: 0.898760106, 8: 0.0, 9: 0.0, 10: 0.0, 11: 0.0, 12: 0.0, 13: 0.0, 14: 0.0, 15: 0.0, 16: 0.0, 17: 0.0, 18: 1.0, 19: 1.0, 20: 1.0, 21: 0.0, 22: 1.0, 23: 1.0, 24: 0.0, 25: 0.0, 26: 1.0, 27: 0.0, 28: 1.0, 29: 0.0, 30: 0.0, 31: 0.0, 32: 0.0, 33: 0.0, 34: 1.0, 35: 0.0, 36: 0.0, 37: 0.0, 38: 0.0, 39: 1.0, 40: 0.0, 41: 1.0, 42: 0.0, 43: 1.0, 44: 0.0, 45: 0.441427623, 46: 1.0, 47: 0.0, 48: 1.0, 49: 1.0, 50: 0.0, 51: 1.0, 52: 0.0, 53: 0.0, 54: 1.0, 55: 0.0, 56: 0.0, 57: 0.0, 58: 1.0, 59: 0.0, 60: 0.0, 61: 1.0, 62: 0.0, 63: 0.0, 64: 0.0, 65: 0.0, 66: 0.0, 67: 0.0, 68: 0.0, 69: 0.0, 70: 1.0, 71: 0.0, 72: 0.0, 73: 1.0, 74: 0.0, 75: 0.0, 76: 0.0, 77: 0.0, 78: 1.0, 79: 0.0, 80: 1.0, 81: 0.0, 82: 0.0, 83: 0.0, 84: 1.0, 85: 0.0, 86: 1.0, 87: 0.0, 88: 0.0, 89: 0.0, 90: 0.0, 91: 0.0, 92: 0.0, 93: 1.0, 94: 0.0, 95: 0.0, 96: 1.0, 97: 0.0, 98: 0.0, 99: 0.0, 100: 1.0, 101: 0.0, 102: 1.0, 103: 0.0, 104: 0.0, 105: 0.0, 106: 0.0, 107: 1.0, 108: 1.0, 109: 0.0, 110: 1.0, 111: 1.0, 112: 0.0, 113: 0.0, 114: 0.0, 115: 0.0, 116: 1.0, 117: 1.0, 118: 0.0, 119: 0.3285625, 120: 0.0, 121: 0.0, 122: 1.0, 123: 0.0, 124: 0.0, 125: 0.0, 126: 0.0, 127: 1.0, 128: 0.101006944, 129: 1.0, 130: 1.0, 131: 1.0, 132: 0.0, 133: 0.0, 134: 1.0, 135: 0.0, 136: 1.0, 137: 1.0, 138: 0.0, 139: 1.0, 140: 1.0, 141: 0.0, 142: 0.0, 143: 0.0, 144: 0.0, 145: 0.0, 146: 0.0, 147: 1.0, 148: 0.0, 149: 0.0, 150: 0.0, 151: 1.0, 152: 1.0, 153: 0.0, 154: 0.0, 155: 0.0, 156: 1.0, 157: 0.0, 158: 0.0, 159: 0.0, 160: 1.0, 161: 1.0, 162: 0.0, 163: 0.0, 164: 0.0, 165: 0.0, 166: 1.0, 167: 1.0, 168: 0.0, 169: 1.0, 170: 1.0, 171: 1.0, 172: 0.0, 173: 0.0, 174: 0.0, 175: 0.0, 176: 1.0, 177: 0.0, 178: 0.0, 179: 0.0, 180: 1.0, 181: 0.0, 182: 0.0, 183: 0.0, 184: 0.0, 185: 0.0, 186: 0.0, 187: 0.0, 188: 1.0, 189: 0.0, 190: 0.0, 191: 1.0];
soc = [0: 2.65, 1: 3.54947, 2: 3.548760106, 3: 2.751280402, 4: 3.650730146, 5: 2.65, 6: 3.54947, 7: 2.65, 8: 3.54947, 9: 4.448760106, 10: 5.347870354, 11: 5.34680078, 12: 6.24573142, 13: 6.244482273, 14: 6.243233377, 15: 6.24198473, 16: 6.240736333, 17: 7.139488186, 18: 6.138060288, 19: 5.136832676, 20: 4.13580531, 21: 5.034978149, 22: 4.033971153, 23: 3.033164359, 24: 3.032557726, 25: 3.931951215, 26: 2.931164824, 27: 3.830578591, 28: 2.829812476, 29: 3.729246513, 30: 4.628500664, 31: 5.527574964, 32: 6.426469449, 33: 7.325184155, 34: 6.323719118, 35: 6.322454374, 36: 6.321189883, 37: 7.219925645, 38: 7.21848166, 39: 6.217037964, 40: 7.115794556, 41: 6.114371397, 42: 7.013148523, 43: 6.011745893, 44: 6.910543544, 45: 6.467733813, 46: 5.466440266, 47: 6.365346978, 48: 5.364073909, 49: 4.363001094, 50: 4.362128494, 51: 3.361256068, 52: 3.360583817, 53: 4.2599117, 54: 3.259059718, 55: 4.158407906, 56: 5.057576224, 57: 5.056564709, 58: 4.055553396, 59: 4.954742285, 60: 4.953751337, 61: 3.952760586, 62: 4.851970034, 63: 4.85099964, 64: 5.75002944, 65: 6.648879435, 66: 7.547549659, 67: 8.446040149, 68: 8.444350941, 69: 9.342662070999999, 70: 8.340793538, 71: 9.239125379000001, 72: 10.137277554, 73: 9.135250099, 74: 10.033423049, 75: 10.931416364, 76: 11.829230081, 77: 12.726864235, 78: 11.724318862, 79: 11.721973998, 80: 10.719629603, 81: 11.617485678, 82: 11.61516218, 83: 12.512839148, 84: 11.51033658, 85: 12.408034513, 86: 11.405552906, 87: 12.303271795, 88: 13.200811141, 89: 13.198170979, 90: 14.095531345, 91: 14.992712238, 92: 14.989713696, 93: 13.986715753, 94: 13.98391841, 95: 13.981121626, 96: 12.978325402, 97: 13.875729737, 98: 14.772954591, 99: 15.67, 100: 14.666866, 101: 15.563932627, 102: 14.56081984, 103: 14.557907676, 104: 14.554996095, 105: 15.452085096, 106: 15.448994679, 107: 14.44590488, 108: 13.443015699, 109: 14.340327095, 110: 13.33745903, 111: 12.334791538, 112: 13.23232458, 113: 14.129678115, 114: 14.772954591, 115: 15.67, 116: 14.666866, 117: 13.663932627, 118: 14.56119984, 119: 14.2297251, 120: 14.226879155, 121: 14.224033779, 122: 13.221188973, 123: 13.218544735, 124: 13.215901026, 125: 14.113257846, 126: 14.110435194, 127: 13.107613107, 128: 13.00398464, 129: 12.001383843, 130: 10.998983566, 131: 9.99678377, 132: 10.894784413, 133: 11.792605456, 134: 10.790246935, 135: 11.688088886, 136: 10.685751268, 137: 9.683614117999999, 138: 10.581677395, 139: 9.579561059, 140: 8.577645147, 141: 9.475929618, 142: 9.474034432, 143: 9.472139625000001, 144: 10.370245197, 145: 10.880330433, 146: 11.778154367, 147: 10.775798737, 148: 11.673643577, 149: 11.671308848, 150: 12.568974586, 151: 11.566460791, 152: 10.564147499, 153: 11.46203467, 154: 11.459742263, 155: 12.357450314, 156: 11.354978824, 157: 11.352707829, 158: 12.250437287, 159: 13.147987199, 160: 12.145357602, 161: 11.142928531, 162: 12.040699945, 163: 12.938291805, 164: 13.835704146, 165: 14.732937006, 166: 13.729990418, 167: 12.72724442, 168: 12.724698971, 169: 11.722154031, 170: 10.719809601, 171: 9.717665639, 172: 10.615722106, 173: 11.513598961, 174: 12.411296241, 175: 13.308813982, 176: 12.306152219, 177: 12.303690989, 178: 12.301230251, 179: 12.298770005, 180: 11.296310251, 181: 11.294050989, 182: 12.191792178, 183: 13.08935382, 184: 13.086735949, 185: 13.084118602, 186: 13.981501778, 187: 14.878705478, 188: 13.875729737, 189: 14.772954591, 190: 15.67, 191: 14.666866];
cost = [0: 0.151249707, 1: 0.886755274, 2: 0.134340728, 3: 0.0, 4: 0.857920794, 5: 0.0, 6: 0.860547664, 7: 0.0, 8: 0.863235624, 9: 0.863418894, 10: 0.866473394, 11: 0.133302198, 12: 0.861891644, 13: 0.137211958, 14: 0.135257078, 15: 0.134035278, 16: 0.306614528, 17: 1.056768744, 18: 0.0, 19: 0.0, 20: 0.0, 21: 0.828169964, 22: 0.0, 23: 0.0, 24: 1.411110955, 25: 1.61934184, 26: 0.0, 27: 1.57794376, 28: 0.0, 29: 1.34204608, 30: 1.57615936, 31: 1.55367592, 32: 1.20738336, 33: 1.36536224, 34: 0.0, 35: 0.252083675, 36: 0.0, 37: 0.72143176, 38: 0.105524955, 39: 0.0, 40: 1.41437376, 41: 0.0, 42: 1.41175664, 43: 0.0, 44: 1.45303576, 45: 0.0, 46: 0.0, 47: 1.43768992, 48: 0.0, 49: 0.0, 50: 0.126580875, 51: 0.0, 52: 0.077099398, 53: 1.204484364, 54: 0.0, 55: 0.228693794, 56: 0.611422644, 57: 0.025600528, 58: 0.0, 59: 0.979184444, 60: 0.136692475, 61: 0.0, 62: 1.10186584, 63: 0.0, 64: 1.11471352, 65: 0.90415432, 66: 1.05463872, 67: 1.46766784, 68: 0.008453595, 69: 1.45458224, 70: 0.0, 71: 1.44447064, 72: 1.70297072, 73: 0.0, 74: 1.42686456, 75: 1.42567496, 76: 1.40973432, 77: 1.39890896, 78: 0.0, 79: 0.101956155, 80: 0.0, 81: 1.43055232, 82: 0.113852155, 83: 1.42008384, 84: 0.0, 85: 1.43233672, 86: 0.0, 87: 1.42222512, 88: 0.797136244, 89: 0.173132878, 90: 0.937032344, 91: 0.933550214, 92: 0.204472048, 93: 0.0, 94: 0.213024648, 95: 0.190848978, 96: 0.0, 97: 0.911191274, 98: 0.899156544, 99: 0.888465794, 100: 0.0, 101: 0.884922574, 102: 0.0, 103: 0.138922478, 104: 0.138922478, 105: 0.865251594, 106: 0.135379258, 107: 0.0, 108: 0.0, 109: 0.864762874, 110: 0.0, 111: 0.0, 112: 0.872582394, 113: 1.273943694, 114: 0.657251076, 115: 0.8970183940000001, 116: 0.0, 117: 0.0, 118: 0.915162124, 119: 0.0, 120: 0.260410875, 121: 0.267191595, 122: 0.0, 123: 0.0, 124: 0.0, 125: 1.22165856, 126: 0.120989755, 127: 0.0, 128: 0.0, 129: 0.0, 130: 0.0, 131: 0.0, 132: 1.42186824, 133: 0.118178165, 134: 0.0, 135: 0.118178165, 136: 0.0, 137: 0.0, 138: 0.118178165, 139: 0.0, 140: 0.0, 141: 0.118178165, 142: 0.0, 143: 0.027249275, 144: 1.42341472, 145: 0.8571123980000001, 146: 1.41056704, 147: 0.0, 148: 0.792126864, 149: 0.019308258, 150: 0.752540544, 151: 0.0, 152: 0.0, 153: 0.9628123240000001, 154: 0.032748058, 155: 0.765186174, 156: 0.0, 157: 0.0, 158: 0.92306896, 159: 0.77615336, 160: 0.0, 161: 0.0, 162: 1.42163032, 163: 1.42389056, 164: 1.41211352, 165: 1.41389792, 166: 0.0, 167: 0.0, 168: 0.090773915, 169: 0.0, 170: 0.0, 171: 0.0, 172: 1.41116184, 173: 1.40902056, 174: 1.39950376, 175: 1.39986064, 176: 0.0, 177: 0.101599275, 178: 0.112305675, 179: 0.115636555, 180: 0.0, 181: 0.124558555, 182: 1.42995752, 183: 1.42186824, 184: 0.069463148, 185: 0.074167078, 186: 0.803550694, 187: 0.802756524, 188: 0.0, 189: 0.7985413139999999, 190: 0.803550694, 191: 0.0];
earn = [0: 0.0, 1: 0.0, 2: 0.0, 3: 0.370814956, 4: 0.0, 5: 0.501264295, 6: 0.0, 7: 0.413145414, 8: 0.0, 9: 0.0, 10: 0.0, 11: 0.0, 12: 0.0, 13: 0.0, 14: 0.0, 15: 0.0, 16: 0.0, 17: 0.0, 18: 0.237641237, 19: 0.567420018, 20: 0.58249562, 21: 0.0, 22: 0.389459878, 23: 0.396940391, 24: 0.0, 25: 0.0, 26: 0.504908308, 27: 0.0, 28: 0.599764133, 29: 0.0, 30: 0.0, 31: 0.0, 32: 0.0, 33: 0.0, 34: 0.346416328, 35: 0.0, 36: 0.09555780899999999, 37: 0.0, 38: 0.0, 39: 0.589912242, 40: 0.0, 41: 0.125348714, 42: 0.0, 43: 0.082133288, 44: 0.0, 45: 0.018504629, 46: 0.004945081, 47: 0.0, 48: -0.032352176, 49: -0.079475769, 50: 0.0, 51: 0.000266949, 52: 0.0, 53: 0.0, 54: 0.000441031, 55: 0.0, 56: 0.0, 57: 0.0, 58: 0.172941484, 59: 0.0, 60: 0.0, 61: 0.358912578, 62: 0.0, 63: 0.422216944, 64: 0.0, 65: 0.0, 66: 0.0, 67: 0.0, 68: 0.0, 69: 0.0, 70: 0.668852837, 71: 0.0, 72: 0.0, 73: 0.736366313, 74: 0.0, 75: 0.0, 76: 0.0, 77: 0.0, 78: 0.699833556, 79: 0.0, 80: 0.642529427, 81: 0.0, 82: 0.0, 83: 0.0, 84: 0.556148919, 85: 0.0, 86: 0.520701516, 87: 0.0, 88: 0.0, 89: 0.0, 90: 0.0, 91: 0.0, 92: 0.0, 93: 0.315359731, 94: 0.0, 95: 0.0, 96: 0.337822415, 97: 0.0, 98: 0.0, 99: 0.0, 100: 0.348035406, 101: 0.0, 102: 0.338253497, 103: 0.0, 104: 0.0, 105: 0.0, 106: 0.0, 107: 0.350907734, 108: 0.355381142, 109: 0.0, 110: 0.359389688, 111: 0.357678281, 112: 0.0, 113: 0.0, 114: 0.0, 115: 0.0, 116: 0.323608513, 117: 0.328484432, 118: 0.0, 119: 0.0, 120: 0.0, 121: 0.0, 122: 0.410922011, 123: 0.005637576, 124: 0.013283084, 125: 0.0, 126: 0.0, 127: 0.291001528, 128: 0.0, 129: 0.158803054, 130: 0.111501691, 131: 0.078247319, 132: 0.0, 133: 0.00270595, 134: -0.0251724, 135: -2.7854e-05, 136: -0.003772191, 137: -0.008955351, 138: -8.3674e-05, 139: -0.034897986, 140: -0.105972615, 141: -0.000707572, 142: -0.079168118, 143: 0.0, 144: 0.0, 145: 0.0, 146: 0.0, 147: -0.030216497, 148: 0.0, 149: 0.0, 150: 0.0, 151: -0.011597188, 152: -0.006862, 153: 0.0, 154: 0.0, 155: 0.0, 156: 0.133887731, 157: 0.052969162, 158: 0.0, 159: 0.0, 160: 0.695383713, 161: 0.535856145, 162: 0.0, 163: 0.0, 164: 0.0, 165: 0.0, 166: 0.652293169, 167: 0.708842709, 168: 0.0, 169: 0.740745672, 170: 0.747776475, 171: 0.729071967, 172: 0.0, 173: 0.0, 174: 0.0, 175: 0.0, 176: 0.661044922, 177: 0.0, 178: 0.0, 179: 0.0, 180: 0.616856309, 181: 0.0, 182: 0.0, 183: 0.0, 184: 0.0, 185: 0.0, 186: 0.0, 187: 0.0, 188: 0.560684025, 189: 0.0, 190: 0.0, 191: 0.496353516];
total_cost = 97.090636399;
total_earn = 22.005411071;
% _objective = 75.08522532800001;