production = [0: 0.0, 1: 0.0, 2: 0.0, 3: 0.0, 4: 0.0, 5: 0.0, 6: 0.0, 7: 0.0, 8: 0.0, 9: 0.0, 10: 0.0, 11: 0.0, 12: 0.0, 13: 0.0, 14: 0.0, 15: 0.0, 16: 0.0, 17: 0.0, 18: 0.0, 19: 0.0, 20: 0.0, 21: 0.0, 22: 0.0, 23: 0.0, 24: 0.0, 25: 0.008500000000000001, 26: 0.0432, 27: 0.075, 28: 0.0, 29: 0.1938, 30: 0.0, 31: 0.2167, 32: 0.0, 33: 0.1725, 34: 0.0, 35: 0.5405, 36: 0.0, 37: 0.583, 38: 0.0, 39: 0.0, 40: 0.0, 41: 2.0848, 42: 0.0, 43: 0.729, 44: 0.0, 45: 0.0, 46: 0.10240625, 47: 0.0, 48: 2.108, 49: 0.0, 50: 0.5305, 51: 1.8787, 52: 0.0, 53: 0.5545, 54: 0.85990625, 55: 0.0, 56: 0.63, 57: 0.0, 58: 0.0, 59: 0.3365, 60: 1.2377, 61: 0.2812, 62: 0.2893, 63: 0.0, 64: 0.0, 65: 0.4507, 66: 0.0, 67: 0.099, 68: 0.0, 69: 0.0, 70: 0.0, 71: 0.0307, 72: 0.0, 73: 0.0, 74: 0.0, 75: 0.0, 76: 0.0, 77: 0.0, 78: 0.0, 79: 0.0, 80: 0.0, 81: 0.0, 82: 0.0, 83: 0.0, 84: 0.0, 85: 0.0, 86: 0.0, 87: 0.0, 88: 0.0, 89: 0.0, 90: 0.0, 91: 0.0, 92: 0.0, 93: 0.0, 94: 0.0, 95: 0.0, 96: 0.0, 97: 0.0, 98: 0.0, 99: 0.0, 100: 0.0, 101: 0.0, 102: 0.0, 103: 0.0, 104: 0.0, 105: 0.0, 106: 0.0, 107: 0.0, 108: 0.0, 109: 0.0, 110: 0.0, 111: 0.0, 112: 0.0, 113: 0.0, 114: 0.0, 115: 0.0, 116: 0.0, 117: 0.0, 118: 0.0, 119: 0.0032, 120: 0.0143, 121: 0.0442, 122: 0.0683, 123: 0.0, 124: 0.0, 125: 0.0, 126: 0.277, 127: 0.4938, 128: 0.0, 129: 0.0, 130: 0.9437, 131: 0.0, 132: 1.093, 133: 1.2185, 134: 0.0, 135: 0.113927802, 136: 0.0, 137: 1.0973, 138: 1.08940625, 139: 0.0, 140: 0.0, 141: 1.097, 142: 0.0, 143: 0.0655, 144: 0.0, 145: 0.0, 146: 0.0, 147: 0.0, 148: 0.0, 149: 0.5643, 150: 0.5122, 151: 0.0, 152: 0.3825, 153: 0.3468, 154: 0.0, 155: 0.0, 156: 0.0, 157: 0.0, 158: 0.4178, 159: 0.5433, 160: 0.0, 161: 0.255, 162: 0.0, 163: 0.0, 164: 0.161, 165: 0.0905, 166: 0.0, 167: 0.0, 168: 0.0, 169: 0.0008, 170: 0.0, 171: 0.0, 172: 0.0, 173: 0.0, 174: 0.0, 175: 0.0, 176: 0.0, 177: 0.0, 178: 0.0, 179: 0.0, 180: 0.0, 181: 0.0, 182: 0.0, 183: 0.0, 184: 0.0, 185: 0.0, 186: 0.0, 187: 0.0, 188: 0.0, 189: 0.0, 190: 0.0, 191: 0.0];
buy = [0: 1.25610625, 1: 0.0, 2: 1.21990625, 3: 0.0, 4: 0.779136659, 5: 1.21670625, 6: 0.0, 7: 1.22010625, 8: 0.21960625, 9: 1.21990625, 10: 0.0, 11: 0.21820625, 12: 0.0, 13: 1.22460625, 14: 0.0, 15: 1.21940625, 16: 0.0, 17: 0.53640625, 18: 0.56420625, 19: 0.09810625000000001, 20: 0.09810625000000001, 21: 0.82602395, 22: 0.36990625, 23: 1.36640625, 24: 2.18620625, 25: 0.26190625, 26: 0.0, 27: 0.0, 28: 1.22410625, 29: 0.02880625, 30: 1.22560625, 31: 0.0, 32: 1.22010625, 33: 1.04840625, 34: 0.0, 35: 0.67140625, 36: 1.20970625, 37: 0.0, 38: 0.0, 39: 0.0, 40: 0.08960625, 41: 0.0, 42: 0.08740625, 43: 0.35940625, 44: 1.12210625, 45: 0.0, 46: 0.0, 47: 1.10920625, 48: 0.0, 49: 0.0, 50: 0.0, 51: 0.0, 52: 1.12620625, 53: 0.0, 54: 0.0, 55: 1.87640625, 56: 0.80740625, 57: 0.44310625, 58: 0.0, 59: 0.0, 60: 0.0, 61: 0.0, 62: 0.0, 63: 1.12290625, 64: 0.0, 65: 0.0, 66: 1.12840625, 67: 1.03540625, 68: 1.12210625, 69: 0.0, 70: 0.0, 71: 0.08420625, 72: 0.33220625, 73: 0.0, 74: 1.10010625, 75: 0.0, 76: 1.08570625, 77: 0.0, 78: 1.07840625, 79: 0.0, 80: 1.10370625, 81: 1.10320625, 82: 0.0, 83: 1.09440625, 84: 1.10470625, 85: 0.0, 86: 0.14040625, 87: 1.09620625, 88: 1.11140625, 89: 0.136628211, 90: 1.34040625, 91: 0.0, 92: 1.33470625, 93: 0.0, 94: 1.34870625, 95: 1.31240625, 96: 1.29760625, 97: 1.29810625, 98: 0.0, 99: 0.0, 100: 1.25140625, 101: 0.25510625, 102: 1.26190625, 103: 1.22740625, 104: 1.22740625, 105: 1.22290625, 106: 0.22160625, 107: 0.22840625, 108: 1.23060625, 109: 0.0, 110: 1.22190625, 111: 0.22640625, 112: 0.0, 113: 1.89190625, 114: 0.0, 115: 0.27490625, 116: 1.31660625, 117: 0.0, 118: 1.30460625, 119: 1.29570625, 120: 1.20460625, 121: 1.18040625, 122: 0.15530625, 123: 0.0, 124: 0.09260625, 125: 1.10010625, 126: 0.0, 127: 0.60210625, 128: 0.0, 129: 0.0, 130: 0.0, 131: 1.09910625, 132: 0.0, 133: 0.0, 134: 0.08920625, 135: 0.0, 136: 1.09740625, 137: 0.0, 138: 0.0, 139: 0.0, 140: 0.0, 141: 0.0, 142: 0.0, 143: 1.02290625, 144: 0.0, 145: 1.09490625, 146: 0.0, 147: 0.0, 148: 1.10320625, 149: 1.03160625, 150: 1.03840625, 151: 0.83740625, 152: 0.0, 153: 1.03580625, 154: 0.0, 155: 0.0, 156: 0.08640625, 157: 1.08820625, 158: 0.67660625, 159: 0.0, 160: 1.09010625, 161: 0.0, 162: 1.09570625, 163: 1.09760625, 164: 0.92670625, 165: 0.99870625, 166: 0.0, 167: 0.08570625, 168: 1.08460625, 169: 0.0, 170: 0.07820625, 171: 0.0, 172: 0.0, 173: 0.0, 174: 0.07710625, 175: 0.0, 176: 0.0, 177: 1.08540625, 178: 1.09440625, 179: 1.09720625, 180: 0.09690625, 181: 0.0, 182: 0.0, 183: 1.09590625, 184: 0.11370625, 185: 1.12140625, 186: 1.12190625, 187: 0.0, 188: 0.0, 189: 0.0, 190: 0.0, 191: 1.12140625];
sell = [0: 0.0, 1: 0.559774246, 2: 0.0, 3: 0.597677845, 4: 0.0, 5: 0.0, 6: 0.68479375, 7: 0.0, 8: 0.0, 9: 0.0, 10: 0.67509375, 11: 0.0, 12: 0.68259375, 13: 0.0, 14: 0.67859375, 15: 0.0, 16: 0.39809375, 17: 0.0, 18: 0.0, 19: 0.0, 20: 0.0, 21: 0.0, 22: 0.0, 23: 0.0, 24: 0.0, 25: 0.0, 26: 0.67249375, 27: 0.74789375, 28: 0.0, 29: 0.0, 30: 0.0, 31: 0.90999375, 32: 0.0, 33: 0.0, 34: 0.68259375, 35: 0.0, 36: 0.0, 37: 0.49289375, 38: 0.0, 39: 0.8090937499999999, 40: 0.0, 41: 0.9955937500000001, 42: 0.0, 43: 0.0, 44: 0.0, 45: 0.79879375, 46: 0.0, 47: 0.0, 48: 2.90289375, 49: 0.79139375, 50: 1.32409375, 51: 2.66949375, 52: 0.0, 53: 0.67629375, 54: 0.0, 55: 0.0, 56: 0.0, 57: 0.0, 58: 0.45609375, 59: 0.82709375, 60: 1.12279375, 61: 0.0, 62: 0.17309375, 63: 0.0, 64: 0.78729375, 65: 1.23929375, 66: 0.0, 67: 0.0, 68: 0.0, 69: 0.77659375, 70: 0.76439375, 71: 0.0, 72: 0.0, 73: 0.442273224, 74: 0.0, 75: 0.80089375, 76: 0.0, 77: 0.641125484, 78: 0.0, 79: 0.81429375, 80: 0.0, 81: 0.0, 82: 0.80429375, 83: 0.0, 84: 0.0, 85: 0.79529375, 86: 0.0, 87: 0.0, 88: 0.0, 89: 0.0, 90: 0.0, 91: 0.56529375, 92: 0.0, 93: 0.55229375, 94: 0.0, 95: 0.0, 96: 0.0, 97: 0.0, 98: 0.6215937499999999, 99: 0.63909375, 100: 0.0, 101: 0.0, 102: 0.0, 103: 0.0, 104: 0.0, 105: 0.0, 106: 0.0, 107: 0.0, 108: 0.0, 109: 0.67789375, 110: 0.0, 111: 0.0, 112: 0.66509375, 113: 0.0, 114: 0.0, 115: 0.0, 116: 0.0, 117: 0.58689375, 118: 0.0, 119: 0.0, 120: 0.0, 121: 0.0, 122: 0.0, 123: 0.80859375, 124: 0.0, 125: 0.0, 126: 1.07529375, 127: 0.0, 128: 0.8090937499999999, 129: 0.80939375, 130: 1.74529375, 131: 0.0, 132: 0.99709375, 133: 2.03009375, 134: 0.0, 135: 0.0, 136: 0.0, 137: 0.00539375, 138: 0.0, 139: 0.80479375, 140: 0.80429375, 141: 1.01009375, 142: 0.81329375, 143: 0.0, 144: 0.80279375, 145: 0.0, 146: 0.81359375, 147: 0.8100937499999999, 148: 0.0, 149: 0.0, 150: 0.0, 151: 0.0, 152: 0.91859375, 153: 0.0, 154: 0.54959375, 155: 0.58189375, 156: 0.0, 157: 0.0, 158: 0.0, 159: 1.34689375, 160: 0.0, 161: 1.06829375, 162: 0.0, 163: 0.0, 164: 0.0, 165: 0.0, 166: 0.8070937500000001, 167: 0.0, 168: 0.0, 169: 0.82259375, 170: 0.0, 171: 0.81179375, 172: 0.8130937499999999, 173: 0.81489375, 174: 0.0, 175: 0.82259375, 176: 0.81359375, 177: 0.0, 178: 0.0, 179: 0.0, 180: 0.0, 181: 0.79529375, 182: 0.79729375, 183: 0.0, 184: 0.0, 185: 0.0, 186: 0.0, 187: 0.77939375, 188: 0.78659375, 189: 0.78629375, 190: 0.0, 191: 0.0];
charge = [0: 1.0, 1: 0.0, 2: 1.0, 3: 0.0, 4: 0.568230409, 5: 1.0, 6: 0.0, 7: 1.0, 8: 0.0, 9: 1.0, 10: 0.0, 11: 0.0, 12: 0.0, 13: 1.0, 14: 0.0, 15: 1.0, 16: 0.0, 17: 0.0, 18: 0.0, 19: 0.0, 20: 0.0, 21: 0.6638177, 22: 0.0, 23: 1.0, 24: 1.0, 25: 0.0, 26: 0.0, 27: 0.0, 28: 1.0, 29: 0.0, 30: 1.0, 31: 0.0, 32: 1.0, 33: 1.0, 34: 0.0, 35: 1.0, 36: 1.0, 37: 0.0, 38: 0.0, 39: 0.0, 40: 0.0, 41: 1.0, 42: 0.0, 43: 1.0, 44: 1.0, 45: 0.0, 46: 0.0, 47: 1.0, 48: 0.0, 49: 0.0, 50: 0.0, 51: 0.0, 52: 1.0, 53: 0.0, 54: 0.0, 55: 1.0, 56: 1.0, 57: 0.0, 58: 0.0, 59: 0.0, 60: 0.0, 61: 0.16229375, 62: 0.0, 63: 1.0, 64: 0.0, 65: 0.0, 66: 1.0, 67: 1.0, 68: 1.0, 69: 0.0, 70: 0.0, 71: 0.0, 72: 0.0, 73: 0.0, 74: 1.0, 75: 0.0, 76: 1.0, 77: 0.0, 78: 1.0, 79: 0.0, 80: 1.0, 81: 1.0, 82: 0.0, 83: 1.0, 84: 1.0, 85: 0.0, 86: 0.0, 87: 1.0, 88: 1.0, 89: 0.0, 90: 1.0, 91: 0.0, 92: 1.0, 93: 0.0, 94: 1.0, 95: 1.0, 96: 1.0, 97: 1.0, 98: 0.0, 99: 0.0, 100: 1.0, 101: 0.0, 102: 1.0, 103: 1.0, 104: 1.0, 105: 1.0, 106: 0.0, 107: 0.0, 108: 1.0, 109: 0.0, 110: 1.0, 111: 0.0, 112: 0.0, 113: 1.0, 114: 0.0, 115: 0.0, 116: 1.0, 117: 0.0, 118: 1.0, 119: 1.0, 120: 1.0, 121: 1.0, 122: 0.0, 123: 0.0, 124: 0.0, 125: 1.0, 126: 0.0, 127: 1.0, 128: 0.0, 129: 0.0, 130: 0.0, 131: 1.0, 132: 0.0, 133: 0.0, 134: 0.0, 135: 0.018221552, 136: 1.0, 137: 1.0, 138: 1.0, 139: 0.0, 140: 0.0, 141: 0.0, 142: 0.0, 143: 1.0, 144: 0.0, 145: 1.0, 146: 0.0, 147: 0.0, 148: 1.0, 149: 1.0, 150: 1.0, 151: 0.0, 152: 0.0, 153: 1.0, 154: 0.0, 155: 0.0, 156: 0.0, 157: 1.0, 158: 1.0, 159: 0.0, 160: 1.0, 161: 0.0, 162: 1.0, 163: 1.0, 164: 1.0, 165: 1.0, 166: 0.0, 167: 0.0, 168: 1.0, 169: 0.0, 170: 0.0, 171: 0.0, 172: 0.0, 173: 0.0, 174: 0.0, 175: 0.0, 176: 0.0, 177: 1.0, 178: 1.0, 179: 1.0, 180: 0.0, 181: 0.0, 182: 0.0, 183: 1.0, 184: 0.0, 185: 1.0, 186: 1.0, 187: 0.0, 188: 0.0, 189: 0.0, 190: 0.0, 191: 1.0];
discharge = [0: 0.0, 1: 0.908756106, 2: 0.0, 3: 0.898760106, 4: 0.0, 5: 0.0, 6: 1.0, 7: 0.0, 8: 0.0, 9: 0.0, 10: 1.0, 11: 0.0, 12: 1.0, 13: 0.0, 14: 1.0, 15: 0.0, 16: 1.0, 17: 0.0, 18: 0.0, 19: 0.0, 20: 0.0, 21: 0.0, 22: 0.0, 23: 0.0, 24: 0.0, 25: 0.0, 26: 1.0, 27: 1.0, 28: 0.0, 29: 0.0, 30: 0.0, 31: 1.0, 32: 0.0, 33: 0.0, 34: 1.0, 35: 0.0, 36: 0.0, 37: 0.0, 38: 0.0985625, 39: 1.0, 40: 0.0, 41: 0.0, 42: 0.0, 43: 0.0, 44: 0.0, 45: 1.0, 46: 0.0, 47: 0.0, 48: 1.0, 49: 1.0, 50: 1.0, 51: 1.0, 52: 0.0, 53: 1.0, 54: 0.0, 55: 0.0, 56: 0.0, 57: 0.0, 58: 1.0, 59: 1.0, 60: 0.0, 61: 0.0, 62: 0.0, 63: 0.0, 64: 1.0, 65: 1.0, 66: 0.0, 67: 0.0, 68: 0.0, 69: 1.0, 70: 1.0, 71: 0.0, 72: 0.0, 73: 0.59264386, 74: 0.0, 75: 1.0, 76: 0.0, 77: 0.797479704, 78: 0.0, 79: 1.0, 80: 0.0, 81: 0.0, 82: 1.0, 83: 0.0, 84: 0.0, 85: 1.0, 86: 0.0, 87: 0.0, 88: 0.0, 89: 0.16308671, 90: 0.0, 91: 1.0, 92: 0.0, 93: 1.0, 94: 0.0, 95: 0.0, 96: 0.0, 97: 0.0, 98: 1.0, 99: 1.0, 100: 0.0, 101: 0.0, 102: 0.0, 103: 0.0, 104: 0.0, 105: 0.0, 106: 0.0, 107: 0.0, 108: 0.0, 109: 1.0, 110: 0.0, 111: 0.0, 112: 1.0, 113: 0.0, 114: 0.243451389, 115: 0.0, 116: 0.0, 117: 1.0, 118: 0.0, 119: 0.0, 120: 0.0, 121: 0.0, 122: 0.0, 123: 1.0, 124: 0.0, 125: 0.0, 126: 1.0, 127: 0.0, 128: 1.0, 129: 1.0, 130: 1.0, 131: 0.0, 132: 0.0, 133: 1.0, 134: 0.0, 135: 0.0, 136: 0.0, 137: 0.0, 138: 0.0, 139: 1.0, 140: 1.0, 141: 0.0, 142: 1.0, 143: 0.0, 144: 1.0, 145: 0.0, 146: 1.0, 147: 1.0, 148: 0.0, 149: 0.0, 150: 0.0, 151: 0.0, 152: 1.0, 153: 0.0, 154: 1.0, 155: 1.0, 156: 0.0, 157: 0.0, 158: 0.0, 159: 1.0, 160: 0.0, 161: 1.0, 162: 0.0, 163: 0.0, 164: 0.0, 165: 0.0, 166: 1.0, 167: 0.0, 168: 0.0, 169: 1.0, 170: 0.0, 171: 1.0, 172: 1.0, 173: 1.0, 174: 0.0, 175: 1.0, 176: 1.0, 177: 0.0, 178: 0.0, 179: 0.0, 180: 0.0, 181: 1.0, 182: 1.0, 183: 0.0, 184: 0.0, 185: 0.0, 186: 0.0, 187: 1.0, 188: 1.0, 189: 1.0, 190: 0.135451389, 191: 0.0];
soc = [0: 3.559468, 1: 2.65, 2: 3.54947, 3: 2.65, 4: 3.160877368, 5: 4.060245192, 6: 3.059433143, 7: 3.958821257, 8: 3.958029492, 9: 4.857237887, 10: 3.856266439, 11: 3.855495186, 12: 2.854724087, 13: 3.754153142, 14: 2.753402311, 15: 3.652851631, 16: 2.65212106, 17: 2.651590636, 18: 2.651060318, 19: 2.650530106, 20: 2.65, 21: 3.24690593, 22: 3.246256549, 23: 4.145607298, 24: 5.044778176, 25: 5.043769221, 26: 4.042760467, 27: 3.041951915, 28: 3.941343524, 29: 3.940555256, 30: 4.839767145, 31: 3.838799191, 32: 4.738031431, 33: 5.637083825, 34: 4.635956408, 35: 5.535029217, 36: 6.433922211, 37: 6.432635427, 38: 6.3327864, 39: 5.331519842, 40: 5.330453538, 41: 6.229387448, 42: 6.22814157, 43: 7.126895942, 44: 8.025470563000001, 45: 7.023865469, 46: 7.022460696, 47: 7.921056203, 48: 6.919471992, 49: 5.918088098, 50: 4.91690448, 51: 3.915921099, 52: 4.815137915, 53: 3.814174887, 54: 3.813412053, 55: 4.71264937, 56: 5.61170684, 57: 5.610584499, 58: 4.609462382, 59: 3.608540489, 60: 3.607818781, 61: 3.753161593, 62: 3.75241096, 63: 4.651660478, 64: 3.650730146, 65: 2.65, 66: 3.54947, 67: 4.448760106, 68: 5.347870354, 69: 4.34680078, 70: 3.34593142, 71: 3.345262233, 72: 3.344593181, 73: 2.751280402, 74: 3.650730146, 75: 2.65, 76: 3.54947, 77: 2.751280402, 78: 3.650730146, 79: 2.65, 80: 3.54947, 81: 4.448760106, 82: 3.447870354, 83: 4.34718078, 84: 5.246311344, 85: 4.245262081, 86: 4.244413029, 87: 5.143564146, 88: 6.042535434, 89: 5.878240216, 90: 6.777064568, 91: 5.775709155, 92: 6.674554014, 93: 5.673219103, 94: 6.572084459, 95: 7.470770042, 96: 8.369275888000001, 97: 9.267602032999999, 98: 8.265748512, 99: 7.264095363, 100: 8.162642544000001, 101: 8.161010015, 102: 9.059377812999999, 103: 9.957565938, 104: 10.855574424, 105: 11.75340331, 106: 11.751052629, 107: 11.748702418, 108: 12.646352678, 109: 11.643823407, 110: 12.541494643, 111: 12.538986344, 112: 11.536478546, 113: 12.434171251, 114: 12.188233028, 115: 12.185795381, 116: 13.083358222, 117: 12.08074155, 118: 12.978325402, 119: 13.875729737, 120: 14.772954591, 121: 15.67, 122: 15.666866, 123: 14.663732627, 124: 14.66079988, 125: 15.55786772, 126: 14.554756147, 127: 15.451845196, 128: 14.448754826, 129: 13.445865076, 130: 12.443175903, 131: 13.340687267, 132: 13.33801913, 133: 12.335351526, 134: 12.332884456, 135: 12.346817275, 136: 13.244347912, 137: 14.141699042, 138: 15.038870702, 139: 14.035862928, 140: 13.033055756, 141: 13.030449144, 142: 12.027843055, 143: 12.925437486, 144: 11.922852399, 145: 12.820467828, 146: 11.817903735, 147: 10.815540154, 148: 11.713377046, 149: 12.61103437, 150: 13.508512163, 151: 13.505810461, 152: 12.503109299, 153: 13.400608677, 154: 12.397928555, 155: 11.39544897, 156: 11.39316988, 157: 12.290891246, 158: 13.188433068, 159: 12.185795381, 160: 13.083358222, 161: 12.08074155, 162: 12.978325402, 163: 13.875729737, 164: 14.772954591, 165: 15.67, 166: 14.666866, 167: 14.663932627, 168: 15.56099984, 169: 14.55788764, 170: 14.554976063, 171: 13.552065068, 172: 12.549354655, 173: 11.546844784, 174: 11.544535415, 175: 10.542226508, 176: 9.540118061999999, 177: 10.438210039, 178: 11.336122397, 179: 12.233855172, 180: 12.231408401, 181: 11.228962119, 182: 10.226716327, 183: 11.124670984, 184: 11.12244605, 185: 12.02022156, 186: 12.917817516, 187: 11.915233953, 188: 10.912850906, 189: 9.910668336000001, 190: 9.773234813, 191: 10.671280166];
cost = [0: 0.885533474, 1: 0.0, 2: 0.863418894, 3: 0.0, 4: 0.543127012, 5: 0.8614640139999999, 6: 0.0, 7: 0.863541074, 8: 0.134157458, 9: 0.863418894, 10: 0.0, 11: 0.133302198, 12: 0.0, 13: 0.8662901240000001, 14: 0.0, 15: 0.863113444, 16: 0.0, 17: 0.327690578, 18: 0.344673598, 19: 0.059933108, 20: 0.059933108, 21: 0.583066789, 22: 0.225975728, 23: 0.952915744, 24: 2.71888912, 25: 0.311563675, 26: 0.0, 27: 0.0, 28: 1.57437496, 29: 0.034267915, 30: 1.57615936, 31: 0.0, 32: 1.56961656, 33: 1.36536224, 34: 0.0, 35: 0.91688304, 36: 1.55724472, 37: 0.0, 38: 0.0, 39: 0.0, 40: 0.106595595, 41: 0.118178165, 42: 0.103978475, 43: 0.54572784, 44: 1.45303576, 45: 0.0, 46: 0.0, 47: 1.43768992, 48: 0.0, 49: 0.0, 50: 0.0, 51: 0.0, 52: 0.806177564, 53: 0.0, 54: 0.0, 55: 1.264474744, 56: 0.611422644, 57: 0.270693608, 58: 0.0, 59: 0.0, 60: 0.0, 61: 0.019179578, 62: 0.0, 63: 1.45398744, 64: 0.0, 65: 0.0, 66: 1.46053024, 67: 1.34989744, 68: 1.45303576, 69: 0.0, 70: 0.0, 71: 0.100171755, 72: 0.395192555, 73: 0.0, 74: 1.42686456, 75: 0.0, 76: 1.40973432, 77: 0.0, 78: 1.40105024, 79: 0.0, 80: 1.43114712, 81: 1.43055232, 82: 0.0, 83: 1.42008384, 84: 1.43233672, 85: 0.0, 86: 0.167027275, 87: 1.42222512, 88: 0.797136244, 89: 0.083466174, 90: 0.937032344, 91: 0.0, 92: 0.933550214, 93: 0.0, 94: 0.942102814, 95: 0.919927144, 96: 0.910885824, 97: 0.911191274, 98: 0.0, 99: 0.0, 100: 0.882662244, 101: 0.155844408, 102: 0.889076694, 103: 0.868000644, 104: 0.868000644, 105: 0.865251594, 106: 0.135379258, 107: 0.139533378, 108: 0.869955524, 109: 0.0, 110: 0.864640694, 111: 0.138311578, 112: 0.0, 113: 1.273943694, 114: 0.0, 115: 0.167940228, 116: 0.922492924, 117: 0.0, 118: 0.915162124, 119: 0.909725114, 120: 1.55117776, 121: 1.52238944, 122: 0.184752315, 123: 0.0, 124: 0.110164395, 125: 1.42686456, 126: 0.0, 127: 0.83444376, 128: 0.0, 129: 0.0, 130: 0.0, 131: 1.42567496, 132: 0.0, 133: 0.0, 134: 0.106119755, 135: 0.00215339, 136: 1.42365264, 137: 0.118178165, 138: 0.118178165, 139: 0.0, 140: 0.0, 141: 0.0, 142: 0.0, 143: 1.33502744, 144: 0.0, 145: 1.42067864, 146: 0.0, 147: 0.0, 148: 0.792126864, 149: 0.748386424, 150: 0.752540544, 151: 0.511571478, 152: 0.0, 153: 0.750952204, 154: 0.0, 155: 0.0, 156: 0.102788875, 157: 1.41270832, 158: 0.92306896, 159: 0.0, 160: 1.41496856, 161: 0.0, 162: 1.42163032, 163: 1.42389056, 164: 1.22058792, 165: 1.30623912, 166: 0.0, 167: 0.101956155, 168: 1.40842576, 169: 0.0, 170: 0.09303415499999999, 171: 0.0, 172: 0.0, 173: 0.0, 174: 0.09172559499999999, 175: 0.0, 176: 0.0, 177: 1.40937744, 178: 1.42008384, 179: 1.42341472, 180: 0.115279675, 181: 0.0, 182: 0.0, 183: 1.42186824, 184: 0.069463148, 185: 0.803245244, 186: 0.803550694, 187: 0.0, 188: 0.0, 189: 0.0, 190: 0.0, 191: 0.803245244];
earn = [0: 0.0, 1: 0.434944589, 2: 0.0, 3: 0.438097861, 4: 0.0, 5: 0.0, 6: 0.485861166, 7: 0.0, 8: 0.0, 9: 0.0, 10: 0.458726203, 11: 0.0, 12: 0.464300269, 13: 0.0, 14: 0.466465344, 15: 0.0, 16: 0.280377428, 17: 0.0, 18: 0.0, 19: 0.0, 20: 0.0, 21: 0.0, 22: 0.0, 23: 0.0, 24: 0.0, 25: 0.0, 26: 0.504908308, 27: 0.561518628, 28: 0.0, 29: 0.0, 30: 0.0, 31: 0.534530329, 32: 0.0, 33: 0.0, 34: 0.346416328, 35: 0.0, 36: 0.0, 37: 0.159697575, 38: 0.0, 39: 0.177110622, 40: 0.0, 41: 0.153918794, 42: 0.0, 43: 0.0, 44: 0.0, 45: 0.00639035, 46: 0.0, 47: 0.0, 48: -0.118147776, 49: -0.033001119, 50: -0.017875266, 51: 0.000266949, 52: 0.0, 53: -0.003719616, 54: 0.0, 55: 0.0, 56: 0.0, 57: 0.0, 58: 0.097512844, 59: 0.241345956, 60: 0.426100228, 61: 0.0, 62: 0.08611414100000001, 63: 0.0, 64: 0.48119394, 65: 0.780878992, 66: 0.0, 67: 0.0, 68: 0.0, 69: 0.607917588, 70: 0.621681437, 71: 0.0, 72: 0.0, 73: 0.402468634, 74: 0.0, 75: 0.725449559, 76: 0.0, 77: 0.567524278, 78: 0.0, 79: 0.670896621, 80: 0.0, 81: 0.0, 82: 0.605231047, 83: 0.0, 84: 0.0, 85: 0.553444921, 86: 0.0, 87: 0.0, 88: 0.0, 89: 0.0, 90: 0.0, 91: 0.344376952, 92: 0.0, 93: 0.315359731, 94: 0.0, 95: 0.0, 96: 0.0, 97: 0.0, 98: 0.343181909, 99: 0.347347453, 100: 0.0, 101: 0.0, 102: 0.0, 103: 0.0, 104: 0.0, 105: 0.0, 106: 0.0, 107: 0.0, 108: 0.0, 109: 0.358402426, 110: 0.0, 111: 0.0, 112: 0.358086475, 113: 0.0, 114: 0.0, 115: 0.0, 116: 0.0, 117: 0.328484432, 118: 0.0, 119: 0.0, 120: 0.0, 121: 0.0, 122: 0.0, 123: 0.422328516, 124: 0.0, 125: 0.0, 126: 0.473881956, 127: 0.0, 128: 0.243132672, 129: 0.158803054, 130: 0.242770361, 131: 0.0, 132: 0.061919522, 133: 0.04222595, 134: 0.0, 135: 0.0, 136: 0.0, 137: -2.5351e-05, 138: 0.0, 139: -0.014727726, 140: -0.044397015, 141: -0.070807572, 142: -0.062786278, 143: 0.0, 144: -0.067836072, 145: 0.0, 146: -0.029452094, 147: -0.030216497, 148: 0.0, 149: 0.0, 150: 0.0, 151: 0.0, 152: -0.011758, 153: 0.0, 154: -0.000934309, 155: -5.8189e-05, 156: 0.0, 157: 0.0, 158: 0.0, 159: 0.350192375, 160: 0.0, 161: 0.535856145, 162: 0.0, 163: 0.0, 164: 0.0, 165: 0.0, 166: 0.652293169, 167: 0.0, 168: 0.0, 169: 0.740745672, 170: 0.0, 171: 0.729071967, 172: 0.7389396, 173: 0.721099479, 174: 0.0, 175: 0.707841922, 176: 0.661044922, 177: 0.0, 178: 0.0, 179: 0.0, 180: 0.0, 181: 0.60315078, 182: 0.574370418, 183: 0.0, 184: 0.0, 185: 0.0, 186: 0.0, 187: 0.531000962, 188: 0.560684025, 189: 0.541599135, 190: 0.0, 191: 0.0];
total_cost = 97.173705649;
total_earn = 24.523740025;
% _objective = 72.649965624;