production = [0: 0.0, 1: 0.0, 2: 0.0, 3: 0.0, 4: 0.0, 5: 0.0, 6: 0.0, 7: 0.0, 8: 0.0, 9: 0.0, 10: 0.0, 11: 0.0, 12: 0.0, 13: 0.0, 14: 0.0, 15: 0.0, 16: 0.0, 17: 0.0, 18: 0.0, 19: 0.0, 20: 0.0, 21: 0.0003, 22: 0.001, 23: 0.0, 24: 0.0338, 25: 0.0665, 26: 0.098, 27: 0.0, 28: 0.0, 29: 0.2382, 30: 0.0, 31: 0.0, 32: 0.4788, 33: 0.8110000000000001, 34: 1.0688, 35: 0.0, 36: 0.0, 37: 0.0, 38: 0.0, 39: 1.5982, 40: 1.643, 41: 1.7178, 42: 0.0, 43: 1.8395, 44: 0.0, 45: 0.0, 46: 0.0, 47: 1.9095, 48: 0.0, 49: 0.0, 50: 1.9125, 51: 0.0, 52: 0.0, 53: 0.0, 54: 0.0, 55: 0.0, 56: 1.6413, 57: 1.5493, 58: 1.4307, 59: 1.265, 60: 0.0, 61: 0.0, 62: 0.0, 63: 0.6907, 64: 0.7492, 65: 0.637, 66: 0.0, 67: 0.0, 68: 0.0, 69: 0.0, 70: 0.0, 71: 0.0, 72: 0.0, 73: 0.0047, 74: 0.0005, 75: 0.0, 76: 0.0, 77: 0.0, 78: 0.0, 79: 0.0, 80: 0.0, 81: 0.0, 82: 0.0, 83: 0.0, 84: 0.0, 85: 0.0, 86: 0.0, 87: 0.0, 88: 0.0, 89: 0.0, 90: 0.0, 91: 0.0, 92: 0.0, 93: 0.0, 94: 0.0, 95: 0.0];
buy = [0: 1.249575, 1: 0.0, 2: 1.243175, 3: 0.0, 4: 1.252875, 5: 0.0, 6: 0.0, 7: 0.0, 8: 0.0, 9: 0.254075, 10: 1.247875, 11: 1.246375, 12: 0.0, 13: 0.256375, 14: 0.258875, 15: 0.249375, 16: 1.246075, 17: 0.250075, 18: 0.043375, 19: 1.250075, 20: 1.290875, 21: 1.287275, 22: 0.0, 23: 1.282875, 24: 0.0, 25: 1.172875, 26: 0.0, 27: 0.0, 28: 1.125575, 29: 0.0, 30: 0.0, 31: 0.0, 32: 0.647575, 33: 0.316175, 34: 0.048775, 35: 0.0, 36: 0.0, 37: 1.127175, 38: 0.127175, 39: 0.0, 40: 0.0, 41: 0.0, 42: 0.0, 43: 0.0, 44: 0.136175, 45: 1.413375, 46: 1.146875, 47: 0.0, 48: 0.147375, 49: 0.0, 50: 0.0, 51: 1.146875, 52: 0.0, 53: 1.683075, 54: 1.579375, 55: 0.0, 56: 0.0, 57: 0.0, 58: 0.023375, 59: 0.0, 60: 1.140175, 61: 1.402075, 62: 1.144875, 63: 0.492975, 64: 0.0, 65: 0.519675, 66: 1.153174603, 67: 0.0, 68: 1.147575, 69: 1.213575, 70: 0.190375, 71: 0.0, 72: 0.0, 73: 1.397675, 74: 0.0, 75: 0.107875, 76: 1.108075, 77: 1.130575, 78: 0.0, 79: 1.133075, 80: 1.123875, 81: 0.0, 82: 1.134675, 83: 0.0, 84: 0.132075, 85: 0.0, 86: 0.160575, 87: 0.132875, 88: 0.0, 89: 1.378675, 90: 1.426875, 91: 1.429175, 92: 0.437875, 93: 1.442375, 94: 0.402075, 95: 0.0];
sell = [0: 0.0, 1: 0.654425, 2: 0.0, 3: 0.649125, 4: 0.0, 5: 0.646625, 6: 0.655425, 7: 0.654625, 8: 0.647625, 9: 0.0, 10: 0.0, 11: 0.0, 12: 0.655125, 13: 0.0, 14: 0.0, 15: 0.0, 16: 0.0, 17: 0.0, 18: 0.0, 19: 0.0, 20: 0.0, 21: 0.0, 22: 0.609625, 23: 0.0, 24: 0.684225, 25: 0.0, 26: 0.880125, 27: 0.772625, 28: 0.0, 29: 1.009025, 30: 0.781625, 31: 0.781925, 32: 0.0, 33: 0.0, 34: 0.0, 35: 0.778325, 36: 0.7711249999999999, 37: 0.0, 38: 0.0, 39: 0.476525, 40: 2.420825, 41: 1.587925, 42: 0.300897495, 43: 0.681125, 44: 0.0, 45: 0.0, 46: 0.0, 47: 0.7621250000000001, 48: 0.0, 49: 0.773625, 50: 1.771325, 51: 0.0, 52: 0.765625, 53: 0.0, 54: 0.0, 55: 0.013625, 56: 1.168425, 57: 1.060425, 58: 0.0, 59: 1.708925, 60: 0.0, 61: 0.0, 62: 0.0, 63: 0.0, 64: 1.446525, 65: 0.0, 66: 0.0, 67: 0.753125, 68: 0.0, 69: 0.0, 70: 0.0, 71: 0.743825, 72: 0.715125, 73: 0.0, 74: 0.0, 75: 0.0, 76: 0.0, 77: 0.0, 78: 0.768625, 79: 0.0, 80: 0.0, 81: 0.774925, 82: 0.0, 83: 0.766625, 84: 0.0, 85: 0.775925, 86: 0.0, 87: 0.0, 88: 0.767925, 89: 0.0, 90: 0.0, 91: 0.0, 92: 0.0, 93: 0.0, 94: 0.0, 95: 0.509425];
charge = [0: 1.0, 1: 0.0, 2: 1.0, 3: 0.0, 4: 1.0, 5: 0.0, 6: 0.0, 7: 0.0, 8: 0.0, 9: 0.0, 10: 1.0, 11: 1.0, 12: 0.0, 13: 0.0, 14: 0.0, 15: 0.0, 16: 1.0, 17: 0.0, 18: 0.0, 19: 1.0, 20: 1.0, 21: 1.0, 22: 0.0, 23: 1.0, 24: 0.0, 25: 1.0, 26: 0.0, 27: 0.0, 28: 1.0, 29: 0.0, 30: 0.0, 31: 0.0, 32: 1.0, 33: 1.0, 34: 1.0, 35: 0.0, 36: 0.0, 37: 1.0, 38: 0.0, 39: 1.0, 40: 0.0, 41: 0.0, 42: 0.0, 43: 1.0, 44: 0.0, 45: 1.0, 46: 1.0, 47: 1.0, 48: 0.0, 49: 0.0, 50: 0.0, 51: 1.0, 52: 0.0, 53: 1.0, 54: 1.0, 55: 0.0, 56: 0.0, 57: 0.0, 58: 1.0, 59: 0.0, 60: 1.0, 61: 1.0, 62: 1.0, 63: 1.0, 64: 0.0, 65: 1.0, 66: 1.0, 67: 0.0, 68: 1.0, 69: 1.0, 70: 0.0, 71: 0.0, 72: 0.0, 73: 1.0, 74: 0.0, 75: 0.0, 76: 1.0, 77: 1.0, 78: 0.0, 79: 1.0, 80: 1.0, 81: 0.0, 82: 1.0, 83: 0.0, 84: 0.0, 85: 0.0, 86: 0.0, 87: 0.0, 88: 0.0, 89: 1.0, 90: 1.0, 91: 1.0, 92: 0.0, 93: 1.0, 94: 0.0, 95: 0.0];
discharge = [0: 0.0, 1: 1.0, 2: 0.0, 3: 1.0, 4: 0.0, 5: 1.0, 6: 1.0, 7: 1.0, 8: 1.0, 9: 0.0, 10: 0.0, 11: 0.0, 12: 1.0, 13: 0.0, 14: 0.0, 15: 0.0, 16: 0.0, 17: 0.0, 18: 1.0, 19: 0.0, 20: 0.0, 21: 0.0, 22: 1.0, 23: 0.0, 24: 1.0, 25: 0.0, 26: 1.0, 27: 1.0, 28: 0.0, 29: 1.0, 30: 1.0, 31: 1.0, 32: 0.0, 33: 0.0, 34: 0.0, 35: 1.0, 36: 1.0, 37: 0.0, 38: 0.0, 39: 0.0, 40: 1.0, 41: 0.0, 42: 0.487524995, 43: 0.0, 44: 0.0, 45: 0.0, 46: 0.0, 47: 0.0, 48: 0.0, 49: 1.0, 50: 0.0, 51: 0.0, 52: 1.0, 53: 0.0, 54: 0.0, 55: 1.0, 56: 0.0, 57: 0.0, 58: 0.0, 59: 1.0, 60: 0.0, 61: 0.0, 62: 0.0, 63: 0.0, 64: 1.0, 65: 0.0, 66: 0.0, 67: 1.0, 68: 0.0, 69: 0.0, 70: 0.0, 71: 1.0, 72: 1.0, 73: 0.0, 74: 0.145416667, 75: 0.0, 76: 0.0, 77: 0.0, 78: 1.0, 79: 0.0, 80: 0.0, 81: 1.0, 82: 0.0, 83: 1.0, 84: 0.0, 85: 1.0, 86: 0.0, 87: 0.0, 88: 1.0, 89: 0.0, 90: 0.0, 91: 0.0, 92: 0.0, 93: 0.0, 94: 0.0, 95: 1.0];
soc = [0: 9.678243999999999, 1: 8.676308350999999, 2: 9.574573089999999, 3: 8.572658175000001, 4: 9.470943643, 5: 8.469049455, 6: 7.467355645, 7: 6.465862174, 8: 5.464569001, 9: 5.463476087, 10: 6.362383392, 11: 7.261110915, 12: 6.259658693, 13: 6.258406761, 14: 6.25715508, 15: 6.255903649, 16: 7.154652468, 17: 7.153221538, 18: 6.151790894, 19: 7.050560535, 20: 7.949150423, 21: 8.847560593000001, 22: 7.845791081, 23: 8.744221923, 24: 7.742473078, 25: 8.640924584, 26: 7.639196399, 27: 6.63766856, 28: 7.536341026, 29: 6.534833758, 30: 5.533526791, 31: 4.532420086, 32: 5.431513602, 33: 6.330427299, 34: 7.229161213, 35: 6.227715381, 36: 5.226469838, 37: 6.125424544, 38: 6.124199459, 39: 7.022974619, 40: 6.021570024, 41: 6.02036571, 42: 5.531636643, 43: 6.430530315, 44: 6.429244209, 45: 7.32795836, 46: 8.226492769, 47: 9.124847470000001, 48: 9.123022500999999, 49: 8.121197896, 50: 8.119573657, 51: 9.017949742000001, 52: 8.016146151999999, 53: 8.914542923000001, 54: 9.812760014, 55: 8.810797462, 56: 8.809035303, 57: 8.807273496000001, 58: 9.705512041, 59: 8.703570938, 60: 9.601830224, 61: 10.499909858, 62: 11.397809876, 63: 12.295530314, 64: 11.293071208, 65: 12.190812594, 66: 13.088374431, 67: 12.085756757, 68: 12.983339605, 69: 13.880742937, 70: 13.877966789, 71: 12.875191195, 72: 11.872616157, 73: 12.770241634, 74: 12.622270919, 75: 12.619746465, 76: 13.517222515, 77: 14.414519071, 78: 13.411636167, 79: 14.30895384, 80: 15.206092049, 81: 14.203050831, 82: 15.10021022, 83: 14.097190178, 84: 14.09437074, 85: 13.091551866, 86: 13.088933556, 87: 13.086315769, 88: 12.083698506, 89: 12.981281766, 90: 13.87868551, 91: 14.775909773, 92: 14.772954591, 93: 15.67, 94: 15.666866, 95: 14.663732627];
cost = [0: 0.881543533, 1: 0.0, 2: 0.877633773, 3: 0.0, 4: 0.883559503, 5: 0.0, 6: 0.0, 7: 0.0, 8: 0.0, 9: 0.155214418, 10: 0.880505003, 11: 0.879588653, 12: 0.0, 13: 0.156619488, 14: 0.158146738, 15: 0.152343188, 16: 0.879405383, 17: 0.152770818, 18: 0.026497788, 19: 0.881848983, 20: 0.906773703, 21: 0.904574463, 22: 0.0, 23: 0.901886503, 24: 0.0, 25: 1.513430265, 26: 0.0, 27: 0.0, 28: 1.457162185, 29: 0.0, 30: 0.0, 31: 0.0, 32: 0.888533385, 33: 0.494299945, 34: 0.176200905, 35: 0.0, 36: 0.0, 37: 1.459065545, 38: 0.15128738, 39: 0.118178165, 40: 0.0, 41: 0.0, 42: 0.0, 43: 0.118178165, 44: 0.16199378, 45: 1.799529065, 46: 1.482500665, 47: 0.118178165, 48: 0.1753173, 49: 0.0, 50: 0.0, 51: 1.482500665, 52: 0.0, 53: 1.146368683, 54: 1.083018353, 55: 0.0, 56: 0.0, 57: 0.0, 58: 0.132457953, 59: 0.0, 60: 1.474530345, 61: 1.786086585, 62: 1.480121465, 63: 0.704621225, 64: 0.0, 65: 0.736383545, 66: 1.489995145, 67: 0.0, 68: 1.483333385, 69: 1.561846985, 70: 0.2264701, 71: 0.0, 72: 0.0, 73: 1.780852345, 74: 0.0, 75: 0.1283281, 76: 1.436344185, 77: 1.463110185, 78: 0.0, 79: 1.466084185, 80: 1.455139865, 81: 0.0, 82: 1.467987545, 83: 0.0, 84: 0.15711642, 85: 0.0, 86: 0.19102002, 87: 0.1580681, 88: 0.0, 89: 0.960410723, 90: 0.989856103, 91: 0.9912611730000001, 92: 0.267497837, 93: 0.999325053, 94: 0.245627617, 95: 0.0];
earn = [0: 0.0, 1: 0.384409245, 2: 0.0, 3: 0.373441613, 4: 0.0, 5: 0.37478385, 6: 0.388667025, 7: 0.371892463, 8: 0.393820763, 9: 0.0, 10: 0.0, 11: 0.0, 12: 0.390651038, 13: 0.0, 14: 0.0, 15: 0.0, 16: 0.0, 17: 0.0, 18: 0.0, 19: 0.0, 20: 0.0, 21: 0.0, 22: 0.43527225, 23: 0.0, 24: 0.537664005, 25: 0.0, 26: 0.6787524, 27: 0.580009588, 28: 0.0, 29: 0.73134132, 30: 0.57058625, 31: 0.536869705, 32: 0.0, 33: 0.0, 34: 0.0, 35: 0.436095498, 36: 0.4102385, 37: 0.0, 38: 0.0, 39: 0.197424308, 40: 0.67105269, 41: 0.480029728, 42: 0.09141265899999999, 43: 0.223204662, 44: 0.0, 45: 0.0, 46: 0.0, 47: 0.1438892, 48: 0.0, 49: 0.162693337, 50: 0.38189767, 51: 0.0, 52: 0.180304687, 53: 0.0, 54: 0.0, 55: 0.003475737, 56: 0.37623285, 57: 0.365740582, 58: 0.0, 59: 0.689893023, 60: 0.0, 61: 0.0, 62: 0.0, 63: 0.0, 64: 0.825965775, 65: 0.0, 66: 0.0, 67: 0.492619063, 68: 0.0, 69: 0.0, 70: 0.0, 71: 0.569993098, 72: 0.562159763, 73: 0.0, 74: 0.0, 75: 0.0, 76: 0.0, 77: 0.0, 78: 0.630503088, 79: 0.0, 80: 0.0, 81: 0.575071843, 82: 0.0, 83: 0.525138125, 84: 0.0, 85: 0.512188093, 86: 0.0, 87: 0.0, 88: 0.493084643, 89: 0.0, 90: 0.0, 91: 0.0, 92: 0.0, 93: 0.0, 94: 0.0, 95: 0.285991195];
total_cost = 48.73853075;
total_earn = 17.034461327;
% _objective = 31.704069423;