production = [0: 0.0, 1: 0.0, 2: 0.0, 3: 0.0, 4: 0.0, 5: 0.0, 6: 0.0, 7: 0.0, 8: 0.0, 9: 0.0, 10: 0.0, 11: 0.0, 12: 0.0, 13: 0.0, 14: 0.0, 15: 0.0, 16: 0.0, 17: 0.0, 18: 0.0, 19: 0.0, 20: 0.0, 21: 0.0003, 22: 0.0, 23: 0.0092, 24: 0.0, 25: 0.0665, 26: 0.0, 27: 0.1333, 28: 0.0, 29: 0.0, 30: 0.418, 31: 0.0, 32: 0.4788, 33: 0.8110000000000001, 34: 0.0, 35: 1.177, 36: 1.2203, 37: 0.0, 38: 1.45, 39: 0.0, 40: 1.643, 41: 1.7178, 42: 1.783, 43: 1.8395, 44: 0.0, 45: 0.0, 46: 1.917, 47: 0.0, 48: 0.0, 49: 0.0, 50: 0.0, 51: 0.0, 52: 1.8393, 53: 1.8148, 54: 0.0, 55: 0.0, 56: 0.0, 57: 1.5493, 58: 0.0, 59: 1.265, 60: 1.2283, 61: 1.127, 62: 0.0, 63: 0.6907, 64: 0.0, 65: 0.0, 66: 0.0, 67: 0.3455, 68: 0.2462, 69: 0.0, 70: 0.0, 71: 0.0, 72: 0.0255, 73: 0.0, 74: 0.0005, 75: 0.0, 76: 0.0, 77: 0.0, 78: 0.0, 79: 0.0, 80: 0.0, 81: 0.0, 82: 0.0, 83: 0.0, 84: 0.0, 85: 0.0, 86: 0.0, 87: 0.0, 88: 0.0, 89: 0.0, 90: 0.0, 91: 0.0, 92: 0.0, 93: 0.0, 94: 0.0, 95: 0.0];
buy = [0: 0.0, 1: 0.0, 2: 0.243175, 3: 1.250875, 4: 0.0, 5: 1.253375, 6: 0.244575, 7: 1.245375, 8: 1.252375, 9: 1.254075, 10: 0.0, 11: 1.246375, 12: 0.0, 13: 0.0, 14: 0.258875, 15: 0.0, 16: 1.246075, 17: 1.250075, 18: 1.943375, 19: 0.250075, 20: 0.0, 21: 0.0, 22: 1.291375, 23: 0.0, 24: 0.249575, 25: 1.172875, 26: 0.117875, 27: 0.0, 28: 1.125575, 29: 0.129175, 30: 0.0, 31: 0.0, 32: 0.647575, 33: 0.316175, 34: 1.117575, 35: 0.0, 36: 0.0, 37: 0.0, 38: 0.0, 39: 0.121675, 40: 0.0, 41: 0.0, 42: 0.0, 43: 0.0, 44: 0.136175, 45: 0.0, 46: 0.0, 47: 0.0, 48: 0.0, 49: 0.0, 50: 0.141175, 51: 0.146875, 52: 0.0, 53: 0.0, 54: 0.579375, 55: 1.886375, 56: 0.0, 57: 0.0, 58: 0.0, 59: 0.191075, 60: 0.0, 61: 0.0, 62: 0.0, 63: 0.0, 64: 1.202675, 65: 1.156675, 66: 1.153175, 67: 0.0, 68: 0.0, 69: 0.213575, 70: 0.0, 71: 1.156175, 72: 0.0, 73: 0.0, 74: 1.130875, 75: 1.107875, 76: 0.108075, 77: 1.130575, 78: 1.131375, 79: 1.133075, 80: 1.123875, 81: 0.0, 82: 0.0, 83: 1.133375, 84: 0.132075, 85: 1.124075, 86: 1.160575, 87: 0.0, 88: 1.132075, 89: 1.378675, 90: 0.426875, 91: 1.429175, 92: 1.437875, 93: 1.168269378, 94: 0.402075, 95: 0.0];
sell = [0: 0.650425, 1: 0.654425, 2: 0.0, 3: 0.0, 4: 0.647125, 5: 0.0, 6: 0.0, 7: 0.0, 8: 0.0, 9: 0.0, 10: 0.652125, 11: 0.0, 12: 0.655125, 13: 0.643625, 14: 0.0, 15: 0.0, 16: 0.0, 17: 0.0, 18: 0.0, 19: 0.0, 20: 0.609125, 21: 0.612725, 22: 0.0, 23: 0.626325, 24: 0.0, 25: 0.0, 26: 0.0, 27: 0.0, 28: 0.0, 29: 0.0, 30: 1.199625, 31: 0.781925, 32: 0.0, 33: 0.0, 34: 0.0, 35: 1.055325, 36: 0.09142500000000001, 37: 0.772825, 38: 0.322825, 39: 0.0, 40: 2.420825, 41: 1.587925, 42: 2.545125, 43: 2.581125, 44: 0.0, 45: 0.486625, 46: 1.770125, 47: 0.752625, 48: 0.752625, 49: 0.773625, 50: 0.0, 51: 0.0, 52: 1.704925, 53: 0.131725, 54: 0.0, 55: 0.0, 56: 0.427125, 57: 0.060425, 58: 0.0, 59: 0.0, 60: 1.988125, 61: 1.624925, 62: 0.755125, 63: 1.407025, 64: 0.0, 65: 0.0, 66: 0.0, 67: 0.0, 68: 0.998625, 69: 0.0, 70: 0.709625, 71: 0.0, 72: 0.740625, 73: 0.423636643, 74: 0.0, 75: 0.0, 76: 0.0, 77: 0.0, 78: 0.0, 79: 0.0, 80: 0.0, 81: 0.774925, 82: 0.765325, 83: 0.0, 84: 0.0, 85: 0.0, 86: 0.0, 87: 0.7671249999999999, 88: 0.0, 89: 0.0, 90: 0.0, 91: 0.0, 92: 0.0, 93: 0.0, 94: 0.0, 95: 0.509425];
charge = [0: 0.0, 1: 0.0, 2: 0.0, 3: 1.0, 4: 0.0, 5: 1.0, 6: 0.0, 7: 1.0, 8: 1.0, 9: 1.0, 10: 0.0, 11: 1.0, 12: 0.0, 13: 0.0, 14: 0.0, 15: 0.0, 16: 1.0, 17: 1.0, 18: 1.0, 19: 0.0, 20: 0.0, 21: 0.0, 22: 1.0, 23: 0.0, 24: 0.0, 25: 1.0, 26: 0.0, 27: 0.005925, 28: 1.0, 29: 0.0, 30: 0.0, 31: 0.0, 32: 1.0, 33: 1.0, 34: 1.0, 35: 0.0, 36: 1.0, 37: 0.0, 38: 1.0, 39: 0.0, 40: 0.0, 41: 0.0, 42: 0.0, 43: 0.0, 44: 0.0, 45: 0.0, 46: 0.0, 47: 0.0, 48: 0.0, 49: 0.0, 50: 0.0, 51: 0.0, 52: 0.0, 53: 1.0, 54: 0.0, 55: 1.0, 56: 0.0, 57: 1.0, 58: 0.0, 59: 1.0, 60: 0.0, 61: 0.0, 62: 0.0, 63: 0.0, 64: 1.0, 65: 1.0, 66: 1.0, 67: 0.198625, 68: 0.0, 69: 0.0, 70: 0.0, 71: 1.0, 72: 0.0, 73: 0.0, 74: 1.0, 75: 1.0, 76: 0.0, 77: 1.0, 78: 1.0, 79: 1.0, 80: 1.0, 81: 0.0, 82: 0.0, 83: 1.0, 84: 0.0, 85: 1.0, 86: 1.0, 87: 0.0, 88: 1.0, 89: 1.0, 90: 0.0, 91: 1.0, 92: 1.0, 93: 0.725894378, 94: 0.0, 95: 0.0];
discharge = [0: 1.0, 1: 1.0, 2: 0.0, 3: 0.0, 4: 1.0, 5: 0.0, 6: 0.0, 7: 0.0, 8: 0.0, 9: 0.0, 10: 1.0, 11: 0.0, 12: 1.0, 13: 1.0, 14: 0.0, 15: 0.277083333, 16: 0.0, 17: 0.0, 18: 0.0, 19: 0.0, 20: 1.0, 21: 1.0, 22: 0.0, 23: 1.0, 24: 0.0, 25: 0.0, 26: 0.0, 27: 0.0, 28: 0.0, 29: 0.0, 30: 1.0, 31: 1.0, 32: 0.0, 33: 0.0, 34: 0.0, 35: 0.0, 36: 0.0, 37: 1.0, 38: 0.0, 39: 0.0, 40: 1.0, 41: 0.0, 42: 1.0, 43: 1.0, 44: 0.0, 45: 1.0, 46: 0.0, 47: 1.0, 48: 1.0, 49: 1.0, 50: 0.0, 51: 0.0, 52: 0.0, 53: 0.0, 54: 0.0, 55: 0.0, 56: 1.0, 57: 0.0, 58: 0.504527778, 59: 0.0, 60: 1.0, 61: 1.0, 62: 1.0, 63: 1.0, 64: 0.0, 65: 0.0, 66: 0.0, 67: 0.0, 68: 1.0, 69: 0.0, 70: 1.0, 71: 0.0, 72: 1.0, 73: 0.917790714, 74: 0.0, 75: 0.0, 76: 0.0, 77: 0.0, 78: 0.0, 79: 0.0, 80: 0.0, 81: 1.0, 82: 1.0, 83: 0.0, 84: 0.0, 85: 0.0, 86: 0.0, 87: 1.0, 88: 0.0, 89: 0.0, 90: 0.0, 91: 0.0, 92: 0.0, 93: 0.0, 94: 0.0, 95: 1.0];
soc = [0: 7.778244, 1: 6.776688351, 2: 6.775333014, 3: 7.673977947, 4: 6.672443151, 5: 7.571108663, 6: 7.569594441, 7: 8.468080521999999, 8: 9.366386906000001, 9: 10.264513629, 10: 9.262460726, 11: 10.160608234, 12: 9.158576112, 13: 8.156744397000001, 14: 8.155113048, 15: 7.876398692, 16: 8.774823412, 17: 9.673068448, 18: 10.571133834, 19: 10.569019607, 20: 9.566905802999999, 21: 8.564992422, 22: 9.463279424, 23: 8.461386768000001, 24: 8.45969449, 25: 9.358002551, 26: 9.356130951000001, 27: 9.359592225, 28: 10.257720306, 29: 10.255668762, 30: 9.253617628000001, 31: 8.251766905, 32: 9.150116552, 33: 10.048286528, 34: 10.946276871, 35: 10.944087616, 36: 11.841898798, 37: 10.839530418, 38: 11.737362512, 39: 11.73501504, 40: 10.732668037, 41: 10.730521503, 42: 9.728375399000001, 43: 8.726429724000001, 44: 8.724684438000001, 45: 7.722939501, 46: 7.721394913, 47: 6.719850634, 48: 5.718506664, 49: 4.717362963, 50: 4.71641949, 51: 4.715476206, 52: 4.714533111, 53: 5.613590204, 54: 5.612467486, 55: 6.511344993, 56: 5.510042724, 57: 6.408940715, 58: 5.903131149, 59: 6.801950523, 60: 5.800590133, 61: 4.799430015, 62: 3.798470129, 63: 2.797710435, 64: 3.697150893, 65: 4.596411463, 66: 5.49549218, 67: 5.673155582, 68: 4.672020951, 69: 4.671086547, 70: 3.670152329, 71: 4.569418299, 72: 3.568504415, 73: 2.65, 74: 3.54947, 75: 4.448760106, 76: 4.447870354, 77: 5.34698078, 78: 6.245911384, 79: 7.144662201, 80: 8.043233269, 81: 7.041624622, 82: 6.040216297, 83: 6.939008254, 84: 6.937620453, 85: 7.836232928, 86: 8.734665681999999, 87: 7.732918749, 88: 8.631372165, 89: 9.529645890999999, 90: 9.527739961, 91: 10.425834413, 92: 11.323749246, 93: 11.974789437, 94: 11.972394479, 95: 10.97];
cost = [0: 0.0, 1: 0.0, 2: 0.148555608, 3: 0.882337703, 4: 0.0, 5: 0.883864953, 6: 0.149410868, 7: 0.878977753, 8: 0.883254053, 9: 0.884292583, 10: 0.0, 11: 0.879588653, 12: 0.0, 13: 0.0, 14: 0.158146738, 15: 0.0, 16: 0.879405383, 17: 0.881848983, 18: 1.305385953, 19: 0.152770818, 20: 0.0, 21: 0.0, 22: 0.907079153, 23: 0.0, 24: 0.29689442, 25: 1.513430265, 26: 0.1402241, 27: 0.000700206, 28: 1.457162185, 29: 0.15366658, 30: 0.0, 31: 0.0, 32: 0.888533385, 33: 0.494299945, 34: 1.447645385, 35: 0.0, 36: 0.118178165, 37: 0.0, 38: 0.118178165, 39: 0.14474458, 40: 0.0, 41: 0.0, 42: 0.0, 43: 0.0, 44: 0.16199378, 45: 0.0, 46: 0.0, 47: 0.0, 48: 0.0, 49: 0.0, 50: 0.16794178, 51: 0.1747225, 52: 0.0, 53: 0.118178165, 54: 0.353940188, 55: 1.270564653, 56: 0.0, 57: 0.118178165, 58: 0.0, 59: 0.234905883, 60: 0.0, 61: 0.0, 62: 0.0, 63: 0.0, 64: 1.548880345, 65: 1.494158745, 66: 1.489995145, 67: 0.023473138, 68: 0.0, 69: 0.25406882, 70: 0.0, 71: 1.493563945, 72: 0.0, 73: 0.0, 74: 1.463467065, 75: 1.436106265, 76: 0.12856602, 77: 1.463110185, 78: 1.464061865, 79: 1.466084185, 80: 1.455139865, 81: 0.0, 82: 0.0, 83: 1.466441065, 84: 0.15711642, 85: 1.455377785, 86: 1.498798185, 87: 0.0, 88: 0.809762783, 89: 0.960410723, 90: 0.260777937, 91: 0.9912611730000001, 92: 0.996576003, 93: 0.7994806290000001, 94: 0.245627617, 95: 0.0];
earn = [0: 0.403913925, 1: 0.384409245, 2: 0.0, 3: 0.0, 4: 0.3799918, 5: 0.0, 6: 0.0, 7: 0.0, 8: 0.0, 9: 0.0, 10: 0.385731938, 11: 0.0, 12: 0.390651038, 13: 0.389908025, 14: 0.0, 15: 0.0, 16: 0.0, 17: 0.0, 18: 0.0, 19: 0.0, 20: 0.388012625, 21: 0.40758467, 22: 0.0, 23: 0.463793663, 24: 0.0, 25: 0.0, 26: 0.0, 27: 0.0, 28: 0.0, 29: 0.0, 30: 0.87572625, 31: 0.536869705, 32: 0.0, 33: 0.0, 34: 0.0, 35: 0.591298598, 36: 0.0486381, 37: 0.389349235, 38: 0.143172887, 39: 0.0, 40: 0.67105269, 41: 0.480029728, 42: 0.773208975, 43: 0.845834663, 44: 0.0, 45: 0.127739063, 46: 0.4064207, 47: 0.1420956, 48: 0.163394888, 49: 0.162693337, 50: 0.0, 51: 0.0, 52: 0.401509837, 53: 0.032957595, 54: 0.0, 55: 0.0, 56: 0.13753425, 57: 0.020840582, 58: 0.0, 59: 0.0, 60: 0.953703563, 61: 0.818637215, 62: 0.388209763, 63: 0.737703208, 64: 0.0, 65: 0.0, 66: 0.0, 67: 0.0, 68: 0.668579438, 69: 0.0, 70: 0.51121385, 71: 0.0, 72: 0.582205313, 73: 0.356405508, 74: 0.0, 75: 0.0, 76: 0.0, 77: 0.0, 78: 0.0, 79: 0.0, 80: 0.0, 81: 0.575071843, 82: 0.5473604399999999, 83: 0.0, 84: 0.0, 85: 0.0, 86: 0.0, 87: 0.469710638, 88: 0.0, 89: 0.0, 90: 0.0, 91: 0.0, 92: 0.0, 93: 0.0, 94: 0.0, 95: 0.285991195];
total_cost = 44.07130761;
total_earn = 17.43915558;
% _objective = 26.63215203;