production = [0: 0.0, 1: 0.0, 2: 0.0, 3: 0.0, 4: 0.0, 5: 0.0, 6: 0.0, 7: 0.0, 8: 0.0, 9: 0.0, 10: 0.0, 11: 0.0, 12: 0.0, 13: 0.0, 14: 0.0, 15: 0.0, 16: 0.0, 17: 0.0, 18: 0.0, 19: 0.0, 20: 0.0, 21: 0.0003, 22: 0.001, 23: 0.0, 24: 0.0338, 25: 0.0, 26: 0.0, 27: 0.0, 28: 0.1835, 29: 0.0, 30: 0.418, 31: 0.0, 32: 0.0, 33: 0.8110000000000001, 34: 0.0, 35: 1.177, 36: 1.2203, 37: 0.0, 38: 1.45, 39: 1.5982, 40: 0.0, 41: 0.0, 42: 1.783, 43: 0.0, 44: 0.0, 45: 1.9205, 46: 0.0, 47: 1.9095, 48: 0.0, 49: 1.9372, 50: 1.9125, 51: 1.146875, 52: 1.8393, 53: 0.0, 54: 1.7585, 55: 0.0, 56: 0.0, 57: 0.0, 58: 1.4307, 59: 0.0, 60: 0.0, 61: 1.127, 62: 0.9745, 63: 0.6907, 64: 0.7492, 65: 0.0, 66: 0.0, 67: 0.0, 68: 0.0, 69: 0.101, 70: 0.0, 71: 0.0, 72: 0.0, 73: 0.0, 74: 0.0005, 75: 0.0, 76: 0.0, 77: 0.0, 78: 0.0, 79: 0.0, 80: 0.0, 81: 0.0, 82: 0.0, 83: 0.0, 84: 0.0, 85: 0.0, 86: 0.0, 87: 0.0, 88: 0.0, 89: 0.0, 90: 0.0, 91: 0.0, 92: 0.0, 93: 0.0, 94: 0.0, 95: 0.0];
buy = [0: 1.249575, 1: 1.245575, 2: 0.243175, 3: 1.250875, 4: 0.252875, 5: 1.253375, 6: 0.0, 7: 1.245375, 8: 1.252375, 9: 1.254075, 10: 0.247875, 11: 1.246375, 12: 0.0, 13: 1.256375, 14: 0.0, 15: 0.0, 16: 1.246075, 17: 1.250075, 18: 0.043375, 19: 0.250075, 20: 1.290875, 21: 0.753358172, 22: 0.290375, 23: 0.0, 24: 0.0, 25: 0.239375, 26: 0.117875, 27: 0.127375, 28: 0.0, 29: 1.129175, 30: 0.700375, 31: 1.118075, 32: 0.0, 33: 0.316175, 34: 0.117575, 35: 0.0, 36: 0.0, 37: 0.127175, 38: 0.0, 39: 0.0, 40: 0.122175, 41: 0.129875, 42: 0.0, 43: 0.0, 44: 1.136175, 45: 0.0, 46: 0.146875, 47: 0.0, 48: 0.0, 49: 0.0, 50: 0.0, 51: 0.0, 52: 0.0, 53: 1.683075, 54: 0.0, 55: 0.0, 56: 0.0, 57: 0.0, 58: 0.0, 59: 1.456075, 60: 0.140175, 61: 0.0, 62: 0.0, 63: 0.0, 64: 0.0, 65: 1.156675, 66: 1.153175, 67: 0.0, 68: 0.147575, 69: 1.112575, 70: 0.0, 71: 0.0, 72: 0.0, 73: 0.0, 74: 1.130875, 75: 0.107875, 76: 1.108075, 77: 0.130575, 78: 0.0, 79: 0.133075, 80: 0.123875, 81: 0.0, 82: 1.134675, 83: 0.0, 84: 0.132075, 85: 0.0, 86: 1.160575, 87: 0.132875, 88: 0.0, 89: 1.378675, 90: 0.6642562, 91: 1.429175, 92: 0.0, 93: 1.442375, 94: 1.402075, 95: 1.390575];
sell = [0: 0.0, 1: 0.0, 2: 0.0, 3: 0.0, 4: 0.0, 5: 0.0, 6: 0.655425, 7: 0.0, 8: 0.0, 9: 0.0, 10: 0.0, 11: 0.0, 12: 0.0, 13: 0.0, 14: 0.6411249999999999, 15: 0.650625, 16: 0.0, 17: 0.0, 18: 0.0, 19: 0.0, 20: 0.0, 21: 0.0, 22: 0.0, 23: 0.617125, 24: 0.684225, 25: 0.0, 26: 0.0, 27: 0.0, 28: 0.957925, 29: 0.0, 30: 0.0, 31: 0.0, 32: 0.382775887, 33: 0.0, 34: 0.0, 35: 1.955325, 36: 1.599986268, 37: 0.0, 38: 0.322825, 39: 2.376525, 40: 0.0, 41: 0.0, 42: 0.6451249999999999, 43: 0.741625, 44: 0.0, 45: 0.507125, 46: 0.0, 47: 1.762125, 48: 0.752625, 49: 2.710825, 50: 0.771325, 51: 0.0, 52: 2.313307219, 53: 0.0, 54: 2.079125, 55: 0.013625, 56: 0.0, 57: 0.411125, 58: 1.876625, 59: 0.0, 60: 0.0, 61: 0.724925, 62: 0.8296249999999999, 63: 0.5070249999999999, 64: 1.446525, 65: 0.0, 66: 0.0, 67: 0.753125, 68: 0.0, 69: 0.0, 70: 0.709625, 71: 0.743825, 72: 0.715125, 73: 0.497625, 74: 0.0, 75: 0.0, 76: 0.0, 77: 0.0, 78: 0.768625, 79: 0.0, 80: 0.0, 81: 0.774925, 82: 0.0, 83: 0.766625, 84: 0.0, 85: 0.775925, 86: 0.0, 87: 0.0, 88: 0.767925, 89: 0.0, 90: 0.0, 91: 0.0, 92: 0.462125, 93: 0.0, 94: 0.0, 95: 0.0];
charge = [0: 1.0, 1: 1.0, 2: 0.0, 3: 1.0, 4: 0.0, 5: 1.0, 6: 0.0, 7: 1.0, 8: 1.0, 9: 1.0, 10: 0.0, 11: 1.0, 12: 0.0, 13: 1.0, 14: 0.0, 15: 0.0, 16: 1.0, 17: 1.0, 18: 0.0, 19: 0.0, 20: 1.0, 21: 0.466083172, 22: 0.0, 23: 0.0, 24: 0.0, 25: 0.0, 26: 0.0, 27: 0.0, 28: 0.0, 29: 1.0, 30: 1.0, 31: 1.0, 32: 0.0, 33: 1.0, 34: 0.0, 35: 0.0, 36: 0.0, 37: 0.0, 38: 1.0, 39: 0.0, 40: 0.0, 41: 0.0, 42: 1.0, 43: 0.0, 44: 1.0, 45: 1.0, 46: 0.0, 47: 0.0, 48: 0.0, 49: 0.0, 50: 1.0, 51: 1.0, 52: 0.0, 53: 1.0, 54: 0.0, 55: 0.0, 56: 0.0, 57: 0.0, 58: 0.0, 59: 1.0, 60: 0.0, 61: 0.0, 62: 0.0, 63: 0.0, 64: 0.0, 65: 1.0, 66: 1.0, 67: 0.0, 68: 0.0, 69: 1.0, 70: 0.0, 71: 0.0, 72: 0.0, 73: 0.0, 74: 1.0, 75: 0.0, 76: 1.0, 77: 0.0, 78: 0.0, 79: 0.0, 80: 0.0, 81: 0.0, 82: 1.0, 83: 0.0, 84: 0.0, 85: 0.0, 86: 1.0, 87: 0.0, 88: 0.0, 89: 1.0, 90: 0.2373812, 91: 1.0, 92: 0.0, 93: 1.0, 94: 1.0, 95: 1.0];
discharge = [0: 0.0, 1: 0.0, 2: 0.0, 3: 0.0, 4: 0.0, 5: 0.0, 6: 1.0, 7: 0.0, 8: 0.0, 9: 0.0, 10: 0.0, 11: 0.0, 12: 0.272083333, 13: 0.0, 14: 1.0, 15: 1.0, 16: 0.0, 17: 0.0, 18: 1.0, 19: 0.0, 20: 0.0, 21: 0.0, 22: 0.0, 23: 1.0, 24: 1.0, 25: 0.0, 26: 0.0, 27: 0.0, 28: 1.0, 29: 0.0, 30: 0.0, 31: 0.0, 32: 0.565723208, 33: 0.0, 34: 0.0, 35: 1.0, 36: 0.565068075, 37: 0.0, 38: 0.0, 39: 1.0, 40: 0.0, 41: 0.0, 42: 0.0, 43: 1.0, 44: 0.0, 45: 0.0, 46: 0.0, 47: 0.0, 48: 1.0, 49: 1.0, 50: 0.0, 51: 0.0, 52: 0.675980244, 53: 0.0, 54: 1.0, 55: 1.0, 56: 0.525416667, 57: 1.0, 58: 1.0, 59: 0.0, 60: 0.0, 61: 0.0, 62: 0.0, 63: 0.0, 64: 1.0, 65: 0.0, 66: 0.0, 67: 1.0, 68: 0.0, 69: 0.0, 70: 1.0, 71: 1.0, 72: 1.0, 73: 1.0, 74: 0.0, 75: 0.0, 76: 0.0, 77: 0.0, 78: 1.0, 79: 0.0, 80: 0.0, 81: 1.0, 82: 0.0, 83: 1.0, 84: 0.0, 85: 1.0, 86: 0.0, 87: 0.0, 88: 1.0, 89: 0.0, 90: 0.0, 91: 0.0, 92: 1.0, 93: 0.0, 94: 0.0, 95: 0.0];
soc = [0: 9.678243999999999, 1: 10.576308351, 2: 10.57419309, 3: 11.472078251, 4: 11.469783835, 5: 12.367489878, 6: 11.365016381, 7: 12.262743377, 8: 13.160290829, 9: 14.05765877, 10: 14.054847239, 11: 14.952036269, 12: 14.676962529, 13: 15.574027136, 14: 14.570912331, 15: 13.567998148, 16: 14.465284549, 17: 15.362391492, 18: 14.359319013, 19: 14.35644715, 20: 15.25357586, 21: 15.67, 22: 15.666866, 23: 14.663732627, 24: 13.66079988, 25: 13.65806772, 26: 13.655336107, 27: 13.65260504, 28: 12.649874519, 29: 13.547344544, 30: 14.444635075, 31: 15.341746148, 32: 14.772954591, 33: 15.67, 34: 15.666866, 35: 14.663732627, 36: 14.095731805, 37: 14.092912659, 38: 14.990094076, 39: 13.987096057, 40: 13.984298638, 41: 13.981501778, 42: 14.878705478, 43: 13.875729737, 44: 14.772954591, 45: 15.67, 46: 15.666866, 47: 15.663732627, 48: 14.66059988, 49: 13.65766776, 50: 14.554936227, 51: 15.45202524, 52: 14.772954591, 53: 15.67, 54: 14.666866, 55: 13.663932627, 56: 13.135783174, 57: 12.133156017, 58: 11.130729386, 59: 12.02850324, 60: 12.026097539, 61: 12.02369232, 62: 12.021287581, 63: 12.018883324, 64: 11.016479547, 65: 11.914276251, 66: 12.811893396, 67: 11.809331017, 68: 11.806969151, 69: 12.704607757, 70: 11.702066836, 71: 10.699726422, 72: 9.697586477, 73: 8.695646959999999, 74: 9.593907829999999, 75: 9.591989049, 76: 10.490070651, 77: 10.487972637, 78: 9.485875042, 79: 9.483977867, 80: 9.482081072, 81: 8.480184655, 82: 9.378488619000001, 83: 8.376612921, 84: 8.374937598000001, 85: 7.373262611, 86: 8.271787958000001, 87: 8.270133601, 88: 7.268479574, 89: 8.167025878, 90: 8.379035553, 91: 9.277359746, 92: 8.275504273999999, 93: 9.173849173000001, 94: 10.072014403, 95: 10.97];
cost = [0: 0.881543533, 1: 0.879099933, 2: 0.148555608, 3: 0.882337703, 4: 0.154481338, 5: 0.883864953, 6: 0.0, 7: 0.878977753, 8: 0.883254053, 9: 0.884292583, 10: 0.151426838, 11: 0.879588653, 12: 0.0, 13: 0.885697653, 14: 0.0, 15: 0.0, 16: 0.879405383, 17: 0.881848983, 18: 0.026497788, 19: 0.152770818, 20: 0.906773703, 21: 0.515307362, 22: 0.177390088, 23: 0.0, 24: 0.0, 25: 0.2847605, 26: 0.1402241, 27: 0.1515253, 28: 0.0, 29: 1.461444745, 30: 0.951344265, 31: 1.448240185, 32: 0.0, 33: 0.494299945, 34: 0.13986722, 35: 0.0, 36: 0.0, 37: 0.15128738, 38: 0.118178165, 39: 0.0, 40: 0.14533938, 41: 0.1544993, 42: 0.118178165, 43: 0.0, 44: 1.469771945, 45: 0.118178165, 46: 0.1747225, 47: 0.0, 48: 0.0, 49: 0.0, 50: 0.118178165, 51: 0.118178165, 52: 0.0, 53: 1.146368683, 54: 0.0, 55: 0.0, 56: 0.0, 57: 0.0, 58: 0.0, 59: 1.007694383, 60: 0.16675218, 61: 0.0, 62: 0.0, 63: 0.0, 64: 0.0, 65: 1.494158745, 66: 1.489995145, 67: 0.0, 68: 0.17555522, 69: 1.441697385, 70: 0.0, 71: 0.0, 72: 0.0, 73: 0.0, 74: 1.463467065, 75: 0.1283281, 76: 1.436344185, 77: 0.15533202, 78: 0.0, 79: 0.15830602, 80: 0.1473617, 81: 0.0, 82: 1.467987545, 83: 0.0, 84: 0.15711642, 85: 0.0, 86: 1.498798185, 87: 0.1580681, 88: 0.0, 89: 0.960410723, 90: 0.433847387, 91: 0.9912611730000001, 92: 0.0, 93: 0.999325053, 94: 0.974705783, 95: 0.967680433];
earn = [0: 0.0, 1: 0.0, 2: 0.0, 3: 0.0, 4: 0.0, 5: 0.0, 6: 0.388667025, 7: 0.0, 8: 0.0, 9: 0.0, 10: 0.0, 11: 0.0, 12: 0.0, 13: 0.0, 14: 0.383328638, 15: 0.391871438, 16: 0.0, 17: 0.0, 18: 0.0, 19: 0.0, 20: 0.0, 21: 0.0, 22: 0.0, 23: 0.456981063, 24: 0.537664005, 25: 0.0, 26: 0.0, 27: 0.0, 28: 0.68779015, 29: 0.0, 30: 0.0, 31: 0.0, 32: 0.242526802, 33: 0.0, 34: 0.0, 35: 1.095568598, 36: 0.851192694, 37: 0.0, 38: 0.143172887, 39: 0.984594308, 40: 0.0, 41: 0.0, 42: 0.195988975, 43: 0.243030513, 44: 0.0, 45: 0.133120313, 46: 0.0, 47: 0.3326892, 48: 0.163394888, 49: 0.570086498, 50: 0.16629767, 51: 0.0, 52: 0.54478385, 53: 0.0, 54: 0.530384788, 55: 0.003475737, 56: 0.0, 57: 0.141797013, 58: 0.704297363, 59: 0.0, 60: 0.0, 61: 0.365217215, 62: 0.426510213, 63: 0.265833208, 64: 0.825965775, 65: 0.0, 66: 0.0, 67: 0.492619063, 68: 0.0, 69: 0.0, 70: 0.51121385, 71: 0.569993098, 72: 0.562159763, 73: 0.418651913, 74: 0.0, 75: 0.0, 76: 0.0, 77: 0.0, 78: 0.630503088, 79: 0.0, 80: 0.0, 81: 0.575071843, 82: 0.0, 83: 0.525138125, 84: 0.0, 85: 0.512188093, 86: 0.0, 87: 0.0, 88: 0.493084643, 89: 0.0, 90: 0.0, 91: 0.0, 92: 0.272515113, 93: 0.0, 94: 0.0, 95: 0.0];
total_cost = 38.711893951;
total_earn = 17.339369409;
% _objective = 21.372524542;