production = [0: 0.0, 1: 0.0, 2: 0.0, 3: 0.0, 4: 0.0, 5: 0.0, 6: 0.0, 7: 0.0, 8: 0.0, 9: 0.0, 10: 0.0, 11: 0.0, 12: 0.0, 13: 0.0, 14: 0.0, 15: 0.0, 16: 0.0, 17: 0.0, 18: 0.0, 19: 0.0, 20: 0.0, 21: 0.0003, 22: 0.0, 23: 0.0092, 24: 0.0, 25: 0.0, 26: 0.098, 27: 0.1333, 28: 0.1835, 29: 0.0, 30: 0.418, 31: 0.0, 32: 0.0, 33: 0.8110000000000001, 34: 1.0688, 35: 0.121675, 36: 0.0, 37: 0.0, 38: 1.45, 39: 0.0, 40: 1.122175, 41: 1.7178, 42: 0.0, 43: 1.8395, 44: 0.0, 45: 0.0, 46: 1.917, 47: 1.9095, 48: 0.0, 49: 0.0, 50: 1.9125, 51: 1.871, 52: 0.0, 53: 1.8148, 54: 0.0, 55: 0.0, 56: 0.0, 57: 0.0, 58: 0.0, 59: 0.0, 60: 0.140175, 61: 0.0, 62: 0.9745, 63: 0.6907, 64: 0.7492, 65: 0.637, 66: 0.0, 67: 0.0, 68: 0.0, 69: 0.101, 70: 0.0, 71: 0.0, 72: 0.0255, 73: 0.0047, 74: 0.0, 75: 0.0, 76: 0.0, 77: 0.0, 78: 0.0, 79: 0.0, 80: 0.0, 81: 0.0, 82: 0.0, 83: 0.0, 84: 0.0, 85: 0.0, 86: 0.0, 87: 0.0, 88: 0.0, 89: 0.0, 90: 0.0, 91: 0.0, 92: 0.0, 93: 0.0, 94: 0.0, 95: 0.0];
buy = [0: 0.0, 1: 0.245575, 2: 1.243175, 3: 0.0, 4: 0.0, 5: 1.253375, 6: 1.244575, 7: 1.245375, 8: 0.0, 9: 0.254075, 10: 0.247875, 11: 0.0, 12: 1.244875, 13: 0.0, 14: 0.258875, 15: 1.249375, 16: 0.246075, 17: 0.250075, 18: 0.043375, 19: 0.0, 20: 0.290875, 21: 1.287275, 22: 0.291375, 23: 0.273675, 24: 0.0, 25: 0.239375, 26: 1.019875, 27: 0.0, 28: 0.942075, 29: 0.0, 30: 0.700375, 31: 1.118075, 32: 0.126375, 33: 0.316175, 34: 0.0, 35: 0.0, 36: 1.128875, 37: 0.0, 38: 0.0, 39: 1.121675, 40: 0.0, 41: 0.0, 42: 0.0, 43: 0.0, 44: 0.136175, 45: 0.0, 46: 0.0, 47: 0.0, 48: 0.0, 49: 0.126375, 50: 0.0, 51: 0.0, 52: 1.134375, 53: 0.0, 54: 0.579375, 55: 1.886375, 56: 0.472875, 57: 0.488875, 58: 0.0, 59: 1.456075, 60: 0.0, 61: 0.402075, 62: 0.0, 63: 0.492975, 64: 0.0, 65: 0.519675, 66: 0.0, 67: 1.146875, 68: 0.147575, 69: 0.0, 70: 0.0, 71: 0.0, 72: 1.159375, 73: 0.0, 74: 1.131375, 75: 0.0, 76: 1.108075, 77: 0.0, 78: 1.131375, 79: 0.0, 80: 0.0, 81: 1.125075, 82: 0.0, 83: 1.133375, 84: 0.132075, 85: 1.124075, 86: 0.160575, 87: 1.132875, 88: 0.0, 89: 1.378675, 90: 0.426875, 91: 0.429175, 92: 1.437875, 93: 0.442375, 94: 1.402075, 95: 0.390575];
sell = [0: 0.650425, 1: 0.0, 2: 0.0, 3: 0.649125, 4: 0.647125, 5: 0.0, 6: 0.0, 7: 0.0, 8: 0.0, 9: 0.0, 10: 0.0, 11: 0.653625, 12: 0.0, 13: 0.643625, 14: 0.0, 15: 0.0, 16: 0.0, 17: 0.0, 18: 0.0, 19: 0.649925, 20: 0.0, 21: 0.0, 22: 0.0, 23: 0.0, 24: 0.0, 25: 0.0, 26: 0.0, 27: 0.223808146, 28: 0.0, 29: 0.770825, 30: 0.0, 31: 0.0, 32: 0.0, 33: 0.0, 34: 0.951225, 35: 0.0, 36: 0.0, 37: 0.772825, 38: 1.322825, 39: 0.0, 40: 0.0, 41: 0.587925, 42: 0.7621250000000001, 43: 1.681125, 44: 0.0, 45: 0.486625, 46: 0.7701249999999999, 47: 0.7621250000000001, 48: 0.752625, 49: 0.0, 50: 0.771325, 51: 1.724125, 52: 0.0, 53: 0.131725, 54: 0.0, 55: 0.0, 56: 0.0, 57: 0.0, 58: 0.445925, 59: 0.0, 60: 0.0, 61: 0.0, 62: 1.729625, 63: 0.0, 64: 1.446525, 65: 0.0, 66: 0.746825, 67: 0.0, 68: 0.0, 69: 0.239736408, 70: 0.709625, 71: 0.743825, 72: 0.0, 73: 0.502325, 74: 0.0, 75: 0.792125, 76: 0.0, 77: 0.769425, 78: 0.0, 79: 0.766925, 80: 0.776125, 81: 0.0, 82: 0.765325, 83: 0.0, 84: 0.0, 85: 0.0, 86: 0.0, 87: 0.0, 88: 0.767925, 89: 0.0, 90: 0.0, 91: 0.0, 92: 0.0, 93: 0.0, 94: 0.0, 95: 0.0];
charge = [0: 0.0, 1: 0.0, 2: 1.0, 3: 0.0, 4: 0.0, 5: 1.0, 6: 1.0, 7: 1.0, 8: 0.0, 9: 0.0, 10: 0.0, 11: 0.0, 12: 1.0, 13: 0.0, 14: 0.0, 15: 1.0, 16: 0.0, 17: 0.0, 18: 0.0, 19: 0.0, 20: 0.0, 21: 1.0, 22: 0.0, 23: 0.0, 24: 0.0, 25: 0.0, 26: 1.0, 27: 0.0, 28: 1.0, 29: 0.0, 30: 1.0, 31: 1.0, 32: 0.0, 33: 1.0, 34: 0.0, 35: 0.0, 36: 1.0, 37: 0.0, 38: 0.0, 39: 1.0, 40: 1.0, 41: 1.0, 42: 0.0, 43: 0.0, 44: 0.0, 45: 0.0, 46: 1.0, 47: 1.0, 48: 0.0, 49: 0.0, 50: 1.0, 51: 0.0, 52: 1.0, 53: 1.0, 54: 0.0, 55: 1.0, 56: 0.0, 57: 0.0, 58: 0.0, 59: 1.0, 60: 0.0, 61: 0.0, 62: 0.0, 63: 1.0, 64: 0.0, 65: 1.0, 66: 0.0, 67: 1.0, 68: 0.0, 69: 0.0, 70: 0.0, 71: 0.0, 72: 1.0, 73: 0.0, 74: 1.0, 75: 0.0, 76: 1.0, 77: 0.0, 78: 1.0, 79: 0.0, 80: 0.0, 81: 1.0, 82: 0.0, 83: 1.0, 84: 0.0, 85: 1.0, 86: 0.0, 87: 1.0, 88: 0.0, 89: 1.0, 90: 0.0, 91: 0.0, 92: 1.0, 93: 0.0, 94: 1.0, 95: 0.0];
discharge = [0: 1.0, 1: 0.0, 2: 0.0, 3: 1.0, 4: 1.0, 5: 0.0, 6: 0.0, 7: 0.0, 8: 0.280416667, 9: 0.0, 10: 0.0, 11: 1.0, 12: 0.0, 13: 1.0, 14: 0.0, 15: 0.0, 16: 0.0, 17: 0.0, 18: 1.0, 19: 1.0, 20: 0.0, 21: 0.0, 22: 0.0, 23: 0.0, 24: 0.277305556, 25: 0.0, 26: 0.0, 27: 0.242092385, 28: 0.0, 29: 1.0, 30: 0.0, 31: 0.0, 32: 0.0, 33: 0.0, 34: 0.0, 35: 0.0, 36: 0.0, 37: 1.0, 38: 0.0, 39: 0.0, 40: 0.0, 41: 0.0, 42: 1.0, 43: 0.0, 44: 0.0, 45: 1.0, 46: 0.0, 47: 0.0, 48: 1.0, 49: 0.0, 50: 0.0, 51: 0.0, 52: 0.0, 53: 0.0, 54: 0.0, 55: 0.0, 56: 0.0, 57: 0.0, 58: 1.0, 59: 0.0, 60: 0.0, 61: 0.0, 62: 1.0, 63: 0.0, 64: 1.0, 65: 0.0, 66: 1.0, 67: 0.0, 68: 0.0, 69: 0.39145712, 70: 1.0, 71: 1.0, 72: 0.0, 73: 1.0, 74: 0.0, 75: 1.0, 76: 0.0, 77: 1.0, 78: 0.0, 79: 1.0, 80: 1.0, 81: 0.0, 82: 1.0, 83: 0.0, 84: 0.0, 85: 0.0, 86: 0.0, 87: 0.0, 88: 1.0, 89: 0.0, 90: 0.0, 91: 0.0, 92: 0.0, 93: 0.0, 94: 0.0, 95: 0.0];
soc = [0: 7.778244, 1: 7.776688351, 2: 8.675133014, 3: 7.673397987, 4: 6.671863307, 5: 7.570528935, 6: 8.469014829000001, 7: 9.367321026000001, 8: 9.085030894999999, 9: 9.083213889, 10: 9.081397246, 11: 8.079580967, 12: 8.97796505, 13: 7.976169457, 14: 7.974574224, 15: 8.872979309, 16: 8.871204712999999, 17: 8.869430471999999, 18: 7.867656586, 19: 6.866083054, 20: 6.864709838, 21: 7.763336896, 22: 7.761784229, 23: 7.760231872, 24: 7.48137427, 25: 7.479877995, 26: 8.378382019, 27: 8.134613957999999, 28: 9.032987035, 29: 8.031180438, 30: 8.929574202, 31: 9.827788287000001, 32: 9.825822729, 33: 10.723857565, 34: 10.721712793, 35: 10.719568451, 36: 11.617424537, 37: 10.615101052, 38: 10.612978032, 39: 11.510855436, 40: 12.408553265, 41: 13.306071555, 42: 12.30341034, 43: 12.300949658, 44: 12.298489468, 45: 11.29602977, 46: 12.193770564, 47: 13.09133181, 48: 12.088713544, 49: 12.086295801, 50: 12.983878542, 51: 12.981281766, 52: 13.87868551, 53: 14.775909773, 54: 14.772954591, 55: 15.67, 56: 15.666866, 57: 15.663732627, 58: 14.66059988, 59: 15.55766776, 60: 15.554556227, 61: 15.551445316, 62: 14.548335026, 63: 15.445425359, 64: 14.442336274, 65: 15.339447807, 66: 14.336379918, 67: 15.233512642, 68: 15.230465939, 69: 14.835962726, 70: 13.832995533, 71: 12.830228934, 72: 13.727662888, 73: 12.724917355, 74: 13.622372372, 75: 12.619647898, 76: 13.517123968, 77: 12.514420543, 78: 13.411917659, 79: 12.409235276, 80: 11.406753428, 81: 12.304472078, 82: 11.302011183, 83: 12.199750781, 84: 12.197310831, 85: 13.094871369, 86: 13.092252395, 87: 13.989633944, 88: 12.986836017, 89: 13.88423865, 90: 13.881461802, 91: 13.87868551, 92: 14.775909773, 93: 14.772954591, 94: 15.67, 95: 15.666866];
cost = [0: 0.0, 1: 0.150021768, 2: 0.877633773, 3: 0.0, 4: 0.0, 5: 0.883864953, 6: 0.878489033, 7: 0.878977753, 8: 0.0, 9: 0.155214418, 10: 0.151426838, 11: 0.0, 12: 0.878672303, 13: 0.0, 14: 0.158146738, 15: 0.881421353, 16: 0.150327218, 17: 0.152770818, 18: 0.026497788, 19: 0.0, 20: 0.177695538, 21: 0.904574463, 22: 0.178000987, 23: 0.167188058, 24: 0.0, 25: 0.2847605, 26: 1.331421465, 27: 0.0, 28: 1.238870585, 29: 0.0, 30: 0.951344265, 31: 1.448240185, 32: 0.1503357, 33: 0.494299945, 34: 0.0, 35: 0.0, 36: 1.461087865, 37: 0.0, 38: 0.0, 39: 1.452522745, 40: 0.118178165, 41: 0.118178165, 42: 0.0, 43: 0.0, 44: 0.16199378, 45: 0.0, 46: 0.118178165, 47: 0.118178165, 48: 0.0, 49: 0.1503357, 50: 0.118178165, 51: 0.0, 52: 0.811167853, 53: 0.118178165, 54: 0.353940188, 55: 1.270564653, 56: 0.288879338, 57: 0.298653737, 58: 0.0, 59: 1.007694383, 60: 0.0, 61: 0.47830842, 62: 0.0, 63: 0.704621225, 64: 0.0, 65: 0.736383545, 66: 0.0, 67: 1.482500665, 68: 0.17555522, 69: 0.0, 70: 0.0, 71: 0.0, 72: 1.497370665, 73: 0.0, 74: 1.464061865, 75: 0.0, 76: 1.436344185, 77: 0.0, 78: 1.464061865, 79: 0.0, 80: 0.0, 81: 1.456567385, 82: 0.0, 83: 1.466441065, 84: 0.15711642, 85: 1.455377785, 86: 0.19102002, 87: 1.465846265, 88: 0.0, 89: 0.960410723, 90: 0.260777937, 91: 0.262183008, 92: 0.996576003, 93: 0.270246888, 94: 0.974705783, 95: 0.238602267];
earn = [0: 0.403913925, 1: 0.0, 2: 0.0, 3: 0.373441613, 4: 0.3799918, 5: 0.0, 6: 0.0, 7: 0.0, 8: 0.0, 9: 0.0, 10: 0.0, 11: 0.3859002, 12: 0.0, 13: 0.389908025, 14: 0.0, 15: 0.0, 16: 0.0, 17: 0.0, 18: 0.0, 19: 0.40971272, 20: 0.0, 21: 0.0, 22: 0.0, 23: 0.0, 24: 0.0, 25: 0.0, 26: 0.0, 27: 0.168012775, 28: 0.0, 29: 0.55869396, 30: 0.0, 31: 0.0, 32: 0.0, 33: 0.0, 34: 0.580437495, 35: 0.0, 36: 0.0, 37: 0.389349235, 38: 0.5866728879999999, 39: 0.0, 40: 0.0, 41: 0.177729728, 42: 0.231533575, 43: 0.550904663, 44: 0.0, 45: 0.127739063, 46: 0.1768207, 47: 0.1438892, 48: 0.163394888, 49: 0.0, 50: 0.16629767, 51: 0.394997038, 52: 0.0, 53: 0.032957595, 54: 0.0, 55: 0.0, 56: 0.0, 57: 0.0, 58: 0.167355653, 59: 0.0, 60: 0.0, 61: 0.0, 62: 0.889200213, 63: 0.0, 64: 0.825965775, 65: 0.0, 66: 0.449215238, 67: 0.0, 68: 0.0, 69: 0.160000079, 70: 0.51121385, 71: 0.569993098, 72: 0.0, 73: 0.422606023, 74: 0.0, 75: 0.695644175, 76: 0.0, 77: 0.641854335, 78: 0.0, 79: 0.61446031, 80: 0.588846038, 81: 0.0, 82: 0.5473604399999999, 83: 0.0, 84: 0.0, 85: 0.0, 86: 0.0, 87: 0.0, 88: 0.493084643, 89: 0.0, 90: 0.0, 91: 0.0, 92: 0.0, 93: 0.0, 94: 0.0, 95: 0.0];
total_cost = 41.111184885;
total_earn = 14.369098619;
% _objective = 26.742086266;