production = [0: 0.0, 1: 0.0, 2: 0.0, 3: 0.0, 4: 0.0, 5: 0.0, 6: 0.0, 7: 0.0, 8: 0.0, 9: 0.0, 10: 0.0, 11: 0.0, 12: 0.0, 13: 0.0, 14: 0.0, 15: 0.0, 16: 0.0, 17: 0.0, 18: 0.0, 19: 0.0, 20: 0.0, 21: 0.0, 22: 0.0, 23: 0.0, 24: 0.0, 25: 0.0013, 26: 0.0065, 27: 0.0, 28: 0.0, 29: 0.0, 30: 0.0675, 31: 0.0922, 32: 0.093, 33: 0.1187, 34: 0.1447, 35: 0.0, 36: 0.0, 37: 0.0, 38: 0.1062, 39: 0.0, 40: 0.0, 41: 0.0, 42: 0.0, 43: 0.0, 44: 0.9235, 45: 0.0, 46: 0.0, 47: 0.6465, 48: 0.0, 49: 0.9237, 50: 1.124, 51: 0.265479167, 52: 0.0, 53: 0.614, 54: 1.1498, 55: 0.0, 56: 0.0, 57: 0.0, 58: 0.0, 59: 0.0, 60: 1.3117, 61: 0.0, 62: 0.0, 63: 0.0, 64: 0.0, 65: 1.1338, 66: 0.108979167, 67: 0.7565, 68: 0.0, 69: 0.5118, 70: 0.0, 71: 0.0, 72: 0.0, 73: 0.2455, 74: 0.0, 75: 0.0592, 76: 0.0, 77: 0.022, 78: 0.0, 79: 0.0008, 80: 0.0, 81: 0.0, 82: 0.0, 83: 0.0, 84: 0.0, 85: 0.0, 86: 0.0, 87: 0.0, 88: 0.0, 89: 0.0, 90: 0.0, 91: 0.0, 92: 0.0, 93: 0.0, 94: 0.0, 95: 0.0, 96: 0.0, 97: 0.0, 98: 0.0, 99: 0.0, 100: 0.0, 101: 0.0, 102: 0.0, 103: 0.0, 104: 0.0, 105: 0.0, 106: 0.0, 107: 0.0, 108: 0.0, 109: 0.0, 110: 0.0, 111: 0.0, 112: 0.0, 113: 0.0, 114: 0.0, 115: 0.0, 116: 0.0, 117: 0.0, 118: 0.0003, 119: 0.0, 120: 0.0, 121: 0.0, 122: 0.0, 123: 0.0, 124: 0.0838, 125: 0.0897, 126: 0.0, 127: 0.0, 128: 0.431, 129: 0.0, 130: 0.6993, 131: 0.0, 132: 0.9383, 133: 0.0, 134: 0.0, 135: 1.1843, 136: 1.1667, 137: 0.0, 138: 1.6027, 139: 1.7252, 140: 0.0, 141: 1.4105, 142: 1.261, 143: 1.3862, 144: 0.8293, 145: 0.0, 146: 1.821279167, 147: 0.0, 148: 0.3495, 149: 0.4487, 150: 0.3287, 151: 0.698, 152: 0.0, 153: 0.2328, 154: 0.0, 155: 0.0, 156: 0.0, 157: 0.9952, 158: 0.0, 159: 0.0, 160: 0.0, 161: 0.5535, 162: 0.0, 163: 0.3242, 164: 0.0, 165: 0.1275, 166: 0.0602, 167: 0.2155, 168: 0.1695, 169: 0.0825, 170: 0.06850000000000001, 171: 0.014, 172: 0.0043, 173: 0.0008, 174: 0.0, 175: 0.0, 176: 0.0, 177: 0.0, 178: 0.0, 179: 0.0, 180: 0.0, 181: 0.0, 182: 0.0, 183: 0.0, 184: 0.0, 185: 0.0, 186: 0.0, 187: 0.0, 188: 0.0, 189: 0.0, 190: 0.0, 191: 0.0];
buy = [0: 0.0, 1: 0.0, 2: 1.250479167, 3: 0.249479167, 4: 0.250979167, 5: 1.251779167, 6: 0.254479167, 7: 1.256279167, 8: 0.0, 9: 1.241679167, 10: 0.241679167, 11: 0.0, 12: 0.251279167, 13: 0.248779167, 14: 0.0, 15: 0.0, 16: 1.243179167, 17: 0.0, 18: 0.0, 19: 0.250779167, 20: 0.0, 21: 1.122979167, 22: 0.0, 23: 0.132479167, 24: 0.130479167, 25: 1.130379167, 26: 1.119979167, 27: 0.0, 28: 0.0, 29: 1.117279167, 30: 0.0, 31: 1.034079167, 32: 1.031979167, 33: 1.006779167, 34: 0.970579167, 35: 1.114779167, 36: 1.151479167, 37: 0.0, 38: 0.0, 39: 0.042479167, 40: 0.141979167, 41: 1.137979167, 42: 0.137979167, 43: 0.0, 44: 0.0, 45: 0.128279167, 46: 0.122279167, 47: 0.0, 48: 0.213124687, 49: 0.196779167, 50: 0.0, 51: 0.0, 52: 0.0, 53: 0.5034791669999999, 54: 0.0, 55: 0.0, 56: 0.657679167, 57: 1.667979167, 58: 1.144979167, 59: 0.504479167, 60: 1.018779167, 61: 0.0, 62: 1.910479167, 63: 0.0, 64: 1.860979167, 65: 0.0, 66: 0.0, 67: 0.359479167, 68: 0.0, 69: 0.618879167, 70: 0.0, 71: 0.0, 72: 0.390979167, 73: 0.0, 74: 0.0, 75: 1.073279167, 76: 0.0, 77: 0.0, 78: 1.235979167, 79: 1.188179167, 80: 1.197279167, 81: 0.0, 82: 0.0, 83: 0.187279167, 84: 0.187279167, 85: 0.178679167, 86: 1.179479167, 87: 0.177979167, 88: 0.0, 89: 0.0, 90: 1.332979167, 91: 1.329479167, 92: 0.325979167, 93: 1.326479167, 94: 0.312979167, 95: 1.314479167, 96: 1.323479167, 97: 0.324179167, 98: 0.0, 99: 1.765979167, 100: 1.870179167, 101: 0.022479167, 102: 0.0, 103: 1.470279167, 104: 0.382679167, 105: 0.348279167, 106: 1.341779167, 107: 1.302979167, 108: 0.0, 109: 0.0, 110: 0.0, 111: 0.247979167, 112: 0.0, 113: 0.0, 114: 1.259279167, 115: 0.0, 116: 1.257479167, 117: 0.0, 118: 1.258479167, 119: 0.0, 120: 0.0, 121: 1.248279167, 122: 1.245479167, 123: 1.238179167, 124: 0.031479167, 125: 1.032579167, 126: 0.0, 127: 0.121679167, 128: 0.732479167, 129: 1.789679167, 130: 0.0, 131: 0.0, 132: 0.186679167, 133: 0.630479167, 134: 0.0, 135: 0.0, 136: 0.0, 137: 0.733479167, 138: 0.647079167, 139: 0.0, 140: 1.240979167, 141: 0.0, 142: 0.0, 143: 0.0, 144: 0.0, 145: 1.244179167, 146: 0.0, 147: 1.841179167, 148: 0.0, 149: 1.001779167, 150: 1.008979167, 151: 0.0, 152: 1.357979167, 153: 1.041679167, 154: 0.0, 155: 0.236779167, 156: 1.861679167, 157: 0.0, 158: 0.349479167, 159: 0.0, 160: 1.722779167, 161: 0.011779167, 162: 0.335479167, 163: 1.024779167, 164: 0.332179167, 165: 0.219979167, 166: 0.769079167, 167: 0.0, 168: 0.952479167, 169: 0.0, 170: 0.069279167, 171: 0.0, 172: 1.169479167, 173: 0.149679167, 174: 0.0, 175: 1.193979167, 176: 0.0, 177: 0.0, 178: 1.161979167, 179: 1.195479167, 180: 0.0, 181: 1.149979167, 182: 0.0, 183: 1.135179167, 184: 0.125479167, 185: 0.0, 186: 0.0, 187: 1.119679167, 188: 0.131679167, 189: 0.0, 190: 1.356779167, 191: 1.361779167];
sell = [0: 0.6588208330000001, 1: 0.652220833, 2: 0.0, 3: 0.0, 4: 0.0, 5: 0.0, 6: 0.0, 7: 0.0, 8: 0.6517208330000001, 9: 0.0, 10: 0.0, 11: 0.650020833, 12: 0.0, 13: 0.0, 14: 0.648220833, 15: 0.649220833, 16: 0.0, 17: 0.650020833, 18: 0.6497208330000001, 19: 0.0, 20: 0.6477208330000001, 21: 0.0, 22: 0.7757208330000001, 23: 0.0, 24: 0.0, 25: 0.0, 26: 0.0, 27: 0.776220833, 28: 0.780820833, 29: 0.0, 30: 0.842520833, 31: 0.0, 32: 0.0, 33: 0.0, 34: 0.0, 35: 0.0, 36: 0.0, 37: 0.297020833, 38: 0.237220833, 39: 0.0, 40: 0.0, 41: 0.0, 42: 0.0, 43: 0.7515208330000001, 44: 0.7868208330000001, 45: 0.0, 46: 0.0, 47: 0.5338208330000001, 48: 0.0, 49: 0.0, 50: 1.896720833, 51: 0.0, 52: 0.781820833, 53: 0.0, 54: 0.026820833, 55: 0.741720833, 56: 0.0, 57: 0.0, 58: 0.0, 59: 0.0, 60: 0.0, 61: 0.343520833, 62: 0.0, 63: 0.487520833, 64: 0.0, 65: 1.906520833, 66: 0.0, 67: 0.0, 68: 0.261820833, 69: 0.0, 70: 0.775020833, 71: 0.779020833, 72: 0.0, 73: 0.113320833, 74: 0.756020833, 75: 0.0, 76: 0.768020833, 77: 0.7888208330000001, 78: 0.0, 79: 0.0, 80: 0.0, 81: 0.706720833, 82: 0.7213208330000001, 83: 0.0, 84: 0.0, 85: 0.0, 86: 0.0, 87: 0.0, 88: 0.733820833, 89: 0.760220833, 90: 0.0, 91: 0.0, 92: 0.0, 93: 0.0, 94: 0.0, 95: 0.0, 96: 0.0, 97: 0.0, 98: 0.577320833, 99: 0.0, 100: 0.0, 101: 0.0, 102: 0.770020833, 103: 0.0, 104: 0.0, 105: 0.0, 106: 0.0, 107: 0.0, 108: 0.603820833, 109: 0.647220833, 110: 0.6527208329999999, 111: 0.0, 112: 0.641520833, 113: 0.633820833, 114: 0.0, 115: 0.152020833, 116: 0.0, 117: 0.647520833, 118: 0.0, 119: 0.651020833, 120: 0.644020833, 121: 0.0, 122: 0.0, 123: 0.0, 124: 0.0, 125: 0.0, 126: 0.777520833, 127: 0.0, 128: 0.0, 129: 0.0, 130: 1.287820833, 131: 0.775020833, 132: 0.0, 133: 0.0, 134: 0.259820833, 135: 0.037620833, 136: 0.042720833, 137: 0.0, 138: 0.0, 139: 1.923720833, 140: 0.0, 141: 0.207020833, 142: 1.952820833, 143: 0.061020833, 144: 0.502820833, 145: 0.0, 146: 0.0, 147: 0.0, 148: 0.995220833, 149: 0.0, 150: 0.0, 151: 0.752850171, 152: 0.0, 153: 0.0, 154: 0.008820833, 155: 0.0, 156: 0.0, 157: 0.8442208329999999, 158: 0.0, 159: 0.661320833, 160: 0.0, 161: 0.0, 162: 0.0, 163: 0.0, 164: 0.0, 165: 0.0, 166: 0.0, 167: 0.057720833, 168: 0.0, 169: 0.807220833, 170: 0.0, 171: 0.0, 172: 0.0, 173: 0.0, 174: 0.0, 175: 0.0, 176: 0.737820833, 177: 0.736020833, 178: 0.0, 179: 0.0, 180: 0.708020833, 181: 0.0, 182: 0.761020833, 183: 0.0, 184: 0.0, 185: 0.7757208330000001, 186: 0.741220833, 187: 0.0, 188: 0.0, 189: 0.543520833, 190: 0.0, 191: 0.0];
charge = [0: 0.0, 1: 0.0, 2: 1.0, 3: 0.0, 4: 0.0, 5: 1.0, 6: 0.0, 7: 1.0, 8: 0.0, 9: 1.0, 10: 0.0, 11: 0.0, 12: 0.0, 13: 0.0, 14: 0.0, 15: 0.0, 16: 1.0, 17: 0.0, 18: 0.0, 19: 0.0, 20: 0.0, 21: 1.0, 22: 0.0, 23: 0.0, 24: 0.0, 25: 1.0, 26: 1.0, 27: 0.0, 28: 0.0, 29: 1.0, 30: 0.0, 31: 1.0, 32: 1.0, 33: 1.0, 34: 1.0, 35: 1.0, 36: 1.0, 37: 0.0, 38: 0.0, 39: 0.0, 40: 0.0, 41: 1.0, 42: 0.0, 43: 0.0, 44: 0.0, 45: 0.0, 46: 0.0, 47: 0.0, 48: 0.09494552000000001, 49: 1.0, 50: 0.0, 51: 0.0, 52: 0.0, 53: 1.0, 54: 1.0, 55: 0.0, 56: 0.0, 57: 1.0, 58: 0.0, 59: 0.0, 60: 1.0, 61: 0.0, 62: 1.0, 63: 0.0, 64: 1.0, 65: 0.0, 66: 0.0, 67: 1.0, 68: 0.0, 69: 1.0, 70: 0.0, 71: 0.0, 72: 0.0, 73: 0.0, 74: 0.0, 75: 1.0, 76: 0.0, 77: 0.0, 78: 1.0, 79: 1.0, 80: 1.0, 81: 0.0, 82: 0.0, 83: 0.0, 84: 0.0, 85: 0.0, 86: 1.0, 87: 0.0, 88: 0.0, 89: 0.0, 90: 1.0, 91: 1.0, 92: 0.0, 93: 1.0, 94: 0.0, 95: 1.0, 96: 1.0, 97: 0.0, 98: 0.0, 99: 1.0, 100: 1.0, 101: 0.0, 102: 0.0, 103: 1.0, 104: 0.0, 105: 0.0, 106: 1.0, 107: 1.0, 108: 0.0, 109: 0.0, 110: 0.0, 111: 0.0, 112: 0.0, 113: 0.0, 114: 1.0, 115: 0.0, 116: 1.0, 117: 0.0, 118: 1.0, 119: 0.0, 120: 0.0, 121: 1.0, 122: 1.0, 123: 1.0, 124: 0.0, 125: 1.0, 126: 0.0, 127: 0.0, 128: 1.0, 129: 1.0, 130: 0.0, 131: 0.0, 132: 1.0, 133: 0.0, 134: 0.0, 135: 1.0, 136: 1.0, 137: 0.0, 138: 1.0, 139: 0.0, 140: 1.0, 141: 1.0, 142: 0.0, 143: 1.0, 144: 0.0, 145: 1.0, 146: 1.0, 147: 1.0, 148: 0.0, 149: 1.0, 150: 1.0, 151: 0.0, 152: 1.0, 153: 1.0, 154: 0.0, 155: 0.0, 156: 0.0, 157: 0.0, 158: 0.0, 159: 0.0, 160: 1.0, 161: 0.0, 162: 0.0, 163: 1.0, 164: 0.0, 165: 0.0, 166: 0.0, 167: 0.0, 168: 1.0, 169: 0.0, 170: 0.0, 171: 0.0, 172: 1.0, 173: 0.0, 174: 0.0, 175: 1.0, 176: 0.0, 177: 0.0, 178: 1.0, 179: 1.0, 180: 0.0, 181: 1.0, 182: 0.0, 183: 1.0, 184: 0.0, 185: 0.0, 186: 0.0, 187: 1.0, 188: 0.0, 189: 0.0, 190: 1.0, 191: 1.0];
discharge = [0: 1.0, 1: 1.0, 2: 0.0, 3: 0.0, 4: 0.0, 5: 0.0, 6: 0.0, 7: 0.0, 8: 1.0, 9: 0.0, 10: 0.0, 11: 1.0, 12: 0.0, 13: 0.0, 14: 1.0, 15: 1.0, 16: 0.0, 17: 1.0, 18: 1.0, 19: 0.0, 20: 1.0, 21: 0.0, 22: 1.0, 23: 0.0, 24: 0.0, 25: 0.0, 26: 0.0, 27: 1.0, 28: 1.0, 29: 0.0, 30: 1.0, 31: 0.0, 32: 0.0, 33: 0.0, 34: 0.0, 35: 0.0, 36: 0.0, 37: 1.0, 38: 1.0, 39: 1.0, 40: 0.0, 41: 0.0, 42: 0.0, 43: 1.0, 44: 0.0, 45: 0.0, 46: 0.0, 47: 0.0, 48: 0.0, 49: 0.0, 50: 1.0, 51: 0.0, 52: 1.0, 53: 0.0, 54: 0.0, 55: 1.0, 56: 0.0, 57: 0.0, 58: 0.0, 59: 1.0, 60: 0.0, 61: 1.0, 62: 0.0, 63: 1.0, 64: 0.0, 65: 1.0, 66: 0.0, 67: 0.0, 68: 1.0, 69: 0.0, 70: 1.0, 71: 1.0, 72: 0.0, 73: 0.0, 74: 1.0, 75: 0.0, 76: 1.0, 77: 1.0, 78: 0.0, 79: 0.0, 80: 0.0, 81: 1.0, 82: 1.0, 83: 0.0, 84: 0.0, 85: 0.0, 86: 0.0, 87: 0.0, 88: 1.0, 89: 1.0, 90: 0.0, 91: 0.0, 92: 0.0, 93: 0.0, 94: 0.0, 95: 0.0, 96: 0.0, 97: 0.0, 98: 1.0, 99: 0.0, 100: 0.0, 101: 1.0, 102: 1.0, 103: 0.0, 104: 0.0, 105: 0.0, 106: 0.0, 107: 0.0, 108: 1.0, 109: 1.0, 110: 1.0, 111: 0.0, 112: 1.0, 113: 1.0, 114: 0.0, 115: 1.0, 116: 0.0, 117: 1.0, 118: 0.0, 119: 1.0, 120: 1.0, 121: 0.0, 122: 0.0, 123: 0.0, 124: 0.0, 125: 0.0, 126: 1.0, 127: 0.0, 128: 0.0, 129: 0.0, 130: 1.0, 131: 1.0, 132: 0.0, 133: 0.0, 134: 1.0, 135: 0.0, 136: 0.0, 137: 0.0, 138: 0.0, 139: 1.0, 140: 0.0, 141: 0.0, 142: 1.0, 143: 0.0, 144: 0.0, 145: 0.0, 146: 0.0, 147: 0.0, 148: 1.0, 149: 0.0, 150: 0.0, 151: 0.986143709, 152: 0.0, 153: 0.0, 154: 1.0, 155: 1.0, 156: 0.0, 157: 1.0, 158: 0.0, 159: 1.0, 160: 0.0, 161: 0.0, 162: 0.0, 163: 0.0, 164: 0.0, 165: 0.0, 166: 0.0, 167: 0.0, 168: 0.0, 169: 1.0, 170: 0.0, 171: 0.477199074, 172: 0.0, 173: 0.0, 174: 0.521976852, 175: 0.0, 176: 1.0, 177: 1.0, 178: 0.0, 179: 0.0, 180: 1.0, 181: 0.0, 182: 1.0, 183: 0.0, 184: 0.0, 185: 1.0, 186: 1.0, 187: 0.0, 188: 0.0, 189: 1.0, 190: 0.0, 191: 0.0];
soc = [0: 9.027994, 1: 8.026188401000001, 2: 8.924583164, 3: 8.922798246999999, 4: 8.921013687, 5: 9.819229484999999, 6: 9.817265639, 7: 10.715302185, 8: 9.713159125000001, 9: 10.611216493, 10: 10.60909425, 11: 9.606972431000001, 12: 9.605051037000001, 13: 9.603130026000001, 14: 8.6012094, 15: 7.599489158, 16: 8.497969261, 17: 7.496269667, 18: 6.494770413, 19: 6.493471459, 20: 5.492172764, 21: 6.39107433, 22: 5.389796115, 23: 5.388718156, 24: 5.387640412, 25: 6.286562884, 26: 7.185305572, 27: 6.18386851, 28: 5.182631737, 29: 6.08159521, 30: 5.080378891, 31: 5.979362816, 32: 6.878166943, 33: 7.77679131, 34: 8.675235950999999, 35: 9.573500903999999, 36: 10.471586204, 37: 9.469491887, 38: 8.467597988, 39: 7.465904469, 40: 7.464411288, 41: 8.362918406, 42: 8.361245822000001, 43: 7.359573573, 44: 7.358101658, 45: 7.356630038, 46: 7.355158712, 47: 7.35368768, 48: 7.437667911, 49: 8.336180377, 50: 7.334513141, 51: 7.333046238, 52: 6.331579629, 53: 7.230313313, 54: 8.128867251000001, 55: 7.127241477, 56: 7.125816029, 57: 8.024390865999999, 58: 8.022785987000001, 59: 7.02118143, 60: 7.919777194, 61: 6.918193239, 62: 7.8168096, 63: 6.815246238, 64: 7.713883189, 65: 6.712340412, 66: 6.710997944, 67: 7.609655744, 68: 6.608133813, 69: 7.506812186, 70: 6.505310824, 71: 5.504009762, 72: 5.50290896, 73: 5.501808378, 74: 4.500708016, 75: 5.399807875, 76: 4.398727913, 77: 3.397848168, 78: 4.297168598, 79: 5.196309164, 80: 6.095269902, 81: 5.094050849, 82: 4.093032038, 83: 4.092213432, 84: 4.091394989, 85: 4.09057671, 86: 4.989758595, 87: 4.988760643, 88: 3.987762891, 89: 2.986965338, 90: 3.886367945, 91: 4.785590672, 92: 4.784633554, 93: 5.683676627, 94: 5.682539892, 95: 6.581403384, 96: 7.480087103, 97: 7.478591086, 98: 6.477095367, 99: 7.375799948, 100: 8.274324787999999, 101: 7.272669923, 102: 6.271215389, 103: 7.169961146, 104: 7.168527154, 105: 7.167093449, 106: 8.06566003, 107: 8.964046897999999, 108: 7.962254089, 109: 6.960661638, 110: 5.959269505, 111: 5.958077652, 112: 4.956886036, 113: 3.955894659, 114: 4.85510348, 115: 3.854132459, 116: 4.753361633, 117: 3.75241096, 118: 4.651660478, 119: 3.650730146, 120: 2.65, 121: 3.54947, 122: 4.448760106, 123: 5.347870354, 124: 5.34680078, 125: 6.24573142, 126: 5.244482273, 127: 5.243433377, 128: 6.14238469, 129: 7.041156213, 130: 6.039747982, 131: 5.038540033, 132: 5.937532325, 133: 5.936344818, 134: 4.935157549, 135: 5.834170518, 136: 6.733003684, 137: 6.731657083, 138: 7.630310751, 139: 6.628784689, 140: 7.527458932, 141: 8.425953440000001, 142: 7.42426825, 143: 8.322783396, 144: 8.321118839, 145: 9.219454616, 146: 10.117610725, 147: 11.015587203, 148: 10.013384085, 149: 10.911381408, 150: 11.809199132, 151: 10.820693583, 152: 11.718529445, 153: 12.616185739, 154: 11.613662502, 155: 10.611339769, 156: 10.609217501, 157: 9.607095658, 158: 9.605174239, 159: 8.603253204, 160: 9.501532553000001, 161: 9.499632246999999, 162: 9.497732320000001, 163: 10.395832774, 164: 10.393753607, 165: 10.391674856, 166: 10.389596521, 167: 10.387518602, 168: 11.285441098, 169: 10.28318401, 170: 10.281127373, 171: 9.801872074, 172: 10.699911699, 173: 10.697771717, 174: 10.173655311, 175: 11.07162058, 176: 10.069406256, 177: 9.067392374000001, 178: 9.965578896, 179: 10.86358578, 180: 9.861413063000001, 181: 10.75944078, 182: 9.757288892, 183: 10.655337434, 184: 10.653206367, 185: 9.651075726, 186: 8.649145511, 187: 9.547415681, 188: 9.545506198, 189: 8.543597096999999, 190: 9.441888378, 191: 10.34];
cost = [0: 0.0, 1: 0.0, 2: 0.8820958880000001, 3: 0.152406823, 4: 0.153323173, 5: 0.882890058, 6: 0.155461323, 7: 0.885639108, 8: 0.0, 9: 0.876719968, 10: 0.147641803, 11: 0.0, 12: 0.153506443, 13: 0.151979193, 14: 0.0, 15: 0.0, 16: 0.877636318, 17: 0.0, 18: 0.0, 19: 0.153200993, 20: 0.0, 21: 0.804206138, 22: 0.0, 23: 0.08093152300000001, 24: 0.155218017, 25: 1.462877222, 26: 1.450505382, 27: 0.0, 28: 0.0, 29: 1.447293462, 30: 0.0, 31: 1.348318742, 32: 1.345820582, 33: 1.315842662, 34: 1.272779142, 35: 1.444319462, 36: 1.487977782, 37: 0.0, 38: 0.0, 39: 0.050533217, 40: 0.168898417, 41: 1.471918182, 42: 0.164140017, 43: 0.0, 44: 0.0, 45: 0.152600897, 46: 0.145463297, 47: 0.0, 48: 0.264753615, 49: 0.352266662, 50: 0.0, 51: 0.0, 52: 0.0, 53: 0.425753588, 54: 0.118178165, 55: 0.0, 56: 0.401776203, 57: 1.137146638, 58: 0.699467773, 59: 0.308186323, 60: 1.330117862, 61: 0.0, 62: 2.390884182, 63: 0.0, 64: 2.331998982, 65: 0.0, 66: 0.0, 67: 0.545814582, 68: 0.0, 69: 0.854396822, 70: 0.0, 71: 0.0, 72: 0.465108817, 73: 0.0, 74: 0.0, 75: 1.394951062, 76: 0.0, 77: 0.0, 78: 1.588498982, 79: 1.531636102, 80: 1.542461462, 81: 0.0, 82: 0.0, 83: 0.222787297, 84: 0.222787297, 85: 0.212556737, 86: 1.521286582, 87: 0.211724017, 88: 0.0, 89: 0.0, 90: 0.9324951379999999, 91: 0.930356988, 92: 0.199140673, 93: 0.928524288, 94: 0.191198973, 95: 0.921193488, 96: 0.926691588, 97: 0.198041053, 98: 0.0, 99: 1.197014838, 100: 1.260670618, 101: 0.013732523, 102: 0.0, 103: 1.016371708, 104: 0.233778703, 105: 0.212763743, 106: 0.937871058, 107: 0.914168138, 108: 0.0, 109: 0.0, 110: 0.0, 111: 0.151490473, 112: 0.0, 113: 0.0, 114: 0.887471808, 115: 0.0, 116: 0.8863721879999999, 117: 0.0, 118: 0.886983088, 119: 0.0, 120: 0.0, 121: 1.603131062, 122: 1.599800182, 123: 1.591116102, 124: 0.037447617, 125: 1.346534342, 126: 0.0, 127: 0.144749537, 128: 0.989535382, 129: 2.247180502, 130: 0.0, 131: 0.0, 132: 0.340251702, 133: 0.750018017, 134: 0.0, 135: 0.118178165, 136: 0.118178165, 137: 0.872546817, 138: 0.887943542, 139: 0.0, 140: 1.594446982, 141: 0.118178165, 142: 0.0, 143: 0.118178165, 144: 0.0, 145: 1.598253702, 146: 0.118178165, 147: 2.308444902, 148: 0.0, 149: 0.730165058, 150: 0.734563538, 151: 0.0, 152: 0.947767638, 153: 0.754539968, 154: 0.0, 155: 0.144648393, 156: 2.214653537, 157: 0.0, 158: 0.415740417, 159: 0.0, 160: 2.167596262, 161: 0.014012497, 162: 0.399086017, 163: 1.337255462, 164: 0.395160337, 165: 0.261687217, 166: 0.914896577, 167: 0.0, 168: 1.251247382, 169: 0.0, 170: 0.082414497, 171: 0.0, 172: 1.509390582, 173: 0.178058337, 174: 0.0, 175: 1.538535782, 176: 0.0, 177: 0.0, 178: 1.500468582, 179: 1.540320182, 180: 0.0, 181: 1.486193382, 182: 0.0, 183: 1.468587302, 184: 0.07665522299999999, 185: 0.0, 186: 0.0, 187: 0.802190168, 188: 0.08044280299999999, 189: 0.0, 190: 0.947034558, 191: 0.950089058];
earn = [0: 0.345419763, 1: 0.337719948, 2: 0.0, 3: 0.0, 4: 0.0, 5: 0.0, 6: 0.0, 7: 0.0, 8: 0.246871852, 9: 0.0, 10: 0.0, 11: 0.272748742, 12: 0.0, 13: 0.0, 14: 0.252157904, 15: 0.246963605, 16: 0.0, 17: 0.222892144, 18: 0.209989773, 19: 0.0, 20: 0.18809813, 21: 0.0, 22: 0.21782241, 23: 0.0, 24: 0.0, 25: 0.0, 26: 0.0, 27: 0.226268373, 28: 0.231747623, 29: 0.0, 30: 0.24104521, 31: 0.0, 32: 0.0, 33: 0.0, 34: 0.0, 35: 0.0, 36: 0.0, 37: 0.026969492, 38: 0.016083572, 39: 0.0, 40: 0.0, 41: 0.0, 42: 0.0, 43: 0.005636406, 44: 0.004956971, 45: 0.0, 46: 0.0, 47: 0.000480439, 48: 0.0, 49: 0.0, 50: -0.002845081, 51: 0.0, 52: -0.001720006, 53: 0.0, 54: -5.9006e-05, 55: -0.001631786, 56: 0.0, 57: 0.0, 58: 0.0, 59: 0.0, 60: 0.0, 61: -0.000343521, 62: 0.0, 63: -0.000292513, 64: 0.0, 65: 0.012964342, 66: 0.0, 67: 0.0, 68: 0.04385499, 69: 0.0, 70: 0.269242238, 71: 0.28605645, 72: 0.0, 73: 0.056309122, 74: 0.43221711, 75: 0.0, 76: 0.5020552190000001, 77: 0.530639775, 78: 0.0, 79: 0.0, 80: 0.0, 81: 0.495057944, 82: 0.491147355, 83: 0.0, 84: 0.0, 85: 0.0, 86: 0.0, 87: 0.0, 88: 0.406316595, 89: 0.395162789, 90: 0.0, 91: 0.0, 92: 0.0, 93: 0.0, 94: 0.0, 95: 0.0, 96: 0.0, 97: 0.0, 98: 0.24080052, 99: 0.0, 100: 0.0, 101: 0.0, 102: 0.328336883, 103: 0.0, 104: 0.0, 105: 0.0, 106: 0.0, 107: 0.0, 108: 0.223111798, 109: 0.239471708, 110: 0.241898341, 111: 0.0, 112: 0.198229938, 113: 0.172272503, 114: 0.0, 115: 0.038613292, 116: 0.0, 117: 0.098617423, 118: 0.0, 119: 0.085088423, 120: 0.019707038, 121: 0.0, 122: 0.0, 123: 0.0, 124: 0.0, 125: 0.0, 126: -0.003576596, 127: 0.0, 128: 0.0, 129: 0.0, 130: -0.021377826, 131: -0.023870642, 132: 0.0, 133: 0.0, 134: -0.026345832, 135: -0.005605504, 136: -0.011444911, 137: 0.0, 138: 0.0, 139: -0.86240405, 140: 0.0, 141: -0.125226902, 142: -1.375176431, 143: -0.042592542, 144: -0.381741577, 145: 0.0, 146: 0.0, 147: 0.0, 148: -0.88136757, 149: 0.0, 150: 0.0, 151: -0.647300577, 152: 0.0, 153: 0.0, 154: -0.005338368, 155: 0.0, 156: 0.0, 157: -0.393744597, 158: 0.0, 159: -0.236951255, 160: 0.0, 161: 0.0, 162: 0.0, 163: 0.0, 164: 0.0, 165: 0.0, 166: 0.0, 167: -0.00141416, 168: 0.0, 169: 0.040038153, 170: 0.0, 171: 0.0, 172: 0.0, 173: 0.0, 174: 0.0, 175: 0.0, 176: 0.33858598, 177: 0.348064252, 178: 0.0, 179: 0.0, 180: 0.342328073, 181: 0.0, 182: 0.359506242, 183: 0.0, 184: 0.0, 185: 0.339765725, 186: 0.324580603, 187: 0.0, 188: 0.0, 189: 0.214418969, 190: 0.0, 191: 0.0];
total_cost = 98.48870803600001;
total_earn = 6.355960896;
