production = [0: 0.0, 1: 0.0, 2: 0.0, 3: 0.0, 4: 0.0, 5: 0.0, 6: 0.0, 7: 0.0, 8: 0.0, 9: 0.0, 10: 0.0, 11: 0.0, 12: 0.0, 13: 0.0, 14: 0.0, 15: 0.0, 16: 0.0, 17: 0.0, 18: 0.0, 19: 0.0, 20: 0.0, 21: 0.0, 22: 0.0, 23: 0.0005, 24: 0.0, 25: 0.0, 26: 0.0, 27: 0.0362, 28: 0.0, 29: 0.0, 30: 0.0675, 31: 0.0, 32: 0.0, 33: 0.0, 34: 0.1447, 35: 0.0, 36: 0.1487, 37: 0.169, 38: 0.0, 39: 0.2288, 40: 0.0, 41: 0.516, 42: 0.0, 43: 0.6685, 44: 0.9235, 45: 0.0, 46: 0.6635, 47: 0.6465, 48: 0.6502, 49: 0.9237, 50: 1.124, 51: 0.0, 52: 0.0, 53: 0.0, 54: 0.0, 55: 0.0, 56: 0.0, 57: 0.0, 58: 1.0637, 59: 1.4543, 60: 0.0, 61: 0.0, 62: 0.0, 63: 0.4358, 64: 0.9948, 65: 0.0, 66: 0.0, 67: 0.0, 68: 0.0, 69: 0.0, 70: 0.6165, 71: 0.5004999999999999, 72: 0.2318, 73: 0.0, 74: 0.0, 75: 0.0592, 76: 0.0, 77: 0.0, 78: 0.0, 79: 0.0008, 80: 0.0005, 81: 0.0, 82: 0.0, 83: 0.0, 84: 0.0, 85: 0.0, 86: 0.0, 87: 0.0, 88: 0.0, 89: 0.0, 90: 0.0, 91: 0.0, 92: 0.0, 93: 0.0, 94: 0.0, 95: 0.0, 96: 0.0, 97: 0.0, 98: 0.0, 99: 0.0, 100: 0.0, 101: 0.0, 102: 0.0, 103: 0.0, 104: 0.0, 105: 0.0, 106: 0.0, 107: 0.0, 108: 0.0, 109: 0.0, 110: 0.0, 111: 0.0, 112: 0.0, 113: 0.0, 114: 0.0, 115: 0.0, 116: 0.0, 117: 0.0, 118: 0.0, 119: 0.0, 120: 0.0, 121: 0.004, 122: 0.026, 123: 0.0578, 124: 0.0838, 125: 0.0, 126: 0.0, 127: 0.0, 128: 0.431, 129: 0.3272, 130: 0.6993, 131: 0.0, 132: 0.0, 133: 0.0, 134: 1.172, 135: 1.1843, 136: 0.0, 137: 0.0, 138: 0.0, 139: 1.7252, 140: 1.240979167, 141: 1.4105, 142: 1.261, 143: 0.0, 144: 0.8293, 145: 0.0, 146: 0.0, 147: 0.7745, 148: 0.3495, 149: 0.0, 150: 0.0, 151: 0.0, 152: 0.3008, 153: 0.2328, 154: 0.8405, 155: 0.0, 156: 1.699, 157: 0.0, 158: 0.0, 159: 0.2385, 160: 0.0, 161: 0.0, 162: 0.0, 163: 0.3242, 164: 0.1975, 165: 0.1275, 166: 0.0, 167: 0.2155, 168: 0.0, 169: 0.0825, 170: 0.0, 171: 0.014, 172: 0.0043, 173: 0.0008, 174: 0.0, 175: 0.0, 176: 0.0, 177: 0.0, 178: 0.0, 179: 0.0, 180: 0.0, 181: 0.0, 182: 0.0, 183: 0.0, 184: 0.0, 185: 0.0, 186: 0.0, 187: 0.0, 188: 0.0, 189: 0.0, 190: 0.0, 191: 0.0];
buy = [0: 1.241179167, 1: 0.0, 2: 1.250479167, 3: 1.249479167, 4: 1.250979167, 5: 1.251779167, 6: 1.254479167, 7: 1.256279167, 8: 0.248279167, 9: 0.0, 10: 0.771286196, 11: 0.249979167, 12: 0.251279167, 13: 1.248779167, 14: 0.0, 15: 1.250779167, 16: 0.0, 17: 0.0, 18: 0.250279167, 19: 1.250779167, 20: 1.252279167, 21: 0.0, 22: 0.0, 23: 1.131979167, 24: 0.0, 25: 0.131679167, 26: 0.0, 27: 0.0, 28: 0.0, 29: 1.117279167, 30: 0.057479167, 31: 0.0, 32: 1.124979167, 33: 0.0, 34: 0.0, 35: 0.0, 36: 0.002779167, 37: 1.433979167, 38: 1.768979167, 39: 1.713679167, 40: 0.0, 41: 0.621979167, 42: 0.0, 43: 0.479979167, 44: 0.0, 45: 1.128279167, 46: 0.458779167, 47: 0.0, 48: 0.0, 49: 0.196779167, 50: 0.0, 51: 1.265479167, 52: 1.118179167, 53: 1.117479167, 54: 1.122979167, 55: 1.158279167, 56: 1.657679167, 57: 0.0, 58: 0.081279167, 59: 0.950179167, 60: 0.430479167, 61: 0.0, 62: 0.910479167, 63: 0.0, 64: 0.0, 65: 0.127279167, 66: 1.108979167, 67: 1.115979167, 68: 0.638179167, 69: 0.0, 70: 0.0, 71: 0.0, 72: 1.159179167, 73: 0.132179167, 74: 1.143979167, 75: 0.0, 76: 1.131979167, 77: 0.133179167, 78: 0.235979167, 79: 0.0, 80: 0.0, 81: 0.0, 82: 0.178679167, 83: 1.187279167, 84: 1.187279167, 85: 0.0, 86: 0.0, 87: 0.0, 88: 0.0, 89: 0.0, 90: 1.332979167, 91: 1.329479167, 92: 0.0, 93: 1.092224179, 94: 0.312979167, 95: 1.314479167, 96: 0.323479167, 97: 0.0, 98: 0.0, 99: 1.765979167, 100: 0.0, 101: 1.922479167, 102: 1.129979167, 103: 0.470279167, 104: 1.382679167, 105: 0.0, 106: 1.341779167, 107: 0.302979167, 108: 0.0, 109: 0.0, 110: 1.247279167, 111: 0.0, 112: 0.258479167, 113: 1.266179167, 114: 0.0, 115: 0.0, 116: 0.0, 117: 0.252479167, 118: 0.0, 119: 1.248979167, 120: 0.255979167, 121: 0.0, 122: 1.219479167, 123: 0.0, 124: 0.0, 125: 1.122279167, 126: 1.122479167, 127: 1.121679167, 128: 0.0, 129: 1.462479167, 130: 0.0, 131: 0.124979167, 132: 0.124979167, 133: 1.630479167, 134: 0.468179167, 135: 0.0, 136: 0.0, 137: 1.733479167, 138: 0.349779167, 139: 0.0, 140: 0.0, 141: 0.0, 142: 0.0, 143: 0.0, 144: 0.497179167, 145: 1.244179167, 146: 1.821279167, 147: 1.066679167, 148: 0.0, 149: 1.450479167, 150: 0.337679167, 151: 1.832679167, 152: 1.057179167, 153: 1.041679167, 154: 1.050679167, 155: 0.236779167, 156: 0.0, 157: 1.050979167, 158: 0.0, 159: 1.000179167, 160: 1.722779167, 161: 1.565279167, 162: 0.0, 163: 1.024779167, 164: 0.0, 165: 1.219979167, 166: 1.829279167, 167: 0.942279167, 168: 1.121979167, 169: 1.092779167, 170: 0.0, 171: 1.429479167, 172: 0.169479167, 173: 1.149679167, 174: 1.469779167, 175: 0.0, 176: 0.162179167, 177: 0.0, 178: 1.161979167, 179: 1.195479167, 180: 0.0, 181: 0.149979167, 182: 0.0, 183: 0.135179167, 184: 1.125479167, 185: 1.124279167, 186: 0.0, 187: 1.119679167, 188: 0.131679167, 189: 0.0, 190: 0.0, 191: 0.361779167];
sell = [0: 0.0, 1: 0.652220833, 2: 0.0, 3: 0.0, 4: 0.0, 5: 0.0, 6: 0.0, 7: 0.0, 8: 0.0, 9: 0.658320833, 10: 0.0, 11: 0.0, 12: 0.0, 13: 0.0, 14: 0.648220833, 15: 0.0, 16: 0.656820833, 17: 0.650020833, 18: 0.0, 19: 0.0, 20: 0.0, 21: 0.777020833, 22: 0.7757208330000001, 23: 0.0, 24: 0.769520833, 25: 0.0, 26: 0.773520833, 27: 0.812420833, 28: 0.780820833, 29: 0.0, 30: 0.0, 31: 0.7737208330000001, 32: 0.0, 33: 0.683513773, 34: 0.929420833, 35: 0.785220833, 36: 0.0, 37: 0.0, 38: 0.0, 39: 0.0, 40: 0.758020833, 41: 0.0, 42: 0.762020833, 43: 0.0, 44: 1.686820833, 45: 0.0, 46: 0.0, 47: 1.433820833, 48: 1.432020833, 49: 0.0, 50: 0.996720833, 51: 0.0, 52: 0.0, 53: 0.0, 54: 0.0, 55: 0.0, 56: 0.0, 57: 0.133881438, 58: 0.0, 59: 0.0, 60: 0.0, 61: 0.343520833, 62: 0.0, 63: 0.023320833, 64: 1.033820833, 65: 0.0, 66: 0.0, 67: 0.0, 68: 0.0, 69: 0.769320833, 70: 1.391520833, 71: 1.279520833, 72: 0.0, 73: 0.0, 74: 0.0, 75: 0.826720833, 76: 0.0, 77: 0.0, 78: 0.0, 79: 0.711820833, 80: 0.703220833, 81: 0.706720833, 82: 0.0, 83: 0.0, 84: 0.0, 85: 0.7213208330000001, 86: 0.720520833, 87: 0.722020833, 88: 0.733820833, 89: 0.760220833, 90: 0.0, 91: 0.0, 92: 0.574020833, 93: 0.0, 94: 0.0, 95: 0.0, 96: 0.0, 97: 0.575820833, 98: 0.577320833, 99: 0.0, 100: 0.029820833, 101: 0.0, 102: 0.0, 103: 0.0, 104: 0.0, 105: 0.0, 106: 0.0, 107: 0.0, 108: 0.603820833, 109: 0.647220833, 110: 0.0, 111: 0.652020833, 112: 0.0, 113: 0.0, 114: 0.640720833, 115: 0.152020833, 116: 0.0, 117: 0.0, 118: 0.641220833, 119: 0.0, 120: 0.0, 121: 0.6557208329999999, 122: 0.0, 123: 0.719620833, 124: 0.868520833, 125: 0.0, 126: 0.0, 127: 0.0, 128: 1.167520833, 129: 0.0, 130: 0.387820833, 131: 0.0, 132: 0.0, 133: 0.0, 134: 0.0, 135: 1.937620833, 136: 0.776020833, 137: 0.0, 138: 0.0, 139: 1.923720833, 140: 0.0, 141: 2.107020833, 142: 1.952820833, 143: 0.574820833, 144: 0.0, 145: 0.0, 146: 0.0, 147: 0.0, 148: 0.995220833, 149: 0.0, 150: 0.0, 151: 0.0, 152: 0.0, 153: 0.0, 154: 0.0, 155: 0.0, 156: 0.737320833, 157: 0.0, 158: 0.550520833, 159: 0.0, 160: 0.0, 161: 0.0, 162: 0.564520833, 163: 0.0, 164: 0.765320833, 165: 0.0, 166: 0.0, 167: 0.0, 168: 0.0, 169: 0.0, 170: 0.762220833, 171: 0.0, 172: 0.0, 173: 0.0, 174: 0.0, 175: 0.5126866, 176: 0.0, 177: 0.736020833, 178: 0.0, 179: 0.0, 180: 0.708020833, 181: 0.0, 182: 0.761020833, 183: 0.0, 184: 0.0, 185: 0.0, 186: 0.741220833, 187: 0.0, 188: 0.0, 189: 0.543520833, 190: 0.543220833, 191: 0.0];
charge = [0: 1.0, 1: 0.0, 2: 1.0, 3: 1.0, 4: 1.0, 5: 1.0, 6: 1.0, 7: 1.0, 8: 0.0, 9: 0.0, 10: 0.529607029, 11: 0.0, 12: 0.0, 13: 1.0, 14: 0.0, 15: 1.0, 16: 0.0, 17: 0.0, 18: 0.0, 19: 1.0, 20: 1.0, 21: 0.0, 22: 0.0, 23: 1.0, 24: 0.0, 25: 0.0, 26: 0.0, 27: 0.0, 28: 0.0, 29: 1.0, 30: 0.0, 31: 0.0, 32: 1.0, 33: 0.0, 34: 0.0, 35: 0.0, 36: 0.0, 37: 1.0, 38: 1.0, 39: 1.0, 40: 0.0, 41: 1.0, 42: 0.0, 43: 1.0, 44: 0.0, 45: 1.0, 46: 1.0, 47: 0.0, 48: 0.0, 49: 1.0, 50: 0.0, 51: 1.0, 52: 1.0, 53: 1.0, 54: 1.0, 55: 1.0, 56: 1.0, 57: 0.0, 58: 0.0, 59: 1.0, 60: 0.0, 61: 0.0, 62: 0.0, 63: 0.0, 64: 0.0, 65: 0.0, 66: 1.0, 67: 1.0, 68: 0.0, 69: 0.0, 70: 0.0, 71: 0.0, 72: 1.0, 73: 0.0, 74: 1.0, 75: 0.0, 76: 1.0, 77: 0.0, 78: 0.0, 79: 0.0, 80: 0.0, 81: 0.0, 82: 0.0, 83: 1.0, 84: 1.0, 85: 0.0, 86: 0.0, 87: 0.0, 88: 0.0, 89: 0.0, 90: 1.0, 91: 1.0, 92: 0.0, 93: 0.765745013, 94: 0.0, 95: 1.0, 96: 0.0, 97: 0.0, 98: 0.0, 99: 1.0, 100: 0.0, 101: 1.0, 102: 1.0, 103: 0.0, 104: 1.0, 105: 0.0, 106: 1.0, 107: 0.0, 108: 0.0, 109: 0.0, 110: 1.0, 111: 0.0, 112: 0.0, 113: 1.0, 114: 0.0, 115: 0.0, 116: 0.0, 117: 0.0, 118: 0.0, 119: 1.0, 120: 0.0, 121: 0.0, 122: 1.0, 123: 0.0, 124: 0.0, 125: 1.0, 126: 1.0, 127: 1.0, 128: 0.0, 129: 1.0, 130: 0.0, 131: 0.0, 132: 0.0, 133: 1.0, 134: 1.0, 135: 0.0, 136: 0.0, 137: 1.0, 138: 0.0, 139: 0.0, 140: 1.0, 141: 0.0, 142: 0.0, 143: 0.0, 144: 1.0, 145: 1.0, 146: 1.0, 147: 1.0, 148: 0.0, 149: 1.0, 150: 0.0, 151: 1.0, 152: 1.0, 153: 1.0, 154: 1.0, 155: 0.0, 156: 0.0, 157: 0.0, 158: 0.0, 159: 1.0, 160: 1.0, 161: 1.0, 162: 0.0, 163: 1.0, 164: 0.0, 165: 1.0, 166: 1.0, 167: 1.0, 168: 1.0, 169: 1.0, 170: 0.0, 171: 1.0, 172: 0.0, 173: 1.0, 174: 1.0, 175: 0.0, 176: 0.0, 177: 0.0, 178: 1.0, 179: 1.0, 180: 0.0, 181: 0.0, 182: 0.0, 183: 0.0, 184: 1.0, 185: 1.0, 186: 0.0, 187: 1.0, 188: 0.0, 189: 0.0, 190: 0.0, 191: 0.0];
discharge = [0: 0.0, 1: 1.0, 2: 0.0, 3: 0.0, 4: 0.0, 5: 0.0, 6: 0.0, 7: 0.0, 8: 0.0, 9: 1.0, 10: 0.0, 11: 0.0, 12: 0.0, 13: 0.0, 14: 1.0, 15: 0.0, 16: 1.0, 17: 1.0, 18: 0.0, 19: 0.0, 20: 0.0, 21: 1.0, 22: 1.0, 23: 0.0, 24: 1.0, 25: 0.0, 26: 1.0, 27: 1.0, 28: 1.0, 29: 0.0, 30: 0.0, 31: 1.0, 32: 0.0, 33: 0.898881044, 34: 1.0, 35: 1.0, 36: 0.0, 37: 0.0, 38: 0.0, 39: 0.0, 40: 1.0, 41: 0.0, 42: 1.0, 43: 0.0, 44: 1.0, 45: 0.0, 46: 0.0, 47: 1.0, 48: 1.0, 49: 0.0, 50: 0.0, 51: 0.0, 52: 0.0, 53: 0.0, 54: 0.0, 55: 0.0, 56: 0.0, 57: 0.890956227, 58: 0.0, 59: 0.0, 60: 1.0, 61: 1.0, 62: 0.0, 63: 0.0, 64: 1.0, 65: 0.0, 66: 0.0, 67: 0.0, 68: 0.0, 69: 1.0, 70: 1.0, 71: 1.0, 72: 0.0, 73: 0.0, 74: 0.0, 75: 1.0, 76: 0.0, 77: 0.0, 78: 0.0, 79: 1.0, 80: 1.0, 81: 1.0, 82: 0.0, 83: 0.0, 84: 0.0, 85: 1.0, 86: 1.0, 87: 1.0, 88: 1.0, 89: 1.0, 90: 0.0, 91: 0.0, 92: 1.0, 93: 0.0, 94: 0.0, 95: 0.0, 96: 0.0, 97: 1.0, 98: 1.0, 99: 0.0, 100: 1.0, 101: 0.0, 102: 0.0, 103: 0.0, 104: 0.0, 105: 0.386976852, 106: 0.0, 107: 0.0, 108: 1.0, 109: 1.0, 110: 0.0, 111: 1.0, 112: 0.0, 113: 0.0, 114: 1.0, 115: 1.0, 116: 0.286087963, 117: 0.0, 118: 1.0, 119: 0.0, 120: 0.0, 121: 1.0, 122: 0.0, 123: 1.0, 124: 1.0, 125: 0.0, 126: 0.0, 127: 0.0, 128: 1.0, 129: 0.0, 130: 0.0, 131: 0.0, 132: 0.0, 133: 0.0, 134: 0.0, 135: 1.0, 136: 1.0, 137: 0.0, 138: 1.0, 139: 1.0, 140: 0.0, 141: 1.0, 142: 1.0, 143: 1.0, 144: 0.0, 145: 0.0, 146: 0.0, 147: 0.0, 148: 1.0, 149: 0.0, 150: 0.0, 151: 0.0, 152: 0.0, 153: 0.0, 154: 0.0, 155: 1.0, 156: 1.0, 157: 0.0, 158: 1.0, 159: 0.0, 160: 0.0, 161: 0.0, 162: 1.0, 163: 0.0, 164: 1.0, 165: 0.0, 166: 0.0, 167: 0.0, 168: 0.0, 169: 0.0, 170: 1.0, 171: 0.0, 172: 0.0, 173: 0.0, 174: 0.0, 175: 0.785184186, 176: 0.0, 177: 1.0, 178: 0.0, 179: 0.0, 180: 1.0, 181: 0.0, 182: 1.0, 183: 0.0, 184: 0.0, 185: 0.0, 186: 1.0, 187: 0.0, 188: 0.0, 189: 1.0, 190: 1.0, 191: 0.0];
soc = [0: 10.927994, 1: 9.925808400999999, 2: 10.82382324, 3: 11.721658475, 4: 12.619314143, 5: 13.51679028, 6: 14.414086922, 7: 15.311204105, 8: 15.308141864, 9: 14.305080236, 10: 14.778865546, 11: 14.775909773, 12: 14.772954591, 13: 15.67, 14: 14.666866, 15: 15.563932627, 16: 14.56081984, 17: 13.557907676, 18: 13.555196095, 19: 14.452485056, 20: 15.349594559, 21: 14.34652464, 22: 13.343655335, 23: 14.240986604, 24: 13.238138406, 25: 13.235490779, 26: 12.23284368, 27: 11.230397112, 28: 10.228151032, 29: 11.126105402, 30: 11.123880181, 31: 10.121655405, 32: 11.019631074, 33: 10.118546104, 34: 9.116522395000001, 35: 8.11469909, 36: 8.113076149999999, 37: 9.011453534999999, 38: 9.909651244000001, 39: 10.807669314, 40: 9.805507779999999, 41: 10.703546679, 42: 9.701405969, 43: 10.599465688, 44: 9.597345795000001, 45: 10.495426326, 46: 11.393327241, 47: 10.391048575, 48: 9.388970366000001, 49: 10.287092571, 50: 10.285035153, 51: 11.182978146, 52: 12.08074155, 53: 12.978325402, 54: 13.875729737, 55: 14.772954591, 56: 15.67, 57: 14.775909773, 58: 14.772954591, 59: 15.67, 60: 14.666866, 61: 13.663932627, 62: 13.66119984, 63: 13.6584676, 64: 12.655735907, 65: 12.65320476, 66: 13.550674119, 67: 14.447963984, 68: 14.445074391, 69: 13.442185376, 70: 12.439496939, 71: 11.43700904, 72: 12.334721638, 73: 12.332254694, 74: 13.229788243, 75: 12.227142285, 76: 13.124696857, 77: 13.122071917, 78: 13.119447503, 79: 12.116823613, 80: 11.114400249, 81: 10.112177368, 82: 10.110154933, 83: 11.008132902, 84: 11.905931275, 85: 10.903550089, 86: 9.901369379, 87: 8.899389104999999, 88: 7.897609227, 89: 6.896029706, 90: 7.7946505, 91: 8.69309157, 92: 7.691352951, 93: 8.378985192, 94: 8.377309394999999, 95: 9.275633933, 96: 9.273778805999999, 97: 8.271924050999999, 98: 7.270269666, 99: 8.168815612, 100: 7.167181849, 101: 8.065748412, 102: 8.964135262999999, 103: 8.962342436, 104: 9.860549967000001, 105: 9.471601005, 106: 10.369706685, 107: 10.367632744, 108: 9.365559216999999, 109: 8.363686104999999, 110: 9.262013368, 111: 8.260160966000001, 112: 8.258508933, 113: 9.156857232, 114: 8.15502586, 115: 7.153394855, 116: 6.865876213, 117: 6.864503038, 118: 5.863130137, 119: 6.761957511, 120: 6.76060512, 121: 5.759252999, 122: 6.658101148, 123: 5.656769528, 124: 4.655638174, 125: 5.554707046, 126: 6.453596105, 127: 7.352305386, 128: 6.350834925, 129: 7.249564758, 130: 7.248114845, 131: 7.246665222, 132: 7.245215889, 133: 8.143766845, 134: 9.042138092, 135: 8.040329664, 136: 7.038721598, 137: 7.937313854, 138: 6.935726391, 139: 5.934339246, 140: 6.833152378, 141: 5.831785748, 142: 4.830619391, 143: 3.829653267, 144: 4.728887336, 145: 5.627941559, 146: 6.52681597, 147: 7.425510607, 148: 6.424025505, 149: 7.3227407, 150: 7.321276152, 151: 8.219811897, 152: 9.118167934000001, 153: 10.016344301, 154: 10.914341032, 155: 9.912158163999999, 156: 8.910175732000001, 157: 8.908393696999999, 158: 7.906612018, 159: 8.805030695999999, 160: 9.703269689000001, 161: 10.601329036, 162: 9.599208770000001, 163: 10.497288928, 164: 9.49518947, 165: 10.393290432, 166: 11.291211774, 167: 12.188953532, 168: 13.086515741, 169: 13.983898438, 170: 12.981101658, 171: 13.878505438, 172: 13.875729737, 173: 14.772954591, 174: 15.67, 175: 14.881681814, 176: 14.878705478, 177: 13.875729737, 178: 14.772954591, 179: 15.67, 180: 14.666866, 181: 14.663932627, 182: 13.66099984, 183: 13.65826764, 184: 14.555535987, 185: 15.45262488, 186: 14.449534355, 187: 15.346644448, 188: 15.343575119, 189: 14.340506404, 190: 13.337638303, 191: 13.334970775];
cost = [0: 0.876414518, 1: 0.0, 2: 0.8820958880000001, 3: 0.881484988, 4: 0.882401338, 5: 0.882890058, 6: 0.884539488, 7: 0.885639108, 8: 0.151673743, 9: 0.0, 10: 0.533766724, 11: 0.152712273, 12: 0.153506443, 13: 0.881057358, 14: 0.0, 15: 0.882279158, 16: 0.0, 17: 0.0, 18: 0.152895543, 19: 0.882279158, 20: 0.883195508, 21: 0.0, 22: 0.0, 23: 0.809704238, 24: 0.0, 25: 0.156645537, 26: 0.0, 27: 0.0, 28: 0.0, 29: 1.447293462, 30: 0.068377217, 31: 0.0, 32: 1.456453382, 33: 0.0, 34: 0.0, 35: 0.0, 36: 0.003306097, 37: 1.824039782, 38: 2.222555782, 39: 2.156770902, 40: 0.0, 41: 0.858084582, 42: 0.0, 43: 0.689161382, 44: 0.0, 45: 1.460379062, 46: 0.663941862, 47: 0.0, 48: 0.0, 49: 0.352266662, 50: 0.0, 51: 1.623592182, 52: 0.801273818, 53: 0.800846188, 54: 0.804206138, 55: 0.825770908, 56: 1.130854368, 57: 0.0, 58: 0.049653443, 59: 0.698642618, 60: 0.512098017, 61: 0.0, 62: 1.083106017, 63: 0.0, 64: 0.0, 65: 0.151411297, 66: 1.437419782, 67: 1.445746982, 68: 0.759177937, 69: 0.0, 70: 0.0, 71: 0.0, 72: 1.497137702, 73: 0.157240337, 74: 1.479055782, 75: 0.0, 76: 1.464780582, 77: 0.158429937, 78: 0.280720817, 79: 0.0, 80: 0.0, 81: 0.0, 82: 0.212556737, 83: 1.530565462, 84: 1.530565462, 85: 0.0, 86: 0.0, 87: 0.0, 88: 0.0, 89: 0.0, 90: 0.9324951379999999, 91: 0.930356988, 92: 0.0, 93: 0.757734092, 94: 0.191198973, 95: 0.921193488, 96: 0.197613423, 97: 0.0, 98: 0.0, 99: 1.197014838, 100: 0.0, 101: 1.292620688, 102: 0.808482438, 103: 0.287293543, 104: 0.962856868, 105: 0.0, 106: 0.937871058, 107: 0.185089973, 108: 0.0, 109: 0.0, 110: 0.8801410079999999, 111: 0.0, 112: 0.157904923, 113: 0.8916870180000001, 114: 0.0, 115: 0.0, 116: 0.0, 117: 0.154239523, 118: 0.0, 119: 0.881179538, 120: 0.304512817, 121: 0.0, 122: 1.568870582, 123: 0.0, 124: 0.0, 125: 1.453241462, 126: 1.453479382, 127: 1.452527702, 128: 0.0, 129: 1.857943382, 130: 0.0, 131: 0.148675217, 132: 0.148675217, 133: 2.057796182, 134: 0.6751241019999999, 135: 0.0, 136: 0.0, 137: 2.180324982, 138: 0.416097297, 139: 0.0, 140: 0.118178165, 141: 0.0, 142: 0.0, 143: 0.0, 144: 0.709622502, 145: 1.598253702, 146: 2.284771862, 147: 1.387099702, 148: 0.0, 149: 1.004275888, 150: 0.206288203, 151: 1.237761868, 152: 0.764008918, 153: 0.754539968, 154: 0.760038068, 155: 0.144648393, 156: 0.0, 157: 1.250244817, 158: 0.0, 159: 1.307991302, 160: 2.167596262, 161: 1.980234262, 162: 0.0, 163: 1.337255462, 164: 0.0, 165: 1.569465382, 166: 2.294288662, 167: 1.239113462, 168: 1.452884582, 169: 1.418148262, 170: 0.0, 171: 1.818686582, 172: 0.201612417, 173: 1.485836502, 174: 1.866627462, 175: 0.0, 176: 0.192928337, 177: 0.0, 178: 1.500468582, 179: 1.540320182, 180: 0.0, 181: 0.178415217, 182: 0.0, 183: 0.160809137, 184: 0.8057333880000001, 185: 0.805000308, 186: 0.0, 187: 0.802190168, 188: 0.08044280299999999, 189: 0.0, 190: 0.0, 191: 0.221010893];
earn = [0: 0.0, 1: 0.337719948, 2: 0.0, 3: 0.0, 4: 0.0, 5: 0.0, 6: 0.0, 7: 0.0, 8: 0.0, 9: 0.266488273, 10: 0.0, 11: 0.0, 12: 0.0, 13: 0.0, 14: 0.252157904, 15: 0.0, 16: 0.236389818, 17: 0.222892144, 18: 0.0, 19: 0.0, 20: 0.0, 21: 0.220673917, 22: 0.21782241, 23: 0.0, 24: 0.182761198, 25: 0.0, 26: 0.202971867, 27: 0.236820673, 28: 0.231747623, 29: 0.0, 30: 0.0, 31: 0.216254973, 32: 0.0, 33: 0.149416111, 34: 0.187928893, 35: 0.151547621, 36: 0.0, 37: 0.0, 38: 0.0, 39: 0.0, 40: 0.014857208, 41: 0.0, 42: 0.008001219, 43: 0.0, 44: 0.010626971, 45: 0.0, 46: 0.0, 47: 0.001290439, 48: 0.002434435, 49: 0.0, 50: -0.001495081, 51: 0.0, 52: 0.0, 53: 0.0, 54: 0.0, 55: 0.0, 56: 0.0, 57: -0.00072296, 58: 0.0, 59: 0.0, 60: 0.0, 61: -0.000343521, 62: 0.0, 63: -1.3993e-05, 64: 0.000413528, 65: 0.0, 66: 0.0, 67: 0.0, 68: 0.0, 69: 0.189406789, 70: 0.483414338, 71: 0.46984005, 72: 0.0, 73: 0.0, 74: 0.0, 75: 0.563162232, 76: 0.0, 77: 0.0, 78: 0.0, 79: 0.52311713, 80: 0.554700593, 81: 0.495057944, 82: 0.0, 83: 0.0, 84: 0.0, 85: 0.382011513, 86: 0.364799698, 87: 0.351118731, 88: 0.406316595, 89: 0.395162789, 90: 0.0, 91: 0.0, 92: 0.269445379, 93: 0.0, 94: 0.0, 95: 0.0, 96: 0.0, 97: 0.243975287, 98: 0.24080052, 99: 0.0, 100: 0.012491947, 101: 0.0, 102: 0.0, 103: 0.0, 104: 0.0, 105: 0.0, 106: 0.0, 107: 0.0, 108: 0.223111798, 109: 0.239471708, 110: 0.0, 111: 0.230880577, 112: 0.0, 113: 0.0, 114: 0.170880246, 115: 0.038613292, 116: 0.0, 117: 0.0, 118: 0.087077789, 119: 0.0, 120: 0.0, 121: 0.019737197, 122: 0.0, 123: 0.015040075, 124: 0.005645385, 125: 0.0, 126: 0.0, 127: 0.0, 128: -0.009456918999999999, 129: 0.0, 130: -0.006437826, 131: 0.0, 132: 0.0, 133: 0.0, 134: 0.0, 135: -0.288705504, 136: -0.207895981, 137: 0.0, 138: 0.0, 139: -0.86240405, 140: 0.0, 141: -1.274536902, 142: -1.375176431, 143: -0.401224942, 144: 0.0, 145: 0.0, 146: 0.0, 147: 0.0, 148: -0.88136757, 149: 0.0, 150: 0.0, 151: 0.0, 152: 0.0, 153: 0.0, 154: 0.0, 155: 0.0, 156: -0.343444044, 157: 0.0, 158: -0.237054271, 159: 0.0, 160: 0.0, 161: 0.0, 162: -0.082532946, 163: 0.0, 164: -0.040868133, 165: 0.0, 166: 0.0, 167: 0.0, 168: 0.0, 169: 0.0, 170: 0.039101929, 171: 0.0, 172: 0.0, 173: 0.0, 174: 0.0, 175: 0.206715237, 176: 0.0, 177: 0.348064252, 178: 0.0, 179: 0.0, 180: 0.342328073, 181: 0.0, 182: 0.359506242, 183: 0.0, 184: 0.0, 185: 0.0, 186: 0.324580603, 187: 0.0, 188: 0.0, 189: 0.214418969, 190: 0.175080075, 191: 0.0];
total_cost = 110.383697277;
total_earn = 6.322611083;
