production = [0: 0.0, 1: 0.0, 2: 0.0, 3: 0.0, 4: 0.0, 5: 0.0, 6: 0.0, 7: 0.0, 8: 0.0, 9: 0.0, 10: 0.0, 11: 0.0, 12: 0.0, 13: 0.0, 14: 0.0, 15: 0.0, 16: 0.0, 17: 0.0, 18: 0.0, 19: 0.0, 20: 0.0, 21: 0.0, 22: 0.0, 23: 0.0005, 24: 0.0, 25: 0.0, 26: 0.0065, 27: 0.0, 28: 0.0872, 29: 0.0, 30: 0.0, 31: 0.0, 32: 0.0, 33: 0.1187, 34: 0.0, 35: 0.0, 36: 0.0, 37: 0.169, 38: 0.0, 39: 0.2288, 40: 0.0, 41: 0.516, 42: 0.6412, 43: 0.0, 44: 0.9235, 45: 0.0, 46: 0.0, 47: 0.0, 48: 0.0, 49: 0.0, 50: 0.0, 51: 1.2067, 52: 0.677, 53: 0.614, 54: 1.1498, 55: 0.0, 56: 0.0, 57: 0.0, 58: 1.0637, 59: 1.4543, 60: 1.3117, 61: 0.0, 62: 0.837, 63: 0.4358, 64: 0.9948, 65: 1.1338, 66: 0.0, 67: 0.0, 68: 0.5723, 69: 0.0, 70: 0.0, 71: 0.5004999999999999, 72: 0.0, 73: 0.2455, 74: 0.0867, 75: 0.0592, 76: 0.043, 77: 0.022, 78: 0.0, 79: 0.0008, 80: 0.0, 81: 0.0, 82: 0.0, 83: 0.0, 84: 0.0, 85: 0.0, 86: 0.0, 87: 0.0, 88: 0.0, 89: 0.0, 90: 0.0, 91: 0.0, 92: 0.0, 93: 0.0, 94: 0.0, 95: 0.0, 96: 0.0, 97: 0.0, 98: 0.0, 99: 0.0, 100: 0.0, 101: 0.0, 102: 0.0, 103: 0.0, 104: 0.0, 105: 0.0, 106: 0.0, 107: 0.0, 108: 0.0, 109: 0.0, 110: 0.0, 111: 0.0, 112: 0.0, 113: 0.0, 114: 0.0, 115: 0.0, 116: 0.0, 117: 0.0, 118: 0.0, 119: 0.0, 120: 0.0, 121: 0.0, 122: 0.026, 123: 0.0578, 124: 0.0, 125: 0.0, 126: 0.0, 127: 0.2687, 128: 0.431, 129: 0.3272, 130: 0.0, 131: 0.0, 132: 0.9383, 133: 1.0728, 134: 1.172, 135: 0.0, 136: 1.1667, 137: 1.5145, 138: 1.6027, 139: 1.7252, 140: 1.2897, 141: 0.0, 142: 0.0, 143: 0.0, 144: 0.0, 145: 1.3055, 146: 1.9007, 147: 0.7745, 148: 0.3495, 149: 0.0, 150: 0.0, 151: 0.0, 152: 0.3008, 153: 0.0, 154: 0.8405, 155: 0.0, 156: 1.699, 157: 0.9952, 158: 0.0, 159: 0.0, 160: 0.0, 161: 0.5535, 162: 0.3432, 163: 0.3242, 164: 0.1975, 165: 0.1275, 166: 0.0, 167: 0.0, 168: 0.0, 169: 0.0, 170: 0.06850000000000001, 171: 0.014, 172: 0.0, 173: 0.0, 174: 0.0, 175: 0.0, 176: 0.0, 177: 0.0, 178: 0.0, 179: 0.0, 180: 0.0, 181: 0.0, 182: 0.0, 183: 0.0, 184: 0.0, 185: 0.0, 186: 0.0, 187: 0.0, 188: 0.0, 189: 0.0, 190: 0.0, 191: 0.0];
buy = [0: 0.0, 1: 1.247779167, 2: 0.0, 3: 1.249479167, 4: 1.250979167, 5: 1.251779167, 6: 0.254479167, 7: 1.256279167, 8: 0.248279167, 9: 0.0, 10: 0.0, 11: 0.0, 12: 1.251279167, 13: 1.248779167, 14: 0.251779167, 15: 0.250779167, 16: 0.0, 17: 1.249979167, 18: 0.250279167, 19: 1.250779167, 20: 1.252279167, 21: 0.122979167, 22: 1.124279167, 23: 0.0, 24: 0.0, 25: 1.131679167, 26: 0.0, 27: 0.0, 28: 0.031979167, 29: 0.117279167, 30: 1.124979167, 31: 0.0, 32: 0.124979167, 33: 1.006779167, 34: 1.115279167, 35: 0.0, 36: 1.151479167, 37: 1.433979167, 38: 0.768979167, 39: 0.0, 40: 0.0, 41: 0.0, 42: 0.496779167, 43: 0.148479167, 44: 0.0, 45: 0.0, 46: 1.122279167, 47: 1.112679167, 48: 0.118179167, 49: 0.0, 50: 0.0, 51: 0.0, 52: 0.441179167, 53: 0.0, 54: 0.0, 55: 0.0, 56: 1.657679167, 57: 0.0, 58: 0.0, 59: 0.791955913, 60: 0.018779167, 61: 0.556479167, 62: 1.073479167, 63: 0.0, 64: 0.866179167, 65: 0.0, 66: 1.108979167, 67: 1.115979167, 68: 1.065879167, 69: 1.130679167, 70: 1.124979167, 71: 0.0, 72: 1.390979167, 73: 0.0, 74: 0.0, 75: 0.07327916700000001, 76: 0.0, 77: 0.0, 78: 0.235979167, 79: 1.188179167, 80: 0.0, 81: 0.193279167, 82: 0.0, 83: 0.0, 84: 0.0, 85: 0.0, 86: 1.179479167, 87: 0.0, 88: 0.166179167, 89: 0.0, 90: 0.0, 91: 0.0, 92: 1.325979167, 93: 0.0, 94: 1.312979167, 95: 1.314479167, 96: 0.0, 97: 0.0, 98: 1.322679167, 99: 0.0, 100: 0.0, 101: 1.922479167, 102: 0.129979167, 103: 0.470279167, 104: 1.382679167, 105: 1.348279167, 106: 0.341779167, 107: 1.302979167, 108: 1.296179167, 109: 0.0, 110: 1.247279167, 111: 1.247979167, 112: 0.0, 113: 0.266179167, 114: 1.259279167, 115: 1.747979167, 116: 0.257479167, 117: 0.252479167, 118: 1.258779167, 119: 1.248979167, 120: 0.255979167, 121: 1.248279167, 122: 1.219479167, 123: 0.0, 124: 0.0, 125: 0.0, 126: 0.122479167, 127: 0.852979167, 128: 0.0, 129: 1.462479167, 130: 0.0, 131: 1.124979167, 132: 0.186679167, 133: 0.0, 134: 0.0, 135: 1.146679167, 136: 0.0, 137: 0.218979167, 138: 0.647079167, 139: 0.0, 140: 0.0, 141: 1.203479167, 142: 1.208179167, 143: 1.325179167, 144: 1.326479167, 145: 0.0, 146: 0.0, 147: 1.066679167, 148: 0.250186804, 149: 0.450479167, 150: 0.0, 151: 1.832679167, 152: 0.0, 153: 0.274479167, 154: 0.0, 155: 1.136779167, 156: 0.0, 157: 1.055779167, 158: 0.0, 159: 0.0, 160: 0.0, 161: 0.0, 162: 0.0, 163: 1.024779167, 164: 0.134679167, 165: 0.0, 166: 0.0, 167: 0.0, 168: 0.0, 169: 0.175279167, 170: 1.069279167, 171: 0.0, 172: 1.173779167, 173: 1.150479167, 174: 1.469779167, 175: 1.193979167, 176: 1.162179167, 177: 0.163979167, 178: 1.161979167, 179: 0.195479167, 180: 0.191979167, 181: 1.149979167, 182: 1.138979167, 183: 0.0, 184: 0.0, 185: 0.0, 186: 0.0, 187: 1.119679167, 188: 1.131679167, 189: 0.0, 190: 0.356779167, 191: 0.361779167];
sell = [0: 0.6588208330000001, 1: 0.0, 2: 0.649520833, 3: 0.0, 4: 0.0, 5: 0.0, 6: 0.0, 7: 0.0, 8: 0.0, 9: 0.658320833, 10: 0.658320833, 11: 0.650020833, 12: 0.0, 13: 0.0, 14: 0.0, 15: 0.0, 16: 0.656820833, 17: 0.0, 18: 0.0, 19: 0.0, 20: 0.0, 21: 0.0, 22: 0.0, 23: 0.768020833, 24: 0.0, 25: 0.0, 26: 0.780020833, 27: 0.776220833, 28: 0.0, 29: 0.0, 30: 0.0, 31: 0.0, 32: 0.0, 33: 0.0, 34: 0.0, 35: 0.785220833, 36: 0.0, 37: 0.0, 38: 0.0, 39: 0.186320833, 40: 0.758020833, 41: 1.278020833, 42: 0.0, 43: 0.0, 44: 0.7868208330000001, 45: 0.7717208330000001, 46: 0.0, 47: 0.0, 48: 0.0, 49: 0.779520833, 50: 0.7727208330000001, 51: 0.941220833, 52: 0.0, 53: 0.496520833, 54: 1.926820833, 55: 0.741720833, 56: 0.0, 57: 0.232020833, 58: 0.818720833, 59: 0.0, 60: 0.0, 61: 0.0, 62: 0.0, 63: 0.923320833, 64: 0.0, 65: 1.906520833, 66: 0.0, 67: 0.0, 68: 0.0, 69: 0.0, 70: 0.0, 71: 0.0, 72: 0.0, 73: 1.013320833, 74: 0.842720833, 75: 0.0, 76: 0.8110208330000001, 77: 0.7888208330000001, 78: 0.0, 79: 0.0, 80: 0.702720833, 81: 0.0, 82: 0.7213208330000001, 83: 0.712720833, 84: 0.712720833, 85: 0.7213208330000001, 86: 0.0, 87: 0.722020833, 88: 0.0, 89: 0.760220833, 90: 0.5670208329999999, 91: 0.570520833, 92: 0.0, 93: 0.573520833, 94: 0.0, 95: 0.0, 96: 0.576520833, 97: 0.575820833, 98: 0.0, 99: 0.134020833, 100: 0.0, 101: 0.0, 102: 0.0, 103: 0.0, 104: 0.0, 105: 0.0, 106: 0.0, 107: 0.0, 108: 0.0, 109: 0.647220833, 110: 0.0, 111: 0.0, 112: 0.641520833, 113: 0.0, 114: 0.0, 115: 0.0, 116: 0.0, 117: 0.0, 118: 0.0, 119: 0.0, 120: 0.0, 121: 0.0, 122: 0.0, 123: 0.719620833, 124: 0.784720833, 125: 0.7777208329999999, 126: 0.0, 127: 0.0, 128: 1.167520833, 129: 0.0, 130: 0.588520833, 131: 0.0, 132: 0.0, 133: 0.442320833, 134: 1.431820833, 135: 0.0, 136: 0.042720833, 137: 0.0, 138: 0.0, 139: 1.923720833, 140: 1.948720833, 141: 0.0, 142: 0.0, 143: 0.0, 144: 0.0, 145: 1.961320833, 146: 1.079420833, 147: 0.0, 148: 0.0, 149: 0.0, 150: 0.562320833, 151: 0.0, 152: 0.694061612, 153: 0.0, 154: 0.8493208330000001, 155: 0.0, 156: 0.737320833, 157: 0.0, 158: 0.550520833, 159: 0.661320833, 160: 0.177220833, 161: 0.888220833, 162: 0.007720833, 163: 0.0, 164: 0.0, 165: 0.680020833, 166: 0.070720833, 167: 0.742220833, 168: 0.778020833, 169: 0.0, 170: 0.0, 171: 0.470520833, 172: 0.0, 173: 0.0, 174: 0.0, 175: 0.0, 176: 0.0, 177: 0.0, 178: 0.0, 179: 0.0, 180: 0.0, 181: 0.0, 182: 0.0, 183: 0.764820833, 184: 0.774520833, 185: 0.7757208330000001, 186: 0.741220833, 187: 0.0, 188: 0.0, 189: 0.543520833, 190: 0.0, 191: 0.0];
charge = [0: 0.0, 1: 1.0, 2: 0.0, 3: 1.0, 4: 1.0, 5: 1.0, 6: 0.0, 7: 1.0, 8: 0.0, 9: 0.0, 10: 0.0, 11: 0.0, 12: 1.0, 13: 1.0, 14: 0.0, 15: 0.0, 16: 0.0, 17: 1.0, 18: 0.0, 19: 1.0, 20: 1.0, 21: 0.0, 22: 1.0, 23: 0.0, 24: 0.0, 25: 1.0, 26: 0.0, 27: 0.0, 28: 0.0, 29: 0.0, 30: 1.0, 31: 0.0, 32: 0.0, 33: 1.0, 34: 1.0, 35: 0.0, 36: 1.0, 37: 1.0, 38: 0.0, 39: 0.0, 40: 0.0, 41: 0.0, 42: 1.0, 43: 0.0, 44: 0.0, 45: 0.0, 46: 1.0, 47: 1.0, 48: 0.0, 49: 0.0, 50: 0.0, 51: 0.0, 52: 1.0, 53: 0.0, 54: 0.0, 55: 0.0, 56: 1.0, 57: 0.0, 58: 0.0, 59: 0.841776747, 60: 0.0, 61: 0.0, 62: 1.0, 63: 0.0, 64: 1.0, 65: 0.0, 66: 1.0, 67: 1.0, 68: 1.0, 69: 1.0, 70: 1.0, 71: 0.379520833, 72: 1.0, 73: 0.0, 74: 0.0, 75: 0.0, 76: 0.0, 77: 0.0, 78: 0.0, 79: 1.0, 80: 0.0, 81: 0.0, 82: 0.0, 83: 0.0, 84: 0.0, 85: 0.0, 86: 1.0, 87: 0.0, 88: 0.0, 89: 0.0, 90: 0.0, 91: 0.0, 92: 1.0, 93: 0.0, 94: 1.0, 95: 1.0, 96: 0.0, 97: 0.0, 98: 1.0, 99: 0.0, 100: 0.0, 101: 1.0, 102: 0.0, 103: 0.0, 104: 1.0, 105: 1.0, 106: 0.0, 107: 1.0, 108: 1.0, 109: 0.0, 110: 1.0, 111: 1.0, 112: 0.0, 113: 0.0, 114: 1.0, 115: 1.0, 116: 0.0, 117: 0.0, 118: 1.0, 119: 1.0, 120: 0.0, 121: 1.0, 122: 1.0, 123: 0.0, 124: 0.0, 125: 0.0, 126: 0.0, 127: 1.0, 128: 0.0, 129: 1.0, 130: 0.0, 131: 1.0, 132: 1.0, 133: 0.0, 134: 0.0, 135: 1.0, 136: 1.0, 137: 1.0, 138: 1.0, 139: 0.0, 140: 0.0, 141: 1.0, 142: 1.0, 143: 1.0, 144: 1.0, 145: 0.0, 146: 0.0, 147: 1.0, 148: 0.345407637, 149: 0.0, 150: 0.0, 151: 1.0, 152: 0.0, 153: 0.0, 154: 0.0, 155: 0.0, 156: 0.0, 157: 1.0, 158: 0.0, 159: 0.0, 160: 0.0, 161: 0.0, 162: 0.0, 163: 1.0, 164: 0.0, 165: 0.0, 166: 0.0, 167: 0.0, 168: 0.0, 169: 0.0, 170: 1.0, 171: 0.0, 172: 1.0, 173: 1.0, 174: 1.0, 175: 1.0, 176: 1.0, 177: 0.0, 178: 1.0, 179: 0.0, 180: 0.0, 181: 1.0, 182: 1.0, 183: 0.0, 184: 0.0, 185: 0.0, 186: 0.0, 187: 1.0, 188: 1.0, 189: 0.0, 190: 0.0, 191: 0.0];
discharge = [0: 1.0, 1: 0.0, 2: 1.0, 3: 0.0, 4: 0.0, 5: 0.0, 6: 0.0, 7: 0.0, 8: 0.0, 9: 1.0, 10: 1.0, 11: 1.0, 12: 0.0, 13: 0.0, 14: 0.0, 15: 0.0, 16: 1.0, 17: 0.0, 18: 0.0, 19: 0.0, 20: 0.0, 21: 0.0, 22: 0.0, 23: 1.0, 24: 0.144976852, 25: 0.0, 26: 1.0, 27: 1.0, 28: 0.0, 29: 0.0, 30: 0.0, 31: 0.140310185, 32: 0.0, 33: 0.0, 34: 0.0, 35: 1.0, 36: 0.0, 37: 0.0, 38: 0.0, 39: 1.0, 40: 1.0, 41: 1.0, 42: 0.0, 43: 0.0, 44: 0.0, 45: 1.0, 46: 0.0, 47: 0.0, 48: 0.0, 49: 1.0, 50: 1.0, 51: 0.0, 52: 0.0, 53: 0.0, 54: 1.0, 55: 1.0, 56: 0.0, 57: 1.0, 58: 1.0, 59: 0.0, 60: 0.0, 61: 0.0, 62: 0.0, 63: 1.0, 64: 0.0, 65: 1.0, 66: 0.0, 67: 0.0, 68: 0.0, 69: 0.0, 70: 0.0, 71: 0.0, 72: 0.0, 73: 1.0, 74: 1.0, 75: 0.0, 76: 1.0, 77: 1.0, 78: 0.0, 79: 0.0, 80: 1.0, 81: 0.0, 82: 1.0, 83: 1.0, 84: 1.0, 85: 1.0, 86: 0.0, 87: 1.0, 88: 0.0, 89: 1.0, 90: 1.0, 91: 1.0, 92: 0.0, 93: 1.0, 94: 0.0, 95: 0.0, 96: 1.0, 97: 1.0, 98: 0.0, 99: 1.0, 100: 0.966865741, 101: 0.0, 102: 0.0, 103: 0.0, 104: 0.0, 105: 0.0, 106: 0.0, 107: 0.0, 108: 0.0, 109: 1.0, 110: 0.0, 111: 0.0, 112: 1.0, 113: 0.0, 114: 0.0, 115: 0.0, 116: 0.0, 117: 0.0, 118: 0.0, 119: 0.0, 120: 0.0, 121: 0.0, 122: 0.0, 123: 1.0, 124: 1.0, 125: 1.0, 126: 0.0, 127: 0.0, 128: 1.0, 129: 0.0, 130: 1.0, 131: 0.0, 132: 0.0, 133: 0.0, 134: 1.0, 135: 0.0, 136: 0.0, 137: 0.0, 138: 0.0, 139: 1.0, 140: 1.0, 141: 0.0, 142: 0.0, 143: 0.0, 144: 0.0, 145: 1.0, 146: 0.0, 147: 0.0, 148: 0.0, 149: 0.0, 150: 1.0, 151: 0.0, 152: 0.834711977, 153: 0.0, 154: 1.0, 155: 0.0, 156: 1.0, 157: 0.0, 158: 1.0, 159: 1.0, 160: 1.0, 161: 1.0, 162: 0.0, 163: 0.0, 164: 0.0, 165: 1.0, 166: 1.0, 167: 1.0, 168: 1.0, 169: 0.0, 170: 0.0, 171: 1.0, 172: 0.0, 173: 0.0, 174: 0.0, 175: 0.0, 176: 0.0, 177: 0.0, 178: 0.0, 179: 0.0, 180: 0.0, 181: 0.0, 182: 0.0, 183: 1.0, 184: 1.0, 185: 1.0, 186: 1.0, 187: 0.0, 188: 0.0, 189: 1.0, 190: 0.0, 191: 0.0];
soc = [0: 9.027994, 1: 9.926188400999999, 2: 8.924203164, 3: 9.822418323000001, 4: 10.720453839, 5: 11.618309748, 6: 11.615986087, 7: 12.513662889, 8: 12.511160157, 9: 11.508657925, 10: 10.506356193, 11: 9.504254921999999, 12: 10.402354071, 13: 11.3002736, 14: 11.298013545, 15: 11.295753943, 16: 10.293494792, 17: 11.191436093, 18: 11.189197806, 19: 12.086959966, 20: 12.984542574, 21: 12.981945666, 22: 13.879349276, 23: 12.876573407, 24: 12.72902124, 25: 13.626475436, 26: 12.623750141, 27: 11.621225391, 28: 11.618901146, 29: 11.616577365, 30: 12.51425405, 31: 12.371441014, 32: 12.368966726, 33: 13.266492932, 34: 14.163839634, 35: 13.161006866, 36: 14.058374664, 37: 14.95556299, 38: 14.952571877, 39: 13.949581363, 40: 12.946791446, 41: 11.944202088, 42: 12.841813248, 43: 12.839244885, 44: 12.836677036, 45: 11.834109701, 46: 12.731742879, 47: 13.62919653, 48: 13.626470691, 49: 12.623745397, 50: 11.621220648, 51: 11.618896403, 52: 12.516572624, 53: 12.51406931, 54: 11.511566496, 55: 10.509264182, 56: 11.40716233, 57: 10.404880897, 58: 9.402799921, 59: 10.158518433, 60: 10.156486729, 61: 10.154455432, 62: 11.052424541, 63: 10.050214056, 64: 10.948204013, 65: 9.946014372, 66: 10.844025169, 67: 11.741856364, 68: 12.639507993, 69: 13.536980091, 70: 14.434272695, 71: 14.772954591, 72: 15.67, 73: 14.666866, 74: 13.663932627, 75: 13.66119984, 76: 12.6584676, 77: 11.655935907, 78: 11.65360472, 79: 12.551273999, 80: 11.548763744, 81: 11.546453991, 82: 10.5441447, 83: 9.542035871, 84: 8.540127463999999, 85: 7.538419439, 86: 8.436911755000001, 87: 7.435224372, 88: 7.433737328, 89: 6.43225058, 90: 5.43096413, 91: 4.429877937, 92: 5.328991962, 93: 4.327926163, 94: 5.227060578, 95: 6.126015166, 96: 5.124789963, 97: 4.123765005, 98: 5.022940252, 99: 4.021935664, 100: 3.054265536, 101: 3.953654683, 102: 3.952863952, 103: 3.952073379, 104: 4.851282964, 105: 5.750312708, 106: 5.749162645, 107: 6.648012813, 108: 7.54668321, 109: 6.545173874, 110: 7.443864839, 111: 8.342376066, 112: 7.340707591, 113: 7.339239449, 114: 8.237771601, 115: 9.136124046999999, 116: 9.134296822, 117: 9.132469963, 118: 10.030643469, 119: 10.92863734, 120: 10.926451613, 121: 11.824266322, 122: 12.721901469, 123: 11.719357089, 124: 10.717013217, 125: 9.714869815, 126: 9.712926841, 127: 10.610984255, 128: 9.608862058, 129: 10.506940286, 130: 9.504838897999999, 131: 10.40293793, 132: 11.300857343, 133: 11.298597171, 134: 10.296337452, 135: 11.194278184, 136: 12.092039329, 137: 12.989620921, 138: 13.887022996, 139: 12.884245592, 140: 11.881668743, 141: 12.779292409, 142: 13.676736551, 143: 14.574001203, 144: 15.471086403, 145: 14.467992186, 146: 14.465098587, 147: 15.362205568, 148: 15.67, 149: 15.666866, 150: 14.663732627, 151: 15.56079988, 152: 14.722975744, 153: 14.720031148, 154: 13.717087142, 155: 13.714343725, 156: 12.711600856, 157: 13.609058536, 158: 12.606336724, 159: 11.603815457, 160: 10.601494694, 161: 9.599374395, 162: 9.597454519999999, 163: 10.495535029, 164: 10.493435922, 165: 9.491337235, 166: 8.489438967, 167: 7.48774108, 168: 6.486243531, 169: 6.484946283, 170: 7.383649293, 171: 6.382172564, 172: 7.280896129, 173: 8.179439950000001, 174: 9.077804062, 175: 9.975988501, 176: 10.873993303, 177: 10.871818505, 178: 11.769644141, 179: 11.767290212, 180: 11.764936754, 181: 12.662583767, 182: 13.56005125, 183: 12.55733924, 184: 11.554827772, 185: 10.552516806, 186: 9.550406303000001, 187: 10.448496222, 188: 11.346406522, 189: 10.344137241, 190: 10.342068414, 191: 10.34];
cost = [0: 0.0, 1: 0.880446458, 2: 0.0, 3: 0.881484988, 4: 0.882401338, 5: 0.882890058, 6: 0.155461323, 7: 0.885639108, 8: 0.151673743, 9: 0.0, 10: 0.0, 11: 0.0, 12: 0.882584608, 13: 0.881057358, 14: 0.153811893, 15: 0.153200993, 16: 0.0, 17: 0.881790438, 18: 0.152895543, 19: 0.882279158, 20: 0.883195508, 21: 0.075127973, 22: 0.805000308, 23: 0.0, 24: 0.0, 25: 1.464423702, 26: 0.0, 27: 0.0, 28: 0.038042417, 29: 0.139515297, 30: 1.456453382, 31: 0.0, 32: 0.148675217, 33: 1.315842662, 34: 1.444914262, 35: 0.0, 36: 1.487977782, 37: 1.824039782, 38: 0.914777617, 39: 0.0, 40: 0.0, 41: 0.0, 42: 0.709146662, 43: 0.176630817, 44: 0.0, 45: 0.0, 46: 1.453241462, 47: 1.441821302, 48: 0.140585937, 49: 0.0, 50: 0.0, 51: 0.0, 52: 0.387694518, 53: 0.0, 54: 0.0, 55: 0.0, 56: 1.130854368, 57: 0.0, 58: 0.0, 59: 0.583285499, 60: 0.022339697, 61: 0.661987617, 62: 1.395188982, 63: 0.0, 64: 1.148584902, 65: 0.0, 66: 1.437419782, 67: 1.445746982, 68: 1.386148022, 69: 1.463234102, 70: 1.456453382, 71: 0.044851076, 72: 1.772886982, 73: 0.0, 74: 0.0, 75: 0.087172897, 76: 0.0, 77: 0.0, 78: 0.280720817, 79: 1.531636102, 80: 0.0, 81: 0.229924897, 82: 0.0, 83: 0.0, 84: 0.0, 85: 0.0, 86: 1.521286582, 87: 0.0, 88: 0.101518853, 89: 0.0, 90: 0.0, 91: 0.0, 92: 0.928218838, 93: 0.0, 94: 0.920277138, 95: 0.921193488, 96: 0.0, 97: 0.0, 98: 0.926202868, 99: 0.0, 100: 0.0, 101: 1.292620688, 102: 0.079404273, 103: 0.287293543, 104: 0.962856868, 105: 0.941841908, 106: 0.208792893, 107: 0.914168138, 108: 0.910014018, 109: 0.0, 110: 0.8801410079999999, 111: 0.880568638, 112: 0.0, 113: 0.162608853, 114: 0.887471808, 115: 1.186018638, 116: 0.157294023, 117: 0.154239523, 118: 0.887166358, 119: 0.881179538, 120: 0.304512817, 121: 1.603131062, 122: 1.568870582, 123: 0.0, 124: 0.0, 125: 0.0, 126: 0.145701217, 127: 1.132882182, 128: 0.0, 129: 1.857943382, 130: 0.0, 131: 1.456453382, 132: 0.340251702, 133: 0.0, 134: 0.0, 135: 1.482267702, 136: 0.118178165, 137: 0.378675782, 138: 0.887943542, 139: 0.0, 140: 0.0, 141: 1.549836982, 142: 1.555428102, 143: 1.694611302, 144: 1.696157782, 145: 0.0, 146: 0.0, 147: 1.387099702, 148: 0.193658759, 149: 0.275197723, 150: 0.0, 151: 1.237761868, 152: 0.0, 153: 0.167679323, 154: 0.0, 155: 0.694458393, 156: 0.0, 157: 1.374133062, 158: 0.0, 159: 0.0, 160: 0.0, 161: 0.0, 162: 0.0, 163: 1.337255462, 164: 0.160214337, 165: 0.0, 166: 0.0, 167: 0.0, 168: 0.0, 169: 0.208512097, 170: 1.390192662, 171: 0.0, 172: 1.514505862, 173: 1.486788182, 174: 1.866627462, 175: 1.538535782, 176: 1.500706502, 177: 0.195069617, 178: 1.500468582, 179: 0.232542017, 180: 0.228378417, 181: 1.486193382, 182: 1.473107782, 183: 0.0, 184: 0.0, 185: 0.0, 186: 0.0, 187: 0.802190168, 188: 0.809520968, 189: 0.0, 190: 0.217956393, 191: 0.221010893];
earn = [0: 0.345419763, 1: 0.0, 2: 0.3335939, 3: 0.0, 4: 0.0, 5: 0.0, 6: 0.0, 7: 0.0, 8: 0.0, 9: 0.266488273, 10: 0.273466474, 11: 0.272748742, 12: 0.0, 13: 0.0, 14: 0.0, 15: 0.0, 16: 0.236389818, 17: 0.0, 18: 0.0, 19: 0.0, 20: 0.0, 21: 0.0, 22: 0.0, 23: 0.211436135, 24: 0.0, 25: 0.0, 26: 0.204677467, 27: 0.226268373, 28: 0.0, 29: 0.0, 30: 0.0, 31: 0.0, 32: 0.0, 33: 0.0, 34: 0.0, 35: 0.151547621, 36: 0.0, 37: 0.0, 38: 0.0, 39: 0.012446232, 40: 0.014857208, 41: 0.020064927, 42: 0.0, 43: 0.0, 44: 0.004956971, 45: 0.00409012, 46: 0.0, 47: 0.0, 48: 0.0, 49: -0.000857473, 50: -0.001159081, 51: -0.001129465, 52: 0.0, 53: -0.001092346, 54: -0.004239006, 55: -0.001631786, 56: 0.0, 57: -0.001252912, 58: -0.004421093, 59: 0.0, 60: 0.0, 61: 0.0, 62: 0.0, 63: -0.000553993, 64: 0.0, 65: 0.012964342, 66: 0.0, 67: 0.0, 68: 0.0, 69: 0.0, 70: 0.0, 71: 0.0, 72: 0.0, 73: 0.503519122, 74: 0.4817835, 75: 0.0, 76: 0.5301643190000001, 77: 0.530639775, 78: 0.0, 79: 0.0, 80: 0.5543061929999999, 81: 0.0, 82: 0.491147355, 83: 0.450653383, 84: 0.413876988, 85: 0.382011513, 86: 0.0, 87: 0.351118731, 88: 0.0, 89: 0.395162789, 90: 0.28470116, 91: 0.286287354, 92: 0.0, 93: 0.267088652, 94: 0.0, 95: 0.0, 96: 0.256551771, 97: 0.243975287, 98: 0.0, 99: 0.056717617, 100: 0.0, 101: 0.0, 102: 0.0, 103: 0.0, 104: 0.0, 105: 0.0, 106: 0.0, 107: 0.0, 108: 0.0, 109: 0.239471708, 110: 0.0, 111: 0.0, 112: 0.198229937, 113: 0.0, 114: 0.0, 115: 0.0, 116: 0.0, 117: 0.0, 118: 0.0, 119: 0.0, 120: 0.0, 121: 0.0, 122: 0.0, 123: 0.015040075, 124: 0.005100685, 125: -0.002022074, 126: 0.0, 127: 0.0, 128: -0.009456918999999999, 129: 0.0, 130: -0.009769445999999999, 131: 0.0, 132: 0.0, 133: -0.039897339, 134: -0.145186633, 135: 0.0, 136: -0.011444911, 137: 0.0, 138: 0.0, 139: -0.86240405, 140: -1.061273366, 141: 0.0, 142: 0.0, 143: 0.0, 144: 0.0, 145: -1.676929313, 146: -0.89635106, 147: 0.0, 148: 0.0, 149: 0.0, 150: -0.526557228, 151: 0.0, 152: -0.613272841, 153: 0.0, 154: -0.514008968, 155: 0.0, 156: -0.343444044, 157: 0.0, 158: -0.237054271, 159: -0.236951255, 160: -0.042072226, 161: -0.1492211, 162: -0.001128786, 163: 0.0, 164: 0.0, 165: -0.017068523, 166: -0.001082029, 167: -0.01818441, 168: 0.033143688, 169: 0.0, 170: 0.0, 171: 0.024937604, 172: 0.0, 173: 0.0, 174: 0.0, 175: 0.0, 176: 0.0, 177: 0.0, 178: 0.0, 179: 0.0, 180: 0.0, 181: 0.0, 182: 0.0, 183: 0.358777453, 184: 0.344894127, 185: 0.339765725, 186: 0.324580603, 187: 0.0, 188: 0.0, 189: 0.214418969, 190: 0.0, 191: 0.0];
total_cost = 99.358149291;
total_earn = 3.738364507;
% _objective = 95.619784784;