production = [0: 0.0, 1: 0.0, 2: 0.0, 3: 0.0, 4: 0.0, 5: 0.0, 6: 0.0, 7: 0.0, 8: 0.0, 9: 0.0, 10: 0.0, 11: 0.0, 12: 0.0, 13: 0.0, 14: 0.0, 15: 0.0, 16: 0.0, 17: 0.0, 18: 0.0, 19: 0.0, 20: 0.0, 21: 0.0, 22: 0.0, 23: 0.0, 24: 0.0, 25: 0.0, 26: 0.0, 27: 0.0362, 28: 0.0, 29: 0.0, 30: 0.0675, 31: 0.0, 32: 0.093, 33: 0.1187, 34: 0.1447, 35: 0.1467, 36: 0.1487, 37: 0.169, 38: 0.0, 39: 0.2288, 40: 0.0, 41: 0.516, 42: 0.0, 43: 0.0, 44: 0.0, 45: 0.0, 46: 0.0, 47: 0.6465, 48: 0.0, 49: 0.9237, 50: 1.124, 51: 1.2067, 52: 0.0, 53: 0.117479167, 54: 1.1498, 55: 1.6623, 56: 0.3725, 57: 0.667979167, 58: 0.0, 59: 0.0, 60: 0.0, 61: 0.0, 62: 0.0, 63: 0.4358, 64: 0.0, 65: 0.0, 66: 1.2325, 67: 0.7565, 68: 0.0, 69: 0.0, 70: 0.0, 71: 0.5004999999999999, 72: 0.2318, 73: 0.0, 74: 0.0867, 75: 0.0, 76: 0.0, 77: 0.0, 78: 0.005, 79: 0.0, 80: 0.0005, 81: 0.0, 82: 0.0, 83: 0.0, 84: 0.0, 85: 0.0, 86: 0.0, 87: 0.0, 88: 0.0, 89: 0.0, 90: 0.0, 91: 0.0, 92: 0.0, 93: 0.0, 94: 0.0, 95: 0.0, 96: 0.0, 97: 0.0, 98: 0.0, 99: 0.0, 100: 0.0, 101: 0.0, 102: 0.0, 103: 0.0, 104: 0.0, 105: 0.0, 106: 0.0, 107: 0.0, 108: 0.0, 109: 0.0, 110: 0.0, 111: 0.0, 112: 0.0, 113: 0.0, 114: 0.0, 115: 0.0, 116: 0.0, 117: 0.0, 118: 0.0003, 119: 0.0, 120: 0.0, 121: 0.004, 122: 0.0, 123: 0.0578, 124: 0.0838, 125: 0.0, 126: 0.1638, 127: 0.0, 128: 0.0, 129: 0.0, 130: 0.6993, 131: 0.8013, 132: 0.9383, 133: 0.0, 134: 1.172, 135: 0.0, 136: 1.1667, 137: 1.5145, 138: 1.6027, 139: 0.0, 140: 1.2897, 141: 1.4105, 142: 1.261, 143: 0.0, 144: 0.0, 145: 1.3055, 146: 1.821279167, 147: 0.0, 148: 0.0, 149: 0.4487, 150: 0.0, 151: 0.0, 152: 0.0, 153: 0.2328, 154: 0.8405, 155: 0.887, 156: 1.699, 157: 0.9952, 158: 0.0, 159: 0.0, 160: 0.8027, 161: 0.0, 162: 0.0, 163: 0.3242, 164: 0.1975, 165: 0.0, 166: 0.0, 167: 0.0, 168: 0.0, 169: 0.0, 170: 0.0, 171: 0.0, 172: 0.0, 173: 0.0, 174: 0.0, 175: 0.0, 176: 0.0, 177: 0.0, 178: 0.0, 179: 0.0, 180: 0.0, 181: 0.0, 182: 0.0, 183: 0.0, 184: 0.0, 185: 0.0, 186: 0.0, 187: 0.0, 188: 0.0, 189: 0.0, 190: 0.0, 191: 0.0];
buy = [0: 1.241179167, 1: 0.7630899370000001, 2: 0.250479167, 3: 0.249479167, 4: 0.0, 5: 1.251779167, 6: 0.0, 7: 0.0, 8: 0.0, 9: 0.241679167, 10: 0.0, 11: 0.0, 12: 0.251279167, 13: 0.248779167, 14: 0.0, 15: 0.0, 16: 1.243179167, 17: 0.0, 18: 0.250279167, 19: 1.250779167, 20: 1.252279167, 21: 0.0, 22: 1.124279167, 23: 0.0, 24: 1.130479167, 25: 0.131679167, 26: 0.0, 27: 1.087579167, 28: 0.0, 29: 0.0, 30: 0.0, 31: 1.126279167, 32: 1.031979167, 33: 0.0, 34: 0.970579167, 35: 0.968079167, 36: 1.002779167, 37: 1.433979167, 38: 1.768979167, 39: 0.713679167, 40: 0.0, 41: 0.621979167, 42: 1.137979167, 43: 1.148479167, 44: 1.136679167, 45: 1.128279167, 46: 0.122279167, 47: 0.0, 48: 1.118179167, 49: 0.196779167, 50: 0.003279167, 51: 0.0, 52: 0.0, 53: 0.0, 54: 0.0, 55: 0.0, 56: 0.0, 57: 0.0, 58: 2.144979167, 59: 2.404479167, 60: 1.330479167, 61: 0.556479167, 62: 1.910479167, 63: 0.976679167, 64: 0.860979167, 65: 1.127279167, 66: 0.0, 67: 0.0, 68: 1.638179167, 69: 0.0, 70: 0.0, 71: 0.0, 72: 0.0, 73: 1.132179167, 74: 1.057279167, 75: 0.132479167, 76: 0.131979167, 77: 0.0, 78: 1.230979167, 79: 0.188979167, 80: 0.196779167, 81: 0.0, 82: 0.0, 83: 1.187279167, 84: 1.187279167, 85: 1.178679167, 86: 0.0, 87: 0.0, 88: 0.166179167, 89: 0.0, 90: 0.332979167, 91: 1.329479167, 92: 1.325979167, 93: 0.326479167, 94: 1.312979167, 95: 0.314479167, 96: 0.0, 97: 1.324179167, 98: 0.0, 99: 0.765979167, 100: 0.870179167, 101: 0.022479167, 102: 0.0, 103: 1.470279167, 104: 0.0, 105: 1.348279167, 106: 1.341779167, 107: 1.302979167, 108: 0.0, 109: 0.0, 110: 0.247279167, 111: 0.0, 112: 1.258479167, 113: 0.266179167, 114: 0.259279167, 115: 0.0, 116: 0.0, 117: 0.0, 118: 1.258479167, 119: 1.248979167, 120: 1.255979167, 121: 0.0, 122: 0.0, 123: 1.180379167, 124: 0.0, 125: 1.122279167, 126: 0.0, 127: 0.0, 128: 0.0, 129: 0.0, 130: 0.0, 131: 0.0, 132: 0.186679167, 133: 1.630479167, 134: 0.0, 135: 0.0, 136: 0.0, 137: 0.218979167, 138: 0.647079167, 139: 0.0, 140: 0.0, 141: 0.0, 142: 0.0, 143: 1.325179167, 144: 0.326479167, 145: 0.0, 146: 0.0, 147: 0.8411791669999999, 148: 1.254279167, 149: 0.0, 150: 0.0, 151: 1.832679167, 152: 0.0, 153: 0.0, 154: 1.050679167, 155: 1.249779167, 156: 0.162679167, 157: 0.678253655, 158: 1.349479167, 159: 1.238679167, 160: 0.0, 161: 0.0, 162: 0.335479167, 163: 0.0, 164: 0.0, 165: 1.347479167, 166: 1.829279167, 167: 0.0, 168: 0.0, 169: 0.175279167, 170: 0.0, 171: 0.443479167, 172: 0.0, 173: 0.0, 174: 1.469779167, 175: 0.0, 176: 0.0, 177: 0.757659883, 178: 1.161979167, 179: 1.195479167, 180: 1.191979167, 181: 1.149979167, 182: 0.0, 183: 0.135179167, 184: 0.0, 185: 1.124279167, 186: 1.158779167, 187: 1.119679167, 188: 1.131679167, 189: 0.0, 190: 1.356779167, 191: 1.361779167];
sell = [0: 0.0, 1: 0.0, 2: 0.0, 3: 0.0, 4: 0.649020833, 5: 0.0, 6: 0.645520833, 7: 0.643720833, 8: 0.6517208330000001, 9: 0.0, 10: 0.658320833, 11: 0.650020833, 12: 0.0, 13: 0.0, 14: 0.648220833, 15: 0.649220833, 16: 0.0, 17: 0.650020833, 18: 0.0, 19: 0.0, 20: 0.0, 21: 0.777020833, 22: 0.0, 23: 0.767520833, 24: 0.0, 25: 0.0, 26: 0.773520833, 27: 0.0, 28: 0.780820833, 29: 0.7827208329999999, 30: 0.842520833, 31: 0.0, 32: 0.0, 33: 0.893220833, 34: 0.0, 35: 0.0, 36: 0.0, 37: 0.0, 38: 0.0, 39: 0.0, 40: 0.587266238, 41: 0.0, 42: 0.0, 43: 0.0, 44: 0.0, 45: 0.0, 46: 0.0, 47: 1.433820833, 48: 0.0, 49: 0.0, 50: 0.0, 51: 0.941220833, 52: 0.781820833, 53: 0.0, 54: 0.026820833, 55: 2.404020833, 56: 0.614820833, 57: 0.0, 58: 0.0, 59: 0.0, 60: 0.0, 61: 0.0, 62: 0.0, 63: 0.0, 64: 0.0, 65: 0.0, 66: 2.023520833, 67: 0.640520833, 68: 0.0, 69: 0.08676563700000001, 70: 0.775020833, 71: 0.379520833, 72: 0.740820833, 73: 0.0, 74: 0.0, 75: 0.0, 76: 0.0, 77: 0.766820833, 78: 0.0, 79: 0.0, 80: 0.0, 81: 0.706720833, 82: 0.7213208330000001, 83: 0.0, 84: 0.0, 85: 0.0, 86: 0.720520833, 87: 0.722020833, 88: 0.0, 89: 0.760220833, 90: 0.0, 91: 0.0, 92: 0.0, 93: 0.0, 94: 0.0, 95: 0.0, 96: 0.576520833, 97: 0.0, 98: 0.577320833, 99: 0.0, 100: 0.0, 101: 0.0, 102: 0.770020833, 103: 0.0, 104: 0.517320833, 105: 0.0, 106: 0.0, 107: 0.0, 108: 0.603820833, 109: 0.647220833, 110: 0.0, 111: 0.652020833, 112: 0.0, 113: 0.0, 114: 0.0, 115: 0.152020833, 116: 0.0, 117: 0.647520833, 118: 0.0, 119: 0.0, 120: 0.0, 121: 0.6557208329999999, 122: 0.654520833, 123: 0.0, 124: 0.868520833, 125: 0.0, 126: 0.041320833, 127: 0.778320833, 128: 0.0, 129: 0.110320833, 130: 0.387820833, 131: 1.576320833, 132: 0.0, 133: 0.0, 134: 0.531820833, 135: 0.0, 136: 1.942720833, 137: 0.0, 138: 0.0, 139: 0.198520833, 140: 1.048720833, 141: 0.207020833, 142: 1.052820833, 143: 0.0, 144: 0.0, 145: 1.061320833, 146: 0.0, 147: 0.0, 148: 0.0, 149: 0.898220833, 150: 0.562320833, 151: 0.0, 152: 0.542020833, 153: 0.0, 154: 0.0, 155: 0.0, 156: 0.0, 157: 0.0, 158: 0.0, 159: 0.0, 160: 0.079920833, 161: 0.334720833, 162: 0.0, 163: 0.875220833, 164: 0.765320833, 165: 0.0, 166: 0.0, 167: 0.742220833, 168: 0.778020833, 169: 0.0, 170: 0.0, 171: 0.0, 172: 0.726220833, 173: 0.7495208330000001, 174: 0.0, 175: 0.706020833, 176: 0.737820833, 177: 0.0, 178: 0.0, 179: 0.0, 180: 0.0, 181: 0.0, 182: 0.761020833, 183: 0.0, 184: 0.774520833, 185: 0.0, 186: 0.0, 187: 0.0, 188: 0.0, 189: 0.543520833, 190: 0.0, 191: 0.0];
charge = [0: 1.0, 1: 0.515310771, 2: 0.0, 3: 0.0, 4: 0.0, 5: 1.0, 6: 0.0, 7: 0.0, 8: 0.0, 9: 0.0, 10: 0.0, 11: 0.0, 12: 0.0, 13: 0.0, 14: 0.0, 15: 0.0, 16: 1.0, 17: 0.0, 18: 0.0, 19: 1.0, 20: 1.0, 21: 0.0, 22: 1.0, 23: 0.0, 24: 1.0, 25: 0.0, 26: 0.0, 27: 1.0, 28: 0.0, 29: 0.0, 30: 0.0, 31: 1.0, 32: 1.0, 33: 0.0, 34: 1.0, 35: 1.0, 36: 1.0, 37: 1.0, 38: 1.0, 39: 0.0, 40: 0.0, 41: 1.0, 42: 1.0, 43: 1.0, 44: 1.0, 45: 1.0, 46: 0.0, 47: 0.0, 48: 1.0, 49: 1.0, 50: 1.0, 51: 0.0, 52: 0.0, 53: 0.0, 54: 1.0, 55: 0.0, 56: 0.0, 57: 0.0, 58: 1.0, 59: 1.0, 60: 0.0, 61: 0.0, 62: 1.0, 63: 1.0, 64: 0.0, 65: 1.0, 66: 0.0, 67: 0.0, 68: 1.0, 69: 0.0, 70: 0.0, 71: 0.0, 72: 0.0, 73: 1.0, 74: 1.0, 75: 0.0, 76: 0.0, 77: 0.0, 78: 1.0, 79: 0.0, 80: 0.0, 81: 0.0, 82: 0.0, 83: 1.0, 84: 1.0, 85: 1.0, 86: 0.0, 87: 0.0, 88: 0.0, 89: 0.0, 90: 0.0, 91: 1.0, 92: 1.0, 93: 0.0, 94: 1.0, 95: 0.0, 96: 0.0, 97: 1.0, 98: 0.0, 99: 0.0, 100: 0.0, 101: 0.0, 102: 0.0, 103: 1.0, 104: 0.0, 105: 1.0, 106: 1.0, 107: 1.0, 108: 0.0, 109: 0.0, 110: 0.0, 111: 0.0, 112: 1.0, 113: 0.0, 114: 0.0, 115: 0.0, 116: 0.0, 117: 0.0, 118: 1.0, 119: 1.0, 120: 1.0, 121: 0.0, 122: 0.0, 123: 1.0, 124: 0.0, 125: 1.0, 126: 0.0, 127: 0.0, 128: 0.0, 129: 0.0, 130: 0.0, 131: 0.0, 132: 1.0, 133: 1.0, 134: 0.0, 135: 0.0, 136: 0.0, 137: 1.0, 138: 1.0, 139: 0.0, 140: 0.0, 141: 1.0, 142: 0.0, 143: 1.0, 144: 0.0, 145: 0.0, 146: 1.0, 147: 0.0, 148: 1.0, 149: 0.0, 150: 0.0, 151: 1.0, 152: 0.0, 153: 0.0, 154: 1.0, 155: 1.0, 156: 0.0, 157: 0.622474488, 158: 1.0, 159: 1.0, 160: 0.0, 161: 0.0, 162: 0.0, 163: 0.0, 164: 0.0, 165: 1.0, 166: 1.0, 167: 0.0, 168: 0.0, 169: 0.0, 170: 0.0, 171: 0.0, 172: 0.0, 173: 0.0, 174: 1.0, 175: 0.0, 176: 0.0, 177: 0.5936807160000001, 178: 1.0, 179: 1.0, 180: 1.0, 181: 1.0, 182: 0.0, 183: 0.0, 184: 0.0, 185: 1.0, 186: 1.0, 187: 1.0, 188: 1.0, 189: 0.0, 190: 1.0, 191: 1.0];
discharge = [0: 0.0, 1: 0.0, 2: 0.0, 3: 0.0, 4: 1.0, 5: 0.0, 6: 1.0, 7: 1.0, 8: 1.0, 9: 0.0, 10: 1.0, 11: 1.0, 12: 0.0, 13: 0.0, 14: 1.0, 15: 1.0, 16: 0.0, 17: 1.0, 18: 0.0, 19: 0.0, 20: 0.0, 21: 1.0, 22: 0.0, 23: 1.0, 24: 0.0, 25: 0.0, 26: 1.0, 27: 0.0, 28: 1.0, 29: 1.0, 30: 1.0, 31: 0.0, 32: 0.0, 33: 1.0, 34: 0.0, 35: 0.0, 36: 0.0, 37: 0.0, 38: 0.0, 39: 0.0, 40: 0.810272672, 41: 0.0, 42: 0.0, 43: 0.0, 44: 0.0, 45: 0.0, 46: 0.0, 47: 1.0, 48: 0.0, 49: 0.0, 50: 0.0, 51: 0.0, 52: 1.0, 53: 0.0, 54: 0.0, 55: 1.0, 56: 1.0, 57: 0.0, 58: 0.0, 59: 0.0, 60: 0.0, 61: 0.0, 62: 0.0, 63: 0.0, 64: 0.0, 65: 0.0, 66: 1.0, 67: 0.0, 68: 0.0, 69: 0.241605338, 70: 1.0, 71: 0.0, 72: 1.0, 73: 0.0, 74: 0.0, 75: 0.0, 76: 0.0, 77: 1.0, 78: 0.0, 79: 0.0, 80: 0.0, 81: 1.0, 82: 1.0, 83: 0.0, 84: 0.0, 85: 0.0, 86: 1.0, 87: 1.0, 88: 0.0, 89: 1.0, 90: 0.0, 91: 0.0, 92: 0.0, 93: 0.0, 94: 0.0, 95: 0.0, 96: 1.0, 97: 0.0, 98: 1.0, 99: 0.0, 100: 0.0, 101: 1.0, 102: 1.0, 103: 0.0, 104: 1.0, 105: 0.0, 106: 0.0, 107: 0.0, 108: 1.0, 109: 1.0, 110: 0.0, 111: 1.0, 112: 0.0, 113: 0.0, 114: 0.0, 115: 1.0, 116: 0.286087963, 117: 1.0, 118: 0.0, 119: 0.0, 120: 0.0, 121: 1.0, 122: 1.0, 123: 0.0, 124: 1.0, 125: 0.0, 126: 0.0, 127: 1.0, 128: 0.181643519, 129: 1.0, 130: 0.0, 131: 1.0, 132: 0.0, 133: 0.0, 134: 0.0, 135: 0.162976852, 136: 1.0, 137: 0.0, 138: 0.0, 139: 1.0, 140: 0.0, 141: 0.0, 142: 0.0, 143: 0.0, 144: 0.0, 145: 0.0, 146: 0.0, 147: 0.0, 148: 0.0, 149: 1.0, 150: 1.0, 151: 0.0, 152: 1.0, 153: 0.046310185, 154: 0.0, 155: 0.0, 156: 0.0, 157: 0.0, 158: 0.0, 159: 0.0, 160: 0.0, 161: 1.0, 162: 0.0, 163: 1.0, 164: 1.0, 165: 0.0, 166: 0.0, 167: 1.0, 168: 1.0, 169: 0.0, 170: 0.153087963, 171: 0.0, 172: 1.0, 173: 1.0, 174: 0.0, 175: 1.0, 176: 1.0, 177: 0.0, 178: 0.0, 179: 0.0, 180: 0.0, 181: 0.0, 182: 1.0, 183: 0.0, 184: 1.0, 185: 0.0, 186: 0.0, 187: 0.0, 188: 0.0, 189: 1.0, 190: 0.0, 191: 0.0];
soc = [0: 10.927994, 1: 11.389588095, 2: 11.387310177, 3: 11.385032715, 4: 10.382755708, 5: 11.280679157, 6: 10.278423021, 7: 9.276367337, 8: 8.274512063, 9: 8.272857160999999, 10: 7.27120259, 11: 6.269748349, 12: 6.268494399, 13: 6.267240701, 14: 5.265987252, 15: 4.264934055, 16: 5.164081068, 17: 4.163048252, 18: 4.162215642, 19: 5.061383199, 20: 5.960370922, 21: 4.959178848, 22: 5.858187013, 23: 4.857015375, 24: 5.756043972, 25: 5.754892763, 26: 4.753741785, 27: 5.652791036, 28: 4.651660478, 29: 3.650730146, 30: 2.65, 31: 3.54947, 32: 4.448760106, 33: 3.447870354, 34: 4.34718078, 35: 5.246311344, 36: 6.145262081, 37: 7.044033029, 38: 7.942624222, 39: 7.941035698, 40: 7.129174819, 41: 8.027748984, 42: 8.926143434, 43: 9.824358204999999, 44: 10.722393333, 45: 11.620248855, 46: 11.617924805, 47: 10.61560122, 48: 11.5134781, 49: 12.411175404, 50: 13.308693169, 51: 13.30603143, 52: 12.303370224, 53: 12.30090955, 54: 13.198449368, 55: 12.195809678, 56: 11.193370516, 57: 11.191131842, 58: 12.088893616, 59: 12.986475837, 60: 12.983878542, 61: 12.981281766, 62: 13.87868551, 63: 14.775909773, 64: 14.772954591, 65: 15.67, 66: 14.666866, 67: 14.663932627, 68: 15.56099984, 69: 15.316282302, 70: 14.313219046, 71: 14.310356402, 72: 13.307494331, 73: 14.204832832, 74: 15.101991865, 75: 15.098971467, 76: 15.095951673, 77: 14.092932482, 78: 14.990113896, 79: 14.987115873, 80: 14.98411845, 81: 13.981121626, 82: 12.978325402, 83: 13.875729737, 84: 14.772954591, 85: 15.67, 86: 14.666866, 87: 13.663932627, 88: 13.66119984, 89: 12.6584676, 90: 12.655935907, 91: 13.55340472, 92: 14.450694039, 93: 14.4478039, 94: 15.344914339, 95: 15.341845356, 96: 14.338776987, 97: 15.235909232, 98: 14.23286205, 99: 14.230015477, 100: 14.227169474, 101: 13.22432404, 102: 12.221679176, 103: 13.11923484, 104: 12.116610993, 105: 13.014187671, 106: 13.911584833, 107: 14.808802516, 108: 13.805840756, 109: 12.803079588, 110: 12.800518972, 111: 11.797958868, 112: 12.695599276, 113: 12.693060156, 114: 12.690521544, 115: 11.68798344, 116: 11.39955788, 117: 10.397277969, 118: 11.295198513, 119: 12.192939473, 120: 13.090500885, 121: 12.087882785, 122: 11.085465209, 123: 11.983248116, 124: 10.980851466, 125: 11.878655296, 126: 11.876279565, 127: 10.873904309, 128: 10.690086009, 129: 9.687947992, 130: 9.686010402999999, 131: 8.684073201, 132: 9.582336386, 133: 10.480419919, 134: 10.478323835, 135: 10.313251318, 136: 9.311188668, 137: 10.20932643, 138: 11.107284565, 139: 10.105063108, 140: 10.103042095, 141: 11.001021487, 142: 10.998821282, 143: 11.896621518, 144: 11.894242194, 145: 11.891863345, 146: 12.789484973, 147: 12.786927076, 148: 13.68436969, 149: 12.681632816, 150: 11.67909649, 151: 12.576760671, 152: 11.574245318, 153: 11.525620284, 154: 12.42331516, 155: 13.320830497, 156: 13.318166331, 157: 13.875729737, 158: 14.772954591, 159: 15.67, 160: 15.666866, 161: 14.663732627, 162: 14.66079988, 163: 13.65786772, 164: 12.655136147, 165: 13.55260512, 166: 14.449894599, 167: 13.44700462, 168: 12.444315219, 169: 12.441826356, 170: 12.286250027, 171: 12.283792777, 172: 11.281336019, 173: 10.279079752, 174: 11.177023936, 175: 10.174788531, 176: 9.172753573, 177: 9.705231667, 178: 10.603290621, 179: 11.501169962, 180: 12.398869728, 181: 13.296389954, 182: 12.293730676, 183: 12.29127193, 184: 11.288813676, 185: 12.186555913, 186: 13.084118602, 187: 13.981501778, 188: 14.878705478, 189: 13.875729737, 190: 14.772954591, 191: 15.67];
cost = [0: 0.876414518, 1: 0.527070124, 2: 0.153017723, 3: 0.152406823, 4: 0.0, 5: 0.882890058, 6: 0.0, 7: 0.0, 8: 0.0, 9: 0.147641803, 10: 0.0, 11: 0.0, 12: 0.153506443, 13: 0.151979193, 14: 0.0, 15: 0.0, 16: 0.877636318, 17: 0.0, 18: 0.152895543, 19: 0.882279158, 20: 0.883195508, 21: 0.0, 22: 0.805000308, 23: 0.0, 24: 1.462996182, 25: 0.156645537, 26: 0.0, 27: 1.411962342, 28: 0.0, 29: 0.0, 30: 0.0, 31: 1.457999862, 32: 1.345820582, 33: 0.0, 34: 1.272779142, 35: 1.269805142, 36: 1.311084262, 37: 1.824039782, 38: 2.222555782, 39: 0.848992737, 40: 0.0, 41: 0.858084582, 42: 1.471918182, 43: 1.484408982, 44: 1.470371702, 45: 1.460379062, 46: 0.145463297, 47: 0.0, 48: 1.448364102, 49: 0.352266662, 50: 0.122079062, 51: 0.0, 52: 0.0, 53: 0.0, 54: 0.118178165, 55: 0.0, 56: 0.0, 57: 0.0, 58: 1.428545938, 59: 1.587074488, 60: 1.582738017, 61: 0.661987617, 62: 2.390884182, 63: 1.280035702, 64: 1.024220817, 65: 1.459189462, 66: 0.0, 67: 0.0, 68: 2.066956102, 69: 0.0, 70: 0.0, 71: 0.0, 72: 0.0, 73: 1.465018502, 74: 1.375917462, 75: 0.157597217, 76: 0.157002417, 77: 0.0, 78: 1.582550982, 79: 0.224809617, 80: 0.234088497, 81: 0.0, 82: 0.0, 83: 1.530565462, 84: 1.530565462, 85: 1.520334902, 86: 0.0, 87: 0.0, 88: 0.101518853, 89: 0.0, 90: 0.203416973, 91: 0.930356988, 92: 0.928218838, 93: 0.199446123, 94: 0.920277138, 95: 0.192115323, 96: 0.0, 97: 0.927119218, 98: 0.0, 99: 0.467936673, 100: 0.531592453, 101: 0.013732523, 102: 0.0, 103: 1.016371708, 104: 0.0, 105: 0.941841908, 106: 0.937871058, 107: 0.914168138, 108: 0.0, 109: 0.0, 110: 0.151062843, 111: 0.0, 112: 0.886983088, 113: 0.162608853, 114: 0.158393643, 115: 0.0, 116: 0.0, 117: 0.0, 118: 0.886983088, 119: 0.881179538, 120: 1.612290982, 121: 0.0, 122: 0.0, 123: 1.522357222, 124: 0.0, 125: 1.453241462, 126: 0.0, 127: 0.0, 128: 0.0, 129: 0.0, 130: 0.0, 131: 0.0, 132: 0.340251702, 133: 2.057796182, 134: 0.0, 135: 0.0, 136: 0.0, 137: 0.378675782, 138: 0.887943542, 139: 0.0, 140: 0.0, 141: 0.118178165, 142: 0.0, 143: 1.694611302, 144: 0.388379617, 145: 0.0, 146: 0.118178165, 147: 1.000666737, 148: 0.884417308, 149: 0.0, 150: 0.0, 151: 1.237761868, 152: 0.0, 153: 0.0, 154: 0.760038068, 155: 0.881668258, 156: 0.193523137, 157: 0.88041344, 158: 1.723518582, 159: 1.591710902, 160: 0.0, 161: 0.0, 162: 0.399086017, 163: 0.0, 164: 0.0, 165: 1.721139382, 166: 2.294288662, 167: 0.0, 168: 0.0, 169: 0.208512097, 170: 0.0, 171: 0.527562817, 172: 0.0, 173: 0.0, 174: 1.866627462, 175: 0.0, 176: 0.0, 177: 0.971472294, 178: 1.500468582, 179: 1.540320182, 180: 1.536156582, 181: 1.486193382, 182: 0.0, 183: 0.160809137, 184: 0.0, 185: 0.805000308, 186: 0.826076358, 187: 0.802190168, 188: 0.809520968, 189: 0.0, 190: 0.947034558, 191: 0.950089058];
earn = [0: 0.0, 1: 0.0, 2: 0.0, 3: 0.0, 4: 0.326911794, 5: 0.0, 6: 0.316886177, 7: 0.307054838, 8: 0.246871852, 9: 0.0, 10: 0.273466474, 11: 0.272748742, 12: 0.0, 13: 0.0, 14: 0.252157904, 15: 0.246963605, 16: 0.0, 17: 0.222892144, 18: 0.0, 19: 0.0, 20: 0.0, 21: 0.220673917, 22: 0.0, 23: 0.211298485, 24: 0.0, 25: 0.0, 26: 0.202971867, 27: 0.0, 28: 0.231747623, 29: 0.23481625, 30: 0.24104521, 31: 0.0, 32: 0.0, 33: 0.195258074, 34: 0.0, 35: 0.0, 36: 0.0, 37: 0.0, 38: 0.0, 39: 0.0, 40: 0.011510418, 41: 0.0, 42: 0.0, 43: 0.0, 44: 0.0, 45: 0.0, 46: 0.0, 47: 0.001290439, 48: 0.0, 49: 0.0, 50: 0.0, 51: -0.001129465, 52: -0.001720006, 53: 0.0, 54: -5.9006e-05, 55: -0.005288846, 56: -0.003320033, 57: 0.0, 58: 0.0, 59: 0.0, 60: 0.0, 61: 0.0, 62: 0.0, 63: 0.0, 64: 0.0, 65: 0.0, 66: 0.032781038, 67: 0.052842969, 68: 0.0, 69: 0.0213617, 70: 0.269242238, 71: 0.13936005, 72: 0.320553175, 73: 0.0, 74: 0.0, 75: 0.0, 76: 0.0, 77: 0.515840375, 78: 0.0, 79: 0.0, 80: 0.0, 81: 0.495057944, 82: 0.491147355, 83: 0.0, 84: 0.0, 85: 0.0, 86: 0.364799698, 87: 0.351118731, 88: 0.0, 89: 0.395162789, 90: 0.0, 91: 0.0, 92: 0.0, 93: 0.0, 94: 0.0, 95: 0.0, 96: 0.256551771, 97: 0.0, 98: 0.24080052, 99: 0.0, 100: 0.0, 101: 0.0, 102: 0.328336883, 103: 0.0, 104: 0.199530645, 105: 0.0, 106: 0.0, 107: 0.0, 108: 0.223111798, 109: 0.239471708, 110: 0.0, 111: 0.230880577, 112: 0.0, 113: 0.0, 114: 0.0, 115: 0.038613292, 116: 0.0, 117: 0.098617423, 118: 0.0, 119: 0.0, 120: 0.0, 121: 0.019737197, 122: 0.018261131, 123: 0.0, 124: 0.005645385, 125: 0.0, 126: -0.000190076, 127: -0.006771391, 128: 0.0, 129: -0.001048048, 130: -0.006437826, 131: -0.048550682, 132: 0.0, 133: 0.0, 134: -0.053926632, 135: 0.0, 136: -0.520454911, 137: 0.0, 138: 0.0, 139: -0.08899689, 140: -0.571133366, 141: -0.125226902, 142: -0.741396431, 143: 0.0, 144: 0.0, 145: -0.907429313, 146: 0.0, 147: 0.0, 148: 0.0, 149: -0.83166267, 150: -0.526557228, 151: 0.0, 152: -0.478929608, 153: 0.0, 154: 0.0, 155: 0.0, 156: 0.0, 157: 0.0, 158: 0.0, 159: 0.0, 160: -0.018973206, 161: -0.0562331, 162: 0.0, 163: -0.096099248, 164: -0.040868133, 165: 0.0, 166: 0.0, 167: -0.01818441, 168: 0.033143688, 169: 0.0, 170: 0.0, 171: 0.0, 172: 0.21089453, 173: 0.225530819, 174: 0.0, 175: 0.2846676, 176: 0.33858598, 177: 0.0, 178: 0.0, 179: 0.0, 180: 0.0, 181: 0.0, 182: 0.359506242, 183: 0.0, 184: 0.344894127, 185: 0.0, 186: 0.0, 187: 0.0, 188: 0.0, 189: 0.214418969, 190: 0.0, 191: 0.0];
total_cost = 104.853576927;
total_earn = 6.226446733;
