production = [0: 0.0, 1: 0.0, 2: 0.0, 3: 0.0, 4: 0.0, 5: 0.0, 6: 0.0, 7: 0.0, 8: 0.0, 9: 0.0, 10: 0.0, 11: 0.0, 12: 0.0, 13: 0.0, 14: 0.0, 15: 0.0, 16: 0.0, 17: 0.0, 18: 0.0, 19: 0.0, 20: 0.0, 21: 0.0, 22: 0.0, 23: 0.0005, 24: 0.0, 25: 0.0, 26: 0.0065, 27: 0.0362, 28: 0.0, 29: 0.0302, 30: 0.0675, 31: 0.0, 32: 0.093, 33: 0.1187, 34: 0.0, 35: 0.1467, 36: 0.1487, 37: 0.0, 38: 0.0, 39: 0.0, 40: 0.5867, 41: 0.516, 42: 0.0, 43: 0.0, 44: 0.9235, 45: 0.5245, 46: 0.6635, 47: 0.6465, 48: 0.0, 49: 0.9237, 50: 1.124, 51: 1.2067, 52: 0.677, 53: 0.614, 54: 0.0, 55: 0.0, 56: 0.3725, 57: 1.74, 58: 0.0, 59: 0.504479167, 60: 0.0, 61: 0.0, 62: 0.0, 63: 0.0, 64: 0.9948, 65: 1.1338, 66: 1.2325, 67: 0.7565, 68: 0.0, 69: 0.5118, 70: 0.6165, 71: 0.0, 72: 0.2318, 73: 0.0, 74: 0.0, 75: 0.0592, 76: 0.043, 77: 0.022, 78: 0.005, 79: 0.0, 80: 0.0, 81: 0.0, 82: 0.0, 83: 0.0, 84: 0.0, 85: 0.0, 86: 0.0, 87: 0.0, 88: 0.0, 89: 0.0, 90: 0.0, 91: 0.0, 92: 0.0, 93: 0.0, 94: 0.0, 95: 0.0, 96: 0.0, 97: 0.0, 98: 0.0, 99: 0.0, 100: 0.0, 101: 0.0, 102: 0.0, 103: 0.0, 104: 0.0, 105: 0.0, 106: 0.0, 107: 0.0, 108: 0.0, 109: 0.0, 110: 0.0, 111: 0.0, 112: 0.0, 113: 0.0, 114: 0.0, 115: 0.0, 116: 0.0, 117: 0.0, 118: 0.0, 119: 0.0, 120: 0.0, 121: 0.004, 122: 0.0, 123: 0.0, 124: 0.0, 125: 0.0, 126: 0.0, 127: 0.0, 128: 0.431, 129: 0.3272, 130: 0.0, 131: 0.8013, 132: 0.0, 133: 0.0, 134: 1.172, 135: 0.0, 136: 0.0, 137: 1.5145, 138: 0.0, 139: 0.0, 140: 1.2897, 141: 1.4105, 142: 1.261, 143: 0.0, 144: 0.8293, 145: 1.3055, 146: 1.9007, 147: 0.0, 148: 0.0, 149: 0.0, 150: 0.0, 151: 0.698, 152: 0.3008, 153: 0.0, 154: 0.8405, 155: 0.887, 156: 0.0, 157: 0.9952, 158: 0.363, 159: 0.0, 160: 0.8027, 161: 0.0, 162: 0.0, 163: 0.3242, 164: 0.0, 165: 0.1275, 166: 0.0, 167: 0.0, 168: 0.1695, 169: 0.0, 170: 0.0, 171: 0.0, 172: 0.0, 173: 0.0, 174: 0.0, 175: 0.0, 176: 0.0, 177: 0.0, 178: 0.0, 179: 0.0, 180: 0.0, 181: 0.0, 182: 0.0, 183: 0.0, 184: 0.0, 185: 0.0, 186: 0.0, 187: 0.0, 188: 0.0, 189: 0.0, 190: 0.0, 191: 0.0];
buy = [0: 1.241179167, 1: 0.0, 2: 0.250479167, 3: 1.249479167, 4: 0.0, 5: 0.0, 6: 0.0, 7: 0.0, 8: 1.248279167, 9: 1.241679167, 10: 0.241679167, 11: 0.249979167, 12: 1.251279167, 13: 0.095878432, 14: 0.251779167, 15: 1.250779167, 16: 0.0, 17: 0.0, 18: 1.250279167, 19: 0.0, 20: 0.0, 21: 1.122979167, 22: 1.124279167, 23: 0.0, 24: 0.130479167, 25: 1.131679167, 26: 1.119979167, 27: 1.087579167, 28: 0.0, 29: 1.087079167, 30: 0.057479167, 31: 0.126279167, 32: 1.031979167, 33: 1.006779167, 34: 0.115279167, 35: 0.968079167, 36: 1.002779167, 37: 1.602979167, 38: 0.768979167, 39: 0.042479167, 40: 0.0, 41: 0.621979167, 42: 1.137979167, 43: 1.148479167, 44: 0.0, 45: 0.0, 46: 0.0, 47: 0.0, 48: 0.0, 49: 0.0, 50: 0.003279167, 51: 0.0, 52: 0.441179167, 53: 0.0, 54: 0.0, 55: 0.158279167, 56: 0.0, 57: 0.0, 58: 2.144979167, 59: 0.0, 60: 2.330479167, 61: 1.556479167, 62: 0.010479167, 63: 0.0, 64: 0.0, 65: 0.0, 66: 0.0, 67: 0.0, 68: 0.638179167, 69: 0.0, 70: 0.0, 71: 0.120979167, 72: 1.159179167, 73: 0.132179167, 74: 0.0, 75: 0.0, 76: 1.088979167, 77: 0.0, 78: 1.230979167, 79: 0.0, 80: 0.0, 81: 1.193279167, 82: 0.178679167, 83: 1.187279167, 84: 0.0, 85: 0.178679167, 86: 0.179479167, 87: 1.177979167, 88: 1.166179167, 89: 1.139779167, 90: 0.332979167, 91: 0.0, 92: 0.325979167, 93: 0.0, 94: 1.312979167, 95: 0.314479167, 96: 0.0, 97: 0.324179167, 98: 1.322679167, 99: 1.765979167, 100: 1.870179167, 101: 1.922479167, 102: 1.129979167, 103: 0.470279167, 104: 1.382679167, 105: 0.348279167, 106: 1.341779167, 107: 1.302979167, 108: 1.296179167, 109: 1.252779167, 110: 0.247279167, 111: 1.247979167, 112: 0.0, 113: 0.266179167, 114: 0.0, 115: 1.747979167, 116: 0.0, 117: 1.252479167, 118: 0.258779167, 119: 0.0, 120: 0.0, 121: 0.0, 122: 1.245479167, 123: 0.238179167, 124: 1.115279167, 125: 0.0, 126: 0.0, 127: 0.0, 128: 0.0, 129: 1.462479167, 130: 0.0, 131: 0.0, 132: 0.124979167, 133: 1.630479167, 134: 0.0, 135: 0.0, 136: 1.123979167, 137: 0.0, 138: 1.249779167, 139: 1.701479167, 140: 0.0, 141: 0.0, 142: 0.0, 143: 0.325179167, 144: 0.497179167, 145: 0.0, 146: 0.0, 147: 0.8411791669999999, 148: 0.0, 149: 1.450479167, 150: 0.0, 151: 0.134679167, 152: 1.057179167, 153: 1.274479167, 154: 0.050679167, 155: 1.249779167, 156: 2.861679167, 157: 0.0, 158: 0.986479167, 159: 1.238679167, 160: 0.920079167, 161: 1.565279167, 162: 0.0, 163: 0.0, 164: 0.0, 165: 0.0, 166: 1.829279167, 167: 1.157779167, 168: 0.952479167, 169: 0.175279167, 170: 0.0, 171: 0.0, 172: 0.0, 173: 0.0, 174: 1.469779167, 175: 0.0, 176: 0.162179167, 177: 0.163979167, 178: 0.0, 179: 0.0, 180: 0.0, 181: 0.0, 182: 1.138979167, 183: 1.135179167, 184: 0.0, 185: 1.124279167, 186: 1.158779167, 187: 1.119679167, 188: 0.131679167, 189: 1.356479167, 190: 1.356779167, 191: 0.361779167];
sell = [0: 0.0, 1: 0.652220833, 2: 0.0, 3: 0.0, 4: 0.649020833, 5: 0.648220833, 6: 0.645520833, 7: 0.643720833, 8: 0.0, 9: 0.0, 10: 0.0, 11: 0.0, 12: 0.0, 13: 0.0, 14: 0.0, 15: 0.0, 16: 0.656820833, 17: 0.650020833, 18: 0.0, 19: 0.649220833, 20: 0.6477208330000001, 21: 0.0, 22: 0.0, 23: 0.768020833, 24: 0.0, 25: 0.0, 26: 0.0, 27: 0.0, 28: 0.780820833, 29: 0.0, 30: 0.0, 31: 0.0, 32: 0.0, 33: 0.0, 34: 0.0, 35: 0.0, 36: 0.0, 37: 0.0, 38: 0.0, 39: 0.0, 40: 1.344720833, 41: 0.0, 42: 0.0, 43: 0.0, 44: 0.7868208330000001, 45: 1.296220833, 46: 0.541220833, 47: 0.5338208330000001, 48: 0.781820833, 49: 1.703220833, 50: 0.0, 51: 1.841220833, 52: 0.0, 53: 1.396520833, 54: 0.777020833, 55: 0.0, 56: 0.614820833, 57: 0.07202083300000001, 58: 0.0, 59: 0.0, 60: 0.0, 61: 0.0, 62: 0.0, 63: 0.487520833, 64: 1.033820833, 65: 1.906520833, 66: 2.023520833, 67: 1.540520833, 68: 0.0, 69: 1.281120833, 70: 0.491520833, 71: 0.0, 72: 0.0, 73: 0.0, 74: 0.681077646, 75: 0.826720833, 76: 0.0, 77: 0.7888208330000001, 78: 0.0, 79: 0.711020833, 80: 0.702720833, 81: 0.0, 82: 0.0, 83: 0.0, 84: 0.712720833, 85: 0.0, 86: 0.0, 87: 0.0, 88: 0.0, 89: 0.0, 90: 0.0, 91: 0.570520833, 92: 0.0, 93: 0.573520833, 94: 0.0, 95: 0.0, 96: 0.0, 97: 0.0, 98: 0.0, 99: 0.0, 100: 0.0, 101: 0.0, 102: 0.0, 103: 0.0, 104: 0.0, 105: 0.0, 106: 0.0, 107: 0.0, 108: 0.0, 109: 0.0, 110: 0.0, 111: 0.0, 112: 0.641520833, 113: 0.0, 114: 0.640720833, 115: 0.0, 116: 0.642520833, 117: 0.0, 118: 0.0, 119: 0.0, 120: 0.644020833, 121: 0.6557208329999999, 122: 0.0, 123: 0.0, 124: 0.0, 125: 0.7777208329999999, 126: 0.777520833, 127: 0.778320833, 128: 1.167520833, 129: 0.0, 130: 0.588520833, 131: 1.576320833, 132: 0.0, 133: 0.0, 134: 1.431820833, 135: 0.753320833, 136: 0.0, 137: 0.0, 138: 0.0, 139: 0.0, 140: 1.948720833, 141: 2.107020833, 142: 1.952820833, 143: 0.0, 144: 0.0, 145: 0.061320833, 146: 1.079420833, 147: 0.0, 148: 0.645720833, 149: 0.0, 150: 0.562320833, 151: 0.0, 152: 0.0, 153: 0.0, 154: 0.0, 155: 0.0, 156: 0.0, 157: 0.8442208329999999, 158: 0.0, 159: 0.0, 160: 0.0, 161: 0.0, 162: 0.564520833, 163: 0.506746034, 164: 0.567820833, 165: 0.680020833, 166: 0.0, 167: 0.0, 168: 0.0, 169: 0.0, 170: 0.762220833, 171: 0.456520833, 172: 0.726220833, 173: 0.7495208330000001, 174: 0.0, 175: 0.706020833, 176: 0.0, 177: 0.0, 178: 0.738020833, 179: 0.704520833, 180: 0.708020833, 181: 0.750020833, 182: 0.0, 183: 0.0, 184: 0.774520833, 185: 0.0, 186: 0.0, 187: 0.0, 188: 0.0, 189: 0.0, 190: 0.0, 191: 0.0];
charge = [0: 1.0, 1: 0.0, 2: 0.0, 3: 1.0, 4: 0.0, 5: 0.0, 6: 0.0, 7: 0.0, 8: 1.0, 9: 1.0, 10: 0.0, 11: 0.0, 12: 1.0, 13: 0.0, 14: 0.0, 15: 1.0, 16: 0.0, 17: 0.0, 18: 1.0, 19: 0.0, 20: 0.0, 21: 1.0, 22: 1.0, 23: 0.0, 24: 0.0, 25: 1.0, 26: 1.0, 27: 1.0, 28: 0.0, 29: 1.0, 30: 0.0, 31: 0.0, 32: 1.0, 33: 1.0, 34: 0.0, 35: 1.0, 36: 1.0, 37: 1.0, 38: 0.0, 39: 0.0, 40: 0.0, 41: 1.0, 42: 1.0, 43: 1.0, 44: 0.0, 45: 0.0, 46: 0.0, 47: 0.0, 48: 0.0, 49: 0.0, 50: 1.0, 51: 0.0, 52: 1.0, 53: 0.0, 54: 0.0, 55: 0.0, 56: 0.0, 57: 1.0, 58: 1.0, 59: 0.0, 60: 1.0, 61: 1.0, 62: 0.0, 63: 0.0, 64: 0.0, 65: 0.0, 66: 0.0, 67: 0.0, 68: 0.0, 69: 0.0, 70: 0.0, 71: 0.0, 72: 1.0, 73: 0.0, 74: 0.0, 75: 0.0, 76: 1.0, 77: 0.0, 78: 1.0, 79: 0.0, 80: 0.0, 81: 1.0, 82: 0.0, 83: 1.0, 84: 0.0, 85: 0.0, 86: 0.0, 87: 1.0, 88: 1.0, 89: 1.0, 90: 0.0, 91: 0.0, 92: 0.0, 93: 0.0, 94: 1.0, 95: 0.0, 96: 0.0, 97: 0.0, 98: 1.0, 99: 1.0, 100: 1.0, 101: 1.0, 102: 1.0, 103: 0.0, 104: 1.0, 105: 0.0, 106: 1.0, 107: 1.0, 108: 1.0, 109: 1.0, 110: 0.0, 111: 1.0, 112: 0.0, 113: 0.0, 114: 0.0, 115: 1.0, 116: 0.0, 117: 1.0, 118: 0.0, 119: 0.0, 120: 0.0, 121: 0.0, 122: 1.0, 123: 0.0, 124: 1.0, 125: 0.0, 126: 0.0, 127: 0.0, 128: 0.0, 129: 1.0, 130: 0.0, 131: 0.0, 132: 0.0, 133: 1.0, 134: 0.0, 135: 0.0, 136: 1.0, 137: 0.781020833, 138: 0.0, 139: 1.0, 140: 0.0, 141: 0.0, 142: 0.0, 143: 0.0, 144: 1.0, 145: 1.0, 146: 0.0, 147: 0.0, 148: 0.0, 149: 1.0, 150: 0.0, 151: 0.0, 152: 1.0, 153: 1.0, 154: 0.0, 155: 1.0, 156: 1.0, 157: 0.0, 158: 1.0, 159: 1.0, 160: 1.0, 161: 1.0, 162: 0.0, 163: 0.0, 164: 0.0, 165: 0.0, 166: 1.0, 167: 1.0, 168: 1.0, 169: 0.0, 170: 0.0, 171: 0.0, 172: 0.0, 173: 0.0, 174: 1.0, 175: 0.0, 176: 0.0, 177: 0.0, 178: 0.0, 179: 0.0, 180: 0.0, 181: 0.0, 182: 1.0, 183: 1.0, 184: 0.0, 185: 1.0, 186: 1.0, 187: 1.0, 188: 0.0, 189: 1.0, 190: 1.0, 191: 0.0];
discharge = [0: 0.0, 1: 1.0, 2: 0.0, 3: 0.0, 4: 1.0, 5: 1.0, 6: 1.0, 7: 1.0, 8: 0.0, 9: 0.0, 10: 0.0, 11: 0.0, 12: 0.0, 13: 0.169889706, 14: 0.0, 15: 0.0, 16: 1.0, 17: 1.0, 18: 0.0, 19: 1.0, 20: 1.0, 21: 0.0, 22: 0.0, 23: 1.0, 24: 0.0, 25: 0.0, 26: 0.0, 27: 0.0, 28: 1.0, 29: 0.0, 30: 0.0, 31: 0.0, 32: 0.0, 33: 0.0, 34: 0.0, 35: 0.0, 36: 0.0, 37: 0.0, 38: 0.0, 39: 1.0, 40: 1.0, 41: 0.0, 42: 0.0, 43: 0.0, 44: 0.0, 45: 1.0, 46: 0.0, 47: 0.0, 48: 1.0, 49: 1.0, 50: 0.0, 51: 1.0, 52: 0.0, 53: 1.0, 54: 1.0, 55: 0.0, 56: 1.0, 57: 0.0, 58: 0.0, 59: 1.0, 60: 0.0, 61: 0.0, 62: 1.0, 63: 1.0, 64: 1.0, 65: 1.0, 66: 1.0, 67: 1.0, 68: 0.0, 69: 1.0, 70: 0.0, 71: 0.0, 72: 0.0, 73: 0.0, 74: 0.916729791, 75: 1.0, 76: 0.0, 77: 1.0, 78: 0.0, 79: 1.0, 80: 1.0, 81: 0.0, 82: 0.0, 83: 0.0, 84: 1.0, 85: 0.0, 86: 0.0, 87: 0.0, 88: 0.0, 89: 0.0, 90: 0.0, 91: 1.0, 92: 0.0, 93: 1.0, 94: 0.0, 95: 0.0, 96: 0.359421296, 97: 0.0, 98: 0.0, 99: 0.0, 100: 0.0, 101: 0.0, 102: 0.0, 103: 0.0, 104: 0.0, 105: 0.0, 106: 0.0, 107: 0.0, 108: 0.0, 109: 0.0, 110: 0.0, 111: 0.0, 112: 1.0, 113: 0.0, 114: 1.0, 115: 0.0, 116: 1.0, 117: 0.0, 118: 0.0, 119: 0.276643519, 120: 1.0, 121: 1.0, 122: 0.0, 123: 0.0, 124: 0.0, 125: 1.0, 126: 1.0, 127: 1.0, 128: 1.0, 129: 0.0, 130: 1.0, 131: 1.0, 132: 0.0, 133: 0.0, 134: 1.0, 135: 1.0, 136: 0.0, 137: 0.0, 138: 0.0, 139: 0.0, 140: 1.0, 141: 1.0, 142: 1.0, 143: 0.0, 144: 0.0, 145: 0.0, 146: 0.0, 147: 0.0, 148: 1.0, 149: 0.0, 150: 1.0, 151: 0.0, 152: 0.0, 153: 0.0, 154: 0.0, 155: 0.0, 156: 0.0, 157: 1.0, 158: 0.0, 159: 0.0, 160: 0.0, 161: 0.0, 162: 1.0, 163: 0.590583557, 164: 1.0, 165: 1.0, 166: 0.0, 167: 0.0, 168: 0.0, 169: 0.0, 170: 1.0, 171: 1.0, 172: 1.0, 173: 1.0, 174: 0.0, 175: 1.0, 176: 0.0, 177: 0.0, 178: 1.0, 179: 1.0, 180: 1.0, 181: 1.0, 182: 0.0, 183: 0.0, 184: 1.0, 185: 0.0, 186: 0.0, 187: 0.0, 188: 0.0, 189: 0.0, 190: 0.0, 191: 0.0];
soc = [0: 10.927994, 1: 9.925808400999999, 2: 9.923823240000001, 3: 10.821838475, 4: 9.819674107000001, 5: 8.817710172, 6: 7.81594663, 7: 6.814383441, 8: 7.713020564, 9: 8.61147796, 10: 8.609755665, 11: 8.608033712999999, 12: 9.506312106999999, 13: 9.334521139, 14: 9.332654234, 15: 10.230787704, 16: 9.228741546, 17: 8.226895797999999, 18: 9.125250419, 19: 8.123425369, 20: 7.121800683, 21: 8.020376323000001, 22: 8.918772248, 23: 7.916988494, 24: 7.915405096, 25: 8.813822015, 26: 9.712059249999999, 27: 10.610116839, 28: 9.607994815, 29: 10.506073216, 30: 10.503972002, 31: 10.501871207, 32: 11.399770833, 33: 12.297490879, 34: 12.295031381, 35: 13.192572374, 36: 14.08993386, 37: 14.987115873, 38: 14.98411845, 39: 13.981121626, 40: 12.978325402, 41: 13.875729737, 42: 14.772954591, 43: 15.67, 44: 15.666866, 45: 14.663732627, 46: 14.66079988, 47: 14.65786772, 48: 13.654936147, 49: 12.65220516, 50: 13.549674718, 51: 12.546964784, 52: 13.444455391, 53: 12.4417665, 54: 11.439278146, 55: 11.436990291, 56: 10.434702893, 57: 11.332615952, 58: 12.230349429, 59: 11.227903359, 60: 12.125657778, 61: 13.023232647, 62: 12.020628, 63: 11.018223875, 64: 10.01602023, 65: 9.014017025999999, 66: 8.012214222000001, 67: 7.010611779, 68: 7.009209657, 69: 6.007807815, 70: 6.006606254, 71: 6.005404932, 72: 6.904203851, 73: 6.902823011, 74: 5.984712655, 75: 4.983515712, 76: 5.882519009, 77: 4.881342505, 78: 5.780366237, 79: 4.779210163, 80: 3.778254321, 81: 4.67749867, 82: 4.676563171, 83: 5.575627858, 84: 4.574512732, 85: 4.57359783, 86: 4.57268311, 87: 5.471768574, 88: 6.37067422, 89: 7.269400085, 90: 7.267946205, 91: 6.266492616, 92: 6.265239317, 93: 5.26398627, 94: 6.162933472, 95: 6.161700886, 96: 5.801047249, 97: 5.79988704, 98: 6.698727062, 99: 7.597387317, 100: 8.495867839000001, 101: 9.394168666000001, 102: 10.292289832, 103: 10.290231374, 104: 11.188173328, 105: 11.185935693, 106: 12.083698506, 107: 12.981281766, 108: 13.87868551, 109: 14.775909773, 110: 14.772954591, 111: 15.67, 112: 14.666866, 113: 14.663932627, 114: 13.66099984, 115: 14.55826764, 116: 13.555355987, 117: 14.452644916, 118: 14.449754387, 119: 14.170220917, 120: 13.167386873, 121: 12.164753396, 122: 13.062320445, 123: 13.059707981, 124: 13.957096039, 125: 12.95430462, 126: 11.951713759, 127: 10.949323416, 128: 9.947133552, 129: 10.845144125, 130: 9.842975096, 131: 8.841006501000001, 132: 8.8392383, 133: 9.737470452, 134: 8.735522958000001, 135: 7.733775854, 136: 8.632229098, 137: 9.333421402999999, 138: 9.331554718, 139: 10.229688407, 140: 9.227642469999999, 141: 8.225796941, 142: 7.224151782, 143: 7.222706951, 144: 8.12126241, 145: 9.019638157999999, 146: 9.01783423, 147: 9.016030663, 148: 8.014227457, 149: 8.912624611, 150: 7.910842086, 151: 7.909259918, 152: 8.807678065999999, 153: 9.70591653, 154: 9.703975347, 155: 10.602034552, 156: 11.499914145, 157: 10.497614162, 158: 11.39551464, 159: 12.293235537, 160: 13.190776889, 161: 14.088138734, 162: 13.085321106, 163: 12.492120486, 164: 11.489622061, 165: 10.487324137, 166: 11.385226672, 167: 12.282949627, 168: 13.180493037, 169: 13.177856938, 170: 12.175221367, 171: 11.172786323, 172: 10.170551765, 173: 9.168517655, 174: 10.066683952, 175: 9.064670615000001, 176: 9.062857681000001, 177: 9.061045109, 178: 8.0592329, 179: 7.057621054, 180: 6.056209529, 181: 5.054998287, 182: 5.953987288, 183: 6.85279649, 184: 5.851425931, 185: 6.750255646, 186: 7.648905595, 187: 8.547375814, 188: 8.545666338, 189: 9.443957205, 190: 10.342068414, 191: 10.34];
cost = [0: 0.876414518, 1: 0.0, 2: 0.153017723, 3: 0.881484988, 4: 0.0, 5: 0.0, 6: 0.0, 7: 0.0, 8: 0.880751908, 9: 0.876719968, 10: 0.147641803, 11: 0.152712273, 12: 0.882584608, 13: 0.058572134, 14: 0.153811893, 15: 0.882279158, 16: 0.0, 17: 0.0, 18: 0.881973708, 19: 0.0, 20: 0.0, 21: 0.804206138, 22: 0.805000308, 23: 0.0, 24: 0.155218017, 25: 1.464423702, 26: 1.450505382, 27: 1.411962342, 28: 0.0, 29: 1.411367542, 30: 0.068377217, 31: 0.150221697, 32: 1.345820582, 33: 1.315842662, 34: 0.137136097, 35: 1.269805142, 36: 1.311084262, 37: 2.025082182, 38: 0.914777617, 39: 0.050533217, 40: 0.0, 41: 0.858084582, 42: 1.471918182, 43: 1.484408982, 44: 0.0, 45: 0.0, 46: 0.0, 47: 0.0, 48: 0.0, 49: 0.0, 50: 0.122079062, 51: 0.0, 52: 0.387694518, 53: 0.0, 54: 0.0, 55: 0.096692743, 56: 0.0, 57: 0.118178165, 58: 1.428545938, 59: 0.0, 60: 2.890516182, 61: 1.969765782, 62: 0.012466017, 63: 0.0, 64: 0.0, 65: 0.0, 66: 0.0, 67: 0.0, 68: 0.759177937, 69: 0.0, 70: 0.0, 71: 0.143916817, 72: 1.497137702, 73: 0.157240337, 74: 0.0, 75: 0.0, 76: 1.413627782, 77: 0.0, 78: 1.582550982, 79: 0.0, 80: 0.0, 81: 1.537703062, 82: 0.212556737, 83: 1.530565462, 84: 0.0, 85: 0.212556737, 86: 0.213508417, 87: 1.519502182, 88: 0.830597018, 89: 0.814469258, 90: 0.203416973, 91: 0.0, 92: 0.199140673, 93: 0.0, 94: 0.920277138, 95: 0.192115323, 96: 0.0, 97: 0.198041053, 98: 0.926202868, 99: 1.197014838, 100: 1.260670618, 101: 1.292620688, 102: 0.808482438, 103: 0.287293543, 104: 0.962856868, 105: 0.212763743, 106: 0.937871058, 107: 0.914168138, 108: 0.910014018, 109: 0.8835009579999999, 110: 0.151062843, 111: 0.880568638, 112: 0.0, 113: 0.162608853, 114: 0.0, 115: 1.186018638, 116: 0.0, 117: 0.883317688, 118: 0.158088193, 119: 0.0, 120: 0.0, 121: 0.0, 122: 1.599800182, 123: 0.283337937, 124: 1.444914262, 125: 0.0, 126: 0.0, 127: 0.0, 128: 0.0, 129: 1.857943382, 130: 0.0, 131: 0.0, 132: 0.148675217, 133: 2.057796182, 134: 0.0, 135: 0.0, 136: 1.455263782, 137: 0.092299609, 138: 1.486737297, 139: 2.142257782, 140: 0.0, 141: 0.0, 142: 0.0, 143: 0.386833137, 144: 0.709622502, 145: 0.118178165, 146: 0.0, 147: 1.000666737, 148: 0.0, 149: 1.004275888, 150: 0.0, 151: 0.082275503, 152: 0.764008918, 153: 0.896757488, 154: 0.030959903, 155: 0.881668258, 156: 3.522431702, 157: 0.0, 158: 1.291693782, 159: 1.591710902, 160: 1.212704342, 161: 1.980234262, 162: 0.0, 163: 0.0, 164: 0.0, 165: 0.0, 166: 2.294288662, 167: 1.495472262, 168: 1.251247382, 169: 0.208512097, 170: 0.0, 171: 0.0, 172: 0.0, 173: 0.0, 174: 1.866627462, 175: 0.0, 176: 0.192928337, 177: 0.195069617, 178: 0.0, 179: 0.0, 180: 0.0, 181: 0.0, 182: 1.473107782, 183: 1.468587302, 184: 0.0, 185: 0.805000308, 186: 0.826076358, 187: 0.802190168, 188: 0.08044280299999999, 189: 0.946851288, 190: 0.947034558, 191: 0.221010893];
earn = [0: 0.0, 1: 0.337719948, 2: 0.0, 3: 0.0, 4: 0.326911794, 5: 0.321971288, 6: 0.316886177, 7: 0.307054837, 8: 0.0, 9: 0.0, 10: 0.0, 11: 0.0, 12: 0.0, 13: 0.0, 14: 0.0, 15: 0.0, 16: 0.236389818, 17: 0.222892144, 18: 0.0, 19: 0.203206121, 20: 0.18809813, 21: 0.0, 22: 0.0, 23: 0.211436135, 24: 0.0, 25: 0.0, 26: 0.0, 27: 0.0, 28: 0.231747623, 29: 0.0, 30: 0.0, 31: 0.0, 32: 0.0, 33: 0.0, 34: 0.0, 35: 0.0, 36: 0.0, 37: 0.0, 38: 0.0, 39: 0.0, 40: 0.026356528, 41: 0.0, 42: 0.0, 43: 0.0, 44: 0.004956971, 45: 0.00686997, 46: 0.001786029, 47: 0.000480439, 48: 0.001329095, 49: -0.001873543, 50: 0.0, 51: -0.002209465, 52: 0.0, 53: -0.003072346, 54: -0.001709446, 55: 0.0, 56: -0.003320033, 57: -0.000388912, 58: 0.0, 59: 0.0, 60: 0.0, 61: 0.0, 62: 0.0, 63: -0.000292513, 64: 0.000413528, 65: 0.012964342, 66: 0.032781038, 67: 0.127092969, 68: 0.0, 69: 0.315411949, 70: 0.170754338, 71: 0.0, 72: 0.0, 73: 0.0, 74: 0.38937209, 75: 0.563162232, 76: 0.0, 77: 0.530639775, 78: 0.0, 79: 0.52252921, 80: 0.5543061929999999, 81: 0.0, 82: 0.0, 83: 0.0, 84: 0.413876988, 85: 0.0, 86: 0.0, 87: 0.0, 88: 0.0, 89: 0.0, 90: 0.0, 91: 0.286287354, 92: 0.0, 93: 0.267088652, 94: 0.0, 95: 0.0, 96: 0.0, 97: 0.0, 98: 0.0, 99: 0.0, 100: 0.0, 101: 0.0, 102: 0.0, 103: 0.0, 104: 0.0, 105: 0.0, 106: 0.0, 107: 0.0, 108: 0.0, 109: 0.0, 110: 0.0, 111: 0.0, 112: 0.198229937, 113: 0.0, 114: 0.170880246, 115: 0.0, 116: 0.104216879, 117: 0.0, 118: 0.0, 119: 0.0, 120: 0.019707038, 121: 0.019737197, 122: 0.0, 123: 0.0, 124: 0.0, 125: -0.002022074, 126: -0.003576596, 127: -0.006771391, 128: -0.009456918999999999, 129: 0.0, 130: -0.009769445999999999, 131: -0.048550682, 132: 0.0, 133: 0.0, 134: -0.145186633, 135: -0.112244804, 136: 0.0, 137: 0.0, 138: 0.0, 139: 0.0, 140: -1.061273366, 141: -1.274536902, 142: -1.375176431, 143: 0.0, 144: 0.0, 145: -0.052429313, 146: -0.89635106, 147: 0.0, 148: -0.5718503700000001, 149: 0.0, 150: -0.526557228, 151: 0.0, 152: 0.0, 153: 0.0, 154: 0.0, 155: 0.0, 156: 0.0, 157: -0.393744597, 158: 0.0, 159: 0.0, 160: 0.0, 161: 0.0, 162: -0.082532946, 163: -0.055640715, 164: -0.030321633, 165: -0.017068523, 166: 0.0, 167: 0.0, 168: 0.0, 169: 0.0, 170: 0.039101929, 171: 0.024195604, 172: 0.21089453, 173: 0.225530819, 174: 0.0, 175: 0.2846676, 176: 0.0, 177: 0.0, 178: 0.352995365, 179: 0.337113219, 180: 0.342328073, 181: 0.354909858, 182: 0.0, 183: 0.0, 184: 0.344894127, 185: 0.0, 186: 0.0, 187: 0.0, 188: 0.0, 189: 0.0, 190: 0.0, 191: 0.0];
total_cost = 105.030399567;
total_earn = 3.474248243;
% _objective = 101.556151324;