production = [0.0, 0.0, 0.0, 0.0, 0.0, 0.0, 0.0, 0.0, 0.0, 0.0, 0.0, 0.0, 0.0, 0.0, 0.0, 0.0, 0.0, 0.0, 0.0, 0.0, 0.0, 0.0, 0.0, 0.0, 0.0, 0.000156, 0.002083, 0.00072, 0.005868, 0.045071, 0.042167, 0.056723, 0.042136, 0.08955399999999999, 0.222533, 0.318427, 0.188563, 0.306877, 0.37341, 0.120451, 0.523382, 0.618216, 0.14866, 1.962963, 0.400346, 0.558868, 0.856521, 1.193801, 0.423056, 0.20176, 0.581035, 0.673868, 0.06948799999999999, 0.07605000000000001, 0.373079, 0.267684, 0.322882, 0.019289, 0.09182700000000001, 0.566237, 0.058995, 0.461349, 0.161562, 0.219007, 0.169607, 0.503035, 0.340283, 0.475162, 0.346619, 0.335769, 0.014232, 0.226474, 0.03105, 0.005835, 0.020411, 0.01053, 0.027852, 0.002751, 0.000848, 0.000221, 0.000139, 0.0, 0.0, 0.0, 0.0, 0.0, 0.0, 0.0, 0.0, 0.0, 0.0, 0.0, 0.0, 0.0, 0.0, 0.0];
buy = [7.860381, 996.8402599999999, 420.990355, 991.808885, 341.109187, 406.562394, 328.435935, 846.607241, 236.910153, 691.402499, 692.971909, 279.730753, 667.205925, 539.013151, 911.788131, 267.654426, 714.9185, 780.513829, 868.405189, 778.506035, 406.082265, 177.049507, 67.202761, 483.116843, 723.261501, 221.524412, 731.9844849999999, 382.056217, 382.794881, 540.466692, 923.581605, 734.3378290000001, 841.090341, 809.557888, 211.391356, 108.990762, 755.695548, 293.226266, 799.342315, 703.766164, 59.890172, 686.146832, 891.153215, 716.705472, 149.569965, 642.691939, 276.324157, 523.429093, 127.55922, 437.360682, 644.951343, 576.0515779999999, 771.966782, 364.739178, 127.130548, 189.855569, 124.688434, 507.819257, 108.783351, 873.460004, 929.623368, 42.492918, 338.147784, 587.364669, 991.653115, 178.229349, 241.675035, 663.665468, 889.012926, 672.087542, 145.817154, 722.788606, 266.27863, 730.736713, 581.098729, 134.521887, 158.351512, 345.398086, 486.892503, 301.559555, 421.54889, 298.795982, 671.915747, 840.409868, 526.768498, 456.412304, 373.491603, 668.494868, 565.4931350000001, 856.269909, 829.7882049999999, 740.591293, 343.680309, 903.972519, 955.467769, 447.68739];
sell = [3.150855, 3.294399, 0.102124, 1.46864, 3.909227, 2.686857, 1.307492, 1.905742, 0.904551, 3.819956, 0.06281399999999999, 0.218736, 1.755564, 3.520215, 3.137732, 0.575132, 3.588317, 2.137933, 1.157802, 1.0275, 2.319358, 0.876465, 3.102081, 3.731073, 3.590768, 0.106295, 0.110631, 2.464795, 1.408373, 3.389812, 0.9094449999999999, 2.279228, 0.132834, 2.203228, 1.319002, 2.620809, 1.293788, 3.995675, 0.126193, 0.624312, 3.574746, 2.88073, 3.349789, 0.357605, 0.564848, 2.332642, 0.488388, 0.631576, 1.030814, 1.507568, 1.263055, 1.073372, 3.622222, 2.661675, 0.239553, 1.094131, 2.651585, 3.185407, 3.45464, 0.168859, 3.110018, 0.06884999999999999, 0.269438, 0.47186, 0.7977109999999999, 0.245287, 2.746104, 3.395401, 0.201886, 2.526088, 0.748044, 2.721497, 2.938672, 0.527478, 0.393864, 1.34401, 0.8227719999999999, 2.937723, 2.00001, 3.454922, 2.787601, 3.707104, 0.043104, 0.527154, 0.009702000000000001, 3.918078, 1.702361, 0.7789779999999999, 1.716776, 3.946425, 0.748089, 3.221013, 1.956161, 1.500362, 1.226247, 0.9780180000000001];
charge = [0.638571, 0.800706, 0.399932, 0.500674, 0.035755, 0.058485, 0.977942, 0.76269, 0.242505, 0.234315, 0.757632, 0.702216, 0.145418, 0.724772, 0.931485, 0.895488, 0.112356, 0.368264, 0.42077, 0.72717, 0.139601, 0.6221370000000001, 0.033229, 0.882166, 0.48499, 0.530458, 0.040183, 0.631979, 0.519272, 0.140211, 0.616052, 0.054925, 0.874609, 0.842004, 0.691447, 0.588494, 0.483269, 0.481097, 0.401159, 0.243913, 0.179703, 0.571665, 0.712951, 0.702296, 0.229484, 0.628961, 0.249182, 0.519599, 0.748422, 0.410151, 0.400062, 0.555877, 0.38989, 0.578274, 0.993377, 0.916146, 0.437071, 0.288773, 0.048179, 0.9033949999999999, 0.784973, 0.892223, 0.235556, 0.9496019999999999, 0.818811, 0.783745, 0.208793, 0.146956, 0.450526, 0.415375, 0.6787570000000001, 0.743433, 0.178568, 0.411341, 0.763689, 0.971472, 0.823336, 0.808754, 0.139893, 0.211562, 0.673025, 0.390135, 0.581533, 0.617384, 0.179729, 0.182911, 0.372058, 0.95906, 0.699076, 0.048396, 0.774746, 0.775915, 0.08179, 0.770183, 0.928625, 0.620292];
discharge = [0.486434, 0.555933, 0.225034, 0.036892, 0.882374, 0.433939, 0.552512, 0.816929, 0.097145, 0.883319, 0.56979, 0.851307, 0.77225, 0.55092, 0.762842, 0.373299, 0.390193, 0.80274, 0.026471, 0.173956, 0.774056, 0.326493, 0.295036, 0.401731, 0.670395, 0.560264, 0.662071, 0.66064, 0.407652, 0.636961, 0.927632, 0.142823, 0.264526, 0.693118, 0.982178, 0.532177, 0.65835, 0.369373, 0.9067269999999999, 0.367644, 0.877453, 0.7193659999999999, 0.707296, 0.318522, 0.244765, 0.07926, 0.256343, 0.086884, 0.291823, 0.928871, 0.444531, 0.566913, 0.391472, 0.779807, 0.617081, 0.152598, 0.475513, 0.641443, 0.099686, 0.261981, 0.374669, 0.843907, 0.248091, 0.48417, 0.043143, 0.644334, 0.737286, 0.929358, 0.257239, 0.391926, 0.125086, 0.679399, 0.791758, 0.111815, 0.316198, 0.485138, 0.549154, 0.25391, 0.792204, 0.189363, 0.494751, 0.69002, 0.7343420000000001, 0.175075, 0.010116, 0.584523, 0.748293, 0.9416369999999999, 0.136208, 0.54719, 0.25929, 0.653436, 0.791243, 0.359769, 0.721023, 0.661087];
soc = [7.887996, 7.427571, 7.201615, 8.775783000000001, 7.166306, 6.237831, 7.304687, 2.897405, 10.36211, 7.515139, 5.901786, 10.122493, 7.980434, 5.288809, 7.649599, 8.199510999999999, 11.227338, 15.10934, 5.43827, 14.178951, 14.78472, 2.768, 8.983727, 3.553007, 8.550960999999999, 4.743882, 10.746237, 11.599185, 10.603434, 9.450727000000001, 11.071077, 6.111038, 14.773993, 10.348432, 3.04998, 10.955273, 10.101374, 15.470314, 5.737922, 13.067203, 4.574466, 8.148547000000001, 11.99447, 13.242186, 3.449246, 8.050913, 6.223577, 14.200708, 7.276192, 9.626077, 15.109753, 3.836305, 6.991176, 14.146792, 11.8298, 7.745328, 4.245529, 8.44595, 13.90844, 2.668486, 3.894163, 11.546707, 7.651577, 14.387586, 13.651624, 13.543783, 8.377478999999999, 15.407779, 14.907158, 14.359348, 8.022748999999999, 11.814144, 13.181767, 11.918174, 6.812244, 11.346539, 3.386086, 3.200142, 11.014352, 8.461774, 7.573657, 8.300822, 4.310676, 9.951036, 10.056527, 4.908859, 7.185451, 14.532269, 13.34903, 6.720808, 11.862197, 10.303522, 15.370299, 11.645545, 3.527911, 8.086199000000001];
cost = [162.384315, 310.478464, 183.878173, 373.38063, 451.500066, 167.878371, 379.852889, 577.838156, 362.232191, 443.513277, 91.68688299999999, 478.783764, 563.708107, 514.538556, 233.261334, 312.516181, 190.922249, 508.761262, 204.000404, 314.800669, 215.144244, 81.700828, 158.251034, 597.844772, 687.9359490000001, 846.797225, 52.612749, 963.43362, 965.434761, 1183.298099, 21.989718, 737.791411, 50.552236, 649.92459, 845.447121, 817.82547, 484.994086, 751.979298, 909.307721, 1103.933759, 494.042964, 835.576801, 368.230183, 381.51888, 756.916383, 597.563819, 976.651144, 734.009037, 210.252873, 442.727427, 1064.058315, 751.668989, 586.190235, 210.075255, 129.604855, 13.51961, 169.730269, 345.77656, 371.898045, 62.725576, 469.156266, 1045.301138, 522.359319, 472.436078, 991.8969049999999, 816.058707, 947.58907, 669.882891, 267.052031, 1065.578978, 600.059759, 549.83032, 1027.709142, 1116.723891, 1169.058464, 179.593228, 1138.948808, 101.683372, 496.195031, 300.099268, 413.858186, 1013.630787, 1038.590996, 680.458118, 1099.525545, 929.265207, 678.776596, 485.629377, 34.002339, 98.14762, 54.745333, 282.082938, 129.085214, 428.104705, 117.580373, 486.409883];
earn = [2.345989, 1.243429, 2.278323, 0.147498, 1.246885, 0.160457, 1.066579, 2.178424, 1.286268, 0.207385, 1.837557, 0.460534, 1.40249, 0.8000350000000001, 1.259454, 0.093016, 1.287528, 1.799189, 1.0419, 1.302963, 0.137446, 2.160708, 2.071638, 1.952191, 1.157041, 2.98561, 0.985544, 0.8513500000000001, 0.456308, 0.928692, 1.944869, 0.032898, 2.258608, 1.017221, 1.581645, 2.111357, 0.9626, 1.391632, 1.967121, 1.257189, 2.487477, 1.062592, 1.326384, 1.656293, 0.434668, 1.675701, 1.808668, 0.375283, 1.001813, 2.184137, 1.858738, 0.424155, 0.07943799999999999, 0.357928, 0.274892, 0.725083, 1.791259, 1.626414, 1.719504, 1.573172, 1.12424, 1.59769, 1.879392, 1.276627, 0.781134, 1.001152, 1.749819, 0.513808, 0.688369, 0.211191, 0.476375, 0.764775, 0.366762, 1.87959, 0.9529, 1.747819, 3.202828, 3.241205, 0.796311, 0.14632, 0.461688, 1.517016, 3.390964, 1.182808, 0.8236329999999999, 1.6657, 1.951558, 0.552931, 0.959577, 2.133377, 2.867957, 1.417246, 1.81349, 1.986484, 1.56227, 2.497899];
total_cost = 54.58711672613634;
total_earn = 21.39451020066669;
