production = [0.0, 0.0, 0.0, 0.0, 0.0, 0.0, 0.0, 0.0, 0.0, 0.0, 0.0, 0.0, 0.0, 0.0, 0.0, 0.0, 0.0, 0.0, 0.0, 0.0, 0.0, 0.0, 0.0, 0.0, 0.0, 0.000112, 0.001256, 0.006429, 0.022931, 0.033092, 0.051579, 0.073909, 0.173923, 0.08090600000000001, 0.129056, 0.049736, 0.281138, 0.55621, 0.01491, 0.450534, 0.392064, 0.573837, 0.363546, 1.498468, 0.781344, 0.5591120000000001, 0.399711, 1.305445, 0.156681, 0.475761, 0.670126, 0.608585, 0.339455, 0.003665, 0.04393, 0.195417, 0.168851, 0.245146, 0.281926, 0.139422, 0.215232, 0.168285, 0.230221, 0.772649, 0.425973, 0.255464, 0.011298, 0.411273, 0.26347, 0.423466, 0.162111, 0.026334, 0.030128, 0.030534, 0.032985, 0.020377, 0.011018, 0.00501, 0.00019, 0.000361, 0.000217, 0.0, 0.0, 0.0, 0.0, 0.0, 0.0, 0.0, 0.0, 0.0, 0.0, 0.0, 0.0, 0.0, 0.0, 0.0];
buy = [855.62065, 964.7906809999999, 727.918852, 743.330361, 257.823851, 897.913846, 790.268875, 339.995573, 749.565959, 921.353277, 403.316908, 839.614195, 517.930788, 825.155929, 501.958202, 926.433564, 39.896224, 280.833665, 914.829176, 747.256891, 80.684826, 831.882642, 578.022335, 523.195926, 75.402323, 378.023006, 710.801556, 673.999341, 366.832677, 156.5348, 760.948834, 609.41327, 668.911714, 511.619145, 16.470523, 769.915198, 62.115894, 868.129367, 57.441712, 677.893412, 362.029698, 916.924931, 197.19919, 439.233196, 235.757466, 67.55529900000001, 964.2056219999999, 361.103179, 771.79766, 430.995726, 126.843915, 497.809482, 520.786841, 130.969133, 739.085495, 570.729339, 667.852423, 253.963662, 901.5570729999999, 45.659811, 507.054327, 27.611442, 88.23716899999999, 73.77361000000001, 695.358429, 878.629409, 286.491064, 299.794101, 326.193516, 266.112926, 354.714142, 907.927205, 617.655386, 465.438532, 488.435172, 712.6112419999999, 568.5676999999999, 891.86784, 781.190037, 631.7627230000001, 343.977615, 435.705961, 415.431401, 519.602541, 532.222595, 759.247433, 488.370137, 314.872959, 694.946198, 946.883692, 594.863098, 58.830552, 88.64546799999999, 828.630547, 607.656916, 162.809301];
sell = [0.188223, 0.594913, 3.438847, 2.838366, 3.408237, 3.443312, 0.570082, 0.587867, 3.135166, 1.073361, 3.418439, 1.868943, 2.109352, 0.068037, 3.278153, 2.321112, 3.635801, 3.911909, 1.589714, 2.22848, 2.147419, 2.130925, 0.56496, 1.447832, 0.274144, 3.573116, 2.862588, 3.456933, 1.488599, 0.167885, 0.459564, 1.882535, 3.206639, 1.248948, 2.106756, 1.977454, 0.753534, 0.184696, 3.951636, 0.744436, 0.898021, 0.378069, 0.850955, 3.016985, 2.506831, 1.369354, 1.642611, 1.890465, 3.681399, 3.227531, 1.288159, 3.498995, 3.613257, 3.538083, 0.033392, 2.717417, 3.935315, 2.811804, 0.544506, 0.990572, 1.571938, 3.62834, 2.925495, 1.251317, 0.833498, 1.413712, 2.90055, 1.408378, 3.75756, 2.777682, 0.243417, 3.460542, 0.438476, 3.599874, 3.789405, 1.220712, 1.753795, 1.702298, 3.521299, 2.477625, 3.237303, 1.422475, 3.233218, 3.096968, 0.729727, 2.518051, 0.851249, 3.749279, 0.935038, 3.292554, 2.263406, 2.548267, 2.502136, 3.974414, 2.133479, 1.807607];
charge = [0.044022, 0.065054, 0.175656, 0.406371, 0.869074, 0.769597, 0.336595, 0.9059430000000001, 0.09571300000000001, 0.396624, 0.131459, 0.522939, 0.516056, 0.78654, 0.714641, 0.99773, 0.202343, 0.824769, 0.929785, 0.013674, 0.321101, 0.917647, 0.353394, 0.09837799999999999, 0.27034, 0.88476, 0.86948, 0.229605, 0.074916, 0.124011, 0.756718, 0.7446, 0.203076, 0.189998, 0.565774, 0.9212320000000001, 0.712208, 0.996282, 0.837951, 0.160921, 0.604897, 0.180423, 0.152395, 0.918727, 0.461412, 0.137552, 0.581472, 0.963483, 0.778829, 0.68698, 0.879559, 0.103292, 0.479071, 0.259079, 0.603773, 0.195757, 0.97641, 0.51332, 0.450232, 0.121585, 0.587485, 0.43512, 0.154883, 0.696538, 0.168244, 0.573766, 0.536429, 0.008241999999999999, 0.375602, 0.534245, 0.220935, 0.490095, 0.887913, 0.244763, 0.256228, 0.276827, 0.295693, 0.651525, 0.719258, 0.665879, 0.658349, 0.00747, 0.226125, 0.11621, 0.817972, 0.783895, 0.519289, 0.566532, 0.055426, 0.33122, 0.299767, 0.406194, 0.381317, 0.493446, 0.008003, 0.321621];
discharge = [0.495803, 0.739398, 0.567347, 0.315334, 0.995748, 0.813624, 0.892815, 0.755761, 0.939099, 0.732818, 0.154508, 0.008794, 0.057468, 0.616569, 0.9581, 0.8192160000000001, 0.534226, 0.325885, 0.192936, 0.52437, 0.050993, 0.864561, 0.843321, 0.298037, 0.589009, 0.459003, 0.029628, 0.665916, 0.9044219999999999, 0.924724, 0.843924, 0.027301, 0.888032, 0.223822, 0.40752, 0.199392, 0.402759, 0.127726, 0.423367, 0.254978, 0.396356, 0.259374, 0.697277, 0.612291, 0.266494, 0.823763, 0.946553, 0.467225, 0.977251, 0.228349, 0.030557, 0.770138, 0.635184, 0.285081, 0.900357, 0.570764, 0.7512450000000001, 0.037082, 0.022123, 0.387187, 0.038388, 0.799885, 0.736024, 0.823647, 0.919745, 0.924952, 0.537909, 0.148548, 0.052834, 0.9056920000000001, 0.359619, 0.6681319999999999, 0.185969, 0.947223, 0.76052, 0.53299, 0.868035, 0.499458, 0.41136, 0.144753, 0.225737, 0.911002, 0.414617, 0.721955, 0.4803, 0.180745, 0.585143, 0.766583, 0.806433, 0.752629, 0.824159, 0.243676, 0.229577, 0.465077, 0.699559, 0.174405];
soc = [8.986883000000001, 9.189043, 6.840723, 5.751045, 8.469863, 10.79855, 13.200868, 12.753304, 13.647794, 7.678454, 12.642095, 3.364195, 12.377081, 11.943283, 15.588921, 12.907099, 4.801745, 14.120995, 5.392234, 14.953617, 12.824758, 13.138162, 12.46532, 11.853424, 15.211345, 6.873127, 10.226211, 9.808398, 14.514577, 7.112518, 6.892748, 6.983797, 11.51857, 7.490665, 12.972453, 6.709813, 6.162606, 11.643229, 6.96441, 14.924678, 4.881188, 3.944494, 10.261633, 9.179751, 8.208306, 13.396342, 3.108033, 5.683203, 6.505501, 13.773218, 13.510556, 5.75837, 7.512884, 3.031106, 12.549034, 12.197567, 9.78989, 5.43992, 10.321053, 6.487085, 12.843024, 5.134378, 2.875273, 7.991159, 6.401588, 14.692549, 9.197869000000001, 3.088697, 5.128156, 9.052375, 12.218741, 3.346409, 9.024495, 8.297530999999999, 10.161249, 8.040452999999999, 9.920332999999999, 15.666677, 10.508706, 4.142884, 6.017766, 15.533941, 11.035724, 4.52137, 13.515394, 3.505658, 13.861903, 10.466538, 6.440811, 11.620545, 6.779044, 13.454912, 7.775994, 8.6214, 12.321518, 7.587199];
cost = [166.882107, 387.247734, 439.18804, 326.270661, 427.970154, 35.091402, 564.10617, 210.39366, 287.797999, 469.292835, 593.359272, 540.582663, 269.622177, 262.550336, 239.120598, 91.98692, 420.128527, 16.091661, 157.234976, 507.002079, 184.363051, 131.166276, 302.248296, 329.727889, 134.486777, 553.522709, 72.981205, 332.083922, 907.739135, 584.822794, 1184.190879, 848.596408, 571.838466, 790.033142, 348.659381, 1133.501475, 1151.481123, 796.513866, 714.6554620000001, 232.755478, 1021.62672, 472.28542, 481.730873, 1007.781304, 446.797337, 105.931943, 501.94177, 1034.088612, 476.352359, 264.863769, 1188.499406, 805.631083, 83.83384599999999, 594.608826, 8.183581, 234.810089, 179.264829, 184.644969, 113.297959, 468.649696, 1121.114458, 490.37509, 77.735546, 569.017499, 138.270001, 960.666242, 23.978968, 804.668628, 993.800795, 373.798783, 235.137241, 1000.954026, 30.675332, 746.2442150000001, 1068.938059, 618.24815, 636.257863, 766.210056, 1002.436321, 617.006736, 958.0821560000001, 277.453346, 999.406727, 740.77468, 222.044409, 420.149603, 367.605615, 396.35762, 396.560949, 590.159406, 583.858887, 25.622927, 75.87216100000001, 520.608926, 423.939553, 558.657771];
earn = [1.811093, 0.661656, 1.07289, 0.988968, 1.337637, 1.586744, 0.810358, 2.035501, 2.083928, 1.505182, 0.08420999999999999, 0.554213, 1.698987, 0.7262729999999999, 0.264703, 1.733522, 2.193712, 0.423802, 0.217623, 1.582167, 1.871459, 1.233797, 1.36375, 2.529415, 1.321159, 1.639203, 0.095128, 1.039357, 1.421504, 3.538814, 0.365272, 3.223228, 0.977541, 2.564369, 1.875766, 0.292572, 1.409039, 1.772798, 0.377807, 1.443503, 2.413549, 1.912525, 0.514047, 2.231781, 0.050269, 2.128318, 1.041987, 1.937749, 1.290367, 1.470472, 0.353283, 2.090977, 0.418489, 1.978871, 0.6866449999999999, 1.01902, 1.54592, 0.870275, 1.883898, 0.671633, 1.090882, 0.531744, 2.068317, 1.274157, 1.792364, 0.826393, 0.79299, 2.065187, 1.453232, 0.461069, 0.970151, 0.314227, 1.603088, 2.869589, 0.897238, 0.154292, 2.332827, 2.709106, 0.824642, 0.795921, 0.181958, 1.849584, 1.784533, 2.410225, 2.646951, 2.278441, 1.065616, 1.481087, 2.545623, 1.618143, 2.604735, 2.538436, 0.476363, 2.224398, 1.903106, 0.331805];
total_cost = 44.12454096383807;
total_earn = 23.45776331333335;
% _objective = 20.66677765050472;
