production = [0: 0.0, 1: 0.0, 2: 0.0, 3: 0.0, 4: 0.0, 5: 0.0, 6: 0.0, 7: 0.0, 8: 0.0, 9: 0.0, 10: 0.0, 11: 0.0, 12: 0.0, 13: 0.0, 14: 0.0, 15: 0.0, 16: 0.0, 17: 0.0, 18: 0.0, 19: 0.0, 20: 0.0, 21: 0.0, 22: 0.0, 23: 0.0, 24: 0.0, 25: 6.4e-05, 26: 0.000102, 27: 0.005509, 28: 0.005425, 29: 0.019006, 30: 0.047658, 31: 0.024376, 32: 0.166129, 33: 0.015347, 34: 0.126554, 35: 0.164697, 36: 0.215198, 37: 0.489228, 38: 0.252517, 39: 0.235252, 40: 0.322925, 41: 0.709111, 42: 0.884568, 43: 1.941446, 44: 0.05036, 45: 0.729287, 46: 0.262331, 47: 0.904049, 48: 0.518459, 49: 0.147871, 50: 0.773356, 51: 0.604032, 52: 0.601631, 53: 0.00907, 54: 0.063234, 55: 0.064884, 56: 0.060314, 57: 0.197459, 58: 0.369172, 59: 0.526799, 60: 0.252669, 61: 0.049969, 62: 0.06878099999999999, 63: 0.249425, 64: 0.277855, 65: 0.580589, 66: 0.09436, 67: 0.283064, 68: 0.196306, 69: 0.385296, 70: 0.176452, 71: 0.059399, 72: 0.053674, 73: 0.128096, 74: 0.113231, 75: 0.030569, 76: 0.027939, 77: 0.003416, 78: 0.000528, 79: 0.000495, 80: 7.8e-05, 81: 0.0, 82: 0.0, 83: 0.0, 84: 0.0, 85: 0.0, 86: 0.0, 87: 0.0, 88: 0.0, 89: 0.0, 90: 0.0, 91: 0.0, 92: 0.0, 93: 0.0, 94: 0.0, 95: 0.0];
buy = [0: 761.66606, 1: 610.697977, 2: 668.900592, 3: 454.887622, 4: 920.277048, 5: 841.032238, 6: 806.4409020000001, 7: 726.831577, 8: 286.982606, 9: 725.456847, 10: 196.333789, 11: 687.987611, 12: 899.549783, 13: 339.064934, 14: 880.916949, 15: 286.795688, 16: 33.803614, 17: 698.290893, 18: 286.657713, 19: 989.547859, 20: 310.249283, 21: 927.961059, 22: 605.965236, 23: 621.884739, 24: 73.876706, 25: 900.51203, 26: 616.597202, 27: 622.847568, 28: 860.357798, 29: 8.747396, 30: 816.182857, 31: 813.377136, 32: 452.348912, 33: 855.040357, 34: 88.887748, 35: 601.490852, 36: 311.03743, 37: 952.510351, 38: 176.053281, 39: 320.641134, 40: 459.934597, 41: 271.581692, 42: 738.651883, 43: 43.17189, 44: 295.857895, 45: 249.805253, 46: 53.506702, 47: 473.596987, 48: 41.897322, 49: 759.088385, 50: 288.229523, 51: 825.678368, 52: 234.887171, 53: 682.164565, 54: 445.341559, 55: 156.511857, 56: 371.877226, 57: 197.887931, 58: 972.106672, 59: 198.252166, 60: 323.080114, 61: 177.39042, 62: 875.378586, 63: 25.524523, 64: 703.733022, 65: 370.075817, 66: 873.442945, 67: 708.694695, 68: 325.808276, 69: 909.836582, 70: 569.681907, 71: 378.61139, 72: 372.623096, 73: 397.420969, 74: 78.092895, 75: 707.180007, 76: 721.635685, 77: 921.299998, 78: 37.249237, 79: 735.503251, 80: 96.745553, 81: 121.086559, 82: 843.449474, 83: 964.64055, 84: 456.987802, 85: 592.773502, 86: 885.248933, 87: 801.316551, 88: 261.364214, 89: 33.674388, 90: 251.349455, 91: 873.565968, 92: 78.725943, 93: 767.468985, 94: 100.110237, 95: 675.092529];
sell = [0: 1.560143, 1: 2.61748, 2: 0.391014, 3: 0.972402, 4: 3.765397, 5: 1.903536, 6: 0.170325, 7: 3.735452, 8: 2.57673, 9: 1.802596, 10: 0.322987, 11: 1.75676, 12: 2.09051, 13: 0.118126, 14: 2.439073, 15: 0.424988, 16: 2.338607, 17: 0.255503, 18: 2.991727, 19: 3.064943, 20: 0.031934, 21: 2.181198, 22: 3.684127, 23: 3.34307, 24: 0.865421, 25: 2.246916, 26: 1.499093, 27: 2.057755, 28: 3.744441, 29: 3.817489, 30: 2.268853, 31: 0.9659990000000001, 32: 2.654115, 33: 0.975446, 34: 3.267647, 35: 2.046427, 36: 0.260126, 37: 0.784628, 38: 1.722529, 39: 3.891311, 40: 3.103933, 41: 2.441677, 42: 2.333051, 43: 3.093205, 44: 2.995021, 45: 0.513703, 46: 2.589369, 47: 2.700884, 48: 0.011111, 49: 2.257342, 50: 3.414301, 51: 2.541025, 52: 0.837523, 53: 0.579021, 54: 2.152033, 55: 1.955273, 56: 2.9343, 57: 3.884234, 58: 0.21751, 59: 3.392471, 60: 1.602733, 61: 3.854011, 62: 0.209971, 63: 3.709089, 64: 0.591639, 65: 1.286939, 66: 0.328358, 67: 1.249218, 68: 0.742256, 69: 2.172432, 70: 0.100919, 71: 3.734117, 72: 1.438734, 73: 3.336683, 74: 1.444016, 75: 0.988321, 76: 0.830346, 77: 0.090617, 78: 1.957104, 79: 1.664871, 80: 2.697209, 81: 3.843025, 82: 1.271289, 83: 1.180687, 84: 3.400919, 85: 3.24024, 86: 3.663441, 87: 1.792921, 88: 3.186882, 89: 2.028463, 90: 3.409759, 91: 1.350001, 92: 3.985948, 93: 1.401016, 94: 3.551076, 95: 3.468604];
charge = [0: 0.09457400000000001, 1: 0.94623, 2: 0.888537, 3: 0.028338, 4: 0.546127, 5: 0.543969, 6: 0.171715, 7: 0.708051, 8: 0.432276, 9: 0.478422, 10: 0.651047, 11: 0.407978, 12: 0.895183, 13: 0.175146, 14: 0.348152, 15: 0.880118, 16: 0.499224, 17: 0.64575, 18: 0.038591, 19: 0.354083, 20: 0.460298, 21: 0.188595, 22: 0.768933, 23: 0.600821, 24: 0.162883, 25: 0.25921, 26: 0.9160199999999999, 27: 0.903648, 28: 0.515417, 29: 0.416894, 30: 0.059649, 31: 0.5153450000000001, 32: 0.440928, 33: 0.268018, 34: 0.901622, 35: 0.467226, 36: 0.398931, 37: 0.495396, 38: 0.789373, 39: 0.302421, 40: 0.228274, 41: 0.072575, 42: 0.720139, 43: 0.227841, 44: 0.292354, 45: 0.895716, 46: 0.469933, 47: 0.330985, 48: 0.868684, 49: 0.280685, 50: 0.778022, 51: 0.606063, 52: 0.508565, 53: 0.144266, 54: 0.459646, 55: 0.9436020000000001, 56: 0.074462, 57: 0.746023, 58: 0.745256, 59: 0.997007, 60: 0.228754, 61: 0.240375, 62: 0.303564, 63: 0.369492, 64: 0.452152, 65: 0.262598, 66: 0.229561, 67: 0.307405, 68: 0.6629350000000001, 69: 0.333945, 70: 0.057594, 71: 0.666841, 72: 0.510711, 73: 0.351831, 74: 0.854136, 75: 0.215406, 76: 0.144355, 77: 0.450471, 78: 0.177133, 79: 0.838496, 80: 0.217424, 81: 0.720745, 82: 0.54779, 83: 0.859089, 84: 0.28718, 85: 0.680911, 86: 0.119049, 87: 0.48445, 88: 0.8707819999999999, 89: 0.329736, 90: 0.292755, 91: 0.175256, 92: 0.359775, 93: 0.56701, 94: 0.42824, 95: 0.054361];
discharge = [0: 0.258301, 1: 0.779307, 2: 0.69911, 3: 0.5032140000000001, 4: 0.108426, 5: 0.689184, 6: 0.918367, 7: 0.357063, 8: 0.304228, 9: 0.994469, 10: 0.080737, 11: 0.907651, 12: 0.156081, 13: 0.020004, 14: 0.180805, 15: 0.133003, 16: 0.896629, 17: 0.060112, 18: 0.296945, 19: 0.006243, 20: 0.719255, 21: 0.430848, 22: 0.265698, 23: 0.249458, 24: 0.241161, 25: 0.289246, 26: 0.577735, 27: 0.307004, 28: 0.615999, 29: 0.006228, 30: 0.008977000000000001, 31: 0.940947, 32: 0.20344, 33: 0.95762, 34: 0.42204, 35: 0.530988, 36: 0.53033, 37: 0.684344, 38: 0.809937, 39: 0.751261, 40: 0.735459, 41: 0.351154, 42: 0.573096, 43: 0.138943, 44: 0.071991, 45: 0.844282, 46: 0.201699, 47: 0.474358, 48: 0.621651, 49: 0.660107, 50: 0.366385, 51: 0.828854, 52: 0.7778040000000001, 53: 0.987582, 54: 0.469396, 55: 0.641579, 56: 0.411319, 57: 0.945542, 58: 0.243825, 59: 0.058113, 60: 0.925052, 61: 0.168402, 62: 0.486705, 63: 0.211999, 64: 0.145593, 65: 0.341765, 66: 0.3536, 67: 0.5401359999999999, 68: 0.871752, 69: 0.941625, 70: 0.75843, 71: 0.09406200000000001, 72: 0.055749, 73: 0.075229, 74: 0.137447, 75: 0.058126, 76: 0.250071, 77: 0.32499, 78: 0.979145, 79: 0.48529, 80: 0.415573, 81: 0.911202, 82: 0.49429, 83: 0.035315, 84: 0.517307, 85: 0.970293, 86: 0.663218, 87: 0.08338, 88: 0.902997, 89: 0.455189, 90: 0.672256, 91: 0.55458, 92: 0.724925, 93: 0.023428, 94: 0.717781, 95: 0.879868];
soc = [0: 8.670334, 1: 6.566454, 2: 9.611407, 3: 5.89506, 4: 3.523286, 5: 7.897648, 6: 6.531029, 7: 4.777484, 8: 10.410158, 9: 8.710329, 10: 15.59536, 11: 5.337376, 12: 11.052653, 13: 7.87622, 14: 12.421894, 15: 12.319499, 16: 11.117375, 17: 10.499741, 18: 11.89385, 19: 8.603747, 20: 5.266108, 21: 5.797029, 22: 11.986989, 23: 2.755642, 24: 3.937225, 25: 10.30254, 26: 7.415453, 27: 10.772902, 28: 13.475607, 29: 13.208134, 30: 8.777342000000001, 31: 12.159002, 32: 4.824365, 33: 7.310327, 34: 5.947474, 35: 7.212325, 36: 5.947783, 37: 15.077032, 38: 11.514977, 39: 11.921541, 40: 7.887171, 41: 4.052123, 42: 4.971637, 43: 9.427446, 44: 9.756384000000001, 45: 5.321254, 46: 15.588739, 47: 4.556049, 48: 8.165414999999999, 49: 3.315092, 50: 10.876276, 51: 8.941462, 52: 11.57679, 53: 9.709311, 54: 10.719338, 55: 7.447511, 56: 3.645776, 57: 5.492057, 58: 14.024512, 59: 13.539091, 60: 5.965926, 61: 6.287446, 62: 11.356991, 63: 14.163894, 64: 5.241081, 65: 6.820814, 66: 15.405591, 67: 6.950476, 68: 9.549071, 69: 15.326174, 70: 11.814981, 71: 7.785205, 72: 11.080068, 73: 13.865133, 74: 10.202034, 75: 12.685654, 76: 5.636821, 77: 10.301634, 78: 15.235599, 79: 14.484345, 80: 4.884049, 81: 14.519953, 82: 10.141145, 83: 8.967838, 84: 2.656725, 85: 6.07389, 86: 9.395314000000001, 87: 12.016203, 88: 4.430213, 89: 10.770712, 90: 13.972196, 91: 5.033841, 92: 10.686729, 93: 13.074487, 94: 12.021491, 95: 8.392326000000001];
cost = [0: 415.883481, 1: 598.925029, 2: 561.461584, 3: 492.419822, 4: 9.363778, 5: 80.995829, 6: 169.876548, 7: 205.566381, 8: 129.098224, 9: 201.323055, 10: 568.173901, 11: 378.903484, 12: 478.692297, 13: 516.64184, 14: 375.320639, 15: 327.406227, 16: 97.931877, 17: 2.24771, 18: 378.189143, 19: 373.638335, 20: 74.5787, 21: 205.504783, 22: 305.330597, 23: 310.057148, 24: 637.676036, 25: 781.236354, 26: 604.979473, 27: 54.172563, 28: 338.194846, 29: 92.11854200000001, 30: 846.021001, 31: 767.430315, 32: 383.995829, 33: 904.78371, 34: 68.581326, 35: 1116.637674, 36: 494.164355, 37: 909.188731, 38: 659.520048, 39: 240.159045, 40: 96.1407, 41: 270.705213, 42: 391.047711, 43: 93.371589, 44: 997.791073, 45: 204.67402, 46: 215.006304, 47: 422.527664, 48: 237.788108, 49: 420.146151, 50: 162.246246, 51: 900.66164, 52: 577.734595, 53: 312.934517, 54: 594.88805, 55: 598.762077, 56: 330.701713, 57: 276.145292, 58: 338.00748, 59: 194.197067, 60: 863.027406, 61: 982.081275, 62: 800.369849, 63: 188.067012, 64: 1182.752725, 65: 251.893298, 66: 991.668526, 67: 1005.689522, 68: 850.278428, 69: 632.644062, 70: 10.774527, 71: 494.922815, 72: 609.070296, 73: 265.135025, 74: 1184.599054, 75: 765.663058, 76: 766.03987, 77: 1049.045218, 78: 1157.602365, 79: 314.270831, 80: 5.781348, 81: 19.225887, 82: 682.614356, 83: 219.405882, 84: 952.369886, 85: 445.809497, 86: 137.105907, 87: 989.563734, 88: 403.671234, 89: 114.754503, 90: 131.690794, 91: 371.534677, 92: 463.20457, 93: 107.874962, 94: 215.580353, 95: 423.101819];
earn = [0: 0.645737, 1: 2.247844, 2: 1.053006, 3: 1.856932, 4: 1.744988, 5: 0.86485, 6: 1.753708, 7: 1.359997, 8: 2.066405, 9: 1.871809, 10: 0.948462, 11: 1.892744, 12: 1.595624, 13: 0.62912, 14: 1.169478, 15: 0.662886, 16: 0.590174, 17: 1.714087, 18: 0.737134, 19: 1.932212, 20: 1.380295, 21: 0.291764, 22: 1.042625, 23: 0.545848, 24: 2.700169, 25: 1.204853, 26: 2.21748, 27: 3.286613, 28: 0.987353, 29: 0.715412, 30: 3.001993, 31: 0.238549, 32: 1.0987, 33: 2.184347, 34: 2.011519, 35: 0.870594, 36: 0.303281, 37: 2.651594, 38: 1.009478, 39: 1.931245, 40: 0.929626, 41: 0.209515, 42: 1.626647, 43: 0.345024, 44: 1.002712, 45: 0.290786, 46: 0.158924, 47: 1.707969, 48: 1.056651, 49: 1.76513, 50: 1.782311, 51: 1.769539, 52: 1.058115, 53: 0.690682, 54: 0.712067, 55: 0.870716, 56: 0.639809, 57: 1.1041, 58: 1.441997, 59: 1.079733, 60: 1.883734, 61: 1.212567, 62: 0.275254, 63: 0.06176, 64: 1.145453, 65: 1.032349, 66: 1.500646, 67: 1.69884, 68: 1.745827, 69: 2.359756, 70: 1.849399, 71: 0.450644, 72: 0.855003, 73: 2.067141, 74: 1.788488, 75: 2.375323, 76: 1.67834, 77: 3.620046, 78: 1.089107, 79: 2.916562, 80: 2.268205, 81: 0.350584, 82: 3.453456, 83: 2.526074, 84: 1.788105, 85: 2.434709, 86: 2.819293, 87: 0.001566, 88: 2.610067, 89: 1.065792, 90: 2.024241, 91: 0.424464, 92: 0.260876, 93: 1.431465, 94: 1.748244, 95: 2.740166];
total_cost = 48.20348658684758;
total_earn = 25.20529357190951;
