production = [0: 0.0, 1: 0.0, 2: 0.0, 3: 0.0, 4: 0.0, 5: 0.0, 6: 0.0, 7: 0.0, 8: 0.0, 9: 0.0, 10: 0.0, 11: 0.0, 12: 0.0, 13: 0.0, 14: 0.0, 15: 0.0, 16: 0.0, 17: 0.0, 18: 0.0, 19: 0.0, 20: 0.0, 21: 0.0, 22: 0.0, 23: 0.0, 24: 0.0, 25: 6.2e-05, 26: 0.000171, 27: 0.003678, 28: 0.000413, 29: 0.008651000000000001, 30: 0.004863, 31: 0.030795, 32: 0.080793, 33: 0.077305, 34: 0.186245, 35: 0.230909, 36: 0.043242, 37: 0.030576, 38: 0.168919, 39: 0.273591, 40: 0.009015, 41: 0.720549, 42: 0.891602, 43: 1.860508, 44: 0.684145, 45: 0.349251, 46: 1.274142, 47: 0.604582, 48: 0.261458, 49: 0.027358, 50: 0.181391, 51: 0.40941, 52: 0.379378, 53: 0.283469, 54: 0.21357, 55: 0.046458, 56: 0.225148, 57: 0.246459, 58: 0.370682, 59: 0.54867, 60: 0.061049, 61: 0.318952, 62: 0.785683, 63: 0.77717, 64: 0.587144, 65: 0.377675, 66: 0.164342, 67: 0.248319, 68: 0.074057, 69: 0.279812, 70: 0.148744, 71: 0.234423, 72: 0.049178, 73: 0.093621, 74: 0.037062, 75: 0.033498, 76: 0.015201, 77: 0.002503, 78: 0.00174, 79: 8.899999999999999e-05, 80: 0.000105, 81: 0.0, 82: 0.0, 83: 0.0, 84: 0.0, 85: 0.0, 86: 0.0, 87: 0.0, 88: 0.0, 89: 0.0, 90: 0.0, 91: 0.0, 92: 0.0, 93: 0.0, 94: 0.0, 95: 0.0];
buy = [0: 620.845444, 1: 780.382941, 2: 926.391193, 3: 783.813544, 4: 47.227551, 5: 132.83433, 6: 320.374126, 7: 561.314057, 8: 432.964077, 9: 865.9969170000001, 10: 596.183474, 11: 582.578338, 12: 793.647013, 13: 155.736779, 14: 125.775595, 15: 744.866682, 16: 907.180751, 17: 824.264031, 18: 32.679533, 19: 729.499687, 20: 663.751112, 21: 729.33677, 22: 198.412973, 23: 478.860667, 24: 252.634562, 25: 402.54459, 26: 723.858653, 27: 263.857046, 28: 538.490084, 29: 149.135792, 30: 325.639615, 31: 766.743789, 32: 286.178411, 33: 38.87103, 34: 481.290241, 35: 672.138716, 36: 480.681811, 37: 563.2236380000001, 38: 428.570158, 39: 421.759074, 40: 993.745403, 41: 480.449456, 42: 690.08014, 43: 476.075779, 44: 281.47244, 45: 404.569047, 46: 966.202772, 47: 359.983502, 48: 917.332493, 49: 356.446304, 50: 328.144711, 51: 257.300589, 52: 762.588436, 53: 645.736669, 54: 223.280297, 55: 689.026915, 56: 176.145062, 57: 538.3853350000001, 58: 123.380477, 59: 214.748901, 60: 238.989972, 61: 849.776506, 62: 182.416207, 63: 58.494779, 64: 342.617935, 65: 744.940522, 66: 728.615618, 67: 217.474312, 68: 622.931167, 69: 368.78952, 70: 990.929924, 71: 94.05908100000001, 72: 832.909985, 73: 290.207857, 74: 993.054585, 75: 506.490094, 76: 163.403264, 77: 466.831382, 78: 201.970689, 79: 503.50611, 80: 610.948353, 81: 885.2595710000001, 82: 148.019456, 83: 297.544985, 84: 255.310951, 85: 734.790365, 86: 643.585987, 87: 326.377814, 88: 942.249185, 89: 795.635719, 90: 646.467233, 91: 749.517183, 92: 260.119402, 93: 977.211516, 94: 702.1946390000001, 95: 924.35001];
sell = [0: 1.203059, 1: 2.123186, 2: 3.047781, 3: 1.476984, 4: 3.186756, 5: 0.914148, 6: 2.024671, 7: 3.947637, 8: 3.092439, 9: 2.022332, 10: 3.535698, 11: 1.639797, 12: 0.728944, 13: 0.372378, 14: 1.800436, 15: 2.151921, 16: 0.638279, 17: 0.193668, 18: 1.563499, 19: 0.751318, 20: 0.801448, 21: 1.665559, 22: 1.828148, 23: 0.994457, 24: 0.822084, 25: 2.83176, 26: 3.872997, 27: 0.57953, 28: 3.895655, 29: 3.303998, 30: 1.668222, 31: 2.254949, 32: 0.158339, 33: 1.454809, 34: 3.282691, 35: 0.690311, 36: 2.245148, 37: 3.414706, 38: 1.468842, 39: 2.553764, 40: 3.675446, 41: 0.082603, 42: 2.19723, 43: 0.274168, 44: 3.118998, 45: 1.719392, 46: 0.464927, 47: 1.651305, 48: 1.532856, 49: 1.221585, 50: 3.38153, 51: 1.545671, 52: 1.945934, 53: 0.87748, 54: 1.09935, 55: 3.624034, 56: 1.527135, 57: 2.408425, 58: 3.197612, 59: 2.057998, 60: 1.864858, 61: 2.06626, 62: 2.850092, 63: 3.699683, 64: 0.803773, 65: 3.960438, 66: 0.024308, 67: 3.864955, 68: 1.003248, 69: 0.851567, 70: 3.441664, 71: 1.033909, 72: 1.281659, 73: 0.189574, 74: 0.043676, 75: 2.724804, 76: 0.982565, 77: 1.844223, 78: 3.128193, 79: 0.892617, 80: 2.279932, 81: 2.004857, 82: 2.235045, 83: 0.285643, 84: 3.137758, 85: 2.882874, 86: 3.74482, 87: 0.164027, 88: 0.220214, 89: 0.788996, 90: 2.013272, 91: 2.372204, 92: 0.138111, 93: 3.096866, 94: 1.854881, 95: 0.250184];
charge = [0: 0.809153, 1: 0.445052, 2: 0.508914, 3: 0.610811, 4: 0.197362, 5: 0.728914, 6: 0.271233, 7: 0.803311, 8: 0.030865, 9: 0.704205, 10: 0.123649, 11: 0.988108, 12: 0.87358, 13: 0.937077, 14: 0.675153, 15: 0.697156, 16: 0.769649, 17: 0.611957, 18: 0.564479, 19: 0.285233, 20: 0.734244, 21: 0.594664, 22: 0.09685000000000001, 23: 0.376984, 24: 0.636943, 25: 0.139897, 26: 0.750733, 27: 0.5545099999999999, 28: 0.772405, 29: 0.243008, 30: 0.472182, 31: 0.613984, 32: 0.552826, 33: 0.192873, 34: 0.851029, 35: 0.787923, 36: 0.149699, 37: 0.504663, 38: 0.227703, 39: 0.672791, 40: 0.968264, 41: 0.877767, 42: 0.861179, 43: 0.109687, 44: 0.599739, 45: 0.851955, 46: 0.597093, 47: 0.010633, 48: 0.610832, 49: 0.776822, 50: 0.727347, 51: 0.663304, 52: 0.921559, 53: 0.617514, 54: 0.030944, 55: 0.4898, 56: 0.682732, 57: 0.522601, 58: 0.316411, 59: 0.677251, 60: 0.164081, 61: 0.30825, 62: 0.115355, 63: 0.982747, 64: 0.036179, 65: 0.07108299999999999, 66: 0.7291339999999999, 67: 0.770932, 68: 0.311944, 69: 0.010691, 70: 0.067112, 71: 0.410129, 72: 0.746201, 73: 0.7815569999999999, 74: 0.683738, 75: 0.854636, 76: 0.46085, 77: 0.479182, 78: 0.124453, 79: 0.857639, 80: 0.054805, 81: 0.143132, 82: 0.526289, 83: 0.262498, 84: 0.857687, 85: 0.08162999999999999, 86: 0.110734, 87: 0.899289, 88: 0.099133, 89: 0.85895, 90: 0.775536, 91: 0.182298, 92: 0.303694, 93: 0.20716, 94: 0.013622, 95: 0.367218];
discharge = [0: 0.543378, 1: 0.091326, 2: 0.544752, 3: 0.150964, 4: 0.36049, 5: 0.811354, 6: 0.604693, 7: 0.728831, 8: 0.799122, 9: 0.892899, 10: 0.318186, 11: 0.456227, 12: 0.838001, 13: 0.884043, 14: 0.319686, 15: 0.141632, 16: 0.182617, 17: 0.380193, 18: 0.951667, 19: 0.189725, 20: 0.017667, 21: 0.473212, 22: 0.071312, 23: 0.511561, 24: 0.668424, 25: 0.315357, 26: 0.820546, 27: 0.282371, 28: 0.242394, 29: 0.801246, 30: 0.54981, 31: 0.310966, 32: 0.803894, 33: 0.680612, 34: 0.928928, 35: 0.229759, 36: 0.110127, 37: 0.002678, 38: 0.7474229999999999, 39: 0.567591, 40: 0.293155, 41: 0.9040629999999999, 42: 0.487746, 43: 0.842187, 44: 0.278106, 45: 0.614942, 46: 0.313303, 47: 0.228262, 48: 0.185635, 49: 0.973795, 50: 0.414132, 51: 0.711831, 52: 0.043857, 53: 0.032207, 54: 0.549189, 55: 0.727757, 56: 0.111477, 57: 0.912704, 58: 0.391669, 59: 0.72274, 60: 0.270109, 61: 0.157993, 62: 0.708063, 63: 0.742652, 64: 0.107455, 65: 0.121821, 66: 0.398281, 67: 0.586132, 68: 0.274414, 69: 0.448948, 70: 0.125999, 71: 0.696765, 72: 0.67157, 73: 0.020333, 74: 0.7055, 75: 0.943429, 76: 0.600482, 77: 0.491885, 78: 0.457213, 79: 0.178217, 80: 0.146716, 81: 0.318495, 82: 0.421173, 83: 0.726472, 84: 0.775608, 85: 0.458702, 86: 0.139546, 87: 0.708117, 88: 0.187518, 89: 0.548297, 90: 0.358413, 91: 0.64198, 92: 0.871372, 93: 0.506925, 94: 0.544499, 95: 0.022073];
soc = [0: 7.71428, 1: 9.469927, 2: 6.706286, 3: 9.437678999999999, 4: 5.222357, 5: 6.194065, 6: 9.941893, 7: 13.88381, 8: 9.579800000000001, 9: 10.68154, 10: 9.9137, 11: 8.575199, 12: 2.862439, 13: 3.591799, 14: 15.356209, 15: 5.419039, 16: 10.507375, 17: 6.883779, 18: 6.815988, 19: 7.121976, 20: 14.293624, 21: 14.115502, 22: 3.54352, 23: 6.155939, 24: 13.302836, 25: 6.519041, 26: 8.69003, 27: 13.239998, 28: 6.046577, 29: 4.661845, 30: 12.585336, 31: 3.289872, 32: 3.653789, 33: 7.322987, 34: 14.774248, 35: 3.570115, 36: 8.893416, 37: 13.284811, 38: 8.801244000000001, 39: 7.603291, 40: 15.107654, 41: 13.869721, 42: 6.544585, 43: 8.666055, 44: 8.580830000000001, 45: 7.140234, 46: 8.041532999999999, 47: 11.160165, 48: 11.414538, 49: 4.699202, 50: 11.308207, 51: 15.141342, 52: 15.025742, 53: 10.782992, 54: 2.93368, 55: 7.637816, 56: 12.364106, 57: 2.822078, 58: 6.995767, 59: 12.861505, 60: 3.865925, 61: 9.539664999999999, 62: 11.614715, 63: 8.208505000000001, 64: 5.644599, 65: 10.007426, 66: 14.422824, 67: 13.647061, 68: 13.749887, 69: 3.94794, 70: 13.116139, 71: 15.666209, 72: 12.828447, 73: 10.870036, 74: 6.899546, 75: 2.768139, 76: 13.854559, 77: 7.876403, 78: 14.877346, 79: 8.395222, 80: 12.98547, 81: 7.187854, 82: 9.824101000000001, 83: 11.498768, 84: 10.234165, 85: 4.63882, 86: 5.163584, 87: 14.571643, 88: 7.390576, 89: 7.175146, 90: 3.147201, 91: 13.252891, 92: 4.896892, 93: 9.081369, 94: 13.715599, 95: 8.672093];
cost = [0: 191.936544, 1: 120.809855, 2: 599.4392360000001, 3: 603.537942, 4: 199.320166, 5: 264.200894, 6: 195.62049, 7: 261.213897, 8: 138.605337, 9: 568.970425, 10: 417.7958, 11: 566.147604, 12: 588.727023, 13: 84.50329000000001, 14: 261.607605, 15: 329.668719, 16: 13.309233, 17: 419.504495, 18: 379.370681, 19: 162.486594, 20: 167.277916, 21: 70.781808, 22: 102.083195, 23: 22.274539, 24: 1005.057638, 25: 237.370778, 26: 614.23637, 27: 225.575059, 28: 918.311606, 29: 293.511766, 30: 604.499012, 31: 1133.440368, 32: 692.124222, 33: 975.349557, 34: 145.966466, 35: 1075.542344, 36: 588.551973, 37: 1185.78279, 38: 662.829165, 39: 906.13742, 40: 609.683211, 41: 101.906049, 42: 906.146034, 43: 727.508243, 44: 777.668729, 45: 908.9908339999999, 46: 125.933651, 47: 536.944939, 48: 1038.937625, 49: 650.099212, 50: 184.179716, 51: 288.029796, 52: 78.515941, 53: 43.924635, 54: 163.90452, 55: 294.471653, 56: 564.335253, 57: 526.5493729999999, 58: 459.844572, 59: 349.465439, 60: 140.060427, 61: 1014.844954, 62: 925.270688, 63: 718.095296, 64: 736.291399, 65: 531.564216, 66: 1084.200257, 67: 1093.250266, 68: 1086.629819, 69: 180.308235, 70: 887.569885, 71: 196.114033, 72: 852.444171, 73: 582.913008, 74: 85.985829, 75: 109.911604, 76: 71.780176, 77: 1049.9384, 78: 693.553268, 79: 992.6230849999999, 80: 963.9638200000001, 81: 1139.571309, 82: 43.55082, 83: 218.307483, 84: 390.250228, 85: 971.603549, 86: 505.803318, 87: 701.301734, 88: 586.278844, 89: 179.076895, 90: 67.910477, 91: 277.445397, 92: 457.124037, 93: 455.024809, 94: 302.542014, 95: 224.266319];
earn = [0: 1.005668, 1: 1.676216, 2: 0.896564, 3: 1.476483, 4: 1.031827, 5: 2.122488, 6: 0.374764, 7: 1.858044, 8: 1.443283, 9: 1.488998, 10: 2.010879, 11: 1.231758, 12: 1.062597, 13: 1.387169, 14: 1.339124, 15: 1.405843, 16: 1.826664, 17: 1.294402, 18: 0.461033, 19: 1.558475, 20: 0.431678, 21: 0.79361, 22: 0.842668, 23: 2.328099, 24: 0.77632, 25: 1.578524, 26: 1.85953, 27: 3.300197, 28: 1.949247, 29: 0.317975, 30: 1.471495, 31: 2.697426, 32: 3.437358, 33: 1.396769, 34: 1.297276, 35: 2.683574, 36: 2.755773, 37: 2.159744, 38: 2.253235, 39: 0.27691, 40: 1.786501, 41: 0.724365, 42: 2.006075, 43: 2.202619, 44: 1.299256, 45: 2.116941, 46: 1.572545, 47: 0.81382, 48: 0.330126, 49: 1.786539, 50: 0.284256, 51: 0.983469, 52: 2.143064, 53: 0.9137420000000001, 54: 0.105754, 55: 1.830367, 56: 1.450038, 57: 1.01819, 58: 1.789574, 59: 0.713936, 60: 0.630391, 61: 1.202172, 62: 0.120442, 63: 2.057851, 64: 0.996789, 65: 0.363929, 66: 0.044255, 67: 0.41599, 68: 0.022368, 69: 0.877304, 70: 0.712871, 71: 0.950186, 72: 0.334406, 73: 1.958336, 74: 1.743393, 75: 0.831099, 76: 3.362542, 77: 3.125859, 78: 1.174738, 79: 1.494021, 80: 0.643544, 81: 1.648766, 82: 0.283634, 83: 1.990576, 84: 2.008368, 85: 1.021775, 86: 2.552028, 87: 0.979472, 88: 0.378879, 89: 1.06446, 90: 0.934426, 91: 1.437434, 92: 0.706827, 93: 2.407327, 94: 0.639277, 95: 1.575447];
total_cost = 41.03902993554816;
total_earn = 25.06343277167926;
