production = [0.0, 0.0, 0.0, 0.0, 0.0, 0.0, 0.0, 0.0, 0.0, 0.0, 0.0, 0.0, 0.0, 0.0, 0.0, 0.0, 0.0, 0.0, 0.0, 0.0, 0.0, 0.0, 0.0, 0.0, 0.0, 0.000425, 0.000596, 0.000423, 0.014069, 0.005694, 0.036374, 0.000337, 0.121407, 0.029584, 0.118521, 0.143206, 0.134133, 0.477978, 0.489828, 0.016381, 0.313815, 0.402541, 1.133555, 1.75891, 0.796215, 0.660626, 1.761236, 1.281129, 0.046589, 0.53178, 0.170424, 0.06073, 0.103687, 0.277314, 0.138294, 0.194218, 0.344663, 0.159044, 0.006216, 0.145256, 0.162514, 0.125539, 0.685302, 0.699511, 0.394018, 0.582494, 0.361045, 1.202414, 0.285541, 0.381876, 0.014111, 0.125107, 0.043137, 0.09869699999999999, 0.08522100000000001, 0.046287, 0.010232, 0.005431, 0.000121, 7e-06, 0.000165, 0.0, 0.0, 0.0, 0.0, 0.0, 0.0, 0.0, 0.0, 0.0, 0.0, 0.0, 0.0, 0.0, 0.0, 0.0];
buy = [573.729334, 893.893013, 520.522907, 445.488059, 43.715492, 833.996398, 980.639137, 278.005893, 496.656203, 615.68006, 596.126771, 158.193287, 563.451204, 114.888686, 252.145299, 554.53198, 971.060457, 640.11461, 796.5810729999999, 677.407046, 965.803792, 460.275042, 2.42001, 152.203179, 630.073356, 736.901757, 346.793809, 812.974062, 2.131629, 383.52601, 137.149932, 272.66455, 649.137238, 844.3183289999999, 680.45803, 275.746347, 428.171296, 379.906985, 988.7105299999999, 307.174838, 48.633484, 286.386787, 589.09462, 415.195914, 528.516843, 233.456649, 534.549474, 238.408152, 758.153906, 918.893235, 607.4078469999999, 722.167538, 797.881618, 210.516312, 671.489449, 593.634134, 608.969296, 239.940462, 329.785301, 502.005596, 433.805143, 118.96241, 925.911573, 838.92738, 8.599304, 920.369353, 751.893521, 422.183503, 25.403926, 369.880931, 8.885066, 354.672881, 636.698054, 326.705355, 57.197601, 825.971526, 401.829047, 381.000943, 384.195124, 900.3035640000001, 753.004729, 668.964858, 374.790756, 518.4820580000001, 477.084156, 946.8252660000001, 503.257129, 572.1360570000001, 386.257325, 154.264081, 783.298826, 711.35387, 317.611336, 488.361804, 386.085869, 197.361883];
sell = [3.127007, 1.501265, 2.688588, 0.052995, 1.485134, 1.314119, 3.035018, 3.28062, 3.611658, 1.032066, 2.397881, 0.263498, 2.234413, 0.211331, 1.675271, 1.420792, 1.409153, 3.039758, 2.859976, 0.021271, 3.477471, 2.669681, 1.007757, 0.365347, 1.329611, 3.027598, 1.389674, 0.326385, 2.68795, 0.175133, 2.221294, 2.207785, 0.658601, 3.031885, 0.171486, 3.011105, 0.804239, 2.737134, 0.180787, 3.662553, 2.618443, 2.313423, 0.72433, 0.259788, 0.577445, 1.830037, 3.442441, 2.894509, 1.925185, 2.450848, 0.692658, 1.411077, 2.188953, 3.98151, 1.746151, 3.414847, 3.203137, 1.09055, 2.513475, 0.078871, 0.980702, 0.246372, 3.371304, 1.629738, 1.546955, 2.651489, 3.639261, 2.541713, 2.498831, 1.262949, 2.143525, 2.391347, 1.951962, 3.502642, 2.519727, 2.363152, 3.57791, 3.025663, 1.393034, 2.865685, 1.374837, 0.124105, 1.986183, 1.913938, 3.397584, 0.938443, 1.059821, 0.785465, 3.83643, 2.140362, 3.365045, 2.891808, 0.072724, 2.859238, 2.806831, 3.773609];
charge = [0.08318200000000001, 0.114946, 0.636567, 0.121827, 0.834612, 0.240903, 0.950536, 0.915604, 0.535789, 0.001007, 0.541206, 0.183827, 0.9888400000000001, 0.69937, 0.843065, 0.149003, 0.22279, 0.178919, 0.231618, 0.302211, 0.908245, 0.027655, 0.398947, 0.31639, 0.477393, 0.367369, 0.105979, 0.444454, 0.339705, 0.06861, 0.849008, 0.39847, 0.097924, 0.843997, 0.97435, 0.699872, 0.000949, 0.280647, 0.251727, 0.615049, 0.34614, 0.096291, 0.052961, 0.082917, 0.586234, 0.627224, 0.615188, 0.269923, 0.07367600000000001, 0.165924, 0.685823, 0.313982, 0.04074, 0.65291, 0.161701, 0.282892, 0.206613, 0.249053, 0.707132, 0.437096, 0.451119, 0.899689, 0.361365, 0.336597, 0.759974, 0.589804, 0.298246, 0.150503, 0.120297, 0.5457070000000001, 0.255833, 0.701839, 0.50856, 0.392999, 0.7762559999999999, 0.397098, 0.814277, 0.846612, 0.465383, 0.934186, 0.29644, 0.879945, 0.112399, 0.692528, 0.778555, 0.93061, 0.815241, 0.114569, 0.481495, 0.073654, 0.064733, 0.362111, 0.721959, 0.581324, 0.338069, 0.037913];
discharge = [0.033818, 0.32591, 0.516307, 0.316547, 0.469114, 0.224802, 0.177715, 0.015779, 0.271256, 0.755922, 0.007835999999999999, 0.7854179999999999, 0.707874, 0.850951, 0.462121, 0.746764, 0.966454, 0.164998, 0.233435, 0.984351, 0.8219880000000001, 0.04209, 0.133684, 0.296191, 0.749505, 0.432845, 0.999076, 0.508441, 0.6453, 0.522907, 0.370615, 0.001922, 0.679978, 0.240952, 0.137484, 0.875254, 0.217978, 0.134447, 0.470109, 0.779158, 0.252928, 0.856513, 0.008751, 0.713238, 0.663784, 0.409322, 0.818456, 0.450211, 0.501102, 0.250785, 0.06979200000000001, 0.708329, 0.9677750000000001, 0.311949, 0.50988, 0.593099, 0.837531, 0.002961, 0.365315, 0.17954, 0.046127, 0.343972, 0.617819, 0.606667, 0.9084, 0.78974, 0.563809, 0.861164, 0.316725, 0.138301, 0.282802, 0.413269, 0.722922, 0.8990899999999999, 0.795333, 0.929524, 0.500715, 0.523634, 0.964266, 0.225585, 0.596316, 0.164645, 0.706338, 0.28566, 0.108181, 0.58531, 0.224843, 0.471665, 0.319158, 0.16231, 0.329622, 0.98841, 0.086048, 0.225551, 0.870313, 0.120472];
soc = [9.027677000000001, 9.042, 9.42877, 6.994675, 8.339865, 13.197833, 3.368561, 14.029527, 6.415786, 4.17484, 13.236745, 7.442594, 9.896496000000001, 12.899468, 5.845665, 15.257157, 5.524089, 11.107006, 7.898845, 15.582822, 15.102108, 8.078156999999999, 5.837529, 10.729124, 5.802905, 13.344203, 5.391802, 5.388731, 12.363055, 2.932701, 10.521864, 6.187405, 7.496306, 4.519866, 7.473431, 5.118213, 6.751286, 11.303051, 5.231456, 10.115687, 14.098213, 7.886187, 5.201073, 15.542198, 12.051138, 8.006608, 9.095458000000001, 10.391878, 10.602484, 14.838018, 13.696973, 11.996699, 13.360878, 12.328313, 6.292684, 4.588676, 4.588161, 10.77567, 8.802343, 10.165645, 3.971289, 5.789167, 6.717139, 8.258984999999999, 12.360552, 4.870542, 7.766637, 4.08723, 3.514091, 11.29453, 5.584887, 6.496057, 2.897566, 10.301441, 15.088796, 7.779718, 11.284975, 6.470552, 9.014559, 3.292923, 3.085748, 5.567725, 10.896253, 12.921657, 6.500078, 13.169783, 4.599766, 13.271707, 6.908792, 7.168164, 3.119561, 3.250877, 6.765102, 15.143733, 5.28741, 8.472225999999999];
cost = [44.945842, 65.835165, 50.265327, 89.57924, 415.044651, 119.268724, 297.31136, 2.229493, 310.769821, 286.734797, 428.950852, 177.268573, 475.777863, 588.106839, 7.388963, 187.961636, 581.608373, 544.762484, 231.52859, 79.23908, 215.550184, 221.64625, 470.520228, 298.793002, 917.38454, 579.871545, 790.059815, 559.905155, 1012.941912, 802.136734, 553.242422, 1056.134201, 759.278214, 786.618075, 108.171108, 384.045995, 369.091507, 975.37462, 1053.260283, 843.881448, 8.436828, 28.928681, 859.281379, 344.315366, 1050.06132, 814.529077, 54.639234, 102.306099, 496.143928, 386.576211, 530.370483, 340.56292, 335.140316, 271.262396, 403.684802, 185.181764, 512.506074, 10.623232, 581.742332, 28.354668, 356.30862, 229.171553, 719.913779, 175.120129, 752.4060030000001, 786.446698, 789.171091, 585.259216, 836.970044, 0.249154, 896.436388, 902.7134119999999, 78.523036, 502.401369, 927.366832, 231.367959, 189.914923, 222.729491, 739.321615, 1037.12363, 612.360211, 1132.479207, 223.178255, 1066.692167, 336.119526, 261.191057, 17.845905, 1129.757206, 339.730302, 22.978843, 174.08589, 8.182321999999999, 211.524575, 472.724952, 447.013009, 550.154102];
earn = [0.934596, 1.332641, 1.870028, 0.788819, 0.503857, 0.087936, 1.867526, 0.586046, 1.567642, 1.338868, 1.063534, 2.186379, 0.039661, 1.308177, 0.868818, 2.034667, 1.253608, 0.8787740000000001, 1.390482, 0.18378, 0.22563, 0.197065, 2.132118, 0.154193, 1.352404, 1.307945, 0.6937219999999999, 3.139994, 0.410221, 1.499823, 2.210176, 3.157257, 1.03937, 0.312536, 0.485373, 2.648283, 1.751621, 0.09813, 0.836773, 0.346997, 2.017804, 1.544993, 0.627308, 1.870363, 2.253455, 1.080944, 0.995787, 2.123519, 1.051344, 1.465758, 0.507494, 1.425015, 0.8096370000000001, 0.767819, 1.290095, 0.5112370000000001, 1.944686, 1.432805, 0.8506010000000001, 0.09267599999999999, 1.582532, 0.117148, 1.857504, 0.623358, 0.024827, 1.244322, 2.14038, 0.241345, 1.823939, 1.751697, 0.207002, 1.546299, 2.400481, 1.220088, 3.106863, 1.24893, 1.694935, 2.041292, 0.325982, 3.982751, 3.188227, 0.879616, 0.261518, 2.85497, 0.729818, 1.302134, 0.713373, 2.72386, 2.502224, 0.022249, 0.7317669999999999, 2.569007, 2.371503, 0.599725, 1.837172, 2.11441];
total_cost = 47.28203915185821;
total_earn = 26.14478645399059;
