production = [0: 0.0, 1: 0.0, 2: 0.0, 3: 0.0, 4: 0.0, 5: 0.0, 6: 0.0, 7: 0.0, 8: 0.0, 9: 0.0, 10: 0.0, 11: 0.0, 12: 0.0, 13: 0.0, 14: 0.0, 15: 0.0, 16: 0.0, 17: 0.0, 18: 0.0, 19: 0.0, 20: 0.0, 21: 0.0, 22: 0.0, 23: 0.004, 24: 0.0, 25: 0.06, 26: 0.118, 27: 0.0, 28: 0.0, 29: 0.0, 30: 0.0, 31: 0.0, 32: 0.4665, 33: 0.5847, 34: 0.0, 35: 0.589, 36: 0.0, 37: 1.098, 38: 0.0, 39: 0.0, 40: 1.0292, 41: 1.121372917, 42: 0.0, 43: 0.0, 44: 0.0, 45: 1.5228, 46: 1.556, 47: 0.0, 48: 1.5693, 49: 2.016, 50: 1.9235, 51: 0.0, 52: 0.8448, 53: 1.598, 54: 0.0, 55: 1.278, 56: 0.0, 57: 0.7222, 58: 0.0, 59: 0.6595, 60: 0.652, 61: 1.0702, 62: 0.5475, 63: 0.0, 64: 0.4243, 65: 0.0, 66: 0.2552, 67: 0.2092, 68: 0.0, 69: 0.0, 70: 0.1435, 71: 0.0767, 72: 0.0367, 73: 0.0095, 74: 0.0005, 75: 0.0, 76: 0.0, 77: 0.0, 78: 0.0, 79: 0.0, 80: 0.0, 81: 0.0, 82: 0.0, 83: 0.0, 84: 0.0, 85: 0.0, 86: 0.0, 87: 0.0, 88: 0.0, 89: 0.0, 90: 0.0, 91: 0.0, 92: 0.0, 93: 0.0, 94: 0.0, 95: 0.0, 96: 0.0, 97: 0.0, 98: 0.0, 99: 0.0, 100: 0.0, 101: 0.0, 102: 0.0, 103: 0.0, 104: 0.0, 105: 0.0, 106: 0.0, 107: 0.0, 108: 0.0, 109: 0.0, 110: 0.0, 111: 0.0, 112: 0.0, 113: 0.0, 114: 0.0, 115: 0.0, 116: 0.0, 117: 0.0, 118: 0.0, 119: 0.0092, 120: 0.0, 121: 0.0665, 122: 0.098, 123: 0.1333, 124: 0.1835, 125: 0.0, 126: 0.418, 127: 0.6870000000000001, 128: 0.4788, 129: 0.0, 130: 1.0688, 131: 1.177, 132: 1.2203, 133: 1.417, 134: 1.45, 135: 1.5982, 136: 0.0, 137: 1.7178, 138: 0.0, 139: 1.8395, 140: 1.8467, 141: 1.9205, 142: 1.917, 143: 0.0, 144: 1.946, 145: 0.0, 146: 1.9125, 147: 1.138072917, 148: 0.0, 149: 0.0, 150: 0.0, 151: 1.717, 152: 1.6413, 153: 0.0, 154: 1.4307, 155: 0.0, 156: 1.2283, 157: 0.0, 158: 0.0, 159: 0.0, 160: 0.7492, 161: 0.0, 162: 0.5212, 163: 0.0, 164: 0.0, 165: 0.101, 166: 0.0, 167: 0.0, 168: 0.0255, 169: 0.0047, 170: 0.0005, 171: 0.0, 172: 0.0, 173: 0.0, 174: 0.0, 175: 0.0, 176: 0.0, 177: 0.0, 178: 0.0, 179: 0.0, 180: 0.0, 181: 0.0, 182: 0.0, 183: 0.0, 184: 0.0, 185: 0.0, 186: 0.0, 187: 0.0, 188: 0.0, 189: 0.0, 190: 0.0, 191: 0.0];
buy = [0: 0.236772917, 1: 1.235272917, 2: 0.246072917, 3: 1.246072917, 4: 1.244272917, 5: 1.239772917, 6: 0.240072917, 7: 1.247072917, 8: 0.0, 9: 1.248072917, 10: 0.236072917, 11: 0.0, 12: 1.247072917, 13: 1.249072917, 14: 1.238072917, 15: 1.239572917, 16: 1.119372917, 17: 1.126872917, 18: 1.126572917, 19: 1.527572917, 20: 0.388572917, 21: 1.022452693, 22: 0.0, 23: 0.0, 24: 0.0, 25: 0.172372917, 26: 0.991772917, 27: 1.117072917, 28: 0.117872917, 29: 0.0, 30: 0.0, 31: 1.108772917, 32: 0.651572917, 33: 0.0, 34: 0.0, 35: 0.520072917, 36: 0.116772917, 37: 0.0, 38: 1.120372917, 39: 0.111872917, 40: 0.0, 41: 0.0, 42: 0.0, 43: 0.0, 44: 0.108572917, 45: 0.0, 46: 0.0, 47: 0.117072917, 48: 0.0, 49: 0.0, 50: 0.0, 51: 1.113072917, 52: 0.0, 53: 0.0, 54: 1.450772917, 55: 0.0, 56: 1.569272917, 57: 0.0, 58: 0.454772917, 59: 0.801572917, 60: 0.0, 61: 0.0, 62: 0.0, 63: 0.0, 64: 0.0, 65: 1.116572917, 66: 0.863172917, 67: 0.909672917, 68: 1.110872917, 69: 1.110372917, 70: 0.0, 71: 0.045072917, 72: 0.0, 73: 1.089772917, 74: 0.0, 75: 0.0, 76: 1.124072917, 77: 0.122072917, 78: 0.117272917, 79: 0.0, 80: 1.431572917, 81: 1.372372917, 82: 1.367872917, 83: 0.0, 84: 0.371372917, 85: 0.0, 86: 0.256572917, 87: 0.242572917, 88: 1.235772917, 89: 0.233372917, 90: 1.242072917, 91: 1.242272917, 92: 0.235572917, 93: 0.0, 94: 0.0, 95: 1.243272917, 96: 0.240772917, 97: 1.236772917, 98: 0.0, 99: 0.242072917, 100: 0.0, 101: 1.244572917, 102: 0.235772917, 103: 0.0, 104: 1.243572917, 105: 1.245272917, 106: 0.0, 107: 0.0, 108: 1.236072917, 109: 1.247572917, 110: 0.0, 111: 0.0, 112: 0.237272917, 113: 0.0, 114: 0.934572917, 115: 1.241272917, 116: 0.0, 117: 0.278772917, 118: 0.282572917, 119: 0.0, 120: 0.0, 121: 0.164072917, 122: 0.0, 123: 0.0, 124: 0.933272917, 125: 0.0, 126: 0.0, 127: 0.0, 128: 0.6387729170000001, 129: 0.0, 130: 0.0, 131: 0.0, 132: 0.0, 133: 0.0, 134: 0.0, 135: 0.0, 136: 1.113372917, 137: 0.0, 138: 1.129072917, 139: 0.0, 140: 0.0, 141: 0.0, 142: 0.0, 143: 1.138572917, 144: 0.0, 145: 1.117572917, 146: 0.0, 147: 0.0, 148: 0.125572917, 149: 1.600169224, 150: 0.0, 151: 0.0, 152: 0.0, 153: 1.480072917, 154: 0.0, 155: 0.0, 156: 0.0, 157: 1.393272917, 158: 0.136072917, 159: 0.0, 160: 0.0, 161: 1.147872917, 162: 0.0, 163: 0.0, 164: 0.138772917, 165: 0.103772917, 166: 0.0, 167: 1.147372917, 168: 1.150572917, 169: 0.388872917, 170: 0.0, 171: 0.0, 172: 0.0, 173: 0.121772917, 174: 1.122572917, 175: 1.124272917, 176: 0.0, 177: 0.0, 178: 0.125872917, 179: 0.124572917, 180: 1.123272917, 181: 0.115272917, 182: 1.151772917, 183: 1.124072917, 184: 1.123272917, 185: 1.369872917, 186: 1.418072917, 187: 1.420372917, 188: 0.429072917, 189: 0.433572917, 190: 1.393272917, 191: 1.381772917];
sell = [0: 0.0, 1: 0.0, 2: 0.0, 3: 0.0, 4: 0.0, 5: 0.0, 6: 0.0, 7: 0.0, 8: 0.653227083, 9: 0.0, 10: 0.0, 11: 0.0, 12: 0.0, 13: 0.0, 14: 0.0, 15: 0.0, 16: 0.0, 17: 0.0, 18: 0.0, 19: 0.0, 20: 0.0, 21: 0.0, 22: 0.552127083, 23: 0.6032270830000001, 24: 0.6647270830000001, 25: 0.0, 26: 0.0, 27: 0.0, 28: 0.0, 29: 0.789427083, 30: 0.788427083, 31: 0.0, 32: 0.0, 33: 1.367427083, 34: 0.791227083, 35: 0.0, 36: 0.0, 37: 0.972927083, 38: 0.0, 39: 0.0, 40: 1.812627083, 41: 0.0, 42: 0.778227083, 43: 0.782927083, 44: 0.0, 45: 0.411427083, 46: 1.435627083, 47: 0.0, 48: 0.463427083, 49: 2.813127083, 50: 1.818927083, 51: 0.0, 52: 1.623427083, 53: 1.158927083, 54: 0.0, 55: 1.396927083, 56: 0.0, 57: 0.776427083, 58: 0.0, 59: 0.0, 60: 1.430927083, 61: 0.951127083, 62: 0.427627083, 63: 0.786427083, 64: 1.214527083, 65: 0.0, 66: 0.0, 67: 0.0, 68: 0.0, 69: 0.0, 70: 0.925127083, 71: 0.0, 72: 0.816627083, 73: 0.0, 74: 0.801427083, 75: 0.791427083, 76: 0.0, 77: 0.0, 78: 0.0, 79: 0.078943612, 80: 0.0, 81: 0.0, 82: 0.0, 83: 0.529927083, 84: 0.0, 85: 0.565227083, 86: 0.0, 87: 0.0, 88: 0.0, 89: 0.0, 90: 0.0, 91: 0.0, 92: 0.0, 93: 0.666427083, 94: 0.663927083, 95: 0.0, 96: 0.0, 97: 0.0, 98: 0.665627083, 99: 0.0, 100: 0.655927083, 101: 0.0, 102: 0.0, 103: 0.663427083, 104: 0.0, 105: 0.0, 106: 0.660927083, 107: 0.662427083, 108: 0.0, 109: 0.0, 110: 0.649927083, 111: 0.659427083, 112: 0.0, 113: 0.658727083, 114: 0.0, 115: 0.0, 116: 0.617927083, 117: 0.0, 118: 0.0, 119: 0.635127083, 120: 0.659227083, 121: 0.0, 122: 0.888927083, 123: 0.9147270830000001, 124: 0.0, 125: 0.7796270830000001, 126: 1.208427083, 127: 1.477727083, 128: 0.0, 129: 0.7816270829999999, 130: 1.860027083, 131: 0.064127083, 132: 1.100227083, 133: 0.298627083, 134: 0.331627083, 135: 0.485327083, 136: 0.0, 137: 0.596727083, 138: 0.0, 139: 2.589927083, 140: 2.619327083, 141: 2.415927083, 142: 2.678927083, 143: 0.0, 144: 2.707427083, 145: 0.0, 146: 2.680127083, 147: 0.0, 148: 0.0, 149: 0.0, 150: 0.329427083, 151: 0.839427083, 152: 2.077227083, 153: 0.0, 154: 1.885427083, 155: 0.452727083, 156: 0.096927083, 157: 0.0, 158: 0.0, 159: 0.725127083, 160: 1.455327083, 161: 0.0, 162: 0.0, 163: 0.761927083, 164: 0.0, 165: 0.0, 166: 0.718427083, 167: 0.0, 168: 0.0, 169: 0.0, 170: 0.777927083, 171: 0.800927083, 172: 0.800727083, 173: 0.0, 174: 0.0, 175: 0.0, 176: 0.784927083, 177: 0.783727083, 178: 0.0, 179: 0.0, 180: 0.0, 181: 0.0, 182: 0.0, 183: 0.0, 184: 0.0, 185: 0.0, 186: 0.0, 187: 0.0, 188: 0.0, 189: 0.0, 190: 0.0, 191: 0.0];
charge = [0: 0.0, 1: 1.0, 2: 0.0, 3: 1.0, 4: 1.0, 5: 1.0, 6: 0.0, 7: 1.0, 8: 0.0, 9: 1.0, 10: 0.0, 11: 0.0, 12: 1.0, 13: 1.0, 14: 1.0, 15: 1.0, 16: 1.0, 17: 1.0, 18: 1.0, 19: 1.0, 20: 0.0, 21: 0.679179776, 22: 0.0, 23: 0.0, 24: 0.0, 25: 0.0, 26: 1.0, 27: 1.0, 28: 0.0, 29: 0.0, 30: 0.0, 31: 1.0, 32: 1.0, 33: 0.0, 34: 0.0, 35: 1.0, 36: 0.0, 37: 0.0, 38: 1.0, 39: 0.0, 40: 0.0, 41: 1.0, 42: 0.0, 43: 0.0, 44: 0.0, 45: 1.0, 46: 0.0, 47: 0.0, 48: 1.0, 49: 0.0, 50: 0.0, 51: 1.0, 52: 0.0, 53: 0.0, 54: 1.0, 55: 0.0, 56: 1.0, 57: 0.0, 58: 0.0, 59: 1.0, 60: 0.0, 61: 0.0, 62: 0.0, 63: 0.0, 64: 0.0, 65: 1.0, 66: 1.0, 67: 1.0, 68: 1.0, 69: 1.0, 70: 0.0, 71: 0.0, 72: 0.0, 73: 1.0, 74: 0.0, 75: 0.0, 76: 1.0, 77: 0.0, 78: 0.0, 79: 0.0, 80: 1.0, 81: 1.0, 82: 1.0, 83: 0.0, 84: 0.0, 85: 0.0, 86: 0.0, 87: 0.0, 88: 1.0, 89: 0.0, 90: 1.0, 91: 1.0, 92: 0.0, 93: 0.0, 94: 0.0, 95: 1.0, 96: 0.0, 97: 1.0, 98: 0.0, 99: 0.0, 100: 0.0, 101: 1.0, 102: 0.0, 103: 0.0, 104: 1.0, 105: 1.0, 106: 0.0, 107: 0.0, 108: 1.0, 109: 1.0, 110: 0.0, 111: 0.0, 112: 0.0, 113: 0.0, 114: 0.0, 115: 1.0, 116: 0.0, 117: 0.0, 118: 0.0, 119: 0.0, 120: 0.0, 121: 0.0, 122: 0.0, 123: 0.0, 124: 1.0, 125: 0.0, 126: 0.0, 127: 0.0, 128: 1.0, 129: 0.0, 130: 0.0, 131: 1.0, 132: 0.0, 133: 1.0, 134: 1.0, 135: 1.0, 136: 1.0, 137: 1.0, 138: 1.0, 139: 0.0, 140: 0.0, 141: 0.0, 142: 0.0, 143: 1.0, 144: 0.0, 145: 1.0, 146: 0.0, 147: 1.0, 148: 0.0, 149: 0.925896307, 150: 0.0, 151: 0.0, 152: 0.0, 153: 1.0, 154: 0.0, 155: 0.0, 156: 1.0, 157: 1.0, 158: 0.0, 159: 0.0, 160: 0.0, 161: 1.0, 162: 0.376827083, 163: 0.0, 164: 0.0, 165: 0.0, 166: 0.0, 167: 1.0, 168: 1.0, 169: 0.0, 170: 0.0, 171: 0.0, 172: 0.0, 173: 0.0, 174: 1.0, 175: 1.0, 176: 0.0, 177: 0.0, 178: 0.0, 179: 0.0, 180: 1.0, 181: 0.0, 182: 1.0, 183: 1.0, 184: 1.0, 185: 1.0, 186: 1.0, 187: 1.0, 188: 0.0, 189: 0.0, 190: 1.0, 191: 1.0];
discharge = [0: 0.0, 1: 0.0, 2: 0.0, 3: 0.0, 4: 0.0, 5: 0.0, 6: 0.0, 7: 0.0, 8: 1.0, 9: 0.0, 10: 0.0, 11: 0.262525463, 12: 0.0, 13: 0.0, 14: 0.0, 15: 0.0, 16: 0.0, 17: 0.0, 18: 0.0, 19: 0.0, 20: 0.0, 21: 0.0, 22: 1.0, 23: 1.0, 24: 1.0, 25: 0.0, 26: 0.0, 27: 0.0, 28: 0.0, 29: 1.0, 30: 1.0, 31: 0.0, 32: 0.0, 33: 1.0, 34: 1.0, 35: 0.0, 36: 0.0, 37: 0.0, 38: 0.0, 39: 0.0, 40: 1.0, 41: 0.0, 42: 1.0, 43: 1.0, 44: 0.0, 45: 0.0, 46: 0.0, 47: 0.0, 48: 0.0, 49: 1.0, 50: 0.0, 51: 0.0, 52: 1.0, 53: 0.0, 54: 0.0, 55: 1.0, 56: 0.0, 57: 1.0, 58: 0.0, 59: 0.0, 60: 1.0, 61: 0.0, 62: 0.0, 63: 1.0, 64: 1.0, 65: 0.0, 66: 0.0, 67: 0.0, 68: 0.0, 69: 0.0, 70: 1.0, 71: 0.0, 72: 1.0, 73: 0.0, 74: 1.0, 75: 1.0, 76: 0.0, 77: 0.0, 78: 0.0, 79: 0.216351698, 80: 0.0, 81: 0.0, 82: 0.0, 83: 1.0, 84: 0.0, 85: 1.0, 86: 0.0, 87: 0.0, 88: 0.0, 89: 0.0, 90: 0.0, 91: 0.0, 92: 0.0, 93: 1.0, 94: 1.0, 95: 0.0, 96: 0.0, 97: 0.0, 98: 1.0, 99: 0.0, 100: 1.0, 101: 0.0, 102: 0.0, 103: 1.0, 104: 0.0, 105: 0.0, 106: 1.0, 107: 1.0, 108: 0.0, 109: 0.0, 110: 1.0, 111: 1.0, 112: 0.0, 113: 1.0, 114: 0.0, 115: 0.0, 116: 1.0, 117: 0.0, 118: 0.0, 119: 1.0, 120: 1.0, 121: 0.0, 122: 1.0, 123: 1.0, 124: 0.0, 125: 1.0, 126: 1.0, 127: 1.0, 128: 0.0, 129: 1.0, 130: 1.0, 131: 0.0, 132: 0.0, 133: 0.0, 134: 0.0, 135: 0.0, 136: 0.0, 137: 0.0, 138: 0.0, 139: 1.0, 140: 1.0, 141: 1.0, 142: 1.0, 143: 0.0, 144: 1.0, 145: 0.0, 146: 1.0, 147: 0.0, 148: 0.0, 149: 0.0, 150: 1.0, 151: 0.0, 152: 1.0, 153: 0.0, 154: 1.0, 155: 1.0, 156: 0.0, 157: 0.0, 158: 0.0, 159: 1.0, 160: 1.0, 161: 0.0, 162: 0.0, 163: 1.0, 164: 0.0, 165: 0.0, 166: 1.0, 167: 0.0, 168: 0.0, 169: 0.0, 170: 1.0, 171: 1.0, 172: 1.0, 173: 0.0, 174: 0.0, 175: 0.0, 176: 1.0, 177: 1.0, 178: 0.0, 179: 0.0, 180: 0.0, 181: 0.0, 182: 0.0, 183: 0.0, 184: 0.0, 185: 0.0, 186: 0.0, 187: 0.0, 188: 0.0, 189: 0.0, 190: 0.0, 191: 0.0];
soc = [0: 3.759248, 1: 4.65849615, 2: 4.657564451, 3: 5.556632938, 4: 6.455521612, 5: 7.354230507, 6: 7.352759661, 7: 8.251289109, 8: 7.249638852, 9: 8.148188923999999, 10: 8.146559286, 11: 7.882404511, 12: 8.78082803, 13: 9.679071864999999, 14: 10.57713605, 15: 11.475020623, 16: 12.372725619, 17: 13.270251074, 18: 14.167597024, 19: 15.064763504, 20: 15.061750551, 21: 15.67, 22: 14.666866, 23: 13.663932627, 24: 12.66119984, 25: 12.6586676, 26: 13.556135867, 27: 14.45342464, 28: 14.450533955, 29: 13.447643848, 30: 12.444954319, 31: 13.342465328, 32: 14.239796835, 33: 13.236948876, 34: 12.234301486, 35: 13.131854626, 36: 13.129228255, 37: 13.126602409, 38: 14.023977089, 39: 14.021172293, 40: 13.018368059, 41: 13.915764385, 42: 12.912981232, 43: 11.910398636, 44: 11.908016556, 45: 12.805634953, 46: 12.803073826, 47: 12.800513211, 48: 13.697953109, 49: 12.695213518, 50: 12.692674475, 51: 13.59013594, 52: 12.587417913, 53: 12.58490043, 54: 13.48238345, 55: 12.479686973, 56: 13.377191035, 57: 12.374515597, 58: 12.372040694, 59: 13.269566286, 60: 12.266912373, 61: 12.26445899, 62: 12.262006098, 63: 11.259553697, 64: 10.257301787, 65: 11.155250326, 66: 12.053019276, 67: 12.950608672, 68: 13.848018551, 69: 14.745248947, 70: 13.742299897, 71: 13.739551437, 72: 12.736803527, 73: 13.634256166, 74: 12.631529315, 75: 11.629003009, 76: 12.526677208, 77: 12.524171873, 78: 12.521667039, 79: 12.302811007, 80: 13.200350444, 81: 14.097710374, 82: 14.994890832, 83: 13.991891854, 84: 13.989093476, 85: 12.986295657, 86: 12.983698398, 87: 12.981101658, 88: 13.878505438, 89: 13.875729737, 90: 14.772954591, 91: 15.67, 92: 15.666866, 93: 14.663732627, 94: 13.66079988, 95: 14.55806772, 96: 14.555156107, 97: 15.452245076, 98: 14.449154627, 99: 14.446264796, 100: 13.443375543, 101: 14.340686868, 102: 14.33781873, 103: 13.334951166, 104: 14.232284176, 105: 15.129437719, 106: 14.126411832, 107: 13.123586549, 108: 14.020961832, 109: 14.91815764, 110: 13.915174008, 111: 12.912390973, 112: 12.909808495, 113: 11.907226534, 114: 11.904845088, 115: 12.802464119, 116: 11.799903626, 117: 11.797543646, 118: 11.795184137, 119: 10.7928251, 120: 9.790666535, 121: 9.788708401999999, 122: 8.786750659999999, 123: 7.78499331, 124: 8.683436310999999, 125: 7.681699624, 126: 6.680163284, 127: 5.678827251, 128: 6.577691486, 129: 5.576375948, 130: 4.575260673, 131: 5.47434562, 132: 5.473250751, 133: 6.372156101, 134: 7.27088167, 135: 8.169427494000001, 136: 9.067793608000001, 137: 9.965980049000001, 138: 10.863986853, 139: 9.861814056, 140: 8.859841693, 141: 7.858069725, 142: 6.856498111, 143: 7.755126811, 144: 6.753575786, 145: 7.652225071, 146: 6.650694626, 147: 7.549364487, 148: 7.547854614, 149: 8.379651719, 150: 7.377975789, 151: 7.376500194, 152: 6.375024894, 153: 7.273749889, 154: 6.272295139, 155: 5.27104068, 156: 6.169986472, 157: 7.068752474, 158: 7.067338724, 159: 6.065925256, 160: 5.064712071, 161: 5.963699129, 162: 6.301650764, 163: 5.300390434, 164: 5.299330356, 165: 5.29827049, 166: 4.297210836, 167: 5.196351393, 168: 6.095312123, 169: 6.094093061, 170: 5.092874242, 171: 4.091855667, 172: 3.091037296, 173: 3.090419089, 174: 3.989801005, 175: 4.889003045, 176: 3.888025244, 177: 2.887247639, 178: 2.886670189, 179: 2.886092855, 180: 3.785515637, 181: 3.784758534, 182: 4.684001582, 183: 5.583064782, 184: 6.481948169, 185: 7.380651779, 186: 8.279175649000001, 187: 9.177519814, 188: 9.175684309999999, 189: 9.173849173000001, 190: 10.072014403, 191: 10.97];
cost = [0: 0.144644575, 1: 0.87280639, 2: 0.150325945, 3: 0.87940411, 4: 0.87830449, 5: 0.87555544, 6: 0.146660545, 7: 0.88001501, 8: 0.0, 9: 0.88062591, 10: 0.144216945, 11: 0.0, 12: 0.88001501, 13: 0.88123681, 14: 0.87451691, 15: 0.87543326, 16: 0.80200308, 17: 0.80658483, 18: 0.80640156, 19: 1.05137246, 20: 0.237379195, 21: 0.70488057, 22: 0.0, 23: 0.0, 24: 0.0, 25: 0.205054822, 26: 1.297991227, 27: 1.447048107, 28: 0.140221622, 29: 0.0, 30: 0.0, 31: 1.437174427, 32: 0.893289307, 33: 0.0, 34: 0.0, 35: 0.7368569069999999, 36: 0.138913062, 37: 0.0, 38: 1.450973787, 39: 0.133084022, 40: 0.0, 41: 0.118178165, 42: 0.0, 43: 0.0, 44: 0.129158342, 45: 0.118178165, 46: 0.0, 47: 0.139269942, 48: 0.118178165, 49: 0.0, 50: 0.0, 51: 1.442289707, 52: 0.0, 53: 0.0, 54: 1.00445534, 55: 0.0, 56: 1.07684699, 57: 0.0, 58: 0.277820775, 59: 0.60785906, 60: 0.0, 61: 0.0, 62: 0.0, 63: 0.0, 64: 0.0, 65: 1.446453307, 66: 1.145008667, 67: 1.200325067, 68: 1.439672587, 69: 1.439077787, 70: 0.0, 71: 0.053618742, 72: 0.0, 73: 1.414572027, 74: 0.0, 75: 0.0, 76: 1.455375307, 77: 0.145217942, 78: 0.139507862, 79: 0.0, 80: 1.821177307, 81: 1.750752987, 82: 1.745399787, 83: 0.0, 84: 0.441785222, 85: 0.0, 86: 0.305219142, 87: 0.288564742, 88: 0.87311184, 89: 0.142567515, 90: 0.87696051, 91: 0.8770826900000001, 92: 0.143911495, 93: 0.0, 94: 0.0, 95: 0.87769359, 96: 0.147088175, 97: 0.8737227400000001, 98: 0.0, 99: 0.147882345, 100: 0.0, 101: 0.87848776, 102: 0.144033675, 103: 0.0, 104: 0.87787686, 105: 0.87891539, 106: 0.0, 107: 0.0, 108: 0.87329511, 109: 0.88032046, 110: 0.0, 111: 0.0, 112: 0.144950025, 113: 0.0, 114: 0.570930595, 115: 0.87647179, 116: 0.0, 117: 0.170302375, 118: 0.172623795, 119: 0.0, 120: 0.0, 121: 0.195181142, 122: 0.0, 123: 0.0, 124: 1.228399627, 125: 0.0, 126: 0.0, 127: 0.0, 128: 0.878062427, 129: 0.0, 130: 0.0, 131: 0.118178165, 132: 0.0, 133: 0.118178165, 134: 0.118178165, 135: 0.118178165, 136: 1.442646587, 137: 0.118178165, 138: 1.461323307, 139: 0.0, 140: 0.0, 141: 0.0, 142: 0.0, 143: 1.472624507, 144: 0.0, 145: 1.447642907, 146: 0.0, 147: 0.118178165, 148: 0.07671249500000001, 149: 1.086964106, 150: 0.0, 151: 0.0, 152: 0.0, 153: 1.02235471, 154: 0.0, 155: 0.0, 156: 0.118178165, 157: 1.775615627, 158: 0.161872342, 159: 0.0, 160: 0.0, 161: 1.483687787, 162: 0.044532733, 163: 0.0, 164: 0.165084262, 165: 0.123448262, 166: 0.0, 167: 1.483092987, 168: 1.486899707, 169: 0.462603222, 170: 0.0, 171: 0.0, 172: 0.0, 173: 0.144861062, 174: 1.453590907, 175: 1.455613227, 176: 0.0, 177: 0.0, 178: 0.149738422, 179: 0.148191942, 180: 1.454423627, 181: 0.137128662, 182: 1.488327227, 183: 1.455375307, 184: 0.80438559, 185: 0.95503353, 186: 0.98447891, 187: 0.98588398, 188: 0.262120645, 189: 0.264869695, 190: 0.96932859, 191: 0.96230324];
earn = [0: 0.0, 1: 0.0, 2: 0.0, 3: 0.0, 4: 0.0, 5: 0.0, 6: 0.0, 7: 0.0, 8: 0.314398195, 9: 0.0, 10: 0.0, 11: 0.0, 12: 0.0, 13: 0.0, 14: 0.0, 15: 0.0, 16: 0.0, 17: 0.0, 18: 0.0, 19: 0.0, 20: 0.0, 21: 0.0, 22: 0.298921603, 23: 0.326768111, 24: 0.394449051, 25: 0.0, 26: 0.0, 27: 0.0, 28: 0.0, 29: 0.51620637, 30: 0.503410693, 31: 0.0, 32: 0.0, 33: 0.8278403560000001, 34: 0.452898383, 35: 0.0, 36: 0.0, 37: 0.477609905, 38: 0.0, 39: 0.0, 40: 0.877492771, 41: 0.0, 42: 0.369035283, 43: 0.401876472, 44: 0.0, 45: 0.21040381, 46: 0.734036128, 47: 0.0, 48: 0.247562748, 49: 1.502772488, 50: 0.971852741, 51: 0.0, 52: 0.906359341, 53: 0.646913098, 54: 0.0, 55: 0.77934562, 56: 0.0, 57: 0.43029589, 58: 0.0, 59: 0.0, 60: 0.834659768, 61: 0.550797694, 62: 0.248964488, 63: 0.463913336, 64: 0.821141761, 65: 0.0, 66: 0.0, 67: 0.0, 68: 0.0, 69: 0.0, 70: 0.681633635, 71: 0.0, 72: 0.703524232, 73: 0.0, 74: 0.749654894, 75: 0.760244856, 76: 0.0, 77: 0.0, 78: 0.0, 79: 0.06563371899999999, 80: 0.0, 81: 0.0, 82: 0.0, 83: 0.341220049, 84: 0.0, 85: 0.347671179, 86: 0.0, 87: 0.0, 88: 0.0, 89: 0.0, 90: 0.0, 91: 0.0, 92: 0.0, 93: 0.386261138, 94: 0.387866202, 95: 0.0, 96: 0.0, 97: 0.0, 98: 0.385597769, 99: 0.0, 100: 0.385160383, 101: 0.0, 102: 0.0, 103: 0.376892926, 104: 0.0, 105: 0.0, 106: 0.39093837, 107: 0.39109695, 108: 0.0, 109: 0.0, 110: 0.388591403, 111: 0.397172932, 112: 0.0, 113: 0.40544652, 114: 0.0, 115: 0.0, 116: 0.393619552, 117: 0.0, 118: 0.0, 119: 0.470311605, 120: 0.518020642, 121: 0.0, 122: 0.685540567, 123: 0.686685621, 124: 0.0, 125: 0.56507371, 126: 0.882151771, 127: 1.014607415, 128: 0.0, 129: 0.500475821, 130: 1.134988526, 131: 0.035930405, 132: 0.585320808, 133: 0.150448325, 134: 0.147076611, 135: 0.201071011, 136: 0.0, 137: 0.180390597, 138: 0.0, 139: 0.848719105, 140: 0.693597812, 141: 0.634180859, 142: 0.615081658, 143: 0.0, 144: 0.58778242, 145: 0.0, 146: 0.577835399, 147: 0.0, 148: 0.0, 149: 0.0, 150: 0.084036849, 151: 0.214137849, 152: 0.668867121, 153: 0.0, 154: 0.707600784, 155: 0.182765924, 156: 0.046495922, 157: 0.0, 158: 0.0, 159: 0.38018413, 160: 0.830991765, 161: 0.0, 162: 0.0, 163: 0.498376505, 164: 0.0, 165: 0.0, 166: 0.517554871, 167: 0.0, 168: 0.0, 169: 0.0, 170: 0.667694816, 171: 0.7033741650000001, 172: 0.683420566, 173: 0.0, 174: 0.0, 175: 0.0, 176: 0.595524178, 177: 0.5816038690000001, 178: 0.0, 179: 0.0, 180: 0.0, 181: 0.0, 182: 0.0, 183: 0.0, 184: 0.0, 185: 0.0, 186: 0.0, 187: 0.0, 188: 0.0, 189: 0.0, 190: 0.0, 191: 0.0];
total_cost = 86.74683266700001;
total_earn = 42.126072813;
% _objective = 44.62075985400001;