buy = 
[| 159.560994, 478.504228, 167.599689, 351.743676, 572.648234, 190.308576
 | 460.251463, 203.415234, 510.396874, 467.202547, 173.314094,  562.92591
 | 163.460656, 556.283147, 369.374742, 334.566416, 384.889618, 201.118777
 | 434.900547, 206.192859, 474.506387, 275.674226, 323.651929, 573.656795
 | 295.555668, 230.664988, 498.490679, 228.642604, 514.329088,  63.021801
 |];
amount = 
[|         11.348945, 28.558393,          2.177986, 19.053794, 73.712373, 54.021041
 | 80.13200500000001, 68.994451,         20.302744, 49.997513, 45.055687, 27.084482
 |         30.678782, 62.057999, 86.08798299999999, 11.864097, 18.592183, 41.181125
 |         40.861448, 53.511561,         11.881677, 39.779596, 53.772251, 80.919557
 |         46.521958, 56.436909,         31.438037, 28.379727, 48.995475, 70.117341
 |];
stock = 
[|        106.585871,   54.21441,   0.368602, 110.643439, 103.683248, 28.996595
 |        132.576603,  44.396493,  65.300787,   4.846912, 129.425586, 67.841554
 |          5.802706, 111.591907,  19.127964,  50.754373,  77.672628, 83.474255
 |        140.514494,  53.803442,  18.094568,  33.619442,  22.824572, 62.553227
 | 85.88081099999999,  124.01689, 146.171149, 143.173405, 119.250701, 49.071994
 |];
% _objective = 332495.780223;
