buy = 
[| 331.007125,         387.84079, 169.742286, 96.51637700000001,        590.575302, 498.270286
 | 144.399317,        466.405479, 465.428821,        358.749894, 75.67507999999999, 178.392375
 |  89.442892,        182.856158,  64.281111,        249.721145,        415.027262, 307.189074
 | 385.631205, 84.08247900000001, 186.037907,        589.128351,        462.417158,  495.92377
 | 205.510407,         76.141217,  507.36906,         65.391634,        292.589981, 483.455751
 |];
amount = 
[| 35.537915, 87.04475499999999, 64.988654, 54.369081, 88.538579,         38.949202
 | 43.788345,         68.746905, 52.230152, 91.151534, 23.304255,         63.690308
 | 89.662239,         74.763521, 29.840614, 93.982084, 58.764557,         89.981655
 | 62.575596,         60.654373, 63.148107, 60.521707, 26.642182,         73.427481
 | 45.722703,         18.739422,   45.2855, 19.814717, 44.153038, 82.72840100000001
 |];
stock = 
[| 100.258168, 9.164899999999999, 96.61799600000001, 115.881909,  44.968319,  56.167324
 |   83.88168,        134.020682,        137.663732, 124.907365,  62.018761, 145.389915
 | 118.940591,          7.604954,        114.969479,  76.841624, 123.266072, 133.749803
 |   6.393243,        119.224246,        143.965612, 114.042579, 103.082446,  120.33693
 |  17.625169,        101.015887,          4.039186, 128.212348,  93.404421,  40.375142
 |];
% _objective = 300132.8387985;
