buy = 
[| 499.963877,        243.362757, 268.792738, 321.242639, 304.740225, 544.5831920000001
 |  82.551523,        306.337388, 555.122479, 260.344888,  60.240455,         113.54362
 | 234.591761,          2.003825,  91.025013, 388.460881,  71.902503,         388.68333
 | 161.775858, 9.727774999999999, 454.856212,  73.711297, 130.649457,        405.780548
 | 169.312788,        300.033116, 583.041916,  88.494618,   353.8173,         76.127634
 |];
amount = 
[| 99.875017,  4.776666, 51.291156, 52.825169, 85.56479299999999, 94.312586
 | 44.851726, 82.470083, 40.090354, 10.762726,         51.548923, 43.181547
 | 78.056766, 91.957111, 10.141326, 20.866941,         36.231245, 48.911528
 | 90.378775, 12.983744, 82.175673, 26.013283, 81.68629900000001, 75.670357
 | 18.698077, 16.405195, 86.431303, 56.206298, 74.46159400000001, 46.007366
 |];
stock = 
[|         73.555802, 125.243393,  37.400352,  45.088254, 139.825252,  38.723812
 |        100.246406,  31.121646, 149.184241,  19.167424,  69.069225, 141.699128
 | 85.38318099999999, 123.495409, 127.103146, 105.901939, 114.630289,  92.038247
 |         71.412153, 148.448587,  54.247079,  76.276008,  70.610947,  115.64397
 |        126.449086,  89.838685, 100.928022,  58.487943, 125.262475,  40.692373
 |];
% _objective = 242345.244895;
