buy = 
[| 152.181058, 346.913873, 274.040998,  75.726496, 557.944963, 567.305665
 | 546.262503, 424.269759, 290.224216, 189.367754, 141.009942, 138.756688
 |   39.86237, 308.046294, 142.750622, 173.432827, 559.047253,  324.77411
 | 244.200431, 183.654746, 450.807997, 313.511365, 579.311715, 329.239601
 | 305.425971,  55.423409, 120.235094, 288.328533, 185.038583,  75.365071
 |];
amount = 
[| 49.261558, 47.021983,         26.289655,          60.30596, 83.45329599999999,         28.561911
 | 52.874466, 13.680235, 83.50394300000001,         56.674174,          0.309816,         27.390293
 | 66.040497, 65.137235,         94.828183,         44.581648,         91.740325,         65.753265
 | 50.634236, 40.467675,         67.844092, 94.83649800000001,         98.049673,         73.073831
 | 25.410542,   8.73437, 92.84730500000001, 75.42859900000001,          1.574025, 78.99040599999999
 |];
stock = 
[|         88.035177,   92.52959,  39.517126,  11.496531,  17.518015,         47.858841
 |        139.034708,  13.726632, 145.321381, 141.048347,   21.32678,        112.731543
 |          2.505915,  28.958222,  93.796142,   33.24569, 143.624297,        106.899244
 |        106.912365,  74.714479, 118.653183,  58.527307, 140.607711, 64.49264700000001
 | 91.77388500000001, 106.378426,  78.420962,  30.609436, 124.505904,          90.41705
 |];
