buy = 
[| 486.641428, 438.619169, 129.039509, 236.363744, 531.9246869999999, 369.099302
 | 421.468146,  174.06289, 410.154062, 406.965065,        570.341419, 325.972548
 | 548.377495, 115.333604, 139.981614,  173.65815,        145.913049, 224.914132
 | 341.980723, 315.488125,  25.436755, 584.734068, 88.07545500000001, 381.160045
 | 353.893298,  215.57307, 233.802215,    0.96643,        189.955195, 105.490514
 |];
amount = 
[| 57.256007, 79.211021,          7.628969,          9.750062,   4.66723,         88.741006
 | 21.858951, 55.969255,         68.848992,         60.596672, 31.676068,         18.246041
 | 58.608478,  6.945995,         77.865889,         41.536929, 39.949599,         17.049954
 | 33.487058, 96.593324, 90.58078399999999,         28.327958, 42.035115, 71.32143000000001
 | 21.222659, 90.636563,         41.509007, 91.37857700000001, 51.516687,         72.726133
 |];
stock = 
[|          4.032307, 138.968388, 93.76339400000001,  30.673543,  97.261039,  3.057672
 |         71.701646,  27.753827,         77.680853,   28.27397,  32.366427,  2.833743
 |         26.946497,  29.472784, 93.59265000000001,  31.843284,  77.479325, 12.261562
 | 84.08712800000001, 105.097376,         35.367498, 118.990615, 103.121343, 15.333977
 |         24.468276,  30.074171,         49.326423, 123.819782, 120.837166, 32.803316
 |];
