buy = 
[|  461.17468, 157.661661, 362.334167,         158.40668, 282.250878,  70.173738
 |  480.68903, 477.314043,  293.95141,        399.065829, 362.551986, 445.113568
 | 209.755017, 258.227783, 361.579386, 551.7678969999999,  301.87408,  59.302843
 | 190.590364, 437.529557, 486.884477,        171.751766, 292.144943, 243.922427
 | 304.838394, 425.418666, 226.077963,         354.99049, 132.161104, 401.061749
 |];
amount = 
[|         72.434607,  3.319808, 93.55062599999999, 53.551775, 44.501827, 45.002081
 |         22.942904, 40.052573,         51.139161,  2.409319, 53.670892, 66.627278
 | 79.85425600000001, 28.734488,         10.265104, 91.290297, 29.021708, 45.291941
 |         16.116738, 18.227074,         95.959947, 31.860576, 99.212694, 27.743248
 |         61.142322, 23.607848,         29.587721, 58.532561,  29.01385,  9.697773
 |];
stock = 
[|        117.486545, 82.91038399999999, 25.070281,  23.149018, 13.958058,         75.684815
 | 85.47474699999999,          89.02727, 53.863967,  92.274569, 121.57734, 79.30796100000001
 |         40.684901,          97.40773, 22.549488,   47.02074, 88.212529,        134.171759
 |         57.115179,         127.76959, 67.543408, 103.936017, 58.841765, 9.102990999999999
 |        143.736716,        120.397579,  1.837611, 132.404425,  5.835216,         82.764557
 |];
