buy = 
[| 481.046342,        467.131876, 494.329884, 565.204609, 321.738273, 219.918021
 |    4.32729, 87.08084599999999, 400.470383, 149.188097, 509.111566, 104.734743
 | 180.253599,        264.608883,  95.034733, 425.428761, 385.996949, 291.423066
 | 368.417669,        241.591049, 169.649081, 259.489961, 436.826914, 524.480995
 | 484.268719, 84.60869599999999, 528.457135, 331.434683,  568.07402, 173.607581
 |];
amount = 
[|  1.659173,  3.991324,           2.18718, 15.603746,  3.925365,         93.715028
 | 65.327791,  70.08718,         64.636916, 52.764217, 24.618971, 71.38654699999999
 | 82.281829, 47.623651,          49.16085, 53.142888, 25.746844,         43.454291
 | 90.208359, 61.204761,         11.576536, 34.284012, 24.961104, 92.38769000000001
 | 69.401607, 66.396006, 72.25338499999999, 39.890929, 41.689806,         29.697237
 |];
stock = 
[|  95.791292,         69.426891, 146.534871, 56.185182,          37.62857,        147.341671
 |  58.649183,         98.028485,  51.805882, 13.395743,        103.543468,         20.477971
 | 142.904481,        103.983668,  42.861975, 95.383443,        129.645537,        145.394371
 |    32.7931, 83.74090099999999, 119.884271, 32.829789,         97.473676,        104.589182
 |  67.184147,          4.618811,  146.97331, 56.890995, 99.24606900000001, 72.51145099999999
 |];
