production = [0: 0.0, 1: 0.0, 2: 0.0, 3: 0.0, 4: 0.0, 5: 0.0, 6: 0.0, 7: 0.0, 8: 0.0, 9: 0.0, 10: 0.0, 11: 0.0, 12: 0.0, 13: 0.0, 14: 0.0, 15: 0.0, 16: 0.0, 17: 0.0, 18: 0.0, 19: 0.0, 20: 0.0, 21: 0.000156, 22: 0.000244, 23: 0.000182, 24: 0.011074, 25: 0.032991, 26: 0.007992000000000001, 27: 0.124189, 28: 0.004597, 29: 0.067008, 30: 0.392635, 31: 0.280312, 32: 0.253607, 33: 0.314019, 34: 0.439903, 35: 0.036954, 36: 0.503286, 37: 0.128372, 38: 0.331477, 39: 0.375553, 40: 0.572806, 41: 0.383628, 42: 0.675879, 43: 0.624545, 44: 0.465834, 45: 0.740144, 46: 0.257334, 47: 0.042912, 48: 0.621294, 49: 0.498385, 50: 0.665666, 51: 0.524469, 52: 0.290061, 53: 0.70073, 54: 0.917483, 55: 0.302795, 56: 0.438795, 57: 0.846176, 58: 0.356534, 59: 0.863801, 60: 0.543424, 61: 0.467211, 62: 0.342835, 63: 0.261861, 64: 0.425942, 65: 0.05175, 66: 0.173089, 67: 0.132534, 68: 0.151902, 69: 0.06303599999999999, 70: 0.015912, 71: 0.016097, 72: 0.001077, 73: 2.2e-05, 74: 0.000197, 75: 0.0, 76: 0.0, 77: 0.0, 78: 0.0, 79: 0.0, 80: 0.0, 81: 0.0, 82: 0.0, 83: 0.0, 84: 0.0, 85: 0.0, 86: 0.0, 87: 0.0, 88: 0.0, 89: 0.0, 90: 0.0, 91: 0.0, 92: 0.0, 93: 0.0, 94: 0.0, 95: 0.0, 96: 0.0, 97: 0.0, 98: 0.0, 99: 0.0, 100: 0.0, 101: 0.0, 102: 0.0, 103: 0.0, 104: 0.0, 105: 0.0, 106: 0.0, 107: 0.0, 108: 0.0, 109: 0.0, 110: 0.0, 111: 0.0, 112: 0.0, 113: 0.0, 114: 0.0, 115: 0.0, 116: 0.0, 117: 5.8e-05, 118: 0.000324, 119: 0.002448, 120: 0.02548, 121: 0.045695, 122: 0.012741, 123: 0.112918, 124: 0.123935, 125: 0.038208, 126: 0.116122, 127: 0.046519, 128: 0.8796, 129: 0.520446, 130: 0.520835, 131: 0.417999, 132: 0.05938, 133: 0.005884, 134: 0.056748, 135: 0.010087, 136: 0.11741, 137: 0.020858, 138: 0.046613, 139: 0.054522, 140: 0.000482, 141: 0.047672, 142: 0.001967, 143: 0.010986, 144: 0.049089, 145: 0.01685, 146: 0.019643, 147: 0.671517, 148: 0.086599, 149: 0.031995, 150: 0.395584, 151: 0.260462, 152: 0.267698, 153: 0.120174, 154: 0.082539, 155: 0.16553, 156: 0.003641, 157: 0.112966, 158: 0.053946, 159: 0.08712300000000001, 160: 0.051323, 161: 0.037187, 162: 0.061389, 163: 0.143535, 164: 0.127147, 165: 0.061239, 166: 0.06958399999999999, 167: 0.003491, 168: 0.011012, 169: 0.007786, 170: 0.0, 171: 0.000222, 172: 0.0, 173: 0.0, 174: 0.0, 175: 0.0, 176: 0.0, 177: 0.0, 178: 0.0, 179: 0.0, 180: 0.0, 181: 0.0, 182: 0.0, 183: 0.0, 184: 0.0, 185: 0.0, 186: 0.0, 187: 0.0, 188: 0.0, 189: 0.0, 190: 0.0, 191: 0.0];
buy = [0: 341.624729, 1: 937.878572, 2: 511.686765, 3: 175.213959, 4: 63.095805, 5: 320.931706, 6: 987.1777499999999, 7: 447.228515, 8: 721.9571120000001, 9: 315.822368, 10: 330.174634, 11: 497.755514, 12: 129.905724, 13: 676.929351, 14: 823.12835, 15: 713.904587, 16: 363.658384, 17: 860.232541, 18: 772.7270109999999, 19: 548.3664659999999, 20: 828.955343, 21: 370.156464, 22: 296.513832, 23: 827.770032, 24: 960.839478, 25: 168.899209, 26: 859.698513, 27: 397.880974, 28: 738.955134, 29: 756.22887, 30: 23.395259, 31: 986.538265, 32: 450.918749, 33: 208.395294, 34: 435.869351, 35: 298.449575, 36: 356.855013, 37: 970.113843, 38: 620.208995, 39: 20.613177, 40: 922.563974, 41: 22.306717, 42: 598.547804, 43: 708.2419149999999, 44: 451.517856, 45: 29.219893, 46: 590.38975, 47: 672.290398, 48: 446.942086, 49: 434.052226, 50: 429.436107, 51: 215.008645, 52: 214.100241, 53: 801.326948, 54: 680.421297, 55: 795.354377, 56: 723.709391, 57: 906.767597, 58: 731.82658, 59: 543.770455, 60: 344.069813, 61: 182.234373, 62: 236.423922, 63: 446.448093, 64: 662.666754, 65: 807.253378, 66: 891.859952, 67: 616.158124, 68: 986.966355, 69: 663.7787039999999, 70: 991.746417, 71: 287.215217, 72: 284.184204, 73: 696.201626, 74: 106.170353, 75: 886.5673430000001, 76: 467.18888, 77: 139.860118, 78: 451.074696, 79: 916.2987910000001, 80: 804.356316, 81: 216.021452, 82: 879.733546, 83: 932.1792369999999, 84: 332.70213, 85: 196.851245, 86: 146.135452, 87: 334.232118, 88: 245.966123, 89: 210.731451, 90: 904.198935, 91: 673.977569, 92: 950.378485, 93: 587.713179, 94: 146.208344, 95: 410.282864, 96: 535.4023989999999, 97: 524.863113, 98: 562.99916, 99: 845.166294, 100: 53.998399, 101: 368.782487, 102: 522.6338500000001, 103: 22.324718, 104: 326.289861, 105: 313.289038, 106: 967.002938, 107: 0.601607, 108: 123.442779, 109: 540.160527, 110: 622.3304869999999, 111: 786.610057, 112: 250.761949, 113: 292.906733, 114: 829.690356, 115: 611.603264, 116: 116.565151, 117: 491.456344, 118: 760.634266, 119: 959.270214, 120: 555.645473, 121: 50.071363, 122: 723.426886, 123: 266.950626, 124: 763.017894, 125: 363.043449, 126: 160.184964, 127: 998.166348, 128: 11.263123, 129: 461.713329, 130: 470.253069, 131: 575.393371, 132: 805.405423, 133: 577.782023, 134: 678.195791, 135: 288.921034, 136: 443.690574, 137: 131.945774, 138: 49.072125, 139: 733.955504, 140: 748.043436, 141: 526.416561, 142: 355.795735, 143: 508.849167, 144: 757.713211, 145: 398.506061, 146: 433.425394, 147: 521.562988, 148: 318.261997, 149: 321.818224, 150: 418.706164, 151: 622.472954, 152: 281.731422, 153: 24.779597, 154: 666.2655099999999, 155: 462.60195, 156: 878.4595870000001, 157: 122.364696, 158: 606.232536, 159: 505.739782, 160: 534.678773, 161: 662.765098, 162: 638.917507, 163: 438.385205, 164: 369.317381, 165: 860.50447, 166: 858.396618, 167: 897.094571, 168: 827.162999, 169: 608.983844, 170: 254.13777, 171: 335.361722, 172: 826.169856, 173: 163.730491, 174: 489.542431, 175: 165.027125, 176: 505.928575, 177: 216.136699, 178: 782.170421, 179: 228.692061, 180: 677.21182, 181: 292.259695, 182: 211.766302, 183: 901.955433, 184: 732.9966889999999, 185: 300.302813, 186: 428.495748, 187: 72.598277, 188: 869.525811, 189: 622.448749, 190: 634.2080570000001, 191: 985.968705];
sell = [0: 2.102405, 1: 3.288785, 2: 1.363002, 3: 0.045827, 4: 1.718986, 5: 3.774989, 6: 0.680883, 7: 2.897532, 8: 2.722137, 9: 1.942305, 10: 1.748191, 11: 2.206712, 12: 0.9093830000000001, 13: 0.08311499999999999, 14: 1.223065, 15: 1.63351, 16: 1.203595, 17: 2.73152, 18: 2.379177, 19: 3.201982, 20: 3.994593, 21: 1.739075, 22: 1.603782, 23: 0.166721, 24: 2.733659, 25: 0.33876, 26: 3.35967, 27: 3.627093, 28: 3.561989, 29: 0.187728, 30: 0.508501, 31: 2.499538, 32: 0.144472, 33: 2.764607, 34: 2.994216, 35: 2.701518, 36: 1.422482, 37: 2.3643, 38: 3.71676, 39: 0.613685, 40: 2.187212, 41: 0.978031, 42: 3.950793, 43: 0.6669, 44: 3.8256, 45: 3.461161, 46: 1.110536, 47: 1.454645, 48: 0.457515, 49: 3.166009, 50: 1.532436, 51: 0.065066, 52: 3.538641, 53: 2.794303, 54: 3.053168, 55: 0.953166, 56: 2.736142, 57: 3.942642, 58: 3.12905, 59: 0.730522, 60: 1.592798, 61: 0.854841, 62: 0.5497880000000001, 63: 2.00304, 64: 0.595922, 65: 2.581576, 66: 2.262397, 67: 3.144723, 68: 2.394113, 69: 3.191086, 70: 2.821223, 71: 2.933925, 72: 2.900055, 73: 2.192285, 74: 3.592429, 75: 1.637625, 76: 0.663744, 77: 1.321877, 78: 1.677999, 79: 3.700038, 80: 2.431982, 81: 0.689817, 82: 0.454567, 83: 2.70458, 84: 2.09318, 85: 2.31751, 86: 2.275787, 87: 0.535618, 88: 2.289133, 89: 3.073808, 90: 1.64149, 91: 2.286485, 92: 2.55842, 93: 0.522855, 94: 3.593364, 95: 0.398708, 96: 2.852874, 97: 3.927036, 98: 0.795754, 99: 1.023392, 100: 2.999451, 101: 0.150607, 102: 0.88197, 103: 1.868566, 104: 3.89989, 105: 3.832962, 106: 2.044368, 107: 1.958424, 108: 1.130104, 109: 3.54185, 110: 0.124614, 111: 2.592199, 112: 1.545041, 113: 2.621028, 114: 2.816333, 115: 0.6322179999999999, 116: 1.372978, 117: 3.97232, 118: 3.434669, 119: 1.784224, 120: 2.312608, 121: 0.810802, 122: 3.822712, 123: 3.115745, 124: 0.320269, 125: 1.774036, 126: 1.27583, 127: 1.155016, 128: 3.892889, 129: 3.906147, 130: 0.348714, 131: 2.434141, 132: 2.195201, 133: 3.15206, 134: 0.867333, 135: 2.161924, 136: 3.920093, 137: 0.400228, 138: 0.481984, 139: 2.291067, 140: 2.125868, 141: 3.919607, 142: 2.519605, 143: 3.022518, 144: 1.906566, 145: 3.426791, 146: 3.383919, 147: 1.064468, 148: 0.327776, 149: 1.35978, 150: 1.811869, 151: 1.339778, 152: 2.096706, 153: 3.999204, 154: 1.575955, 155: 2.918148, 156: 3.362142, 157: 1.08574, 158: 3.24718, 159: 2.137893, 160: 0.878738, 161: 1.084183, 162: 2.341668, 163: 0.783648, 164: 0.378708, 165: 2.276045, 166: 0.682663, 167: 0.7067600000000001, 168: 0.451762, 169: 1.472716, 170: 2.888061, 171: 0.552485, 172: 2.719609, 173: 2.524962, 174: 3.561074, 175: 3.847885, 176: 1.053818, 177: 2.325631, 178: 0.024119, 179: 1.849208, 180: 3.498456, 181: 2.842057, 182: 3.594449, 183: 1.63964, 184: 2.39989, 185: 0.690638, 186: 3.565645, 187: 3.391029, 188: 3.779489, 189: 1.697459, 190: 1.430524, 191: 3.241599];
charge = [0: 0.192272, 1: 0.617796, 2: 0.017823, 3: 0.531508, 4: 0.805987, 5: 0.850367, 6: 0.983878, 7: 0.635456, 8: 0.382265, 9: 0.152917, 10: 0.247714, 11: 0.458508, 12: 0.715805, 13: 0.084386, 14: 0.979494, 15: 0.811578, 16: 0.312799, 17: 0.88226, 18: 0.569672, 19: 0.560213, 20: 0.169964, 21: 0.69003, 22: 0.718112, 23: 0.436733, 24: 0.589803, 25: 0.491408, 26: 0.199735, 27: 0.8601220000000001, 28: 0.894212, 29: 0.724957, 30: 0.176194, 31: 0.887386, 32: 0.948076, 33: 0.003603, 34: 0.489391, 35: 0.70985, 36: 0.907037, 37: 0.337324, 38: 0.464828, 39: 0.525226, 40: 0.485624, 41: 0.167518, 42: 0.828438, 43: 0.685862, 44: 0.794883, 45: 0.113489, 46: 0.271122, 47: 0.892128, 48: 0.949465, 49: 0.115813, 50: 0.232358, 51: 0.466454, 52: 0.620215, 53: 0.037891, 54: 0.767541, 55: 0.952618, 56: 0.328119, 57: 0.7402300000000001, 58: 0.420801, 59: 0.299943, 60: 0.261762, 61: 0.992021, 62: 0.970799, 63: 0.747985, 64: 0.729487, 65: 0.186481, 66: 0.5937249999999999, 67: 0.957863, 68: 0.575215, 69: 0.950054, 70: 0.650927, 71: 0.217368, 72: 0.803049, 73: 0.436063, 74: 0.84666, 75: 0.72741, 76: 0.531375, 77: 0.325892, 78: 0.459575, 79: 0.145433, 80: 0.7455000000000001, 81: 0.767688, 82: 0.5478769999999999, 83: 0.402999, 84: 0.6182530000000001, 85: 0.046169, 86: 0.251297, 87: 0.671269, 88: 0.714059, 89: 0.779939, 90: 0.935075, 91: 0.752368, 92: 0.311798, 93: 0.200372, 94: 0.160111, 95: 0.509389, 96: 0.905273, 97: 0.192738, 98: 0.043517, 99: 0.705603, 100: 0.592991, 101: 0.099276, 102: 0.438141, 103: 0.9838789999999999, 104: 0.641556, 105: 0.517887, 106: 0.404232, 107: 0.923179, 108: 0.440108, 109: 0.5635559999999999, 110: 0.156067, 111: 0.340312, 112: 0.18268, 113: 0.682705, 114: 0.861144, 115: 0.32676, 116: 0.303879, 117: 0.902413, 118: 0.079306, 119: 0.376954, 120: 0.900885, 121: 0.994062, 122: 0.752016, 123: 0.9414670000000001, 124: 0.421418, 125: 0.899318, 126: 0.14414, 127: 0.728326, 128: 0.248349, 129: 0.800616, 130: 0.158629, 131: 0.171566, 132: 0.473668, 133: 0.92326, 134: 0.207363, 135: 0.970686, 136: 0.535241, 137: 0.599692, 138: 0.159629, 139: 0.428682, 140: 0.226665, 141: 0.257613, 142: 0.299044, 143: 0.630328, 144: 0.515815, 145: 0.809678, 146: 0.7017060000000001, 147: 0.8432770000000001, 148: 0.568723, 149: 0.261839, 150: 0.737447, 151: 0.989681, 152: 0.214197, 153: 0.7413380000000001, 154: 0.354372, 155: 0.447602, 156: 0.34948, 157: 0.057223, 158: 0.471614, 159: 0.244948, 160: 0.08303199999999999, 161: 0.402582, 162: 0.752078, 163: 0.771418, 164: 0.62893, 165: 0.302705, 166: 0.745629, 167: 0.410939, 168: 0.995509, 169: 0.165568, 170: 0.018822, 171: 0.8163629999999999, 172: 0.8188879999999999, 173: 0.804777, 174: 0.758704, 175: 0.490612, 176: 0.820234, 177: 0.643012, 178: 0.36124, 179: 0.161088, 180: 0.0071, 181: 0.38263, 182: 0.937018, 183: 0.43479, 184: 0.460808, 185: 0.308263, 186: 0.57928, 187: 0.549888, 188: 0.158887, 189: 0.095303, 190: 0.502533, 191: 0.09629600000000001];
discharge = [0: 0.5712390000000001, 1: 0.72936, 2: 0.17724, 3: 0.201962, 4: 0.052515, 5: 0.025938, 6: 0.162442, 7: 0.497501, 8: 0.9489, 9: 0.315295, 10: 0.868126, 11: 0.140522, 12: 0.318059, 13: 0.053961, 14: 0.274865, 15: 0.9035300000000001, 16: 0.318738, 17: 0.02801, 18: 0.400995, 19: 0.692626, 20: 0.8095560000000001, 21: 0.514779, 22: 0.38005, 23: 0.466372, 24: 0.349731, 25: 0.502306, 26: 0.683642, 27: 0.064731, 28: 0.144486, 29: 0.565287, 30: 0.945384, 31: 0.691692, 32: 0.696628, 33: 0.224384, 34: 0.604471, 35: 0.692868, 36: 0.350377, 37: 0.573842, 38: 0.318938, 39: 0.969581, 40: 0.205794, 41: 0.294656, 42: 0.137093, 43: 0.700723, 44: 0.588767, 45: 0.63713, 46: 0.064502, 47: 0.578808, 48: 0.100671, 49: 0.128772, 50: 0.355808, 51: 0.992138, 52: 0.229732, 53: 0.287184, 54: 0.823489, 55: 0.315771, 56: 0.295773, 57: 0.09056699999999999, 58: 0.493501, 59: 0.224495, 60: 0.771055, 61: 0.790745, 62: 0.006857, 63: 0.953485, 64: 0.878392, 65: 0.153247, 66: 0.637371, 67: 0.09926500000000001, 68: 0.666418, 69: 0.146582, 70: 0.761877, 71: 0.271981, 72: 0.495142, 73: 0.955698, 74: 0.711576, 75: 0.209604, 76: 0.997281, 77: 0.295033, 78: 0.416331, 79: 0.11467, 80: 0.75984, 81: 0.658088, 82: 0.323015, 83: 0.510802, 84: 0.136845, 85: 0.429701, 86: 0.255467, 87: 0.526094, 88: 0.796088, 89: 0.55044, 90: 0.160689, 91: 0.315939, 92: 0.328078, 93: 0.615806, 94: 0.84865, 95: 0.982147, 96: 0.627953, 97: 0.209724, 98: 0.578736, 99: 0.425288, 100: 0.962344, 101: 0.535914, 102: 0.747573, 103: 0.789345, 104: 0.134672, 105: 0.972339, 106: 0.271267, 107: 0.510935, 108: 0.565032, 109: 0.567719, 110: 0.07202500000000001, 111: 0.291086, 112: 0.962346, 113: 0.330156, 114: 0.060147, 115: 0.606496, 116: 0.428231, 117: 0.659704, 118: 0.292212, 119: 0.816491, 120: 0.191411, 121: 0.777894, 122: 0.376573, 123: 0.0905, 124: 0.277253, 125: 0.034867, 126: 0.08022899999999999, 127: 0.682987, 128: 0.213981, 129: 0.823632, 130: 0.9674199999999999, 131: 0.016655, 132: 0.138248, 133: 0.7663450000000001, 134: 0.155729, 135: 0.677984, 136: 0.24981, 137: 0.366973, 138: 0.077028, 139: 0.836962, 140: 0.498112, 141: 0.335047, 142: 0.333848, 143: 0.991132, 144: 0.034797, 145: 0.642587, 146: 0.102639, 147: 0.10723, 148: 0.574194, 149: 0.284534, 150: 0.342308, 151: 0.651129, 152: 0.319221, 153: 0.315988, 154: 0.455169, 155: 0.1642, 156: 0.939852, 157: 0.364407, 158: 0.288798, 159: 0.590218, 160: 0.323941, 161: 0.537408, 162: 0.642571, 163: 0.208347, 164: 0.836988, 165: 0.916287, 166: 0.898396, 167: 0.910931, 168: 0.63574, 169: 0.757832, 170: 0.549864, 171: 0.785969, 172: 0.203644, 173: 0.106583, 174: 0.633045, 175: 0.654018, 176: 0.207929, 177: 0.491148, 178: 0.455483, 179: 0.699866, 180: 0.262372, 181: 0.016756, 182: 0.188025, 183: 0.113177, 184: 0.826702, 185: 0.575468, 186: 0.465897, 187: 0.491649, 188: 0.045543, 189: 0.45954, 190: 0.53652, 191: 0.879374];
soc = [0: 3.390742, 1: 4.339075, 2: 3.947654, 3: 4.236856, 4: 3.88419, 5: 2.791128, 6: 5.850062, 7: 5.106947, 8: 8.744831, 9: 8.464447, 10: 4.84105, 11: 10.353258, 12: 11.733655, 13: 9.470388, 14: 8.188736, 15: 13.914948, 16: 10.130901, 17: 5.838313, 18: 9.389025, 19: 7.270778, 20: 7.946672, 21: 5.722027, 22: 12.769805, 23: 14.400704, 24: 12.47372, 25: 9.805901, 26: 9.151419000000001, 27: 7.208369, 28: 10.253251, 29: 5.443422, 30: 9.69886, 31: 7.559414, 32: 14.673645, 33: 10.065247, 34: 7.252235, 35: 11.251142, 36: 6.327309, 37: 9.710684000000001, 38: 8.726175, 39: 14.345042, 40: 12.394181, 41: 3.845994, 42: 6.727236, 43: 12.750996, 44: 4.407632, 45: 7.92007, 46: 15.378794, 47: 3.276419, 48: 4.580641, 49: 13.908553, 50: 10.460519, 51: 8.21448, 52: 15.44071, 53: 14.651165, 54: 13.646358, 55: 13.811802, 56: 11.211686, 57: 7.404029, 58: 5.011683, 59: 2.701751, 60: 13.318321, 61: 3.879148, 62: 15.340948, 63: 12.411101, 64: 5.695089, 65: 12.153136, 66: 3.233626, 67: 13.912398, 68: 9.599463, 69: 4.418391, 70: 13.444312, 71: 4.899964, 72: 13.21991, 73: 10.462945, 74: 14.50779, 75: 14.612989, 76: 8.577724, 77: 3.195848, 78: 15.032604, 79: 4.082862, 80: 15.592846, 81: 10.585572, 82: 13.989263, 83: 10.900443, 84: 8.281043, 85: 7.552818, 86: 4.407012, 87: 3.399969, 88: 15.60883, 89: 15.02211, 90: 8.556653000000001, 91: 3.345032, 92: 7.581252, 93: 3.353552, 94: 9.475001000000001, 95: 4.936357, 96: 15.100938, 97: 9.417787000000001, 98: 12.766358, 99: 9.165292000000001, 100: 11.526635, 101: 6.08233, 102: 12.595053, 103: 13.572036, 104: 6.844093, 105: 14.409883, 106: 15.213209, 107: 15.662208, 108: 9.601108999999999, 109: 11.306116, 110: 3.701329, 111: 15.624221, 112: 10.97685, 113: 4.808474, 114: 15.372052, 115: 9.032385, 116: 13.933248, 117: 10.894636, 118: 7.631106, 119: 3.481068, 120: 8.016601, 121: 14.959112, 122: 5.338168, 123: 8.095193, 124: 6.157873, 125: 5.618769, 126: 8.884772999999999, 127: 14.619846, 128: 11.423796, 129: 14.854785, 130: 6.022353, 131: 14.869006, 132: 10.56599, 133: 14.277455, 134: 13.480134, 135: 9.721246000000001, 136: 9.531547, 137: 12.879663, 138: 14.242025, 139: 12.333135, 140: 3.345098, 141: 9.812797, 142: 12.138094, 143: 5.0074, 144: 14.89153, 145: 4.177793, 146: 12.59024, 147: 10.997535, 148: 4.740708, 149: 4.29286, 150: 4.73999, 151: 15.045953, 152: 7.994406, 153: 6.954518, 154: 12.978856, 155: 10.957868, 156: 14.46424, 157: 4.824755, 158: 10.143323, 159: 7.881811, 160: 10.35421, 161: 9.426938, 162: 12.078709, 163: 7.218245, 164: 3.236145, 165: 11.246344, 166: 5.372648, 167: 2.882036, 168: 6.227094, 169: 8.740334000000001, 170: 11.671242, 171: 9.208157999999999, 172: 11.127865, 173: 10.934281, 174: 13.234788, 175: 3.666118, 176: 15.276349, 177: 7.417461, 178: 6.815605, 179: 6.588526, 180: 15.26807, 181: 4.92827, 182: 5.631775, 183: 4.944913, 184: 7.080332, 185: 3.594365, 186: 5.049928, 187: 14.094286, 188: 12.138951, 189: 12.78223, 190: 6.835446, 191: 11.675312];
cost = [0: 285.266005, 1: 4.338715, 2: 131.007199, 3: 207.733585, 4: 16.49551, 5: 43.33422, 6: 67.144127, 7: 227.734338, 8: 47.00386, 9: 594.358275, 10: 241.364513, 11: 538.332674, 12: 89.581017, 13: 180.979396, 14: 256.223852, 15: 132.214301, 16: 461.359366, 17: 398.095936, 18: 512.558546, 19: 301.302329, 20: 322.126253, 21: 403.610149, 22: 66.035991, 23: 6.502955, 24: 542.128345, 25: 437.306342, 26: 1122.568938, 27: 26.732787, 28: 527.537732, 29: 273.491415, 30: 550.48484, 31: 1140.292111, 32: 930.669254, 33: 9.966516, 34: 534.199595, 35: 853.452005, 36: 809.676347, 37: 318.724711, 38: 43.713769, 39: 485.934254, 40: 193.420285, 41: 727.608825, 42: 651.670694, 43: 107.144943, 44: 201.846071, 45: 649.349635, 46: 83.692677, 47: 515.060144, 48: 915.522361, 49: 657.966215, 50: 428.691461, 51: 87.896315, 52: 68.888329, 53: 588.426474, 54: 346.010168, 55: 409.237788, 56: 42.967268, 57: 581.180419, 58: 444.991888, 59: 353.677137, 60: 730.0296980000001, 61: 696.653878, 62: 489.839386, 63: 250.068626, 64: 917.478897, 65: 720.493379, 66: 478.671452, 67: 198.482792, 68: 144.627613, 69: 493.615008, 70: 1027.409925, 71: 1113.80901, 72: 85.191936, 73: 1026.612462, 74: 1099.065329, 75: 1083.676208, 76: 800.838555, 77: 848.8529559999999, 78: 317.971439, 79: 511.211982, 80: 288.644089, 81: 336.177642, 82: 716.89336, 83: 290.601716, 84: 828.920759, 85: 1113.031174, 86: 464.338145, 87: 1092.934526, 88: 4.990006, 89: 530.750477, 90: 561.0879169999999, 91: 319.765237, 92: 62.646807, 93: 231.649675, 94: 590.525782, 95: 598.8561089999999, 96: 453.186717, 97: 33.722414, 98: 510.489368, 99: 316.72958, 100: 544.303037, 101: 9.800261000000001, 102: 92.644758, 103: 299.288705, 104: 509.610022, 105: 110.718204, 106: 370.029506, 107: 446.882185, 108: 128.967533, 109: 277.426102, 110: 569.838813, 111: 172.851265, 112: 458.608873, 113: 407.659353, 114: 85.244136, 115: 287.806607, 116: 527.525589, 117: 179.290768, 118: 296.489186, 119: 232.137613, 120: 33.507449, 121: 739.945328, 122: 831.0474369999999, 123: 904.841852, 124: 951.708527, 125: 1063.095473, 126: 572.5777399999999, 127: 831.6929720000001, 128: 243.483957, 129: 1093.73415, 130: 1020.291055, 131: 208.668832, 132: 1047.913129, 133: 693.198221, 134: 882.022802, 135: 747.790168, 136: 785.633863, 137: 273.967417, 138: 486.346682, 139: 1186.507358, 140: 430.81573, 141: 293.592219, 142: 84.168211, 143: 295.921475, 144: 642.672493, 145: 698.4636860000001, 146: 446.384719, 147: 431.184317, 148: 571.305894, 149: 341.248558, 150: 306.6611, 151: 141.410282, 152: 495.347759, 153: 343.526455, 154: 75.64449399999999, 155: 345.245665, 156: 634.641287, 157: 139.75, 158: 1156.111277, 159: 1000.959732, 160: 912.041514, 161: 1131.568439, 162: 223.970697, 163: 257.104778, 164: 514.428639, 165: 1172.191403, 166: 531.1877449999999, 167: 46.413662, 168: 757.134124, 169: 104.905147, 170: 244.625571, 171: 205.34026, 172: 386.575771, 173: 241.287636, 174: 672.815736, 175: 631.795062, 176: 912.683903, 177: 0.777598, 178: 475.957083, 179: 1187.760122, 180: 532.686898, 181: 640.775437, 182: 661.823694, 183: 560.107606, 184: 78.01889199999999, 185: 24.66484, 186: 477.597501, 187: 90.327641, 188: 583.516167, 189: 167.43907, 190: 95.658942, 191: 374.734616];
earn = [0: 1.77229, 1: 1.335164, 2: 1.838595, 3: 1.525342, 4: 1.238962, 5: 0.457482, 6: 0.7078100000000001, 7: 0.725932, 8: 1.667629, 9: 1.270069, 10: 1.27563, 11: 2.231331, 12: 0.949936, 13: 0.920651, 14: 1.852892, 15: 1.375674, 16: 0.538652, 17: 1.704309, 18: 0.446164, 19: 0.077097, 20: 1.749586, 21: 0.520883, 22: 0.696359, 23: 1.918312, 24: 2.464913, 25: 1.117433, 26: 2.692205, 27: 2.808604, 28: 1.622762, 29: 0.712832, 30: 2.153965, 31: 1.589425, 32: 1.838999, 33: 0.6993740000000001, 34: 0.743078, 35: 0.452402, 36: 0.441739, 37: 0.686325, 38: 0.995529, 39: 0.657494, 40: 0.214558, 41: 0.185729, 42: 0.069824, 43: 0.009283, 44: -0.0, 45: -0.111331, 46: -0.15197, 47: -0.07070899999999999, 48: -0.019729, 49: -0.002815, 50: -0.0, 51: 0.029536, 52: 0.021434, 53: 0.036073, 54: 0.043627, 55: 0.18645, 56: 0.028485, 57: 0.531671, 58: 0.129743, 59: 0.959781, 60: 0.702056, 61: 1.808151, 62: 0.08183, 63: 0.403973, 64: 0.173621, 65: 0.5318349999999999, 66: 1.851772, 67: 1.701036, 68: 0.558684, 69: 1.538627, 70: 0.246697, 71: 0.708676, 72: 0.062778, 73: 0.645288, 74: 0.836272, 75: 2.401496, 76: 2.324366, 77: 2.689039, 78: 0.426034, 79: 1.50236, 80: 1.232795, 81: 0.398298, 82: 2.119746, 83: 0.664476, 84: 1.269633, 85: 0.575276, 86: 0.615986, 87: 0.73739, 88: 0.116561, 89: 1.608183, 90: 0.186902, 91: 1.392741, 92: 0.97694, 93: 1.450386, 94: 0.55053, 95: 0.911554, 96: 0.669606, 97: 0.289716, 98: 0.814337, 99: 0.383973, 100: 0.704593, 101: 0.321434, 102: 0.189636, 103: 0.683515, 104: 0.433038, 105: 0.118183, 106: 0.190406, 107: 0.328826, 108: 0.499063, 109: 0.535168, 110: 0.448249, 111: 0.319534, 112: 0.472034, 113: 0.706068, 114: 0.029205, 115: 0.064682, 116: 0.036912, 117: 0.536698, 118: 0.291466, 119: 0.526852, 120: 0.593913, 121: 1.416722, 122: 1.598651, 123: 1.272638, 124: 1.407964, 125: 1.528238, 126: 0.027667, 127: 0.114023, 128: 0.219327, 129: 0.10859, 130: -0.06608899999999999, 131: -0.08232200000000001, 132: -0.153277, 133: -0.188509, 134: -0.166034, 135: -0.015836, 136: -0.109288, 137: -0.020275, 138: -0.014073, 139: -0.021859, 140: -0.008956, 141: -0.001328, 142: -0.003213, 143: -0.004425, 144: -0.014854, 145: -0.000995, 146: -0.001557, 147: -0.0, 148: -0.002354, 149: 0.004295, 150: 0.012642, 151: 0.018209, 152: 0.256781, 153: 0.191434, 154: 0.365091, 155: 0.348332, 156: 1.116517, 157: 0.795253, 158: 1.664823, 159: 0.956701, 160: 1.018479, 161: 1.699852, 162: 2.051733, 163: 0.414191, 164: 1.924342, 165: 2.464014, 166: 2.526452, 167: 0.243277, 168: 3.990638, 169: 2.67867, 170: 0.700772, 171: 0.660734, 172: 1.612761, 173: 1.113951, 174: 2.263513, 175: 2.692231, 176: 0.863113, 177: 0.432452, 178: 2.76458, 179: 0.318128, 180: 2.011017, 181: 1.666678, 182: 1.608752, 183: 1.897013, 184: 2.027488, 185: 1.100851, 186: 0.992001, 187: 2.144024, 188: 0.85893, 189: 1.754859, 190: 1.268555, 191: 0.011068];
total_cost = 92.40917471871596;
total_earn = 22.36700892095457;
