production = [0: 0.0, 1: 0.0, 2: 0.0, 3: 0.0, 4: 0.0, 5: 0.0, 6: 0.0, 7: 0.0, 8: 0.0, 9: 0.0, 10: 0.0, 11: 0.0, 12: 0.0, 13: 0.0, 14: 0.0, 15: 0.0, 16: 0.0, 17: 0.0, 18: 0.0, 19: 0.0, 20: 0.0, 21: 0.0005, 22: 0.0005, 23: 0.0055, 24: 0.0335, 25: 0.0, 26: 0.0, 27: 0.0, 28: 0.2152, 29: 0.3118, 30: 0.0, 31: 0.0, 32: 0.092645833, 33: 0.0, 34: 0.0, 35: 0.0, 36: 0.0767, 37: 0.0725, 38: 0.065, 39: 0.0, 40: 0.0, 41: 0.0, 42: 0.0638, 43: 0.0, 44: 0.0278, 45: 0.0725, 46: 0.0, 47: 0.0, 48: 0.0635, 49: 0.0638, 50: 0.0, 51: 0.0, 52: 0.0, 53: 0.6965, 54: 0.5302, 55: 0.0, 56: 0.2815, 57: 0.0, 58: 0.0, 59: 0.0, 60: 0.0, 61: 0.1345, 62: 0.112, 63: 0.0, 64: 0.0, 65: 0.1045, 66: 0.0, 67: 0.0, 68: 0.0, 69: 0.0, 70: 0.08699999999999999, 71: 0.0, 72: 0.0, 73: 0.011, 74: 0.0, 75: 0.0003, 76: 0.0, 77: 0.0, 78: 0.0, 79: 0.0, 80: 0.0, 81: 0.0, 82: 0.0, 83: 0.0, 84: 0.0, 85: 0.0, 86: 0.0, 87: 0.0, 88: 0.0, 89: 0.0, 90: 0.0, 91: 0.0, 92: 0.0, 93: 0.0, 94: 0.0, 95: 0.0, 96: 0.0, 97: 0.0, 98: 0.0, 99: 0.0, 100: 0.0, 101: 0.0, 102: 0.0, 103: 0.0, 104: 0.0, 105: 0.0, 106: 0.0, 107: 0.0, 108: 0.0, 109: 0.0, 110: 0.0, 111: 0.0, 112: 0.0, 113: 0.0, 114: 0.0, 115: 0.0, 116: 0.0, 117: 0.0, 118: 0.0, 119: 0.004, 120: 0.0208, 121: 0.0, 122: 0.0, 123: 0.0, 124: 0.2005, 125: 0.2555, 126: 0.2865, 127: 0.0, 128: 0.0, 129: 0.0, 130: 0.5775, 131: 0.589, 132: 0.0, 133: 1.098, 134: 0.0, 135: 0.0, 136: 0.0, 137: 1.587, 138: 1.7095, 139: 0.0, 140: 0.0, 141: 1.5228, 142: 1.556, 143: 0.0, 144: 1.5693, 145: 0.0, 146: 1.9235, 147: 0.0, 148: 0.8448, 149: 1.598, 150: 0.0, 151: 0.0, 152: 0.6587, 153: 0.0, 154: 0.0, 155: 0.6595, 156: 0.652, 157: 0.0, 158: 0.0, 159: 0.6899999999999999, 160: 0.4243, 161: 0.0, 162: 0.0, 163: 0.0, 164: 0.1477, 165: 0.0, 166: 0.0, 167: 0.0767, 168: 0.0, 169: 0.0, 170: 0.0, 171: 0.0003, 172: 0.0, 173: 0.0, 174: 0.0, 175: 0.0, 176: 0.0, 177: 0.0, 178: 0.0, 179: 0.0, 180: 0.0, 181: 0.0, 182: 0.0, 183: 0.0, 184: 0.0, 185: 0.0, 186: 0.0, 187: 0.0, 188: 0.0, 189: 0.0, 190: 0.0, 191: 0.0];
buy = [0: 0.102145833, 1: 0.0, 2: 0.0, 3: 0.0, 4: 0.0, 5: 1.093445833, 6: 0.0, 7: 1.099645833, 8: 1.092845833, 9: 0.0, 10: 0.092645833, 11: 1.101145833, 12: 0.100645833, 13: 0.092645833, 14: 1.092645833, 15: 0.100145833, 16: 0.101145833, 17: 1.100645833, 18: 0.0, 19: 1.092145833, 20: 0.091145833, 21: 1.100145833, 22: 1.099845833, 23: 0.0, 24: 0.053445833, 25: 1.094445833, 26: 0.0, 27: 0.0, 28: 0.0, 29: 0.0, 30: 1.093445833, 31: 0.093645833, 32: 0.0, 33: 0.085645833, 34: 0.0, 35: 1.091845833, 36: 0.020445833, 37: 0.026145833, 38: 1.026145833, 39: 1.536145833, 40: 1.148445833, 41: 1.153945833, 42: 0.0, 43: 0.0, 44: 0.0, 45: 0.0, 46: 0.0, 47: 1.093145833, 48: 0.0, 49: 0.0, 50: 1.092345833, 51: 1.092845833, 52: 0.125345833, 53: 0.407145833, 54: 0.571745833, 55: 0.0, 56: 0.0, 57: 1.799845833, 58: 0.0, 59: 0.172145833, 60: 1.093145833, 61: 0.0, 62: 0.0, 63: 0.085145833, 64: 1.085945833, 65: 0.990645833, 66: 1.094945833, 67: 0.0, 68: 0.256845833, 69: 0.0, 70: 0.0, 71: 0.213645833, 72: 1.185845833, 73: 0.0, 74: 0.0, 75: 0.0, 76: 0.0, 77: 1.075145833, 78: 0.0, 79: 0.0, 80: 0.0, 81: 0.0, 82: 0.0, 83: 1.202945833, 84: 0.0, 85: 1.214145833, 86: 0.0, 87: 1.208945833, 88: 1.19528748, 89: 0.0, 90: 0.215145833, 91: 0.210445833, 92: 1.208145833, 93: 0.0, 94: 0.0, 95: 0.0, 96: 0.0, 97: 0.0, 98: 1.221645833, 99: 1.221645833, 100: 1.219845833, 101: 1.215345833, 102: 0.215645833, 103: 0.222645833, 104: 1.222345833, 105: 0.223645833, 106: 1.211645833, 107: 0.211845833, 108: 0.222645833, 109: 0.0, 110: 0.0, 111: 0.215145833, 112: 1.094945833, 113: 0.102445833, 114: 0.102145833, 115: 0.0, 116: 0.0, 117: 0.0, 118: 0.0, 119: 1.272345833, 120: 1.190045833, 121: 1.207945833, 122: 0.085345833, 123: 0.0, 124: 0.0, 125: 0.8306458329999999, 126: 0.0, 127: 1.084345833, 128: 1.093645833, 129: 0.0, 130: 0.506845833, 131: 0.0, 132: 0.092345833, 133: 0.002645833, 134: 1.095945833, 135: 1.087445833, 136: 0.0, 137: 0.0, 138: 0.0, 139: 0.092645833, 140: 1.084145833, 141: 0.0, 142: 0.0, 143: 0.0, 144: 0.0, 145: 0.0, 146: 0.0, 147: 0.08864583299999999, 148: 0.0, 149: 0.0, 150: 0.426345833, 151: 1.756645833, 152: 0.0, 153: 0.0, 154: 0.430345833, 155: 0.0, 156: 0.0, 157: 1.094645833, 158: 0.0, 159: 0.399145833, 160: 0.0, 161: 0.0, 162: 0.0, 163: 1.094445833, 164: 0.938745833, 165: 1.085945833, 166: 1.093945833, 167: 0.020645833, 168: 1.095645833, 169: 0.0, 170: 1.074645833, 171: 1.083845833, 172: 0.0, 173: 0.0, 174: 1.092845833, 175: 0.091345833, 176: 1.407145833, 177: 0.0, 178: 0.0, 179: 0.231236452, 180: 0.346945833, 181: 1.310345833, 182: 0.232145833, 183: 0.218145833, 184: 1.211345833, 185: 1.208945833, 186: 1.217645833, 187: 1.217845833, 188: 0.0, 189: 1.209145833, 190: 0.211645833, 191: 0.0];
sell = [0: 0.0, 1: 0.7993541669999999, 2: 0.7983541669999999, 3: 0.807154167, 4: 0.807854167, 5: 0.0, 6: 0.128426867, 7: 0.0, 8: 0.0, 9: 0.807354167, 10: 0.0, 11: 0.0, 12: 0.0, 13: 0.0, 14: 0.0, 15: 0.0, 16: 0.0, 17: 0.0, 18: 0.807854167, 19: 0.0, 20: 0.0, 21: 0.0, 22: 0.0, 23: 0.819354167, 24: 0.0, 25: 0.0, 26: 0.807154167, 27: 0.807854167, 28: 1.027754167, 29: 1.123654167, 30: 0.0, 31: 0.0, 32: 0.0, 33: 0.0, 34: 0.815654167, 35: 0.0, 36: 0.0, 37: 0.0, 38: 0.0, 39: 0.0, 40: 0.0, 41: 0.0, 42: 0.875154167, 43: 0.756168337, 44: 0.840654167, 45: 0.876354167, 46: 0.799854167, 47: 0.0, 48: 0.871354167, 49: 0.876354167, 50: 0.0, 51: 0.0, 52: 0.0, 53: 0.0, 54: 0.0, 55: 0.802854167, 56: 0.069654167, 57: 0.0, 58: 0.110354167, 59: 0.0, 60: 0.0, 61: 0.040054167, 62: 0.026354167, 63: 0.0, 64: 0.0, 65: 0.0, 66: 0.0, 67: 0.0, 68: 0.0, 69: 0.6451541669999999, 70: 0.746854167, 71: 0.0, 72: 0.0, 73: 0.836154167, 74: 0.815854167, 75: 0.816454167, 76: 0.817154167, 77: 0.0, 78: 0.825154167, 79: 0.817154167, 80: 0.816354167, 81: 0.6905541670000001, 82: 0.6965541669999999, 83: 0.0, 84: 0.687154167, 85: 0.0, 86: 0.692054167, 87: 0.0, 88: 0.0, 89: 0.683354167, 90: 0.0, 91: 0.0, 92: 0.0, 93: 0.684354167, 94: 0.684354167, 95: 0.683154167, 96: 0.687654167, 97: 0.689154167, 98: 0.0, 99: 0.0, 100: 0.0, 101: 0.0, 102: 0.0, 103: 0.0, 104: 0.0, 105: 0.0, 106: 0.0, 107: 0.0, 108: 0.0, 109: 0.6753541669999999, 110: 0.686354167, 111: 0.0, 112: 0.0, 113: 0.0, 114: 0.0, 115: 0.396854167, 116: 0.535854167, 117: 0.581154167, 118: 0.576554167, 119: 0.0, 120: 0.0, 121: 0.0, 122: 0.0, 123: 0.807354167, 124: 1.007054167, 125: 0.0, 126: 0.0, 127: 0.0, 128: 0.0, 129: 0.807154167, 130: 0.0, 131: 0.504354167, 132: 0.0, 133: 0.0, 134: 0.0, 135: 0.0, 136: 0.807854167, 137: 2.390054167, 138: 2.512154167, 139: 0.0, 140: 0.0, 141: 0.435854167, 142: 0.460054167, 143: 0.807354167, 144: 1.487854167, 145: 0.8215541669999999, 146: 2.743354167, 147: 0.0, 148: 0.747854167, 149: 1.183354167, 150: 0.0, 151: 0.0, 152: 0.113854167, 153: 0.078654167, 154: 0.0, 155: 1.122854167, 156: 1.455354167, 157: 0.0, 158: 0.804554167, 159: 0.0, 160: 0.0, 161: 0.807854167, 162: 0.806054167, 163: 0.0, 164: 0.0, 165: 0.0, 166: 0.0, 167: 0.0, 168: 0.0, 169: 0.825154167, 170: 0.0, 171: 0.0, 172: 0.8003541669999999, 173: 0.802354167, 174: 0.0, 175: 0.0, 176: 0.0, 177: 0.552054167, 178: 0.556554167, 179: 0.0, 180: 0.0, 181: 0.0, 182: 0.0, 183: 0.0, 184: 0.0, 185: 0.0, 186: 0.0, 187: 0.0, 188: 0.688854167, 189: 0.0, 190: 0.0, 191: 0.681154167];
charge = [0: 0.0, 1: 0.0, 2: 0.0, 3: 0.0, 4: 0.0, 5: 1.0, 6: 0.0, 7: 1.0, 8: 1.0, 9: 0.0, 10: 0.0, 11: 1.0, 12: 0.0, 13: 0.0, 14: 1.0, 15: 0.0, 16: 0.0, 17: 1.0, 18: 0.0, 19: 1.0, 20: 0.0, 21: 1.0, 22: 1.0, 23: 0.0, 24: 0.0, 25: 1.0, 26: 0.0, 27: 0.0, 28: 0.0, 29: 0.0, 30: 1.0, 31: 0.0, 32: 0.0, 33: 0.0, 34: 0.0, 35: 1.0, 36: 0.0, 37: 0.0, 38: 1.0, 39: 1.0, 40: 1.0, 41: 1.0, 42: 0.0, 43: 0.0, 44: 0.0, 45: 0.0, 46: 0.0, 47: 1.0, 48: 0.0, 49: 0.0, 50: 1.0, 51: 1.0, 52: 0.0, 53: 1.0, 54: 1.0, 55: 0.0, 56: 0.0, 57: 1.0, 58: 0.0, 59: 0.0, 60: 1.0, 61: 0.0, 62: 0.0, 63: 0.0, 64: 1.0, 65: 1.0, 66: 1.0, 67: 0.0, 68: 0.0, 69: 0.0, 70: 0.0, 71: 0.0, 72: 1.0, 73: 0.0, 74: 0.0, 75: 0.0, 76: 0.0, 77: 1.0, 78: 0.0, 79: 0.0, 80: 0.0, 81: 0.0, 82: 0.0, 83: 1.0, 84: 0.0, 85: 1.0, 86: 0.0, 87: 1.0, 88: 0.987841646, 89: 0.0, 90: 0.0, 91: 0.0, 92: 1.0, 93: 0.0, 94: 0.0, 95: 0.0, 96: 0.0, 97: 0.0, 98: 1.0, 99: 1.0, 100: 1.0, 101: 1.0, 102: 0.0, 103: 0.0, 104: 1.0, 105: 0.0, 106: 1.0, 107: 0.0, 108: 0.0, 109: 0.0, 110: 0.0, 111: 0.0, 112: 1.0, 113: 0.0, 114: 0.0, 115: 0.0, 116: 0.0, 117: 0.0, 118: 0.0, 119: 1.0, 120: 1.0, 121: 1.0, 122: 0.0, 123: 0.0, 124: 0.0, 125: 1.0, 126: 0.199354167, 127: 1.0, 128: 1.0, 129: 0.0, 130: 1.0, 131: 0.0, 132: 0.0, 133: 1.0, 134: 1.0, 135: 1.0, 136: 0.0, 137: 0.0, 138: 0.0, 139: 0.0, 140: 1.0, 141: 1.0, 142: 1.0, 143: 0.0, 144: 0.0, 145: 0.0, 146: 0.0, 147: 0.0, 148: 0.0, 149: 0.0, 150: 0.0, 151: 1.0, 152: 0.0, 153: 0.0, 154: 0.0, 155: 0.0, 156: 0.0, 157: 1.0, 158: 0.0, 159: 1.0, 160: 0.338954167, 161: 0.0, 162: 0.0, 163: 1.0, 164: 1.0, 165: 1.0, 166: 1.0, 167: 0.0, 168: 1.0, 169: 0.0, 170: 1.0, 171: 1.0, 172: 0.0, 173: 0.0, 174: 1.0, 175: 0.0, 176: 1.0, 177: 0.0, 178: 0.0, 179: 0.0, 180: 0.0, 181: 1.0, 182: 0.0, 183: 0.0, 184: 1.0, 185: 1.0, 186: 1.0, 187: 1.0, 188: 0.0, 189: 1.0, 190: 0.0, 191: 0.0];
discharge = [0: 0.0, 1: 1.0, 2: 1.0, 3: 1.0, 4: 1.0, 5: 0.0, 6: 0.254191889, 7: 0.0, 8: 0.0, 9: 1.0, 10: 0.0, 11: 0.0, 12: 0.0, 13: 0.0, 14: 0.0, 15: 0.0, 16: 0.0, 17: 0.0, 18: 1.0, 19: 0.0, 20: 0.0, 21: 0.0, 22: 0.0, 23: 1.0, 24: 0.0, 25: 0.0, 26: 1.0, 27: 1.0, 28: 1.0, 29: 1.0, 30: 0.0, 31: 0.0, 32: 0.0, 33: 0.0, 34: 1.0, 35: 0.0, 36: 0.0, 37: 0.0, 38: 0.0, 39: 0.0, 40: 0.0, 41: 0.0, 42: 1.0, 43: 0.9375713, 44: 1.0, 45: 1.0, 46: 1.0, 47: 0.0, 48: 1.0, 49: 1.0, 50: 0.0, 51: 0.0, 52: 0.0, 53: 0.0, 54: 0.0, 55: 1.0, 56: 0.0, 57: 0.0, 58: 1.0, 59: 0.0, 60: 0.0, 61: 0.0, 62: 0.0, 63: 0.0, 64: 0.0, 65: 0.0, 66: 0.0, 67: 0.250939815, 68: 0.0, 69: 1.0, 70: 1.0, 71: 0.0, 72: 0.0, 73: 1.0, 74: 1.0, 75: 1.0, 76: 1.0, 77: 0.0, 78: 1.0, 79: 1.0, 80: 1.0, 81: 1.0, 82: 1.0, 83: 0.0, 84: 1.0, 85: 0.0, 86: 1.0, 87: 0.0, 88: 0.0, 89: 1.0, 90: 0.0, 91: 0.0, 92: 0.0, 93: 1.0, 94: 1.0, 95: 1.0, 96: 1.0, 97: 1.0, 98: 0.0, 99: 0.0, 100: 0.0, 101: 0.0, 102: 0.0, 103: 0.0, 104: 0.0, 105: 0.0, 106: 0.0, 107: 0.0, 108: 0.0, 109: 1.0, 110: 1.0, 111: 0.0, 112: 0.0, 113: 0.0, 114: 0.0, 115: 1.0, 116: 1.0, 117: 1.0, 118: 1.0, 119: 0.0, 120: 0.0, 121: 0.0, 122: 0.0, 123: 1.0, 124: 1.0, 125: 0.0, 126: 0.0, 127: 0.0, 128: 0.0, 129: 1.0, 130: 0.0, 131: 0.0, 132: 0.0, 133: 0.0, 134: 0.0, 135: 0.0, 136: 1.0, 137: 1.0, 138: 1.0, 139: 0.0, 140: 0.0, 141: 0.0, 142: 0.0, 143: 1.0, 144: 0.0, 145: 1.0, 146: 1.0, 147: 0.0, 148: 0.0, 149: 0.0, 150: 0.0, 151: 0.0, 152: 0.0, 153: 1.0, 154: 0.0, 155: 1.0, 156: 1.0, 157: 0.0, 158: 1.0, 159: 0.0, 160: 0.0, 161: 1.0, 162: 1.0, 163: 0.0, 164: 0.0, 165: 0.0, 166: 0.0, 167: 0.0, 168: 0.0, 169: 1.0, 170: 0.0, 171: 0.0, 172: 1.0, 173: 1.0, 174: 0.0, 175: 0.0, 176: 0.0, 177: 1.0, 178: 1.0, 179: 0.127121535, 180: 0.0, 181: 0.0, 182: 0.0, 183: 0.0, 184: 0.0, 185: 0.0, 186: 0.0, 187: 0.0, 188: 1.0, 189: 0.0, 190: 0.0, 191: 1.0];
soc = [0: 13.627274, 1: 12.624548545, 2: 11.622023635, 3: 10.619699231, 4: 9.617575291, 5: 10.515651776, 6: 10.259356756, 7: 11.157304885, 8: 12.055073424, 9: 11.052662409, 10: 11.050451877, 11: 11.948241787, 12: 11.945852138, 13: 11.943462968, 14: 12.841074275, 15: 12.83850606, 16: 12.835938359, 17: 13.733371171, 18: 12.730624497, 19: 13.628078372, 20: 13.625352757, 21: 14.522627686, 22: 15.419723161, 23: 14.416639216, 24: 14.413755888, 25: 15.310873137, 26: 14.307810962, 27: 13.3049494, 28: 12.30228841, 29: 11.299827952, 30: 12.197567987, 31: 12.195128473, 32: 12.192689448, 33: 12.19025091, 34: 11.18781286, 35: 12.085575297, 36: 12.083158182, 37: 12.08074155, 38: 12.978325402, 39: 13.875729737, 40: 14.772954591, 41: 15.67, 42: 14.666866, 43: 13.726361326, 44: 12.723616054, 45: 11.721071331, 46: 10.718727117, 47: 11.616583371, 48: 10.614260055, 49: 9.612137203, 50: 10.510214775, 51: 11.408112732, 52: 11.40583111, 53: 12.303549943, 54: 13.201089233, 55: 12.198449016, 56: 12.196009326, 57: 13.093570124, 58: 12.09095141, 59: 12.08853322, 60: 12.986115513, 61: 12.98351829, 62: 12.980921586, 63: 12.978325402, 64: 13.875729737, 65: 14.772954591, 66: 15.67, 67: 15.415926185, 68: 15.412843, 69: 14.409760431, 70: 13.406878479, 71: 13.404197104, 72: 14.301516264, 73: 13.298655961, 74: 12.29599623, 75: 11.29353703, 76: 10.291278323, 77: 11.189220067, 78: 10.186982223, 79: 9.184944827000001, 80: 8.183107838, 81: 7.181471216, 82: 6.180034922, 83: 7.078798915, 84: 6.077383155, 85: 6.976167679, 86: 5.974772445, 87: 6.873577491, 88: 7.761260257, 89: 6.759708005, 90: 6.758356063, 91: 6.757004392, 92: 7.655652991, 93: 6.654121861, 94: 5.652791036, 95: 4.651660478, 96: 3.650730146, 97: 2.65, 98: 3.54947, 99: 4.448760106, 100: 5.347870354, 101: 6.24680078, 102: 6.24555142, 103: 6.244302309, 104: 7.143053449, 105: 7.141624838, 106: 8.040196513, 107: 8.038588474000001, 108: 8.036980756, 109: 7.03537336, 110: 6.033966286, 111: 6.032759492, 112: 6.93155294, 113: 6.93016663, 114: 6.928780596, 115: 5.92739484, 116: 4.926209361, 117: 3.925224119, 118: 2.924439075, 119: 3.823854187, 120: 4.723089416, 121: 5.622144798, 122: 5.621020369, 123: 4.619896165, 124: 3.618972186, 125: 4.518248391, 126: 4.696763492, 127: 5.595824139, 128: 6.494704974, 129: 5.493406033, 130: 6.392307352, 131: 6.391028891, 132: 6.389750685, 133: 7.288472735, 134: 8.18701504, 135: 9.085377637000001, 136: 8.083560562000001, 137: 7.081943849, 138: 6.080527461, 139: 6.079311355, 140: 6.978095493, 141: 7.876699874, 142: 8.775124534, 143: 7.773369509, 144: 7.771814835, 145: 6.770260472, 146: 5.76890642, 147: 5.767752639, 148: 5.766599088, 149: 5.765445768, 150: 5.764292679, 151: 6.663139821, 152: 6.661807193, 153: 5.660474831, 154: 5.659342736, 155: 4.658210868, 156: 3.657279226, 157: 4.55654777, 158: 3.55563646, 159: 4.454925333, 160: 4.759093098, 161: 3.758141279, 162: 2.757389651, 163: 3.656838173, 164: 4.556106805, 165: 5.455195584, 166: 6.354104545, 167: 6.352833724, 168: 7.251563157, 169: 6.250112845, 170: 7.148862822, 171: 8.047433049, 172: 7.045823563, 173: 6.044414398, 174: 6.943205515, 175: 6.941816874, 176: 7.840428511, 177: 6.838860425, 178: 5.837492653, 179: 5.70920362, 180: 5.708061779, 181: 6.606920167, 182: 6.605598783, 183: 6.604277663, 184: 7.502956807, 185: 8.401456216, 186: 9.299775925, 187: 10.19791597, 188: 9.195876386, 189: 10.094037211, 190: 10.092018404, 191: 9.09];
cost = [0: 0.06240089, 1: 0.0, 2: 0.0, 3: 0.0, 4: 0.0, 5: 0.786164225, 6: 0.0, 7: 0.789951805, 8: 0.785797685, 9: 0.0, 10: 0.05659734, 11: 0.790868155, 12: 0.06148454, 13: 0.05659734, 14: 0.7856755050000001, 15: 0.06117909, 16: 0.06178999, 17: 0.790562705, 18: 0.0, 19: 0.785370055, 20: 0.05568099, 21: 0.790257255, 22: 0.790073985, 23: 0.0, 24: 0.06357916299999999, 25: 1.420130929, 26: 0.0, 27: 0.0, 28: 0.0, 29: 0.0, 30: 1.418941329, 31: 0.111401083, 32: 0.0, 33: 0.101884283, 34: 0.0, 35: 1.417037969, 36: 0.024322363, 37: 0.031103083, 38: 1.338881249, 39: 1.945577249, 40: 1.484369329, 41: 1.490912129, 42: 0.0, 43: 0.0, 44: 0.0, 45: 0.0, 46: 0.0, 47: 1.418584449, 48: 0.0, 49: 0.0, 50: 1.417632769, 51: 1.418227569, 52: 0.07657377, 53: 0.366903555, 54: 0.467457695, 55: 0.0, 56: 0.0, 57: 1.217703985, 58: 0.0, 59: 0.10516389, 60: 1.418584449, 61: 0.0, 62: 0.0, 63: 0.101289483, 64: 1.410019329, 65: 1.296650449, 66: 1.420725729, 67: 0.0, 68: 0.305543803, 69: 0.0, 70: 0.0, 71: 0.254153083, 72: 1.528860369, 73: 0.0, 74: 0.0, 75: 0.0, 76: 0.0, 77: 1.397171649, 78: 0.0, 79: 0.0, 80: 0.0, 81: 0.0, 82: 0.0, 83: 1.549202529, 84: 0.0, 85: 1.562526049, 86: 0.0, 87: 1.556340129, 88: 0.846942435, 89: 0.0, 90: 0.13143259, 91: 0.12856136, 92: 0.8562344549999999, 93: 0.0, 94: 0.0, 95: 0.0, 96: 0.0, 97: 0.0, 98: 0.864481605, 99: 0.864481605, 100: 0.863381985, 101: 0.860632935, 102: 0.13173804, 103: 0.13601434, 104: 0.8649092350000001, 105: 0.13662524, 106: 0.858372605, 107: 0.12941662, 108: 0.13601434, 109: 0.0, 110: 0.0, 111: 0.13143259, 112: 0.7870805749999999, 113: 0.06258416, 114: 0.06240089, 115: 0.0, 116: 0.0, 117: 0.0, 118: 0.0, 119: 0.895454235, 120: 1.533856689, 121: 1.555150529, 122: 0.101527403, 123: 0.0, 124: 0.0, 125: 1.106314449, 126: 0.02355931, 127: 1.408115969, 128: 1.419179249, 129: 0.0, 130: 0.721121969, 131: 0.0, 132: 0.109854603, 133: 0.121325649, 134: 1.421915329, 135: 1.411803729, 136: 0.0, 137: 0.0, 138: 0.0, 139: 0.110211483, 140: 1.407878049, 141: 0.118178165, 142: 0.118178165, 143: 0.0, 144: 0.0, 145: 0.0, 146: 0.0, 147: 0.105453083, 148: 0.0, 149: 0.0, 150: 0.26045467, 151: 1.191313105, 152: 0.0, 153: 0.0, 154: 0.26289827, 155: 0.0, 156: 0.0, 157: 1.420368849, 158: 0.0, 159: 0.593002049, 160: 0.040056982, 161: 0.0, 162: 0.0, 163: 1.420130929, 164: 1.234910209, 165: 1.410019329, 166: 1.419536129, 167: 0.024560283, 168: 1.421558449, 169: 0.0, 170: 1.396576849, 171: 1.407521169, 172: 0.0, 173: 0.0, 174: 1.418227569, 175: 0.108665003, 176: 1.792118849, 177: 0.0, 178: 0.0, 179: 0.275078883, 180: 0.412726763, 181: 1.676965569, 182: 0.276160683, 183: 0.259506283, 184: 0.8581893350000001, 185: 0.8567231749999999, 186: 0.8620380050000001, 187: 0.862160185, 188: 0.0, 189: 0.856845355, 190: 0.12929444, 191: 0.0];
earn = [0: 0.0, 1: 0.246920502, 2: 0.234237113, 3: 0.219545933, 4: 0.177000848, 5: 0.0, 6: 0.025364306, 7: 0.0, 8: 0.0, 9: 0.111737817, 10: 0.0, 11: 0.0, 12: 0.0, 13: 0.0, 14: 0.0, 15: 0.0, 16: 0.0, 17: 0.0, 18: 0.147837313, 19: 0.0, 20: 0.0, 21: 0.0, 22: 0.0, 23: 0.253835921, 24: 0.0, 25: 0.0, 26: 0.37088734, 27: 0.341560742, 28: 0.437001072, 29: 0.455978861, 30: 0.0, 31: 0.0, 32: 0.0, 33: 0.0, 34: -0.031076424, 35: 0.0, 36: 0.0, 37: 0.0, 38: 0.0, 39: 0.0, 40: 0.0, 41: 0.0, 42: -0.010589365, 43: -0.00453701, 44: -0.003698878, 45: -0.003417781, 46: -0.002239592, 47: 0.0, 48: -0.003398281, 49: -0.001577437, 50: 0.0, 51: -0.0, 52: 0.0, 53: 0.0, 54: 0.0, 55: 0.007225687, 56: 0.00744603, 57: 0.0, 58: 0.014412254, 59: 0.0, 60: 0.0, 61: 0.016938907, 62: 0.011748687, 63: 0.0, 64: 0.0, 65: 0.0, 66: 0.0, 67: 0.0, 68: 0.0, 69: 0.508123422, 70: 0.614735665, 71: 0.0, 72: 0.0, 73: 0.89301265, 74: 0.921099354, 75: 0.920143846, 76: 0.759789944, 77: 0.0, 78: 0.748909922, 79: 0.729636955, 80: 0.673655458, 81: 0.551752779, 82: 0.551740555, 83: 0.0, 84: 0.475167106, 85: 0.0, 86: 0.451842165, 87: 0.0, 88: 0.0, 89: 0.416504365, 90: 0.0, 91: 0.0, 92: 0.0, 93: 0.374341729, 94: 0.374341729, 95: 0.374846691, 96: 0.37704078, 97: 0.370282534, 98: 0.0, 99: 0.0, 100: 0.0, 101: 0.0, 102: 0.0, 103: 0.0, 104: 0.0, 105: 0.0, 106: 0.0, 107: 0.0, 108: 0.0, 109: 0.331261219, 110: 0.344618427, 111: 0.0, 112: 0.0, 113: 0.0, 114: 0.0, 115: 0.20719756, 116: 0.281966463, 117: 0.307721131, 118: 0.312146426, 119: 0.0, 120: 0.0, 121: 0.0, 122: 0.0, 123: 0.494908104, 124: 0.655592263, 125: 0.0, 126: 0.0, 127: 0.0, 128: 0.0, 129: 0.488651133, 130: 0.0, 131: 0.267055531, 132: 0.0, 133: 0.0, 134: 0.0, 135: 0.0, 136: 0.391082202, 137: 1.128105567, 138: 1.191263506, 139: 0.0, 140: 0.0, 141: 0.222895821, 142: 0.235225695, 143: 0.416675485, 144: 0.794811696, 145: 0.438874236, 146: 1.465774131, 147: 0.0, 148: 0.417526981, 149: 0.660548296, 150: 0.0, 151: 0.0, 152: 0.06312075, 153: 0.043590139, 154: 0.0, 155: 0.631493183, 156: 0.848908085, 157: 0.0, 158: 0.468411436, 159: 0.0, 160: 0.0, 161: 0.558065658, 162: 0.562545203, 163: 0.0, 164: 0.0, 165: 0.0, 166: 0.0, 167: 0.0, 168: 0.0, 169: 0.748992437, 170: 0.0, 171: 0.0, 172: 0.6618128599999999, 173: 0.68641399, 174: 0.0, 175: 0.0, 176: 0.0, 177: 0.375838477, 178: 0.37194515, 179: 0.0, 180: 0.0, 181: 0.0, 182: 0.0, 183: 0.0, 184: 0.0, 185: 0.0, 186: 0.0, 187: 0.0, 188: 0.413450271, 189: 0.0, 190: 0.0, 191: 0.38001591];
total_cost = 85.337329461;
total_earn = 31.974617634;
% _objective = 53.362711827;