production = [0: 0.0, 1: 0.0, 2: 0.0, 3: 0.0, 4: 0.0, 5: 0.0, 6: 0.0, 7: 0.0, 8: 0.0, 9: 0.0, 10: 0.0, 11: 0.0, 12: 0.0, 13: 0.0, 14: 0.0, 15: 0.0, 16: 0.0, 17: 0.0, 18: 0.0, 19: 0.0, 20: 0.0, 21: 0.0005, 22: 0.0, 23: 0.0055, 24: 0.0335, 25: 0.0, 26: 0.076, 27: 0.0, 28: 0.0, 29: 0.3118, 30: 0.0, 31: 0.0, 32: 0.9307, 33: 0.0, 34: 0.9958, 35: 0.0, 36: 0.0, 37: 0.0, 38: 0.065, 39: 0.5175, 40: 0.1665, 41: 0.0, 42: 0.0, 43: 0.0, 44: 0.0278, 45: 0.0725, 46: 0.0542, 47: 0.0, 48: 0.0, 49: 0.0638, 50: 0.0, 51: 1.348, 52: 0.1067, 53: 0.6965, 54: 0.5302, 55: 0.4195, 56: 0.2815, 57: 0.0, 58: 0.2052, 59: 0.2437, 60: 0.0, 61: 0.0, 62: 0.112, 63: 0.0892, 64: 0.0, 65: 0.0, 66: 0.0, 67: 0.155, 68: 0.2387, 69: 0.1185, 70: 0.08699999999999999, 71: 0.0, 72: 0.0737, 73: 0.011, 74: 0.0, 75: 0.0003, 76: 0.0, 77: 0.0, 78: 0.0, 79: 0.0, 80: 0.0, 81: 0.0, 82: 0.0, 83: 0.0, 84: 0.0, 85: 0.0, 86: 0.0, 87: 0.0, 88: 0.0, 89: 0.0, 90: 0.0, 91: 0.0, 92: 0.0, 93: 0.0, 94: 0.0, 95: 0.0, 96: 0.0, 97: 0.0, 98: 0.0, 99: 0.0, 100: 0.0, 101: 0.0, 102: 0.0, 103: 0.0, 104: 0.0, 105: 0.0, 106: 0.0, 107: 0.0, 108: 0.0, 109: 0.0, 110: 0.0, 111: 0.0, 112: 0.0, 113: 0.0, 114: 0.0, 115: 0.0, 116: 0.0, 117: 0.0, 118: 0.0, 119: 0.0, 120: 0.0208, 121: 0.06, 122: 0.0, 123: 0.159, 124: 0.2005, 125: 0.2555, 126: 0.0, 127: 0.3875, 128: 0.0, 129: 0.0, 130: 0.5775, 131: 0.589, 132: 0.783, 133: 1.098, 134: 0.0, 135: 1.1955, 136: 0.0, 137: 0.0, 138: 1.7095, 139: 0.0, 140: 0.0, 141: 1.5228, 142: 1.556, 143: 0.8165, 144: 0.0, 145: 2.016, 146: 1.9235, 147: 1.7167, 148: 0.0, 149: 1.598, 150: 1.4545, 151: 1.278, 152: 0.0, 153: 0.0, 154: 0.6122, 155: 0.6595, 156: 0.652, 157: 0.0, 158: 0.5475, 159: 0.6899999999999999, 160: 0.0, 161: 0.3018, 162: 0.2552, 163: 0.0, 164: 0.0, 165: 0.0, 166: 0.0, 167: 0.0767, 168: 0.0367, 169: 0.0095, 170: 0.0, 171: 0.0, 172: 0.0, 173: 0.0, 174: 0.0, 175: 0.0, 176: 0.0, 177: 0.0, 178: 0.0, 179: 0.0, 180: 0.0, 181: 0.0, 182: 0.0, 183: 0.0, 184: 0.0, 185: 0.0, 186: 0.0, 187: 0.0, 188: 0.0, 189: 0.0, 190: 0.0, 191: 0.0];
buy = [0: 0.102145833, 1: 0.0, 2: 1.101645833, 3: 1.092845833, 4: 1.092145833, 5: 0.0, 6: 0.0, 7: 0.0, 8: 0.0, 9: 0.0, 10: 0.0, 11: 1.101145833, 12: 0.0, 13: 1.092645833, 14: 0.0, 15: 1.100145833, 16: 1.101145833, 17: 0.0, 18: 0.092145833, 19: 0.092145833, 20: 0.091145833, 21: 0.0, 22: 0.100345833, 23: 0.0, 24: 0.0, 25: 1.094445833, 26: 0.016845833, 27: 0.0, 28: 1.087445833, 29: 0.0, 30: 1.093445833, 31: 0.093645833, 32: 0.161945833, 33: 0.0, 34: 0.0, 35: 0.0, 36: 0.0, 37: 1.098645833, 38: 0.0, 39: 1.018645833, 40: 0.981945833, 41: 0.153945833, 42: 1.088645833, 43: 0.0, 44: 0.0, 45: 1.023645833, 46: 0.045945833, 47: 1.093145833, 48: 0.0, 49: 0.0, 50: 0.092345833, 51: 0.0, 52: 0.018645833, 53: 0.407145833, 54: 0.0, 55: 0.0, 56: 0.0, 57: 1.799845833, 58: 0.0, 59: 0.9284458330000001, 60: 1.093145833, 61: 0.0, 62: 0.0, 63: 0.0, 64: 1.085945833, 65: 1.095145833, 66: 0.09494583299999999, 67: 0.070845833, 68: 0.018145833, 69: 0.0, 70: 0.153145833, 71: 0.213645833, 72: 0.0, 73: 0.0, 74: 1.084145833, 75: 0.0, 76: 0.0, 77: 1.075145833, 78: 0.074845833, 79: 1.082845833, 80: 0.0, 81: 0.209445833, 82: 1.203445833, 83: 1.202945833, 84: 1.212845833, 85: 0.214145833, 86: 1.207945833, 87: 0.0, 88: 1.207445833, 89: 0.216645833, 90: 0.0, 91: 0.0, 92: 0.0, 93: 0.0, 94: 0.215645833, 95: 0.0, 96: 1.212345833, 97: 1.210845833, 98: 0.221645833, 99: 1.221645833, 100: 0.0, 101: 1.215345833, 102: 1.215645833, 103: 0.0, 104: 1.222345833, 105: 0.0, 106: 1.211645833, 107: 0.0, 108: 0.0, 109: 0.224645833, 110: 1.213645833, 111: 0.0, 112: 0.09494583299999999, 113: 0.0, 114: 1.102145833, 115: 0.0, 116: 1.364145833, 117: 1.318845833, 118: 0.0, 119: 0.0, 120: 1.190045833, 121: 0.0, 122: 1.085345833, 123: 0.0, 124: 0.892945833, 125: 0.0, 126: 0.08714583300000001, 127: 0.0, 128: 0.093645833, 129: 1.092845833, 130: 0.506845833, 131: 0.0, 132: 0.309345833, 133: 0.002645833, 134: 0.0, 135: 0.0, 136: 1.092145833, 137: 1.096945833, 138: 0.0, 139: 1.092645833, 140: 1.084145833, 141: 0.0, 142: 0.0, 143: 0.0, 144: 1.081445833, 145: 0.0, 146: 0.0, 147: 0.0, 148: 0.0, 149: 0.0, 150: 0.0, 151: 0.0, 152: 1.544845833, 153: 0.0, 154: 0.0, 155: 0.0, 156: 0.0, 157: 1.094645833, 158: 0.547945833, 159: 0.0, 160: 1.085345833, 161: 0.7903458330000001, 162: 0.8387458330000001, 163: 1.094445833, 164: 1.086445833, 165: 0.0, 166: 0.09394583300000001, 167: 1.020645833, 168: 0.058945833, 169: 0.0, 170: 0.07464583299999999, 171: 1.084145833, 172: 0.0, 173: 1.097645833, 174: 1.092845833, 175: 0.0, 176: 1.407145833, 177: 0.347945833, 178: 0.343445833, 179: 0.0, 180: 1.346945833, 181: 0.310345833, 182: 1.232145833, 183: 1.218145833, 184: 0.0, 185: 1.208945833, 186: 1.217645833, 187: 0.0, 188: 1.211145833, 189: 1.209145833, 190: 0.211645833, 191: 1.218845833];
sell = [0: 0.0, 1: 0.7993541669999999, 2: 0.0, 3: 0.0, 4: 0.0, 5: 0.806554167, 6: 0.799654167, 7: 0.8003541669999999, 8: 0.807154167, 9: 0.807354167, 10: 0.807354167, 11: 0.0, 12: 0.7993541669999999, 13: 0.0, 14: 0.807354167, 15: 0.0, 16: 0.0, 17: 0.7993541669999999, 18: 0.0, 19: 0.0, 20: 0.0, 21: 0.799854167, 22: 0.0, 23: 0.819354167, 24: 0.846554167, 25: 0.0, 26: 0.0, 27: 0.807854167, 28: 0.0, 29: 1.123654167, 30: 0.0, 31: 0.0, 32: 0.0, 33: 0.814354167, 34: 0.911454167, 35: 0.808154167, 36: 0.802854167, 37: 0.0, 38: 0.873854167, 39: 0.0, 40: 0.0, 41: 0.0, 42: 0.0, 43: 0.812354167, 44: 0.840654167, 45: 0.0, 46: 0.0, 47: 0.0, 48: 0.807854167, 49: 0.876354167, 50: 0.0, 51: 0.255154167, 52: 0.0, 53: 0.0, 54: 1.328254167, 55: 1.222354167, 56: 0.969654167, 57: 0.0, 58: 0.315554167, 59: 0.0, 60: 0.0, 61: 0.805554167, 62: 0.926354167, 63: 0.904054167, 64: 0.0, 65: 0.0, 66: 0.0, 67: 0.0, 68: 0.0, 69: 0.763654167, 70: 0.0, 71: 0.0, 72: 0.0, 73: 0.836154167, 74: 0.0, 75: 0.0, 76: 0.817154167, 77: 0.0, 78: 0.0, 79: 0.0, 80: 0.816354167, 81: 0.0, 82: 0.0, 83: 0.0, 84: 0.0, 85: 0.0, 86: 0.0, 87: 0.691054167, 88: 0.0, 89: 0.0, 90: 0.684854167, 91: 0.6895541670000001, 92: 0.174722714, 93: 0.684354167, 94: 0.0, 95: 0.683154167, 96: 0.0, 97: 0.0, 98: 0.0, 99: 0.0, 100: 0.680154167, 101: 0.0, 102: 0.0, 103: 0.677354167, 104: 0.0, 105: 0.676354167, 106: 0.0, 107: 0.688154167, 108: 0.677354167, 109: 0.0, 110: 0.0, 111: 0.684854167, 112: 0.0, 113: 0.797554167, 114: 0.0, 115: 0.396854167, 116: 0.0, 117: 0.0, 118: 0.576554167, 119: 0.0, 120: 0.0, 121: 0.7520541670000001, 122: 0.0, 123: 0.06635416700000001, 124: 0.0, 125: 1.069354167, 126: 0.0, 127: 1.203154167, 128: 0.0, 129: 0.0, 130: 0.0, 131: 0.0, 132: 0.0, 133: 0.0, 134: 0.804054167, 135: 2.008054167, 136: 0.0, 137: 0.0, 138: 1.612154167, 139: 0.0, 140: 0.0, 141: 1.435854167, 142: 0.460054167, 143: 0.723854167, 144: 0.0, 145: 2.837554167, 146: 2.743354167, 147: 0.6280541670000001, 148: 0.247620132, 149: 1.183354167, 150: 1.028154167, 151: 1.421354167, 152: 0.0, 153: 0.078654167, 154: 1.081854167, 155: 1.122854167, 156: 0.555354167, 157: 0.0, 158: 0.0, 159: 1.500854167, 160: 0.0, 161: 0.0, 162: 0.0, 163: 0.0, 164: 0.0, 165: 0.814054167, 166: 0.0, 167: 0.0, 168: 0.0, 169: 0.8346541669999999, 170: 0.0, 171: 0.0, 172: 0.8003541669999999, 173: 0.0, 174: 0.0, 175: 0.808654167, 176: 0.0, 177: 0.0, 178: 0.0, 179: 0.554354167, 180: 0.0, 181: 0.0, 182: 0.0, 183: 0.0, 184: 0.688654167, 185: 0.0, 186: 0.0, 187: 0.682154167, 188: 0.0, 189: 0.0, 190: 0.0, 191: 0.0];
charge = [0: 0.0, 1: 0.0, 2: 1.0, 3: 1.0, 4: 1.0, 5: 0.0, 6: 0.0, 7: 0.0, 8: 0.0, 9: 0.0, 10: 0.0, 11: 1.0, 12: 0.0, 13: 1.0, 14: 0.0, 15: 1.0, 16: 1.0, 17: 0.0, 18: 0.0, 19: 0.0, 20: 0.0, 21: 0.0, 22: 0.0, 23: 0.0, 24: 0.0, 25: 1.0, 26: 0.0, 27: 0.0, 28: 1.0, 29: 0.0, 30: 1.0, 31: 0.0, 32: 1.0, 33: 0.0, 34: 0.0, 35: 0.0, 36: 0.0, 37: 1.0, 38: 0.0, 39: 1.0, 40: 1.0, 41: 0.0, 42: 1.0, 43: 0.0, 44: 0.0, 45: 1.0, 46: 0.0, 47: 1.0, 48: 0.0, 49: 0.0, 50: 0.0, 51: 1.0, 52: 0.0, 53: 1.0, 54: 0.0, 55: 0.0, 56: 0.0, 57: 1.0, 58: 0.0, 59: 1.0, 60: 1.0, 61: 0.0, 62: 0.0, 63: 0.0, 64: 1.0, 65: 1.0, 66: 0.0, 67: 0.0, 68: 0.0, 69: 0.0, 70: 0.0, 71: 0.0, 72: 0.0, 73: 0.0, 74: 1.0, 75: 0.0, 76: 0.0, 77: 1.0, 78: 0.0, 79: 1.0, 80: 0.0, 81: 0.0, 82: 1.0, 83: 1.0, 84: 1.0, 85: 0.0, 86: 1.0, 87: 0.0, 88: 1.0, 89: 0.0, 90: 0.0, 91: 0.0, 92: 0.0, 93: 0.0, 94: 0.0, 95: 0.0, 96: 1.0, 97: 1.0, 98: 0.0, 99: 1.0, 100: 0.0, 101: 1.0, 102: 1.0, 103: 0.0, 104: 1.0, 105: 0.0, 106: 1.0, 107: 0.0, 108: 0.0, 109: 0.0, 110: 1.0, 111: 0.0, 112: 0.0, 113: 0.0, 114: 1.0, 115: 0.0, 116: 1.0, 117: 1.0, 118: 0.0, 119: 0.0, 120: 1.0, 121: 0.0, 122: 1.0, 123: 0.0, 124: 1.0, 125: 0.0, 126: 0.0, 127: 0.0, 128: 0.0, 129: 1.0, 130: 1.0, 131: 0.504354167, 132: 1.0, 133: 1.0, 134: 0.0, 135: 0.0, 136: 1.0, 137: 1.0, 138: 0.0, 139: 1.0, 140: 1.0, 141: 0.0, 142: 1.0, 143: 0.0, 144: 1.0, 145: 0.0, 146: 0.0, 147: 1.0, 148: 0.0, 149: 0.0, 150: 0.0, 151: 0.0, 152: 1.0, 153: 0.0, 154: 0.0, 155: 0.0, 156: 0.0, 157: 1.0, 158: 1.0, 159: 0.0, 160: 1.0, 161: 1.0, 162: 1.0, 163: 1.0, 164: 1.0, 165: 0.0, 166: 0.0, 167: 1.0, 168: 0.0, 169: 0.0, 170: 0.0, 171: 1.0, 172: 0.0, 173: 1.0, 174: 1.0, 175: 0.0, 176: 1.0, 177: 0.0, 178: 0.0, 179: 0.0, 180: 1.0, 181: 0.0, 182: 1.0, 183: 1.0, 184: 0.0, 185: 1.0, 186: 1.0, 187: 0.0, 188: 1.0, 189: 1.0, 190: 0.0, 191: 1.0];
discharge = [0: 0.0, 1: 1.0, 2: 0.0, 3: 0.0, 4: 0.0, 5: 1.0, 6: 1.0, 7: 1.0, 8: 1.0, 9: 1.0, 10: 1.0, 11: 0.0, 12: 1.0, 13: 0.0, 14: 1.0, 15: 0.0, 16: 0.0, 17: 1.0, 18: 0.0, 19: 0.0, 20: 0.0, 21: 1.0, 22: 0.0, 23: 1.0, 24: 1.0, 25: 0.0, 26: 0.0, 27: 1.0, 28: 0.0, 29: 1.0, 30: 0.0, 31: 0.0, 32: 0.0, 33: 1.0, 34: 0.0, 35: 1.0, 36: 1.0, 37: 0.0, 38: 1.0, 39: 0.0, 40: 0.0, 41: 0.0, 42: 0.0, 43: 1.0, 44: 1.0, 45: 0.0, 46: 0.0, 47: 0.0, 48: 1.0, 49: 1.0, 50: 0.0, 51: 0.0, 52: 0.0, 53: 0.0, 54: 1.0, 55: 1.0, 56: 1.0, 57: 0.0, 58: 1.0, 59: 0.0, 60: 0.0, 61: 1.0, 62: 1.0, 63: 1.0, 64: 0.0, 65: 0.0, 66: 0.0, 67: 0.0, 68: 0.0, 69: 1.0, 70: 0.0, 71: 0.0, 72: 0.124606481, 73: 1.0, 74: 0.0, 75: 0.092828704, 76: 1.0, 77: 0.0, 78: 0.0, 79: 0.0, 80: 1.0, 81: 0.0, 82: 0.0, 83: 0.0, 84: 0.0, 85: 0.0, 86: 0.0, 87: 1.0, 88: 0.0, 89: 0.0, 90: 1.0, 91: 1.0, 92: 0.425409497, 93: 1.0, 94: 0.0, 95: 1.0, 96: 0.0, 97: 0.0, 98: 0.0, 99: 0.0, 100: 1.0, 101: 0.0, 102: 0.0, 103: 1.0, 104: 0.0, 105: 1.0, 106: 0.0, 107: 1.0, 108: 1.0, 109: 0.0, 110: 0.0, 111: 1.0, 112: 0.0, 113: 1.0, 114: 0.0, 115: 1.0, 116: 0.0, 117: 0.0, 118: 1.0, 119: 0.307050926, 120: 0.0, 121: 1.0, 122: 0.0, 123: 0.0, 124: 0.0, 125: 1.0, 126: 0.0, 127: 1.0, 128: 0.0, 129: 0.0, 130: 0.0, 131: 0.0, 132: 0.0, 133: 0.0, 134: 1.0, 135: 1.0, 136: 0.0, 137: 0.0, 138: 0.0, 139: 0.0, 140: 0.0, 141: 0.0, 142: 0.0, 143: 0.0, 144: 0.0, 145: 1.0, 146: 1.0, 147: 0.0, 148: 0.382851072, 149: 0.0, 150: 0.0, 151: 1.0, 152: 0.0, 153: 1.0, 154: 1.0, 155: 1.0, 156: 0.0, 157: 0.0, 158: 0.0, 159: 1.0, 160: 0.0, 161: 0.0, 162: 0.0, 163: 0.0, 164: 0.0, 165: 1.0, 166: 0.0, 167: 0.0, 168: 0.0, 169: 1.0, 170: 0.0, 171: 0.0, 172: 1.0, 173: 0.0, 174: 0.0, 175: 1.0, 176: 0.0, 177: 0.0, 178: 0.0, 179: 1.0, 180: 0.0, 181: 0.0, 182: 0.0, 183: 0.0, 184: 1.0, 185: 0.0, 186: 0.0, 187: 1.0, 188: 0.0, 189: 0.0, 190: 0.0, 191: 0.0];
soc = [0: 13.627274, 1: 12.624548545, 2: 13.522023635, 3: 14.419319231, 4: 15.316435367, 5: 14.31337208, 6: 13.310509405, 7: 12.307847304, 8: 11.305385734, 9: 10.303124657, 10: 9.301064031999999, 11: 10.199203819, 12: 9.197163978000001, 13: 10.095324546, 14: 9.093305481, 15: 9.99148682, 16: 10.889488522, 17: 9.887310625, 18: 9.885333162, 19: 9.883356096, 20: 9.881379425, 21: 8.879403149, 22: 8.877627267999999, 23: 7.875851743, 24: 6.874276572, 25: 7.772901717, 26: 7.771347137, 27: 6.769792867, 28: 7.668438909, 29: 6.666905221, 30: 7.56557184, 31: 7.564058725, 32: 8.462545914, 33: 7.460853404, 34: 7.459361234, 35: 6.457869362, 36: 5.456577788, 37: 6.355486472, 38: 5.354215375, 39: 6.253144532, 40: 7.151893903, 41: 7.150463524, 42: 8.049033431, 43: 7.047423625, 44: 6.04601414, 45: 6.944804937, 46: 6.943415976, 47: 7.842027293, 48: 6.840458887, 49: 5.839090796, 50: 5.837922978, 51: 6.736755393, 52: 6.735408042, 53: 7.63406096, 54: 6.632534148, 55: 5.631207641, 56: 4.6300814, 57: 5.529155383, 58: 4.528049552, 59: 5.427143942, 60: 6.326058514, 61: 5.324793302, 62: 4.323728343, 63: 3.322863598, 64: 4.222199025, 65: 5.121354585, 66: 5.120330314, 67: 5.119306248, 68: 5.118282387, 69: 4.11725873, 70: 4.116435279, 71: 4.115611992, 72: 3.990182388, 73: 2.989384351, 74: 3.888786474, 75: 3.795180013, 76: 2.794420977, 77: 3.693862093, 78: 3.693123321, 79: 4.592384696, 80: 3.591466219, 81: 3.590747926, 82: 4.490029776, 83: 5.38913177, 84: 6.288053944, 85: 6.286796333, 86: 7.185538974, 87: 6.184101866, 88: 7.082865046, 89: 7.081448473, 90: 6.080032183, 91: 5.078816177, 92: 4.652390916, 93: 3.651460438, 94: 3.650730146, 95: 2.65, 96: 3.54947, 97: 4.448760106, 98: 4.447870354, 99: 5.34698078, 100: 4.345911384, 101: 5.245042201, 102: 6.143993193, 103: 5.142764394, 104: 6.041735842, 105: 5.040527494, 106: 5.939519389, 107: 4.938331485, 108: 3.937343819, 109: 3.93655635, 110: 4.835769039, 111: 3.834801885, 112: 3.834034924, 113: 2.833268117, 114: 3.732701464, 115: 2.731954924, 116: 3.631408533, 117: 4.530682251, 118: 3.529776114, 119: 3.222019233, 120: 4.121374829, 121: 3.120550554, 122: 4.019926444, 123: 4.019122459, 124: 4.918318635, 125: 3.917334971, 126: 3.916551504, 127: 2.915768194, 128: 2.91518504, 129: 3.814602003, 130: 4.713839082, 131: 5.166815065, 132: 6.065781702, 133: 6.964568545, 134: 5.963175632, 135: 4.961982996, 136: 5.8609906, 137: 6.759818402, 138: 6.758466438, 139: 7.657114745, 140: 8.555583322, 141: 8.553872204999999, 142: 9.452161431, 143: 9.450270998000001, 144: 10.348380944, 145: 9.346311267999999, 146: 8.344442006, 147: 9.242773117, 148: 8.858073490000001, 149: 8.856301876, 150: 8.854530615, 151: 7.852759709, 152: 8.751189157000001, 153: 7.749438919, 154: 6.747889032, 155: 5.746539454, 156: 5.745390146, 157: 6.644241068, 158: 7.54291222, 159: 6.541403637, 160: 7.440095357, 161: 8.338607336999999, 162: 9.236939616000001, 163: 10.135092228, 164: 11.03306521, 165: 10.030858597, 166: 10.028852425, 167: 10.926846654, 168: 10.924661285, 169: 9.922476353, 170: 9.920491857, 171: 10.818507759, 172: 9.816344058, 173: 10.714380789, 174: 11.612237913, 175: 10.609915465, 176: 11.507793482, 177: 11.505491923, 178: 11.503190825, 179: 10.500890187, 180: 11.398790009, 181: 11.396510251, 182: 12.294230949, 183: 13.191772102, 184: 12.189133748, 185: 13.086695921, 186: 13.984078582, 187: 12.981281766, 188: 13.87868551, 189: 14.775909773, 190: 14.772954591, 191: 15.67];
cost = [0: 0.06240089, 1: 0.0, 2: 0.791173605, 3: 0.785797685, 4: 0.785370055, 5: 0.0, 6: 0.0, 7: 0.0, 8: 0.0, 9: 0.0, 10: 0.0, 11: 0.790868155, 12: 0.0, 13: 0.7856755050000001, 14: 0.0, 15: 0.790257255, 16: 0.790868155, 17: 0.0, 18: 0.05629189, 19: 0.05629189, 20: 0.05568099, 21: 0.0, 22: 0.06130127, 23: 0.0, 24: 0.0, 25: 1.420130929, 26: 0.020039803, 27: 0.0, 28: 1.411803729, 29: 0.0, 30: 1.418941329, 31: 0.111401083, 32: 0.310828929, 33: 0.0, 34: 0.0, 35: 0.0, 36: 0.0, 37: 1.425127249, 38: 0.0, 39: 1.329959249, 40: 1.286300929, 41: 0.183133963, 42: 1.413231249, 43: 0.0, 44: 0.0, 45: 1.335907249, 46: 0.054657163, 47: 1.418584449, 48: 0.0, 49: 0.0, 50: 0.109854603, 51: 0.118178165, 52: 0.01139074, 53: 0.366903555, 54: 0.0, 55: 0.0, 56: 0.0, 57: 1.217703985, 58: 0.0, 59: 0.685365725, 60: 1.418584449, 61: 0.0, 62: 0.0, 63: 0.0, 64: 1.410019329, 65: 1.420963649, 66: 0.112947563, 67: 0.084278203, 68: 0.021586283, 69: 0.0, 70: 0.182182283, 71: 0.254153083, 72: 0.0, 73: 0.0, 74: 1.407878049, 75: 0.0, 76: 0.0, 77: 1.397171649, 78: 0.08903660300000001, 79: 1.406331569, 80: 0.0, 81: 0.249156763, 82: 1.549797329, 83: 1.549202529, 84: 1.560979569, 85: 0.254747883, 86: 1.555150529, 87: 0.0, 88: 0.855806825, 89: 0.13234894, 90: 0.0, 91: 0.0, 92: 0.0, 93: 0.0, 94: 0.13173804, 95: 0.0, 96: 0.858800235, 97: 0.857883885, 98: 0.13540344, 99: 0.864481605, 100: 0.0, 101: 0.860632935, 102: 0.860816205, 103: 0.0, 104: 0.8649092350000001, 105: 0.0, 106: 0.858372605, 107: 0.0, 108: 0.0, 109: 0.13723614, 110: 0.859594405, 111: 0.0, 112: 0.05800241, 113: 0.0, 114: 0.791479055, 115: 0.0, 116: 0.951534855, 117: 0.923861085, 118: 0.0, 119: 0.0, 120: 1.533856689, 121: 0.0, 122: 1.409305569, 123: 0.0, 124: 1.180426529, 125: 0.0, 126: 0.103668683, 127: 0.0, 128: 0.111401083, 129: 1.418227569, 130: 0.721121969, 131: 0.05960365, 132: 0.486175969, 133: 0.121325649, 134: 0.0, 135: 0.0, 136: 1.417394849, 137: 1.423104929, 138: 0.0, 139: 1.417989649, 140: 1.407878049, 141: 0.0, 142: 0.118178165, 143: 0.0, 144: 1.404666129, 145: 0.0, 146: 0.0, 147: 0.118178165, 148: 0.0, 149: 0.0, 150: 0.0, 151: 0.0, 152: 1.061924485, 153: 0.0, 154: 0.0, 155: 0.0, 156: 0.0, 157: 1.420368849, 158: 0.770014529, 159: 0.0, 160: 1.409305569, 161: 1.058373569, 162: 1.115950209, 163: 1.420130929, 164: 1.410614129, 165: 0.0, 166: 0.111757963, 167: 1.332338449, 168: 0.070121963, 169: 0.0, 170: 0.088798683, 171: 1.407878049, 172: 0.0, 173: 1.423937649, 174: 1.418227569, 175: 0.0, 176: 1.792118849, 177: 0.413916363, 178: 0.408563163, 179: 0.0, 180: 1.720504929, 181: 0.369187403, 182: 1.583938849, 183: 1.567284449, 184: 0.0, 185: 0.8567231749999999, 186: 0.8620380050000001, 187: 0.0, 188: 0.858067155, 189: 0.856845355, 190: 0.12929444, 191: 0.862771085];
earn = [0: 0.0, 1: 0.246920502, 2: 0.0, 3: 0.0, 4: 0.0, 5: 0.172441281, 6: 0.157931698, 7: 0.140302085, 8: 0.116633777, 9: 0.111737817, 10: 0.112302965, 11: 0.0, 12: 0.111190165, 13: 0.0, 14: 0.11343326, 15: 0.0, 16: 0.0, 17: 0.14668149, 18: 0.0, 19: 0.0, 20: 0.0, 21: 0.193644694, 22: 0.0, 23: 0.253835921, 24: 0.338113734, 25: 0.0, 26: 0.0, 27: 0.341560742, 28: 0.0, 29: 0.455978861, 30: 0.0, 31: 0.0, 32: 0.0, 33: 0.045278092, 34: -0.034726404, 35: -0.026830718, 36: -0.045521831, 37: 0.0, 38: -0.052343865, 39: 0.0, 40: 0.0, 41: 0.0, 42: 0.0, 43: -0.004874125, 44: -0.003698878, 45: 0.0, 46: 0.0, 47: 0.0, 48: -0.003150631, 49: -0.001577438, 50: 0.0, 51: -0.0, 52: 0.0, 53: 0.0, 54: 0.009696255000000001, 55: 0.011001187, 56: 0.10365603, 57: 0.0, 58: 0.041211374, 59: 0.0, 60: 0.0, 61: 0.340668857, 62: 0.412968688, 63: 0.419209917, 64: 0.0, 65: 0.0, 66: 0.0, 67: 0.0, 68: 0.0, 69: 0.601454022, 70: 0.0, 71: 0.0, 72: 0.0, 73: 0.89301265, 74: 0.0, 75: 0.0, 76: 0.759789944, 77: 0.0, 78: 0.0, 79: 0.0, 80: 0.673655458, 81: 0.0, 82: 0.0, 83: 0.0, 84: 0.0, 85: 0.0, 86: 0.0, 87: 0.437575498, 88: 0.0, 89: 0.0, 90: 0.415227081, 91: 0.404906207, 92: 0.09153723, 93: 0.374341729, 94: 0.0, 95: 0.374846691, 96: 0.0, 97: 0.0, 98: 0.0, 99: 0.0, 100: 0.35510849, 101: 0.0, 102: 0.0, 103: 0.343147621, 104: 0.0, 105: 0.323703104, 106: 0.0, 107: 0.333479509, 108: 0.335154842, 109: 0.0, 110: 0.0, 111: 0.343180423, 112: 0.0, 113: 0.413372325, 114: 0.0, 115: 0.20719756, 116: 0.0, 117: 0.0, 118: 0.312146426, 119: 0.0, 120: 0.0, 121: 0.452360581, 122: 0.0, 123: 0.040675104, 124: 0.0, 125: 0.69925069, 126: 0.0, 127: 0.741383598, 128: 0.0, 129: 0.0, 130: 0.0, 131: 0.0, 132: 0.0, 133: 0.0, 134: 0.401785867, 135: 1.09177905, 136: 0.0, 137: 0.0, 138: 0.764483506, 139: 0.0, 140: 0.0, 141: 0.734295821, 142: 0.235225695, 143: 0.373581135, 144: 0.0, 145: 1.515821436, 146: 1.465774131, 147: 0.337955947, 148: 0.13824632, 149: 0.660548296, 150: 0.573504394, 151: 0.7929734899999999, 152: 0.0, 153: 0.043590139, 154: 0.610598492, 155: 0.631493183, 156: 0.323938085, 157: 0.0, 158: 0.0, 159: 0.885353873, 160: 0.0, 161: 0.0, 162: 0.0, 163: 0.0, 164: 0.0, 165: 0.57936235, 166: 0.0, 167: 0.0, 168: 0.0, 169: 0.757615587, 170: 0.0, 171: 0.0, 172: 0.6618128599999999, 173: 0.0, 174: 0.0, 175: 0.672315074, 176: 0.0, 177: 0.0, 178: 0.0, 179: 0.356948648, 180: 0.0, 181: 0.0, 182: 0.0, 183: 0.0, 184: 0.439843416, 185: 0.0, 186: 0.0, 187: 0.396877294, 188: 0.0, 189: 0.0, 190: 0.0, 191: 0.0];
total_cost = 90.641989731;
total_earn = 29.595906376;
