production = [0: 0.0, 1: 0.0, 2: 0.0, 3: 0.0, 4: 0.0, 5: 0.0, 6: 0.0, 7: 0.0, 8: 0.0, 9: 0.0, 10: 0.0, 11: 0.0, 12: 0.0, 13: 0.0, 14: 0.0, 15: 0.0, 16: 0.0, 17: 0.0, 18: 0.0, 19: 0.0, 20: 0.0, 21: 0.0005, 22: 0.0, 23: 0.0055, 24: 0.0335, 25: 0.0, 26: 0.0, 27: 0.1442, 28: 0.0, 29: 0.3118, 30: 0.3152, 31: 0.547, 32: 0.0, 33: 0.93, 34: 0.0, 35: 0.0, 36: 0.0767, 37: 0.0, 38: 0.0, 39: 0.0, 40: 0.1665, 41: 0.1335, 42: 0.0638, 43: 0.061, 44: 0.0278, 45: 0.0, 46: 0.0542, 47: 0.07049999999999999, 48: 0.0, 49: 0.0638, 50: 0.0, 51: 0.0, 52: 0.1067, 53: 0.5975897019999999, 54: 0.0, 55: 0.4195, 56: 0.2815, 57: 0.0, 58: 0.2052, 59: 0.2437, 60: 0.0, 61: 0.0, 62: 0.112, 63: 0.0, 64: 0.0, 65: 0.1045, 66: 0.0, 67: 0.0, 68: 0.0, 69: 0.1185, 70: 0.08699999999999999, 71: 0.0727, 72: 0.0, 73: 0.0, 74: 0.0, 75: 0.0003, 76: 0.0, 77: 0.0, 78: 0.0, 79: 0.0, 80: 0.0, 81: 0.0, 82: 0.0, 83: 0.0, 84: 0.0, 85: 0.0, 86: 0.0, 87: 0.0, 88: 0.0, 89: 0.0, 90: 0.0, 91: 0.0, 92: 0.0, 93: 0.0, 94: 0.0, 95: 0.0, 96: 0.0, 97: 0.0, 98: 0.0, 99: 0.0, 100: 0.0, 101: 0.0, 102: 0.0, 103: 0.0, 104: 0.0, 105: 0.0, 106: 0.0, 107: 0.0, 108: 0.0, 109: 0.0, 110: 0.0, 111: 0.0, 112: 0.0, 113: 0.0, 114: 0.0, 115: 0.0, 116: 0.0, 117: 0.0, 118: 0.0, 119: 0.0, 120: 0.0, 121: 0.0, 122: 0.118, 123: 0.159, 124: 0.2005, 125: 0.0, 126: 0.2865, 127: 0.3875, 128: 0.4665, 129: 0.0, 130: 0.5775, 131: 0.0, 132: 0.0, 133: 0.0, 134: 0.0, 135: 1.1955, 136: 1.0292, 137: 0.0, 138: 1.7095, 139: 0.0, 140: 0.0, 141: 1.5228, 142: 0.0, 143: 0.0, 144: 0.0, 145: 0.0, 146: 1.9235, 147: 0.0, 148: 0.8448, 149: 1.414645833, 150: 1.4545, 151: 0.0, 152: 0.6587, 153: 0.7222, 154: 0.0, 155: 0.0, 156: 0.0, 157: 1.0702, 158: 0.5475, 159: 0.0, 160: 0.4243, 161: 0.0, 162: 0.0, 163: 0.2092, 164: 0.1477, 165: 0.1633, 166: 0.0, 167: 0.0, 168: 0.0, 169: 0.0, 170: 0.0005, 171: 0.0, 172: 0.0, 173: 0.0, 174: 0.0, 175: 0.0, 176: 0.0, 177: 0.0, 178: 0.0, 179: 0.0, 180: 0.0, 181: 0.0, 182: 0.0, 183: 0.0, 184: 0.0, 185: 0.0, 186: 0.0, 187: 0.0, 188: 0.0, 189: 0.0, 190: 0.0, 191: 0.0];
buy = [0: 0.0, 1: 1.100645833, 2: 1.101645833, 3: 1.092845833, 4: 0.0, 5: 0.0, 6: 0.0, 7: 0.0, 8: 1.092845833, 9: 1.092645833, 10: 1.092645833, 11: 1.101145833, 12: 0.0, 13: 1.092645833, 14: 0.0, 15: 0.100145833, 16: 0.101145833, 17: 1.100645833, 18: 1.092145833, 19: 0.0, 20: 0.091145833, 21: 0.0, 22: 0.0, 23: 0.080645833, 24: 0.0, 25: 0.0, 26: 1.092845833, 27: 0.0, 28: 1.087445833, 29: 0.776345833, 30: 0.7782458330000001, 31: 0.546645833, 32: 1.092645833, 33: 0.0, 34: 0.0, 35: 0.091845833, 36: 0.020445833, 37: 1.098645833, 38: 1.091145833, 39: 0.0, 40: 0.0, 41: 0.0, 42: 0.024845833, 43: 1.026645833, 44: 0.0, 45: 1.096145833, 46: 1.045945833, 47: 0.0, 48: 1.092145833, 49: 1.023645833, 50: 0.0, 51: 1.092845833, 52: 0.0, 53: 0.0, 54: 1.101945833, 55: 0.0, 56: 0.930345833, 57: 0.799845833, 58: 0.0, 59: 0.9284458330000001, 60: 1.093145833, 61: 0.09444583300000001, 62: 0.0, 63: 1.085145833, 64: 0.0, 65: 0.0, 66: 0.0, 67: 0.225845833, 68: 1.256845833, 69: 1.136345833, 70: 0.153145833, 71: 1.140945833, 72: 1.185845833, 73: 0.074845833, 74: 0.0, 75: 1.083545833, 76: 0.0, 77: 1.075145833, 78: 0.317417803, 79: 0.0, 80: 1.083645833, 81: 0.209445833, 82: 0.0, 83: 0.0, 84: 0.0, 85: 0.0, 86: 0.0, 87: 1.208945833, 88: 0.890660764, 89: 0.0, 90: 0.0, 91: 0.0, 92: 1.208145833, 93: 1.215645833, 94: 0.0, 95: 1.216845833, 96: 1.212345833, 97: 1.210845833, 98: 0.221645833, 99: 1.221645833, 100: 0.0, 101: 0.0, 102: 0.215645833, 103: 0.0, 104: 1.222345833, 105: 1.223645833, 106: 1.211645833, 107: 1.211845833, 108: 1.222645833, 109: 0.0, 110: 1.213645833, 111: 0.215145833, 112: 0.0, 113: 0.0, 114: 0.0, 115: 0.0, 116: 1.364145833, 117: 1.318845833, 118: 0.0, 119: 0.0, 120: 0.0, 121: 1.207945833, 122: 0.0, 123: 0.0, 124: 0.892945833, 125: 0.0, 126: 0.0, 127: 0.696845833, 128: 0.0, 129: 0.092845833, 130: 0.0, 131: 0.084645833, 132: 1.092345833, 133: 0.0, 134: 1.095945833, 135: 0.0, 136: 0.0, 137: 1.096945833, 138: 0.0, 139: 1.092645833, 140: 0.084145833, 141: 0.0, 142: 0.0, 143: 1.092645833, 144: 0.0, 145: 1.078445833, 146: 0.0, 147: 0.0, 148: 0.0, 149: 0.0, 150: 0.0, 151: 0.756645833, 152: 0.886145833, 153: 0.099145833, 154: 0.430345833, 155: 0.0, 156: 1.096645833, 157: 0.0, 158: 0.0, 159: 0.08914583299999999, 160: 0.661045833, 161: 0.092145833, 162: 1.093945833, 163: 0.0, 164: 0.938745833, 165: 0.0, 166: 1.093945833, 167: 1.097345833, 168: 0.0, 169: 0.074845833, 170: 0.198540001, 171: 1.084145833, 172: 0.0, 173: 0.097645833, 174: 1.092845833, 175: 0.091345833, 176: 0.0, 177: 1.347945833, 178: 0.0, 179: 0.0, 180: 0.346945833, 181: 1.310345833, 182: 1.232145833, 183: 0.0, 184: 1.211345833, 185: 0.810369981, 186: 0.0, 187: 0.217845833, 188: 0.211145833, 189: 0.0, 190: 0.0, 191: 0.218845833];
sell = [0: 0.797854167, 1: 0.0, 2: 0.0, 3: 0.0, 4: 0.807854167, 5: 0.806554167, 6: 0.716708055, 7: 0.8003541669999999, 8: 0.0, 9: 0.0, 10: 0.0, 11: 0.0, 12: 0.7993541669999999, 13: 0.0, 14: 0.807354167, 15: 0.0, 16: 0.0, 17: 0.0, 18: 0.0, 19: 0.807854167, 20: 0.0, 21: 0.799854167, 22: 0.799654167, 23: 0.0, 24: 0.846554167, 25: 0.805554167, 26: 0.0, 27: 0.952054167, 28: 0.0, 29: 0.0, 30: 0.0, 31: 0.0, 32: 0.0, 33: 1.744354167, 34: 0.815654167, 35: 0.0, 36: 0.0, 37: 0.0, 38: 0.0, 39: 0.363854167, 40: 0.918054167, 41: 0.879554167, 42: 0.0, 43: 0.0, 44: 0.840654167, 45: 0.0, 46: 0.0, 47: 0.877354167, 48: 0.0, 49: 0.0, 50: 0.807654167, 51: 0.0, 52: 0.881354167, 53: 0.0, 54: 0.0, 55: 1.222354167, 56: 0.0, 57: 0.0, 58: 0.315554167, 59: 0.0, 60: 0.0, 61: 0.0, 62: 0.926354167, 63: 0.0, 64: 0.814054167, 65: 0.909354167, 66: 0.805054167, 67: 0.0, 68: 0.0, 69: 0.0, 70: 0.0, 71: 0.0, 72: 0.0, 73: 0.0, 74: 0.815854167, 75: 0.0, 76: 0.817154167, 77: 0.0, 78: 0.0, 79: 0.817154167, 80: 0.0, 81: 0.0, 82: 0.6965541669999999, 83: 0.697054167, 84: 0.687154167, 85: 0.685854167, 86: 0.692054167, 87: 0.0, 88: 0.0, 89: 0.683354167, 90: 0.684854167, 91: 0.6895541670000001, 92: 0.0, 93: 0.0, 94: 0.0, 95: 0.0, 96: 0.0, 97: 0.0, 98: 0.0, 99: 0.0, 100: 0.680154167, 101: 0.684654167, 102: 0.0, 103: 0.677354167, 104: 0.0, 105: 0.0, 106: 0.0, 107: 0.0, 108: 0.0, 109: 0.6753541669999999, 110: 0.0, 111: 0.0, 112: 0.805054167, 113: 0.797554167, 114: 0.797854167, 115: 0.396854167, 116: 0.0, 117: 0.0, 118: 0.576554167, 119: 0.623654167, 120: 0.0, 121: 0.0, 122: 0.032654167, 123: 0.06635416700000001, 124: 0.0, 125: 0.813854167, 126: 0.199354167, 127: 0.0, 128: 0.0, 129: 0.0, 130: 0.493154167, 131: 0.0, 132: 0.0, 133: 0.7993541669999999, 134: 0.0, 135: 2.008054167, 136: 0.937054167, 137: 0.0, 138: 0.612154167, 139: 0.0, 140: 0.0, 141: 2.104600711, 142: 0.804054167, 143: 0.0, 144: 0.8185541670000001, 145: 0.0, 146: 2.743354167, 147: 0.811354167, 148: 1.647854167, 149: 0.0, 150: 0.028154167, 151: 0.0, 152: 0.0, 153: 0.0, 154: 0.0, 155: 0.463354167, 156: 0.0, 157: 1.875554167, 158: 1.352054167, 159: 0.0, 160: 0.0, 161: 0.0, 162: 0.0, 163: 1.014754167, 164: 0.0, 165: 0.077354167, 166: 0.0, 167: 0.0, 168: 0.804354167, 169: 0.0, 170: 0.0, 171: 0.0, 172: 0.8003541669999999, 173: 0.0, 174: 0.0, 175: 0.0, 176: 0.492854167, 177: 0.0, 178: 0.556554167, 179: 0.554354167, 180: 0.0, 181: 0.0, 182: 0.0, 183: 0.681854167, 184: 0.0, 185: 0.0, 186: 0.682354167, 187: 0.0, 188: 0.0, 189: 0.690854167, 190: 0.688354167, 191: 0.0];
charge = [0: 0.0, 1: 1.0, 2: 1.0, 3: 1.0, 4: 0.0, 5: 0.0, 6: 0.0, 7: 0.0, 8: 1.0, 9: 1.0, 10: 1.0, 11: 1.0, 12: 0.0, 13: 1.0, 14: 0.0, 15: 0.0, 16: 0.0, 17: 1.0, 18: 1.0, 19: 0.0, 20: 0.0, 21: 0.0, 22: 0.0, 23: 0.0, 24: 0.0, 25: 0.0, 26: 1.0, 27: 0.0, 28: 1.0, 29: 1.0, 30: 1.0, 31: 1.0, 32: 1.0, 33: 0.0, 34: 0.0, 35: 0.0, 36: 0.0, 37: 1.0, 38: 1.0, 39: 0.0, 40: 0.0, 41: 0.0, 42: 0.0, 43: 1.0, 44: 0.0, 45: 1.0, 46: 1.0, 47: 0.0, 48: 1.0, 49: 1.0, 50: 0.0, 51: 1.0, 52: 0.0, 53: 0.493943868, 54: 1.0, 55: 0.0, 56: 1.0, 57: 0.0, 58: 0.0, 59: 1.0, 60: 1.0, 61: 0.0, 62: 0.0, 63: 1.0, 64: 0.0, 65: 0.0, 66: 0.0, 67: 0.0, 68: 1.0, 69: 1.0, 70: 0.0, 71: 1.0, 72: 1.0, 73: 0.0, 74: 0.0, 75: 1.0, 76: 0.0, 77: 1.0, 78: 0.242571969, 79: 0.0, 80: 1.0, 81: 0.0, 82: 0.0, 83: 0.0, 84: 0.0, 85: 0.0, 86: 0.0, 87: 1.0, 88: 0.683214931, 89: 0.0, 90: 0.0, 91: 0.0, 92: 1.0, 93: 1.0, 94: 0.0, 95: 1.0, 96: 1.0, 97: 1.0, 98: 0.0, 99: 1.0, 100: 0.0, 101: 0.0, 102: 0.0, 103: 0.0, 104: 1.0, 105: 1.0, 106: 1.0, 107: 1.0, 108: 1.0, 109: 0.0, 110: 1.0, 111: 0.0, 112: 0.0, 113: 0.0, 114: 0.0, 115: 0.0, 116: 1.0, 117: 1.0, 118: 0.0, 119: 0.0, 120: 0.0, 121: 1.0, 122: 0.0, 123: 0.0, 124: 1.0, 125: 0.0, 126: 0.0, 127: 1.0, 128: 0.372854167, 129: 0.0, 130: 0.0, 131: 0.0, 132: 1.0, 133: 0.0, 134: 1.0, 135: 0.0, 136: 0.0, 137: 1.0, 138: 1.0, 139: 1.0, 140: 0.0, 141: 0.0, 142: 0.0, 143: 1.0, 144: 0.0, 145: 1.0, 146: 0.0, 147: 0.0, 148: 0.0, 149: 1.0, 150: 1.0, 151: 0.0, 152: 1.0, 153: 0.0, 154: 0.0, 155: 0.0, 156: 1.0, 157: 0.0, 158: 0.0, 159: 0.0, 160: 1.0, 161: 0.0, 162: 1.0, 163: 0.0, 164: 1.0, 165: 0.0, 166: 1.0, 167: 1.0, 168: 0.0, 169: 0.0, 170: 0.124394167, 171: 1.0, 172: 0.0, 173: 0.0, 174: 1.0, 175: 0.0, 176: 0.0, 177: 1.0, 178: 0.0, 179: 0.0, 180: 0.0, 181: 1.0, 182: 1.0, 183: 0.0, 184: 1.0, 185: 0.601424148, 186: 0.0, 187: 0.0, 188: 0.0, 189: 0.0, 190: 0.0, 191: 0.0];
discharge = [0: 1.0, 1: 0.0, 2: 0.0, 3: 0.0, 4: 1.0, 5: 1.0, 6: 0.907837654, 7: 1.0, 8: 0.0, 9: 0.0, 10: 0.0, 11: 0.0, 12: 1.0, 13: 0.0, 14: 1.0, 15: 0.0, 16: 0.0, 17: 0.0, 18: 0.0, 19: 1.0, 20: 0.0, 21: 1.0, 22: 1.0, 23: 0.0, 24: 1.0, 25: 1.0, 26: 0.0, 27: 1.0, 28: 0.0, 29: 0.0, 30: 0.0, 31: 0.0, 32: 0.0, 33: 1.0, 34: 1.0, 35: 0.0, 36: 0.0, 37: 0.0, 38: 0.0, 39: 1.0, 40: 1.0, 41: 1.0, 42: 0.0, 43: 0.0, 44: 1.0, 45: 0.0, 46: 0.0, 47: 1.0, 48: 0.0, 49: 0.0, 50: 1.0, 51: 0.0, 52: 1.0, 53: 0.0, 54: 0.0, 55: 1.0, 56: 0.0, 57: 0.0, 58: 1.0, 59: 0.0, 60: 0.0, 61: 0.0, 62: 1.0, 63: 0.0, 64: 1.0, 65: 1.0, 66: 1.0, 67: 0.0, 68: 0.0, 69: 0.0, 70: 0.0, 71: 0.0, 72: 0.0, 73: 0.0, 74: 1.0, 75: 0.0, 76: 1.0, 77: 0.0, 78: 0.0, 79: 1.0, 80: 0.0, 81: 0.0, 82: 1.0, 83: 1.0, 84: 1.0, 85: 1.0, 86: 1.0, 87: 0.0, 88: 0.0, 89: 1.0, 90: 1.0, 91: 1.0, 92: 0.0, 93: 0.0, 94: 0.239606481, 95: 0.0, 96: 0.0, 97: 0.0, 98: 0.0, 99: 0.0, 100: 1.0, 101: 1.0, 102: 0.0, 103: 1.0, 104: 0.0, 105: 0.0, 106: 0.0, 107: 0.0, 108: 0.0, 109: 1.0, 110: 0.0, 111: 0.0, 112: 1.0, 113: 1.0, 114: 1.0, 115: 1.0, 116: 0.0, 117: 0.0, 118: 1.0, 119: 1.0, 120: 0.234273148, 121: 0.0, 122: 0.0, 123: 0.0, 124: 0.0, 125: 1.0, 126: 0.0, 127: 0.0, 128: 0.0, 129: 0.0, 130: 0.0, 131: 0.0, 132: 0.0, 133: 1.0, 134: 0.0, 135: 1.0, 136: 0.0, 137: 0.0, 138: 0.0, 139: 0.0, 140: 0.0, 141: 0.743051716, 142: 1.0, 143: 0.0, 144: 1.0, 145: 0.0, 146: 1.0, 147: 1.0, 148: 1.0, 149: 0.0, 150: 0.0, 151: 0.0, 152: 0.0, 153: 0.0, 154: 0.0, 155: 1.0, 156: 0.0, 157: 1.0, 158: 1.0, 159: 0.0, 160: 0.0, 161: 0.0, 162: 0.0, 163: 1.0, 164: 0.0, 165: 0.0, 166: 0.0, 167: 0.0, 168: 1.0, 169: 0.0, 170: 0.0, 171: 0.0, 172: 1.0, 173: 0.0, 174: 0.0, 175: 0.0, 176: 1.0, 177: 0.0, 178: 1.0, 179: 1.0, 180: 0.0, 181: 0.0, 182: 0.0, 183: 1.0, 184: 0.0, 185: 0.0, 186: 1.0, 187: 0.0, 188: 0.0, 189: 1.0, 190: 1.0, 191: 0.0];
soc = [0: 12.627274, 1: 13.524748545, 2: 14.422043595, 3: 15.319159187, 4: 14.316095355, 5: 13.313232136, 6: 12.402731836, 7: 11.400251289, 8: 12.297971239, 9: 13.195511645, 10: 14.092872542, 11: 14.990053968, 12: 13.987055957, 13: 14.884258546, 14: 13.881281694, 15: 13.878505438, 16: 13.875729737, 17: 14.772954591, 18: 15.67, 19: 14.666866, 20: 14.663932627, 21: 13.66099984, 22: 12.65826764, 23: 12.655735987, 24: 11.65320484, 25: 10.650874199, 26: 11.548744024, 27: 10.546434275, 28: 11.444324988, 29: 12.342036123, 30: 13.239567716, 31: 14.136919802, 32: 15.034092418, 33: 14.0310856, 34: 13.028279383, 35: 13.025673727, 36: 13.023068592, 37: 13.920463978, 38: 14.817679886, 39: 13.81471635, 40: 12.811953406, 41: 11.809391016, 42: 11.807029138, 43: 12.704667732, 44: 11.702126798, 45: 12.599786373, 46: 13.497266416, 47: 12.494566962, 48: 13.392068049, 49: 14.289389635, 50: 13.286531757, 51: 14.183874451, 52: 13.181037676, 53: 13.62295095, 54: 14.52022636, 55: 13.517322315, 56: 14.41461885, 57: 14.411735926, 58: 13.408853579, 59: 14.306171809, 60: 15.203310574, 61: 15.200269912, 62: 14.197229858, 63: 15.094390412, 64: 14.091371534, 65: 13.08855326, 66: 12.085935549, 67: 12.083518362, 68: 12.981101658, 69: 13.878505438, 70: 13.875729737, 71: 14.772954591, 72: 15.67, 73: 15.666866, 74: 14.663732627, 75: 15.56079988, 76: 14.55768772, 77: 15.454776183, 78: 15.67, 79: 14.666866, 80: 15.563932627, 81: 15.56081984, 82: 14.557707676, 83: 13.554796135, 84: 12.552085176, 85: 11.549574759, 86: 10.547264844, 87: 11.445155391, 88: 12.057759797, 89: 11.055348245, 90: 10.053137176, 91: 9.051126547999999, 92: 9.949316323, 93: 10.84732646, 94: 10.605550513, 95: 11.503429403, 96: 12.401128717, 97: 13.298648491, 98: 13.295988761, 99: 14.193329564, 100: 13.190490898, 101: 12.187852799, 102: 12.185415229, 103: 11.182978146, 104: 12.08074155, 105: 12.978325402, 106: 13.875729737, 107: 14.772954591, 108: 15.67, 109: 14.666866, 110: 15.563932627, 111: 15.56081984, 112: 14.557707676, 113: 13.554796135, 114: 12.552085176, 115: 11.549574759, 116: 12.447264844, 117: 13.344775391, 118: 12.342106436, 119: 11.339638014, 120: 11.103096938, 121: 12.000876319, 122: 11.998476144, 123: 11.996076449, 124: 12.893677233, 125: 11.891098498, 126: 11.888720278, 127: 12.786342534, 128: 13.119354016, 129: 13.116730145, 130: 13.114106799, 131: 13.111483977, 132: 14.008861681, 133: 13.006059908, 134: 13.903458696, 135: 12.900678005, 136: 12.898097869, 137: 13.795518249, 138: 14.692759146, 139: 15.589820594, 140: 15.58670263, 141: 14.840533574, 142: 13.837565467, 143: 14.734797954, 144: 13.731850994, 145: 14.629104624, 146: 13.626178803, 147: 12.623453567, 148: 11.620928877, 149: 12.518604691, 150: 13.41610097, 151: 13.41341775, 152: 14.310735066, 153: 14.307872919, 154: 14.305011345, 155: 13.302150342, 156: 14.199489912, 157: 13.196650014, 158: 12.194010684, 159: 12.191571882, 160: 13.089133568, 161: 13.086515741, 162: 13.983898438, 163: 12.981101658, 164: 13.878505438, 165: 13.875729737, 166: 14.772954591, 167: 15.67, 168: 14.666866, 169: 14.663932627, 170: 14.772954591, 171: 15.67, 172: 14.666866, 173: 14.663932627, 174: 15.56099984, 175: 15.55788764, 176: 14.554776063, 177: 15.451865108, 178: 14.448774735, 179: 13.44588498, 180: 13.443195803, 181: 14.340507163, 182: 15.237639062, 183: 14.234591534, 184: 15.131744616, 185: 15.67, 186: 14.666866, 187: 14.663932627, 188: 14.66099984, 189: 13.65806764, 190: 12.655336027, 191: 12.65280496];
cost = [0: 0.0, 1: 0.790562705, 2: 0.791173605, 3: 0.785797685, 4: 0.0, 5: 0.0, 6: 0.0, 7: 0.0, 8: 0.785797685, 9: 0.7856755050000001, 10: 0.7856755050000001, 11: 0.790868155, 12: 0.0, 13: 0.7856755050000001, 14: 0.0, 15: 0.06117909, 16: 0.06178999, 17: 0.790562705, 18: 0.785370055, 19: 0.0, 20: 0.05568099, 21: 0.0, 22: 0.0, 23: 0.04926654, 24: 0.0, 25: 0.0, 26: 1.418227569, 27: 0.0, 28: 1.411803729, 29: 1.041719169, 30: 1.043979409, 31: 0.768468049, 32: 1.417989649, 33: 0.0, 34: 0.0, 35: 0.109259803, 36: 0.024322363, 37: 1.425127249, 38: 1.416205249, 39: 0.0, 40: 0.0, 41: 0.0, 42: 0.029556603, 43: 1.339476049, 44: 0.0, 45: 1.422153249, 46: 1.362435329, 47: 0.0, 48: 1.417394849, 49: 1.335907249, 50: 0.0, 51: 1.418227569, 52: 0.0, 53: 0.05837338, 54: 0.791356875, 55: 0.0, 56: 0.686526435, 57: 0.48862582, 58: 0.0, 59: 0.685365725, 60: 1.418584449, 61: 0.112352763, 62: 0.0, 63: 1.409067649, 64: 0.0, 65: 0.0, 66: 0.0, 67: 0.268666203, 68: 1.613321969, 69: 1.469975169, 70: 0.182182283, 71: 1.475447329, 72: 1.528860369, 73: 0.08903660300000001, 74: 0.0, 75: 1.407164289, 76: 0.0, 77: 1.397171649, 78: 0.406266928, 79: 0.0, 80: 1.407283249, 81: 0.249156763, 82: 0.0, 83: 0.0, 84: 0.0, 85: 0.0, 86: 0.0, 87: 1.556340129, 88: 0.624845748, 89: 0.0, 90: 0.0, 91: 0.0, 92: 0.8562344549999999, 93: 0.860816205, 94: 0.0, 95: 0.8615492850000001, 96: 0.858800235, 97: 0.857883885, 98: 0.13540344, 99: 0.864481605, 100: 0.0, 101: 0.0, 102: 0.13173804, 103: 0.0, 104: 0.8649092350000001, 105: 0.865703405, 106: 0.858372605, 107: 0.858494785, 108: 0.865092505, 109: 0.0, 110: 0.859594405, 111: 0.13143259, 112: 0.0, 113: 0.0, 114: 0.0, 115: 0.0, 116: 0.951534855, 117: 0.923861085, 118: 0.0, 119: 0.0, 120: 0.0, 121: 1.555150529, 122: 0.0, 123: 0.0, 124: 1.180426529, 125: 0.0, 126: 0.0, 127: 0.947145969, 128: 0.044063221, 129: 0.110449403, 130: 0.0, 131: 0.100694683, 132: 1.417632769, 133: 0.0, 134: 1.421915329, 135: 0.0, 136: 0.0, 137: 1.423104929, 138: 0.118178165, 139: 1.417989649, 140: 0.100099883, 141: 0.0, 142: 0.0, 143: 1.417989649, 144: 0.0, 145: 1.401097329, 146: 0.0, 147: 0.0, 148: 0.0, 149: 0.118178165, 150: 0.118178165, 151: 0.46223494, 152: 0.659524655, 153: 0.06056819, 154: 0.26289827, 155: 0.0, 156: 1.422748049, 157: 0.0, 158: 0.0, 159: 0.106047883, 160: 0.904558289, 161: 0.109616683, 162: 1.419536129, 163: 0.0, 164: 1.234910209, 165: 0.0, 166: 1.419536129, 167: 1.423580769, 168: 0.0, 169: 0.08903660300000001, 170: 0.250883859, 171: 1.407878049, 172: 0.0, 173: 0.116159483, 174: 1.418227569, 175: 0.108665003, 176: 0.0, 177: 1.721694529, 178: 0.0, 179: 0.0, 180: 0.412726763, 181: 1.676965569, 182: 1.583938849, 183: 0.0, 184: 0.8581893350000001, 185: 0.566130224, 186: 0.0, 187: 0.13308202, 188: 0.12898899, 189: 0.0, 190: 0.0, 191: 0.13369292];
earn = [0: 0.286589217, 1: 0.0, 2: 0.0, 3: 0.0, 4: 0.177000848, 5: 0.172441281, 6: 0.141549841, 7: 0.140302085, 8: 0.0, 9: 0.0, 10: 0.0, 11: 0.0, 12: 0.111190165, 13: 0.0, 14: 0.11343326, 15: 0.0, 16: 0.0, 17: 0.0, 18: 0.0, 19: 0.160601408, 20: 0.0, 21: 0.193644694, 22: 0.241175697, 23: 0.0, 24: 0.338113734, 25: 0.355893831, 26: 0.0, 27: 0.402528502, 28: 0.0, 29: 0.0, 30: 0.0, 31: 0.0, 32: 0.0, 33: 0.096986092, 34: -0.031076424, 35: 0.0, 36: 0.0, 37: 0.0, 38: 0.0, 39: -0.008004792, 40: -0.046728957, 41: -0.010378739, 42: 0.0, 43: 0.0, 44: -0.003698878, 45: 0.0, 46: 0.0, 47: -0.002456592, 48: 0.0, 49: 0.0, 50: -0.000403827, 51: -0.0, 52: -0.002467792, 53: 0.0, 54: 0.0, 55: 0.011001187, 56: 0.0, 57: 0.0, 58: 0.041211374, 59: 0.0, 60: 0.0, 61: 0.0, 62: 0.412968688, 63: 0.0, 64: 0.415656058, 65: 0.5126029439999999, 66: 0.47441842, 67: 0.0, 68: 0.0, 69: 0.0, 70: 0.0, 71: 0.0, 72: 0.0, 73: 0.0, 74: 0.921099354, 75: 0.0, 76: 0.759789944, 77: 0.0, 78: 0.0, 79: 0.729636955, 80: 0.0, 81: 0.0, 82: 0.551740555, 83: 0.531573508, 84: 0.475167106, 85: 0.46178561, 86: 0.451842165, 87: 0.0, 88: 0.0, 89: 0.416504365, 90: 0.415227081, 91: 0.404906207, 92: 0.0, 93: 0.0, 94: 0.0, 95: 0.0, 96: 0.0, 97: 0.0, 98: 0.0, 99: 0.0, 100: 0.35510849, 101: 0.35328155, 102: 0.0, 103: 0.343147621, 104: 0.0, 105: 0.0, 106: 0.0, 107: 0.0, 108: 0.0, 109: 0.331261219, 110: 0.0, 111: 0.0, 112: 0.416051993, 113: 0.413372325, 114: 0.412011892, 115: 0.20719756, 116: 0.0, 117: 0.0, 118: 0.312146426, 119: 0.337833462, 120: 0.0, 121: 0.0, 122: 0.019850468, 123: 0.040675104, 124: 0.0, 125: 0.5321792400000001, 126: 0.127287635, 127: 0.0, 128: 0.0, 129: 0.0, 130: 0.282281445, 131: 0.0, 132: 0.0, 133: 0.39240296, 134: 0.0, 135: 1.09177905, 136: 0.453627922, 137: 0.0, 138: 0.290283506, 139: 0.0, 140: 0.0, 141: 1.076292803, 142: 0.411112895, 143: 0.0, 144: 0.437271636, 145: 0.0, 146: 1.465774131, 147: 0.436589677, 148: 0.919996981, 149: 0.0, 150: 0.015704394, 151: 0.0, 152: 0.0, 153: 0.0, 154: 0.0, 155: 0.260590383, 156: 0.0, 157: 1.086133418, 158: 0.787165936, 159: 0.0, 160: 0.0, 161: 0.0, 162: 0.0, 163: 0.711545622, 164: 0.0, 165: 0.05505296, 166: 0.0, 167: 0.0, 168: 0.692951115, 169: 0.0, 170: 0.0, 171: 0.0, 172: 0.6618128599999999, 173: 0.0, 174: 0.0, 175: 0.0, 176: 0.341646508, 177: 0.0, 178: 0.37194515, 179: 0.356948648, 180: 0.0, 181: 0.0, 182: 0.0, 183: 0.424181477, 184: 0.0, 185: 0.0, 186: 0.424628998, 187: 0.0, 188: 0.0, 189: 0.400419075, 190: 0.402136504, 191: 0.0];
total_cost = 91.423517567;
total_earn = 29.265047217;
