production = [0: 0.0, 1: 0.0, 2: 0.0, 3: 0.0, 4: 0.0, 5: 0.0, 6: 0.0, 7: 0.0, 8: 0.0, 9: 0.0, 10: 0.0, 11: 0.0, 12: 0.0, 13: 0.0, 14: 0.0, 15: 0.0, 16: 0.0, 17: 0.0, 18: 0.0, 19: 0.0, 20: 0.0, 21: 0.0005, 22: 0.0, 23: 0.0, 24: 0.0, 25: 0.0, 26: 0.0, 27: 0.1442, 28: 0.0, 29: 0.0, 30: 0.0, 31: 0.547, 32: 0.9307, 33: 0.0, 34: 0.9958, 35: 0.0, 36: 0.0, 37: 0.0725, 38: 0.065, 39: 0.0, 40: 0.1665, 41: 0.1335, 42: 0.0, 43: 0.0, 44: 0.0, 45: 0.0, 46: 0.0542, 47: 0.0, 48: 0.0635, 49: 0.0, 50: 0.0612, 51: 1.348, 52: 0.0, 53: 0.6965, 54: 0.0, 55: 0.0, 56: 0.2815, 57: 0.1542, 58: 0.0, 59: 0.2437, 60: 0.0, 61: 0.0, 62: 0.112, 63: 0.0892, 64: 0.1547, 65: 0.1045, 66: 0.08649999999999999, 67: 0.0, 68: 0.0, 69: 0.0, 70: 0.08699999999999999, 71: 0.0727, 72: 0.0, 73: 0.011, 74: 0.0, 75: 0.0, 76: 0.0, 77: 0.0, 78: 0.0, 79: 0.0, 80: 0.0, 81: 0.0, 82: 0.0, 83: 0.0, 84: 0.0, 85: 0.0, 86: 0.0, 87: 0.0, 88: 0.0, 89: 0.0, 90: 0.0, 91: 0.0, 92: 0.0, 93: 0.0, 94: 0.0, 95: 0.0, 96: 0.0, 97: 0.0, 98: 0.0, 99: 0.0, 100: 0.0, 101: 0.0, 102: 0.0, 103: 0.0, 104: 0.0, 105: 0.0, 106: 0.0, 107: 0.0, 108: 0.0, 109: 0.0, 110: 0.0, 111: 0.0, 112: 0.0, 113: 0.0, 114: 0.0, 115: 0.0, 116: 0.0, 117: 0.0, 118: 0.0, 119: 0.0, 120: 0.0208, 121: 0.06, 122: 0.0, 123: 0.159, 124: 0.2005, 125: 0.0, 126: 0.0, 127: 0.0, 128: 0.4665, 129: 0.0, 130: 0.0, 131: 0.589, 132: 0.0, 133: 1.098, 134: 0.0, 135: 1.1955, 136: 1.0292, 137: 1.587, 138: 1.7095, 139: 0.0, 140: 0.0, 141: 0.0, 142: 1.556, 143: 0.8165, 144: 1.081445833, 145: 2.016, 146: 0.0, 147: 1.7167, 148: 0.0, 149: 1.598, 150: 1.4545, 151: 1.278, 152: 0.0, 153: 0.0, 154: 0.0, 155: 0.6595, 156: 0.652, 157: 1.0702, 158: 0.0, 159: 0.6899999999999999, 160: 0.0, 161: 0.3018, 162: 0.2552, 163: 0.2092, 164: 0.0, 165: 0.0, 166: 0.0, 167: 0.0, 168: 0.0, 169: 0.0095, 170: 0.0005, 171: 0.0, 172: 0.0, 173: 0.0, 174: 0.0, 175: 0.0, 176: 0.0, 177: 0.0, 178: 0.0, 179: 0.0, 180: 0.0, 181: 0.0, 182: 0.0, 183: 0.0, 184: 0.0, 185: 0.0, 186: 0.0, 187: 0.0, 188: 0.0, 189: 0.0, 190: 0.0, 191: 0.0];
buy = [0: 1.102145833, 1: 0.380136086, 2: 0.101645833, 3: 1.092845833, 4: 0.0, 5: 0.0, 6: 0.100345833, 7: 0.0, 8: 0.0, 9: 1.092645833, 10: 0.0, 11: 0.0, 12: 1.100645833, 13: 1.092645833, 14: 0.0, 15: 0.0, 16: 0.101145833, 17: 0.100645833, 18: 0.0, 19: 0.0, 20: 1.091145833, 21: 1.100145833, 22: 0.0, 23: 0.0, 24: 1.086945833, 25: 0.0, 26: 1.092845833, 27: 0.0, 28: 0.087445833, 29: 0.08814583300000001, 30: 1.093445833, 31: 0.546645833, 32: 0.0, 33: 0.0, 34: 0.088545833, 35: 0.091845833, 36: 0.0, 37: 0.026145833, 38: 1.026145833, 39: 0.0, 40: 0.0, 41: 0.0, 42: 1.088645833, 43: 1.087645833, 44: 1.087145833, 45: 1.096145833, 46: 1.045945833, 47: 0.093145833, 48: 1.028645833, 49: 1.087445833, 50: 0.0, 51: 0.0, 52: 0.0, 53: 0.0, 54: 1.101945833, 55: 1.097145833, 56: 0.0, 57: 0.645645833, 58: 0.0, 59: 0.0, 60: 1.093145833, 61: 1.094445833, 62: 0.973645833, 63: 0.0, 64: 0.0, 65: 0.990645833, 66: 0.0, 67: 0.0, 68: 1.256845833, 69: 0.0, 70: 1.153145833, 71: 0.0, 72: 0.185845833, 73: 1.063845833, 74: 1.084145833, 75: 0.08384583299999999, 76: 1.082845833, 77: 0.0, 78: 1.074845833, 79: 0.0, 80: 0.0, 81: 1.209445833, 82: 0.0, 83: 1.202945833, 84: 1.212845833, 85: 0.0, 86: 0.0, 87: 1.208945833, 88: 0.0, 89: 0.216645833, 90: 0.0, 91: 1.210445833, 92: 1.208145833, 93: 0.215645833, 94: 0.215645833, 95: 0.0, 96: 1.212345833, 97: 0.0, 98: 1.221645833, 99: 0.0, 100: 1.219845833, 101: 1.215345833, 102: 0.0, 103: 0.0, 104: 0.0, 105: 0.223645833, 106: 1.211645833, 107: 1.211845833, 108: 0.580890985, 109: 1.224645833, 110: 0.0, 111: 0.0, 112: 1.094945833, 113: 1.102445833, 114: 0.0, 115: 0.0, 116: 1.364145833, 117: 0.0, 118: 0.323445833, 119: 0.276345833, 120: 0.0, 121: 1.147945833, 122: 1.085345833, 123: 0.0, 124: 0.0, 125: 0.0, 126: 0.0, 127: 1.084345833, 128: 0.0, 129: 1.092845833, 130: 0.0, 131: 0.0, 132: 0.0, 133: 0.0, 134: 0.0, 135: 0.0, 136: 0.06294583300000001, 137: 0.0, 138: 0.0, 139: 1.092645833, 140: 1.084145833, 141: 0.0, 142: 0.0, 143: 0.0, 144: 0.0, 145: 0.0, 146: 1.080145833, 147: 0.0, 148: 0.0, 149: 0.0, 150: 0.0, 151: 0.0, 152: 1.544845833, 153: 0.0, 154: 0.0, 155: 0.0, 156: 0.0, 157: 0.0, 158: 0.0, 159: 0.0, 160: 0.085345833, 161: 0.7903458330000001, 162: 0.0, 163: 0.885245833, 164: 1.086445833, 165: 0.0, 166: 0.0, 167: 1.097345833, 168: 0.0, 169: 1.065345833, 170: 1.074145833, 171: 1.084145833, 172: 0.099645833, 173: 0.0, 174: 1.092845833, 175: 1.091345833, 176: 0.407145833, 177: 1.347945833, 178: 0.170169163, 179: 0.0, 180: 0.0, 181: 1.310345833, 182: 0.0, 183: 0.218145833, 184: 1.211345833, 185: 0.0, 186: 1.217645833, 187: 0.217845833, 188: 1.211145833, 189: 1.209145833, 190: 1.211645833, 191: 0.218845833];
sell = [0: 0.0, 1: 0.0, 2: 0.0, 3: 0.0, 4: 0.807854167, 5: 0.806554167, 6: 0.0, 7: 0.8003541669999999, 8: 0.807154167, 9: 0.0, 10: 0.807354167, 11: 0.798854167, 12: 0.0, 13: 0.0, 14: 0.0, 15: 0.799854167, 16: 0.0, 17: 0.0, 18: 0.807854167, 19: 0.807854167, 20: 0.0, 21: 0.0, 22: 0.799654167, 23: 0.0, 24: 0.0, 25: 0.805554167, 26: 0.0, 27: 0.952054167, 28: 0.0, 29: 0.0, 30: 0.0, 31: 0.0, 32: 1.738054167, 33: 0.814354167, 34: 0.0, 35: 0.0, 36: 0.802854167, 37: 0.0, 38: 0.0, 39: 0.116584564, 40: 0.018054167, 41: 0.879554167, 42: 0.0, 43: 0.0, 44: 0.0, 45: 0.0, 46: 0.0, 47: 0.0, 48: 0.0, 49: 0.0, 50: 0.868854167, 51: 1.255154167, 52: 0.774654167, 53: 0.592854167, 54: 0.0, 55: 0.0, 56: 0.969654167, 57: 0.0, 58: 0.110354167, 59: 0.971554167, 60: 0.0, 61: 0.0, 62: 0.0, 63: 0.004054167, 64: 0.068754167, 65: 0.0, 66: 0.891554167, 67: 0.674154167, 68: 0.0, 69: 0.6451541669999999, 70: 0.0, 71: 0.7590541669999999, 72: 0.0, 73: 0.0, 74: 0.0, 75: 0.0, 76: 0.0, 77: 0.824854167, 78: 0.0, 79: 0.817154167, 80: 0.440600064, 81: 0.0, 82: 0.6965541669999999, 83: 0.0, 84: 0.0, 85: 0.685854167, 86: 0.692054167, 87: 0.0, 88: 0.6925541670000001, 89: 0.0, 90: 0.684854167, 91: 0.0, 92: 0.0, 93: 0.0, 94: 0.0, 95: 0.683154167, 96: 0.0, 97: 0.689154167, 98: 0.0, 99: 0.0, 100: 0.0, 101: 0.0, 102: 0.684354167, 103: 0.677354167, 104: 0.677654167, 105: 0.0, 106: 0.0, 107: 0.0, 108: 0.0, 109: 0.0, 110: 0.686354167, 111: 0.684854167, 112: 0.0, 113: 0.0, 114: 0.797854167, 115: 0.396854167, 116: 0.0, 117: 0.581154167, 118: 0.0, 119: 0.0, 120: 0.709954167, 121: 0.0, 122: 0.0, 123: 0.06635416700000001, 124: 0.107054167, 125: 0.813854167, 126: 0.812854167, 127: 0.0, 128: 1.272854167, 129: 0.0, 130: 0.815654167, 131: 1.404354167, 132: 0.807654167, 133: 0.997354167, 134: 0.804054167, 135: 0.108054167, 136: 0.0, 137: 0.490054167, 138: 0.947293803, 139: 0.0, 140: 0.0, 141: 0.813054167, 142: 1.460054167, 143: 0.723854167, 144: 0.0, 145: 1.937554167, 146: 0.0, 147: 0.6280541670000001, 148: 0.803054167, 149: 1.183354167, 150: 1.928154167, 151: 0.521354167, 152: 0.0, 153: 0.078654167, 154: 0.469654167, 155: 0.222854167, 156: 1.455354167, 157: 0.975554167, 158: 0.804554167, 159: 1.500854167, 160: 0.0, 161: 0.0, 162: 0.161254167, 163: 0.0, 164: 0.0, 165: 0.814054167, 166: 0.806054167, 167: 0.0, 168: 0.804354167, 169: 0.0, 170: 0.0, 171: 0.0, 172: 0.0, 173: 0.802354167, 174: 0.0, 175: 0.0, 176: 0.0, 177: 0.0, 178: 0.0, 179: 0.554354167, 180: 0.553054167, 181: 0.0, 182: 0.667854167, 183: 0.0, 184: 0.0, 185: 0.691054167, 186: 0.0, 187: 0.0, 188: 0.0, 189: 0.0, 190: 0.0, 191: 0.0];
charge = [0: 1.0, 1: 0.279490253, 2: 0.0, 3: 1.0, 4: 0.0, 5: 0.0, 6: 0.0, 7: 0.0, 8: 0.0, 9: 1.0, 10: 0.0, 11: 0.0, 12: 1.0, 13: 1.0, 14: 0.0, 15: 0.0, 16: 0.0, 17: 0.0, 18: 0.0, 19: 0.0, 20: 1.0, 21: 1.0, 22: 0.0, 23: 0.0, 24: 1.0, 25: 0.0, 26: 1.0, 27: 0.0, 28: 0.0, 29: 0.0, 30: 1.0, 31: 1.0, 32: 0.0, 33: 0.0, 34: 1.0, 35: 0.0, 36: 0.0, 37: 0.0, 38: 1.0, 39: 0.0, 40: 0.0, 41: 0.0, 42: 1.0, 43: 1.0, 44: 1.0, 45: 1.0, 46: 1.0, 47: 0.0, 48: 1.0, 49: 1.0, 50: 0.0, 51: 0.0, 52: 0.0, 53: 0.0, 54: 1.0, 55: 1.0, 56: 0.0, 57: 0.0, 58: 0.0, 59: 0.0, 60: 1.0, 61: 1.0, 62: 1.0, 63: 0.0, 64: 0.0, 65: 1.0, 66: 0.0, 67: 0.0, 68: 1.0, 69: 0.0, 70: 1.0, 71: 0.0, 72: 0.0, 73: 1.0, 74: 1.0, 75: 0.0, 76: 1.0, 77: 0.0, 78: 1.0, 79: 0.0, 80: 0.0, 81: 1.0, 82: 0.0, 83: 1.0, 84: 1.0, 85: 0.0, 86: 0.0, 87: 1.0, 88: 0.0, 89: 0.0, 90: 0.0, 91: 1.0, 92: 1.0, 93: 0.0, 94: 0.0, 95: 0.0, 96: 1.0, 97: 0.0, 98: 1.0, 99: 0.0, 100: 1.0, 101: 1.0, 102: 0.0, 103: 0.0, 104: 0.0, 105: 0.0, 106: 1.0, 107: 1.0, 108: 0.358245151, 109: 1.0, 110: 0.0, 111: 0.0, 112: 1.0, 113: 1.0, 114: 0.0, 115: 0.0, 116: 1.0, 117: 0.0, 118: 0.0, 119: 0.0, 120: 0.0, 121: 1.0, 122: 1.0, 123: 0.0, 124: 0.0, 125: 0.0, 126: 0.0, 127: 1.0, 128: 0.0, 129: 1.0, 130: 0.0, 131: 0.0, 132: 0.0, 133: 0.0, 134: 0.0, 135: 1.0, 136: 1.0, 137: 1.0, 138: 0.664860363, 139: 1.0, 140: 1.0, 141: 0.0, 142: 0.0, 143: 0.0, 144: 1.0, 145: 0.0, 146: 1.0, 147: 1.0, 148: 0.0, 149: 0.0, 150: 0.0, 151: 0.0, 152: 1.0, 153: 0.0, 154: 0.0, 155: 0.0, 156: 0.0, 157: 0.0, 158: 0.0, 159: 0.0, 160: 0.0, 161: 1.0, 162: 0.0, 163: 1.0, 164: 1.0, 165: 0.0, 166: 0.0, 167: 1.0, 168: 0.0, 169: 1.0, 170: 1.0, 171: 1.0, 172: 0.0, 173: 0.0, 174: 1.0, 175: 1.0, 176: 0.0, 177: 1.0, 178: 0.0, 179: 0.0, 180: 0.0, 181: 1.0, 182: 0.0, 183: 0.0, 184: 1.0, 185: 0.0, 186: 1.0, 187: 0.0, 188: 1.0, 189: 1.0, 190: 1.0, 191: 0.0];
discharge = [0: 0.0, 1: 0.0, 2: 0.0, 3: 0.0, 4: 1.0, 5: 1.0, 6: 0.0, 7: 1.0, 8: 1.0, 9: 0.0, 10: 1.0, 11: 1.0, 12: 0.0, 13: 0.0, 14: 0.102939815, 15: 1.0, 16: 0.0, 17: 0.0, 18: 1.0, 19: 1.0, 20: 0.0, 21: 0.0, 22: 1.0, 23: 0.095717593, 24: 0.0, 25: 1.0, 26: 0.0, 27: 1.0, 28: 0.0, 29: 0.0, 30: 0.0, 31: 0.0, 32: 1.0, 33: 1.0, 34: 0.0, 35: 0.0, 36: 1.0, 37: 0.0, 38: 0.0, 39: 0.725255996, 40: 0.0, 41: 1.0, 42: 0.0, 43: 0.0, 44: 0.0, 45: 0.0, 46: 0.0, 47: 0.0, 48: 0.0, 49: 0.0, 50: 1.0, 51: 0.0, 52: 1.0, 53: 0.0, 54: 0.0, 55: 0.0, 56: 1.0, 57: 0.0, 58: 1.0, 59: 1.0, 60: 0.0, 61: 0.0, 62: 0.0, 63: 0.0, 64: 0.0, 65: 0.0, 66: 1.0, 67: 1.0, 68: 0.0, 69: 1.0, 70: 0.0, 71: 1.0, 72: 0.0, 73: 0.0, 74: 0.0, 75: 0.0, 76: 0.0, 77: 1.0, 78: 0.0, 79: 1.0, 80: 0.582495442, 81: 0.0, 82: 1.0, 83: 0.0, 84: 0.0, 85: 1.0, 86: 1.0, 87: 0.0, 88: 1.0, 89: 0.0, 90: 1.0, 91: 0.0, 92: 0.0, 93: 0.0, 94: 0.0, 95: 1.0, 96: 0.0, 97: 1.0, 98: 0.0, 99: 0.246273148, 100: 0.0, 101: 0.0, 102: 1.0, 103: 1.0, 104: 1.0, 105: 0.0, 106: 0.0, 107: 0.0, 108: 0.0, 109: 0.0, 110: 1.0, 111: 1.0, 112: 0.0, 113: 0.0, 114: 1.0, 115: 1.0, 116: 0.0, 117: 1.0, 118: 0.0, 119: 0.0, 120: 1.0, 121: 0.0, 122: 0.0, 123: 0.0, 124: 0.0, 125: 1.0, 126: 1.0, 127: 0.0, 128: 1.0, 129: 0.0, 130: 1.0, 131: 1.0, 132: 1.0, 133: 0.0, 134: 1.0, 135: 0.0, 136: 0.0, 137: 0.0, 138: 0.0, 139: 0.0, 140: 0.0, 141: 1.0, 142: 0.0, 143: 0.0, 144: 0.0, 145: 0.0, 146: 0.0, 147: 0.0, 148: 1.0, 149: 0.0, 150: 1.0, 151: 0.0, 152: 0.0, 153: 1.0, 154: 1.0, 155: 0.0, 156: 1.0, 157: 0.0, 158: 1.0, 159: 1.0, 160: 0.0, 161: 0.0, 162: 0.0, 163: 0.0, 164: 0.0, 165: 1.0, 166: 1.0, 167: 0.0, 168: 1.0, 169: 0.0, 170: 0.0, 171: 0.0, 172: 0.0, 173: 1.0, 174: 0.0, 175: 0.0, 176: 0.0, 177: 0.0, 178: 0.192529633, 179: 1.0, 180: 1.0, 181: 0.0, 182: 1.0, 183: 0.0, 184: 0.0, 185: 1.0, 186: 0.0, 187: 0.0, 188: 0.0, 189: 0.0, 190: 0.0, 191: 0.0];
soc = [0: 14.527274, 1: 14.775909773, 2: 14.772954591, 3: 15.67, 4: 14.666866, 5: 13.663932627, 6: 13.66119984, 7: 12.6584676, 8: 11.655935907, 9: 12.55360472, 10: 11.551093999, 11: 10.54878378, 12: 11.446674023, 13: 12.344384688, 14: 12.238975997, 15: 11.236528201, 16: 11.234280896, 17: 11.23203404, 18: 10.229787633, 19: 9.227741675000001, 20: 10.125896127, 21: 11.023870948, 22: 10.021666173, 23: 9.923944248, 24: 10.821959459, 25: 9.819795066999999, 26: 10.717831108, 27: 9.715687542, 28: 9.713744404, 29: 9.711801655, 30: 10.609859295, 31: 11.507737323, 32: 10.505435776, 33: 9.503334688000001, 34: 10.401434022, 35: 10.399353735, 36: 9.397273864000001, 37: 9.395394409, 38: 10.29351533, 39: 9.566200630999999, 40: 9.564287391000001, 41: 8.562374533, 42: 9.460662058, 43: 10.358769926, 44: 11.256698172, 45: 12.154446832, 46: 13.052015943, 47: 13.04940554, 48: 13.946795659, 49: 14.844006299, 50: 13.841037498, 51: 13.838269291, 52: 12.835501637, 53: 12.832934536, 54: 13.73036795, 55: 14.627621876, 56: 13.624696352, 57: 13.621971412, 58: 12.619247018, 59: 11.616723169, 60: 12.514399824, 61: 13.411896944, 62: 14.309214565, 63: 14.306352722, 64: 14.303491451, 65: 15.200630753, 66: 14.197590627, 67: 13.194751109, 68: 14.092112158, 69: 13.089293736, 70: 13.986675877, 71: 12.983878542, 72: 12.981281766, 73: 13.87868551, 74: 14.775909773, 75: 14.772954591, 76: 15.67, 77: 14.666866, 78: 15.563932627, 79: 14.56081984, 80: 13.975412235, 81: 14.872617152, 82: 13.869642629, 83: 14.7668687, 84: 15.663915327, 85: 14.660782543, 86: 13.657850387, 87: 14.555118817, 88: 13.552207793, 89: 13.549497352, 90: 12.546787452, 91: 13.444278095, 92: 14.341589239, 93: 14.338720921, 94: 14.335853177, 95: 13.332986006, 96: 14.230319409, 97: 13.227473345, 98: 14.124827851, 99: 13.875729737, 100: 14.772954591, 101: 15.67, 102: 14.666866, 103: 13.663932627, 104: 12.66119984, 105: 12.6586676, 106: 13.556135867, 107: 14.45342464, 108: 14.772954591, 109: 15.67, 110: 14.666866, 111: 13.663932627, 112: 14.56119984, 113: 15.4582876, 114: 14.455195943, 115: 13.452304904, 116: 14.349614443, 117: 13.34674452, 118: 13.344075171, 119: 13.341406356, 120: 12.338738075, 121: 13.236270327, 122: 14.133623073, 123: 14.130796348, 124: 14.127970189, 125: 13.125144595, 126: 12.122519566, 127: 13.020095062, 128: 12.017491043, 129: 12.915087545, 130: 11.912504527, 131: 10.910122026, 132: 9.907940002, 133: 9.905958414000001, 134: 8.903977222, 135: 9.802196427, 136: 10.700235988, 137: 11.59809594, 138: 12.194150648, 139: 13.091711818, 140: 13.989093476, 141: 12.986295657, 142: 12.983698398, 143: 12.981101658, 144: 13.878505438, 145: 13.875729737, 146: 14.772954591, 147: 15.67, 148: 14.666866, 149: 14.663932627, 150: 13.66099984, 151: 13.65826764, 152: 14.555535987, 153: 13.55262488, 154: 12.549914355, 155: 12.547404372, 156: 11.544894891, 157: 11.542585912, 158: 10.540277395, 159: 9.538169339, 160: 9.536261704999999, 161: 10.434354453, 162: 10.432267582, 163: 11.330181129, 164: 12.227915092, 165: 11.225469509, 166: 10.223224415, 167: 11.121179771, 168: 10.118955535, 169: 11.016931744, 170: 11.914728357, 171: 12.812345411, 172: 12.809782942, 173: 11.807220986, 174: 12.704859542, 175: 13.60231857, 176: 13.599598106, 177: 14.496878186, 178: 14.301449177, 179: 13.298588887, 180: 12.29592917, 181: 13.193469984, 182: 12.19083129, 183: 12.188393124, 184: 13.085955445, 185: 12.083338254, 186: 12.980921586, 187: 12.978325402, 188: 13.875729737, 189: 14.772954591, 190: 15.67, 191: 15.666866];
cost = [0: 0.791479055, 1: 0.26525478, 2: 0.06209544, 3: 0.785797685, 4: 0.0, 5: 0.0, 6: 0.06130127, 7: 0.0, 8: 0.0, 9: 0.7856755050000001, 10: 0.0, 11: 0.0, 12: 0.790562705, 13: 0.7856755050000001, 14: 0.0, 15: 0.0, 16: 0.06178999, 17: 0.06148454, 18: 0.0, 19: 0.0, 20: 0.784759155, 21: 0.790257255, 22: 0.0, 23: 0.0, 24: 1.411208929, 25: 0.0, 26: 1.418227569, 27: 0.0, 28: 0.104025563, 29: 0.104858283, 30: 1.418941329, 31: 0.768468049, 32: 0.0, 33: 0.0, 34: 0.223512289, 35: 0.109259803, 36: 0.0, 37: 0.031103083, 38: 1.338881249, 39: 0.0, 40: 0.0, 41: 0.0, 42: 1.413231249, 43: 1.412041649, 44: 1.411446849, 45: 1.422153249, 46: 1.362435329, 47: 0.110806283, 48: 1.341855249, 49: 1.411803729, 50: 0.0, 51: 0.0, 52: 0.0, 53: 0.0, 54: 0.791356875, 55: 0.788424555, 56: 0.0, 57: 0.39442504, 58: 0.0, 59: 0.0, 60: 1.418584449, 61: 1.420130929, 62: 1.276427249, 63: 0.0, 64: 0.0, 65: 1.296650449, 66: 0.0, 67: 0.0, 68: 1.613321969, 69: 0.0, 70: 1.489960449, 71: 0.0, 72: 0.221082203, 73: 1.383729169, 74: 1.407878049, 75: 0.099743003, 76: 1.406331569, 77: 0.0, 78: 1.396814769, 79: 0.0, 80: 0.0, 81: 1.556934929, 82: 0.0, 83: 1.549202529, 84: 1.560979569, 85: 0.0, 86: 0.0, 87: 1.556340129, 88: 0.0, 89: 0.13234894, 90: 0.0, 91: 0.857639525, 92: 0.8562344549999999, 93: 0.13173804, 94: 0.13173804, 95: 0.0, 96: 0.858800235, 97: 0.0, 98: 0.864481605, 99: 0.0, 100: 0.863381985, 101: 0.860632935, 102: 0.0, 103: 0.0, 104: 0.0, 105: 0.13662524, 106: 0.858372605, 107: 0.858494785, 108: 0.397203057, 109: 0.866314305, 110: 0.0, 111: 0.0, 112: 0.7870805749999999, 113: 0.791662325, 114: 0.0, 115: 0.0, 116: 0.951534855, 117: 0.0, 118: 0.19759306, 119: 0.16881967, 120: 0.0, 121: 1.483774529, 122: 1.409305569, 123: 0.0, 124: 0.0, 125: 0.0, 126: 0.0, 127: 1.408115969, 128: 0.0, 129: 1.418227569, 130: 0.0, 131: 0.0, 132: 0.0, 133: 0.0, 134: 0.0, 135: 0.118178165, 136: 0.193058529, 137: 0.118178165, 138: 0.078571978, 139: 1.417989649, 140: 1.407878049, 141: 0.0, 142: 0.0, 143: 0.0, 144: 0.118178165, 145: 0.0, 146: 1.403119649, 147: 0.118178165, 148: 0.0, 149: 0.0, 150: 0.0, 151: 0.0, 152: 1.061924485, 153: 0.0, 154: 0.0, 155: 0.0, 156: 0.0, 157: 0.0, 158: 0.0, 159: 0.0, 160: 0.101527403, 161: 1.058373569, 162: 0.0, 163: 1.171266609, 164: 1.410614129, 165: 0.0, 166: 0.0, 167: 1.423580769, 168: 0.0, 169: 1.385513569, 170: 1.395982049, 171: 1.407878049, 172: 0.118538683, 173: 0.0, 174: 1.418227569, 175: 1.416443169, 176: 0.484340683, 177: 1.721694529, 178: 0.202433237, 179: 0.0, 180: 0.0, 181: 1.676965569, 182: 0.0, 183: 0.259506283, 184: 0.8581893350000001, 185: 0.0, 186: 0.8620380050000001, 187: 0.13308202, 188: 0.858067155, 189: 0.856845355, 190: 0.858372605, 191: 0.13369292];
earn = [0: 0.0, 1: 0.0, 2: 0.0, 3: 0.0, 4: 0.177000848, 5: 0.172441281, 6: 0.0, 7: 0.140302085, 8: 0.116633777, 9: 0.0, 10: 0.112302965, 11: 0.1112005, 12: 0.0, 13: 0.0, 14: 0.0, 15: 0.112139554, 16: 0.0, 17: 0.0, 18: 0.147837312, 19: 0.160601408, 20: 0.0, 21: 0.0, 22: 0.241175697, 23: 0.0, 24: 0.0, 25: 0.355893831, 26: 0.0, 27: 0.402528502, 28: 0.0, 29: 0.0, 30: 0.0, 31: 0.0, 32: 0.116275824, 33: 0.045278092, 34: 0.0, 35: 0.0, 36: -0.045521831, 37: 0.0, 38: 0.0, 39: -0.00256486, 40: -0.000918957, 41: -0.010378739, 42: 0.0, 43: 0.0, 44: 0.0, 45: 0.0, 46: 0.0, 47: 0.0, 48: 0.0, 49: 0.0, 50: -0.000434427, 51: -0.0, 52: -0.002169032, 53: 0.003260698, 54: 0.0, 55: 0.0, 56: 0.10365603, 57: 0.0, 58: 0.014412254, 59: 0.17594846, 60: 0.0, 61: 0.0, 62: 0.0, 63: 0.001879917, 64: 0.035105878, 65: 0.0, 66: 0.52539287, 67: 0.403009361, 68: 0.0, 69: 0.508123422, 70: 0.0, 71: 0.653621543, 72: 0.0, 73: 0.0, 74: 0.0, 75: 0.0, 76: 0.0, 77: 0.757876008, 78: 0.0, 79: 0.729636955, 80: 0.363583173, 81: 0.0, 82: 0.551740555, 83: 0.0, 84: 0.0, 85: 0.46178561, 86: 0.451842165, 87: 0.0, 88: 0.427998475, 89: 0.0, 90: 0.415227081, 91: 0.0, 92: 0.0, 93: 0.0, 94: 0.0, 95: 0.374846691, 96: 0.0, 97: 0.370282534, 98: 0.0, 99: 0.0, 100: 0.0, 101: 0.0, 102: 0.348404706, 103: 0.343147621, 104: 0.32615495, 105: 0.0, 106: 0.0, 107: 0.0, 108: 0.0, 109: 0.0, 110: 0.344618427, 111: 0.343180423, 112: 0.0, 113: 0.0, 114: 0.412011892, 115: 0.20719756, 116: 0.0, 117: 0.307721131, 118: 0.0, 119: 0.0, 120: 0.421286803, 121: 0.0, 122: 0.0, 123: 0.040675104, 124: 0.069692263, 125: 0.5321792400000001, 126: 0.519007385, 127: 0.0, 128: 0.793497288, 129: 0.0, 130: 0.466880445, 131: 0.743605531, 132: 0.429591251, 133: 0.48960116, 134: 0.401785867, 135: 0.05874905, 136: 0.0, 137: 0.231305567, 138: 0.449206722, 139: 0.0, 140: 0.0, 141: 0.415795901, 142: 0.746525695, 143: 0.373581135, 144: 0.0, 145: 1.035041436, 146: 0.0, 147: 0.337955947, 148: 0.448345141, 149: 0.660548296, 150: 1.075524394, 151: 0.29086349, 152: 0.0, 153: 0.043590139, 154: 0.265072812, 155: 0.125333183, 156: 0.848908085, 157: 0.564943418, 158: 0.468411436, 159: 0.885353873, 160: 0.0, 161: 0.0, 162: 0.112539283, 163: 0.0, 164: 0.0, 165: 0.57936235, 166: 0.59390071, 167: 0.0, 168: 0.692951115, 169: 0.0, 170: 0.0, 171: 0.0, 172: 0.0, 173: 0.68641399, 174: 0.0, 175: 0.0, 176: 0.0, 177: 0.0, 178: 0.0, 179: 0.356948648, 180: 0.338247928, 181: 0.0, 182: 0.428094521, 183: 0.0, 184: 0.0, 185: 0.412282916, 186: 0.0, 187: 0.0, 188: 0.0, 189: 0.0, 190: 0.0, 191: 0.0];
total_cost = 90.00725862199999;
total_earn = 30.744889739;
% _objective = 59.26236888299999;