production = [0: 0.0, 1: 0.0, 2: 0.0, 3: 0.0, 4: 0.0, 5: 0.0, 6: 0.0, 7: 0.0, 8: 0.0, 9: 0.0, 10: 0.0, 11: 0.0, 12: 0.0, 13: 0.0, 14: 0.0, 15: 0.0, 16: 0.0, 17: 0.0, 18: 0.0, 19: 0.0, 20: 0.0, 21: 0.0, 22: 0.0, 23: 0.0, 24: 0.0, 25: 0.000137, 26: 0.00011, 27: 0.002141, 28: 0.007343, 29: 0.054005, 30: 0.012788, 31: 0.103311, 32: 0.03712, 33: 0.125587, 34: 0.14882, 35: 0.177745, 36: 0.274135, 37: 0.370443, 38: 0.06950099999999999, 39: 0.648143, 40: 0.419765, 41: 0.673327, 42: 0.202491, 43: 1.747671, 44: 0.27351, 45: 0.531423, 46: 0.989039, 47: 1.391548, 48: 0.463008, 49: 0.720073, 50: 0.590347, 51: 0.253357, 52: 0.177937, 53: 0.072391, 54: 0.100255, 55: 0.257556, 56: 0.210132, 57: 0.007219, 58: 0.307802, 59: 0.426577, 60: 0.101585, 61: 0.398095, 62: 0.534555, 63: 0.125726, 64: 0.400134, 65: 0.103639, 66: 0.029853, 67: 0.5129280000000001, 68: 0.263407, 69: 0.132363, 70: 0.13978, 71: 0.058707, 72: 0.08168400000000001, 73: 0.094731, 74: 0.11174, 75: 0.039972, 76: 0.00471, 77: 0.001607, 78: 0.000213, 79: 0.000175, 80: 2.9e-05, 81: 0.0, 82: 0.0, 83: 0.0, 84: 0.0, 85: 0.0, 86: 0.0, 87: 0.0, 88: 0.0, 89: 0.0, 90: 0.0, 91: 0.0, 92: 0.0, 93: 0.0, 94: 0.0, 95: 0.0, 96: 0.0, 97: 0.0, 98: 0.0, 99: 0.0, 100: 0.0, 101: 0.0, 102: 0.0, 103: 0.0, 104: 0.0, 105: 0.0, 106: 0.0, 107: 0.0, 108: 0.0, 109: 0.0, 110: 0.0, 111: 0.0, 112: 0.0, 113: 0.0, 114: 0.0, 115: 0.0, 116: 0.000277, 117: 0.00014, 118: 0.000211, 119: 0.000695, 120: 0.000741, 121: 0.001395, 122: 0.005329, 123: 0.017905, 124: 0.07860200000000001, 125: 0.059957, 126: 0.127025, 127: 0.101511, 128: 0.12932, 129: 0.342141, 130: 0.448869, 131: 0.212957, 132: 0.111017, 133: 1.064769, 134: 0.201883, 135: 0.061354, 136: 1.415583, 137: 1.035558, 138: 0.311043, 139: 0.778959, 140: 1.535407, 141: 0.681764, 142: 0.951369, 143: 1.96494, 144: 0.183617, 145: 0.072366, 146: 1.348986, 147: 1.342806, 148: 2.157431, 149: 1.265006, 150: 0.253656, 151: 1.208839, 152: 1.552302, 153: 1.361214, 154: 1.279264, 155: 0.922669, 156: 1.294194, 157: 0.799808, 158: 0.681592, 159: 1.240983, 160: 1.207557, 161: 0.8040890000000001, 162: 0.62868, 163: 0.28153, 164: 0.473041, 165: 0.519917, 166: 0.196499, 167: 0.100523, 168: 0.00429, 169: 0.142808, 170: 0.05937, 171: 0.005501, 172: 0.010009, 173: 0.013584, 174: 0.00223, 175: 0.000323, 176: 0.0, 177: 0.0, 178: 0.0, 179: 0.0, 180: 0.0, 181: 0.0, 182: 0.0, 183: 0.0, 184: 0.0, 185: 0.0, 186: 0.0, 187: 0.0, 188: 0.0, 189: 0.0, 190: 0.0, 191: 0.0];
buy = [0: 413.786446, 1: 76.575067, 2: 839.302879, 3: 890.495597, 4: 608.682475, 5: 735.694453, 6: 420.711377, 7: 206.241702, 8: 784.859788, 9: 54.883815, 10: 259.047817, 11: 183.711333, 12: 499.746873, 13: 648.759801, 14: 312.095867, 15: 741.358245, 16: 153.086562, 17: 698.797219, 18: 80.46927100000001, 19: 852.8580490000001, 20: 434.21924, 21: 355.25129, 22: 850.224404, 23: 795.857825, 24: 583.113931, 25: 700.782198, 26: 973.762871, 27: 919.952046, 28: 507.589776, 29: 392.590752, 30: 365.531508, 31: 946.697755, 32: 618.056482, 33: 909.716898, 34: 838.645319, 35: 243.126977, 36: 18.642233, 37: 846.655502, 38: 157.377776, 39: 268.315267, 40: 835.559341, 41: 791.959096, 42: 105.82536, 43: 815.951014, 44: 455.968822, 45: 835.023476, 46: 457.889956, 47: 2.543864, 48: 657.275941, 49: 228.083692, 50: 197.999841, 51: 45.57165, 52: 814.806613, 53: 930.58695, 54: 633.470735, 55: 651.865415, 56: 111.34816, 57: 294.567553, 58: 123.422495, 59: 867.922917, 60: 470.664384, 61: 402.834494, 62: 106.130376, 63: 367.417843, 64: 93.123932, 65: 571.329386, 66: 238.19644, 67: 562.988489, 68: 354.790328, 69: 185.745895, 70: 766.512593, 71: 244.078114, 72: 176.072664, 73: 408.897391, 74: 228.786508, 75: 559.532252, 76: 183.308441, 77: 387.587795, 78: 142.436479, 79: 905.147173, 80: 99.597953, 81: 963.792734, 82: 665.592486, 83: 877.401178, 84: 529.572786, 85: 987.892715, 86: 692.752874, 87: 562.770412, 88: 154.848777, 89: 586.121371, 90: 15.622853, 91: 719.852861, 92: 286.619034, 93: 343.763801, 94: 868.7109380000001, 95: 165.71075, 96: 194.589149, 97: 378.666258, 98: 483.038604, 99: 499.209721, 100: 191.152594, 101: 947.664569, 102: 64.622866, 103: 185.10682, 104: 561.184287, 105: 965.106074, 106: 569.682171, 107: 659.587365, 108: 933.902063, 109: 403.628782, 110: 725.360034, 111: 497.917774, 112: 338.941079, 113: 279.395356, 114: 402.135241, 115: 747.063742, 116: 381.293534, 117: 209.612869, 118: 691.6542920000001, 119: 500.352833, 120: 616.247443, 121: 493.471581, 122: 963.887868, 123: 126.671819, 124: 707.628186, 125: 34.203581, 126: 955.543192, 127: 119.907158, 128: 878.583025, 129: 391.768475, 130: 515.413059, 131: 430.681809, 132: 295.521421, 133: 34.25869, 134: 205.85124, 135: 481.973385, 136: 692.223158, 137: 87.37545299999999, 138: 940.398011, 139: 342.723075, 140: 639.7919439999999, 141: 114.014713, 142: 799.700245, 143: 22.999737, 144: 337.055988, 145: 380.455474, 146: 202.613639, 147: 583.996611, 148: 659.894615, 149: 225.380792, 150: 529.0139840000001, 151: 674.187201, 152: 3.069819, 153: 85.089015, 154: 996.960004, 155: 631.776525, 156: 433.10846, 157: 625.375536, 158: 897.838119, 159: 823.470287, 160: 179.934433, 161: 429.017819, 162: 112.71833, 163: 801.678511, 164: 353.717968, 165: 922.122939, 166: 131.41803, 167: 989.316061, 168: 945.319507, 169: 326.882056, 170: 765.626227, 171: 992.8468800000001, 172: 436.562277, 173: 542.13305, 174: 155.403478, 175: 822.358251, 176: 381.701401, 177: 129.939792, 178: 893.216216, 179: 839.809888, 180: 196.921186, 181: 115.872748, 182: 653.82712, 183: 600.3101370000001, 184: 938.689753, 185: 154.016566, 186: 43.3185, 187: 467.500494, 188: 444.522127, 189: 184.042042, 190: 900.32204, 191: 830.862868];
sell = [0: 2.474481, 1: 2.80618, 2: 3.669601, 3: 3.668918, 4: 1.823104, 5: 3.246929, 6: 3.301868, 7: 3.924962, 8: 2.603051, 9: 2.425891, 10: 2.919106, 11: 3.568026, 12: 0.581059, 13: 2.366113, 14: 1.419629, 15: 3.078749, 16: 0.774574, 17: 2.26057, 18: 3.220687, 19: 0.844925, 20: 2.756187, 21: 1.251617, 22: 3.084614, 23: 2.937309, 24: 2.860039, 25: 1.079439, 26: 3.421476, 27: 2.583015, 28: 2.734913, 29: 3.02785, 30: 3.920303, 31: 2.670118, 32: 3.066605, 33: 0.373524, 34: 3.806584, 35: 1.44646, 36: 3.94947, 37: 2.201874, 38: 0.229846, 39: 3.55141, 40: 0.6287970000000001, 41: 2.053653, 42: 0.464826, 43: 1.327287, 44: 1.871015, 45: 0.367587, 46: 2.51573, 47: 1.025378, 48: 3.931408, 49: 1.899601, 50: 3.086335, 51: 1.509319, 52: 2.536545, 53: 1.393611, 54: 1.229693, 55: 3.947017, 56: 1.989245, 57: 3.631326, 58: 0.348065, 59: 2.895349, 60: 0.442123, 61: 1.211406, 62: 2.614164, 63: 1.900282, 64: 1.337422, 65: 1.825183, 66: 3.697818, 67: 0.012218, 68: 1.665535, 69: 1.590232, 70: 0.736025, 71: 3.227532, 72: 1.940608, 73: 1.942947, 74: 3.489423, 75: 0.450285, 76: 0.257823, 77: 3.14055, 78: 2.510925, 79: 1.484494, 80: 2.045125, 81: 0.7737540000000001, 82: 3.20199, 83: 1.59265, 84: 2.897039, 85: 1.695274, 86: 1.921986, 87: 0.837165, 88: 1.655253, 89: 0.717625, 90: 0.638113, 91: 1.385554, 92: 3.203177, 93: 0.862722, 94: 1.212349, 95: 2.08953, 96: 2.931126, 97: 1.323537, 98: 3.699139, 99: 3.749344, 100: 1.546455, 101: 1.584609, 102: 0.168628, 103: 3.681554, 104: 1.863055, 105: 2.680199, 106: 2.412695, 107: 3.587708, 108: 3.696808, 109: 1.012725, 110: 2.902746, 111: 0.581357, 112: 2.538748, 113: 0.159726, 114: 1.139743, 115: 1.486959, 116: 0.8345320000000001, 117: 3.263784, 118: 3.18345, 119: 3.839225, 120: 3.338384, 121: 0.530412, 122: 3.648096, 123: 0.054191, 124: 2.317861, 125: 0.348236, 126: 2.920192, 127: 3.415684, 128: 0.338388, 129: 2.384225, 130: 2.259532, 131: 1.740632, 132: 1.652188, 133: 2.823357, 134: 0.883439, 135: 3.42586, 136: 2.706131, 137: 2.32343, 138: 2.071445, 139: 0.291739, 140: 0.625138, 141: 2.958457, 142: 0.439538, 143: 0.166281, 144: 0.360223, 145: 1.228126, 146: 0.322949, 147: 0.472973, 148: 3.783699, 149: 1.632498, 150: 1.717718, 151: 2.665889, 152: 0.370845, 153: 3.388184, 154: 3.964427, 155: 1.902984, 156: 0.844482, 157: 1.792645, 158: 2.993234, 159: 0.76411, 160: 3.521756, 161: 1.114688, 162: 0.869117, 163: 1.412643, 164: 3.353496, 165: 2.324272, 166: 3.983786, 167: 0.469909, 168: 2.558951, 169: 1.720166, 170: 3.128431, 171: 3.946439, 172: 3.56646, 173: 2.659062, 174: 3.285984, 175: 2.339041, 176: 2.04454, 177: 0.553332, 178: 0.913815, 179: 0.026152, 180: 3.191809, 181: 0.307, 182: 3.128854, 183: 0.321292, 184: 1.000556, 185: 3.281816, 186: 0.05778, 187: 3.503554, 188: 3.330539, 189: 2.240297, 190: 2.805266, 191: 0.042963];
charge = [0: 0.82611, 1: 0.679393, 2: 0.566503, 3: 0.411226, 4: 0.8807, 5: 0.748924, 6: 0.391428, 7: 0.74616, 8: 0.61394, 9: 0.651511, 10: 0.861919, 11: 0.547945, 12: 0.180849, 13: 0.024134, 14: 0.496101, 15: 0.659798, 16: 0.886463, 17: 0.8328989999999999, 18: 0.977491, 19: 0.104413, 20: 0.221641, 21: 0.526325, 22: 0.987337, 23: 0.650157, 24: 0.798021, 25: 0.958024, 26: 0.900971, 27: 0.342563, 28: 0.269602, 29: 0.77694, 30: 0.834785, 31: 0.08158600000000001, 32: 0.381744, 33: 0.363082, 34: 0.335737, 35: 0.486516, 36: 0.79362, 37: 0.635094, 38: 0.701301, 39: 0.391989, 40: 0.281744, 41: 0.944841, 42: 0.052162, 43: 0.213887, 44: 0.392992, 45: 0.714609, 46: 0.793386, 47: 0.325257, 48: 0.54298, 49: 0.098095, 50: 0.90279, 51: 0.019001, 52: 0.377955, 53: 0.517408, 54: 0.150204, 55: 0.817121, 56: 0.188279, 57: 0.810509, 58: 0.337082, 59: 0.897712, 60: 0.841541, 61: 0.995806, 62: 0.972579, 63: 0.008867999999999999, 64: 0.853671, 65: 0.7496969999999999, 66: 0.904326, 67: 0.9820449999999999, 68: 0.272501, 69: 0.114917, 70: 0.5377459999999999, 71: 0.035535, 72: 0.875495, 73: 0.956489, 74: 0.839099, 75: 0.196202, 76: 0.85295, 77: 0.771898, 78: 0.8027260000000001, 79: 0.760981, 80: 0.12523, 81: 0.6621050000000001, 82: 0.338352, 83: 0.078489, 84: 0.973997, 85: 0.8133590000000001, 86: 0.286695, 87: 0.6331909999999999, 88: 0.255683, 89: 0.08123900000000001, 90: 0.5899990000000001, 91: 0.843068, 92: 0.761149, 93: 0.6387659999999999, 94: 0.566999, 95: 0.593538, 96: 0.868456, 97: 0.117429, 98: 0.018688, 99: 0.76868, 100: 0.147792, 101: 0.6391019999999999, 102: 0.21395, 103: 0.792479, 104: 0.068546, 105: 0.323879, 106: 0.533039, 107: 0.747657, 108: 0.957252, 109: 0.710803, 110: 0.889619, 111: 0.919376, 112: 0.161429, 113: 0.614649, 114: 0.084565, 115: 0.173862, 116: 0.540056, 117: 0.009131, 118: 0.993236, 119: 0.379001, 120: 0.985029, 121: 0.96794, 122: 0.832158, 123: 0.444489, 124: 0.664759, 125: 0.509005, 126: 0.91836, 127: 0.644475, 128: 0.347381, 129: 0.167616, 130: 0.155292, 131: 0.415093, 132: 0.043978, 133: 0.766972, 134: 0.424165, 135: 0.152078, 136: 0.711419, 137: 0.429796, 138: 0.104246, 139: 0.648684, 140: 0.648019, 141: 0.542963, 142: 0.742125, 143: 0.166323, 144: 0.93635, 145: 0.957803, 146: 0.6881890000000001, 147: 0.434581, 148: 0.249938, 149: 0.347858, 150: 0.85647, 151: 0.622331, 152: 0.567276, 153: 0.342436, 154: 0.860659, 155: 0.186901, 156: 0.235482, 157: 0.110376, 158: 0.943855, 159: 0.96367, 160: 0.789481, 161: 0.33427, 162: 0.762835, 163: 0.949574, 164: 0.228175, 165: 0.6171180000000001, 166: 0.339678, 167: 0.746019, 168: 0.667296, 169: 0.163083, 170: 0.487642, 171: 0.574031, 172: 0.023199, 173: 0.193028, 174: 0.629243, 175: 0.341161, 176: 0.000344, 177: 0.254367, 178: 0.443461, 179: 0.295599, 180: 0.455647, 181: 0.564658, 182: 0.0273, 183: 0.221501, 184: 0.872983, 185: 0.141833, 186: 0.343798, 187: 0.107888, 188: 0.292646, 189: 0.861018, 190: 0.291179, 191: 0.865082];
discharge = [0: 0.108529, 1: 0.749827, 2: 0.489862, 3: 0.180546, 4: 0.260361, 5: 0.479061, 6: 0.087127, 7: 0.305857, 8: 0.766751, 9: 0.118981, 10: 0.732285, 11: 0.649729, 12: 0.368735, 13: 0.95418, 14: 0.03558, 15: 0.561234, 16: 0.548746, 17: 0.803356, 18: 0.341654, 19: 0.848206, 20: 0.183409, 21: 0.405996, 22: 0.08262, 23: 0.443937, 24: 0.589438, 25: 0.012219, 26: 0.090187, 27: 0.387701, 28: 0.811662, 29: 0.821527, 30: 0.909531, 31: 0.304159, 32: 0.878385, 33: 0.93029, 34: 0.634601, 35: 0.429334, 36: 0.845755, 37: 0.440152, 38: 0.281034, 39: 0.222513, 40: 0.048914, 41: 0.75896, 42: 0.523518, 43: 0.683501, 44: 0.019658, 45: 0.025174, 46: 0.441253, 47: 0.620451, 48: 0.283928, 49: 0.271271, 50: 0.277457, 51: 0.353736, 52: 0.756113, 53: 0.764348, 54: 0.5873969999999999, 55: 0.668272, 56: 0.047014, 57: 0.591437, 58: 0.455832, 59: 0.284818, 60: 0.46419, 61: 0.919788, 62: 0.406053, 63: 0.07964, 64: 0.84384, 65: 0.089472, 66: 0.535174, 67: 0.74896, 68: 0.496195, 69: 0.537023, 70: 0.869187, 71: 0.729224, 72: 0.448477, 73: 0.897729, 74: 0.611317, 75: 0.254792, 76: 0.173882, 77: 0.847321, 78: 0.373775, 79: 0.805594, 80: 0.445299, 81: 0.881479, 82: 0.241771, 83: 0.33887, 84: 0.201565, 85: 0.541233, 86: 0.032097, 87: 0.656825, 88: 0.5314759999999999, 89: 0.121336, 90: 0.460483, 91: 0.705786, 92: 0.210536, 93: 0.603654, 94: 0.599997, 95: 0.006448, 96: 0.729027, 97: 0.191127, 98: 0.390894, 99: 0.150889, 100: 0.171359, 101: 0.569325, 102: 0.446397, 103: 0.558783, 104: 0.148372, 105: 0.520292, 106: 0.858112, 107: 0.860989, 108: 0.462417, 109: 0.406005, 110: 0.510916, 111: 0.035701, 112: 0.488794, 113: 0.21959, 114: 0.82216, 115: 0.158578, 116: 0.021113, 117: 0.557764, 118: 0.889714, 119: 0.502233, 120: 0.81472, 121: 0.229509, 122: 0.294166, 123: 0.701168, 124: 0.168556, 125: 0.39, 126: 0.98952, 127: 0.934347, 128: 0.38344, 129: 0.374898, 130: 0.232633, 131: 0.055062, 132: 0.50752, 133: 0.42751, 134: 0.065345, 135: 0.425025, 136: 0.218978, 137: 0.376329, 138: 0.138877, 139: 0.021367, 140: 0.515533, 141: 0.487473, 142: 0.892325, 143: 0.87035, 144: 0.021465, 145: 0.879987, 146: 0.106667, 147: 0.230908, 148: 0.956686, 149: 0.446723, 150: 0.439458, 151: 0.012174, 152: 0.530063, 153: 0.305608, 154: 0.409595, 155: 0.08262700000000001, 156: 0.882029, 157: 0.162139, 158: 0.751551, 159: 0.398476, 160: 0.873825, 161: 0.563553, 162: 0.13408, 163: 0.975662, 164: 0.769149, 165: 0.403814, 166: 0.189679, 167: 0.071647, 168: 0.974608, 169: 0.867594, 170: 0.746715, 171: 0.269258, 172: 0.137395, 173: 0.14969, 174: 0.451394, 175: 0.516801, 176: 0.97028, 177: 0.216099, 178: 0.578479, 179: 0.651983, 180: 0.438528, 181: 0.433244, 182: 0.386704, 183: 0.012224, 184: 0.499866, 185: 0.518653, 186: 0.703365, 187: 0.377182, 188: 0.423434, 189: 0.790523, 190: 0.5899990000000001, 191: 0.906936];
soc = [0: 7.810578, 1: 8.405875, 2: 9.061388000000001, 3: 9.694616999999999, 4: 8.748975, 5: 10.030985, 6: 11.998517, 7: 4.049377, 8: 4.413389, 9: 15.161701, 10: 13.896657, 11: 3.715452, 12: 12.177809, 13: 8.753593, 14: 14.049432, 15: 7.6821, 16: 6.417257, 17: 2.892376, 18: 9.903504999999999, 19: 6.328006, 20: 4.192148, 21: 13.022961, 22: 7.256145, 23: 13.969644, 24: 6.73074, 25: 6.316055, 26: 6.850497, 27: 7.777301, 28: 11.945548, 29: 10.753126, 30: 3.598352, 31: 8.177194999999999, 32: 5.304603, 33: 3.732596, 34: 4.077819, 35: 12.220009, 36: 7.522447, 37: 6.211911, 38: 7.311172, 39: 11.808269, 40: 15.187324, 41: 7.369326, 42: 3.434905, 43: 12.732527, 44: 4.851141, 45: 12.618787, 46: 2.692519, 47: 13.197331, 48: 7.241458, 49: 13.807793, 50: 10.905089, 51: 10.960965, 52: 15.584552, 53: 6.496018, 54: 7.956183, 55: 9.349816000000001, 56: 9.024392000000001, 57: 3.642794, 58: 4.092033, 59: 6.559116, 60: 11.541372, 61: 14.085434, 62: 12.158289, 63: 13.952236, 64: 14.590717, 65: 9.949986000000001, 66: 14.038566, 67: 8.444720999999999, 68: 3.817304, 69: 3.079282, 70: 9.578042999999999, 71: 14.296176, 72: 15.429536, 73: 11.036723, 74: 4.109139, 75: 2.836882, 76: 7.279873, 77: 7.426754, 78: 10.977523, 79: 8.148637000000001, 80: 13.808504, 81: 3.41417, 82: 12.581933, 83: 13.645322, 84: 15.6437, 85: 12.251909, 86: 10.500608, 87: 12.142603, 88: 12.295544, 89: 11.130443, 90: 4.462168, 91: 3.965231, 92: 7.280794, 93: 3.144825, 94: 2.78953, 95: 3.801174, 96: 15.624, 97: 8.030389, 98: 15.4478, 99: 5.950874, 100: 7.719278, 101: 9.085665000000001, 102: 13.700689, 103: 12.365091, 104: 8.374385999999999, 105: 6.176396, 106: 8.049735999999999, 107: 14.140263, 108: 11.909954, 109: 14.626709, 110: 12.817694, 111: 7.674505, 112: 10.486457, 113: 13.709624, 114: 11.857061, 115: 11.275941, 116: 7.580123, 117: 8.921346, 118: 4.132786, 119: 13.77425, 120: 7.821766, 121: 7.031685, 122: 10.872117, 123: 4.18029, 124: 12.619674, 125: 5.948481, 126: 15.664327, 127: 3.356867, 128: 12.000518, 129: 9.542979000000001, 130: 7.112439, 131: 6.195374, 132: 15.235121, 133: 15.199158, 134: 15.416839, 135: 11.257337, 136: 10.179508, 137: 13.963902, 138: 15.074821, 139: 9.694138000000001, 140: 7.033403, 141: 11.144426, 142: 14.806929, 143: 14.291403, 144: 12.464068, 145: 10.207073, 146: 5.244416, 147: 12.820979, 148: 10.270595, 149: 11.335616, 150: 7.581689, 151: 3.174496, 152: 9.654673000000001, 153: 6.437052, 154: 11.295595, 155: 11.181888, 156: 9.061906, 157: 13.299959, 158: 12.285128, 159: 6.151313, 160: 7.535761, 161: 14.794118, 162: 2.831601, 163: 11.544651, 164: 14.41501, 165: 13.710114, 166: 9.083098, 167: 7.682184, 168: 3.941223, 169: 6.046377, 170: 3.079931, 171: 3.158774, 172: 7.500783, 173: 3.214718, 174: 11.120758, 175: 12.275485, 176: 3.026385, 177: 15.521243, 178: 6.617867, 179: 4.029192, 180: 4.65208, 181: 6.984279, 182: 3.077318, 183: 2.692749, 184: 11.521703, 185: 11.176257, 186: 4.417937, 187: 12.159069, 188: 14.880726, 189: 6.221986, 190: 4.317254, 191: 11.122154];
cost = [0: 339.225126, 1: 548.370234, 2: 245.120799, 3: 234.104752, 4: 120.755659, 5: 393.775871, 6: 463.508399, 7: 342.883825, 8: 404.647851, 9: 331.766749, 10: 279.976304, 11: 331.199526, 12: 304.046405, 13: 604.878245, 14: 193.533882, 15: 18.076687, 16: 115.00227, 17: 472.601792, 18: 365.548292, 19: 253.721489, 20: 26.686122, 21: 364.670639, 22: 65.238027, 23: 384.469492, 24: 216.050188, 25: 144.45593, 26: 983.623201, 27: 112.75559, 28: 720.240261, 29: 728.337401, 30: 548.1005259999999, 31: 1095.74903, 32: 255.197872, 33: 840.9792629999999, 34: 1053.755269, 35: 627.827364, 36: 1063.073478, 37: 1141.129361, 38: 591.304589, 39: 564.457584, 40: 488.142813, 41: 757.480441, 42: 751.696862, 43: 330.631903, 44: 277.830405, 45: 97.770186, 46: 872.582369, 47: 1056.625236, 48: 887.622191, 49: 1128.135651, 50: 453.268306, 51: 382.94509, 52: 65.30909800000001, 53: 111.912681, 54: 93.933288, 55: 260.236763, 56: 269.659104, 57: 25.90659, 58: 49.797161, 59: 592.068911, 60: 1009.526774, 61: 1034.53602, 62: 721.361186, 63: 46.127182, 64: 1187.363718, 65: 228.742783, 66: 949.795574, 67: 279.510875, 68: 546.432509, 69: 1147.872477, 70: 346.626925, 71: 118.316654, 72: 414.699145, 73: 392.847526, 74: 919.113789, 75: 1047.520515, 76: 976.816, 77: 473.09102, 78: 1044.886414, 79: 733.147422, 80: 1109.85293, 81: 863.5081280000001, 82: 115.065971, 83: 1096.205266, 84: 699.279757, 85: 456.519411, 86: 989.39383, 87: 1041.683684, 88: 102.160133, 89: 39.606466, 90: 26.830402, 91: 416.009951, 92: 336.731609, 93: 58.653467, 94: 72.932574, 95: 489.997371, 96: 138.759105, 97: 163.086753, 98: 395.439238, 99: 585.252607, 100: 449.875967, 101: 370.994038, 102: 143.109522, 103: 515.3949720000001, 104: 303.15538, 105: 287.981412, 106: 99.921858, 107: 481.742443, 108: 11.732036, 109: 236.194888, 110: 560.724071, 111: 184.406138, 112: 359.638966, 113: 240.979069, 114: 602.112807, 115: 0.279537, 116: 53.40747, 117: 485.032289, 118: 456.088747, 119: 320.432144, 120: 897.555879, 121: 1040.140881, 122: 1076.971203, 123: 98.819321, 124: 650.53385, 125: 406.659162, 126: 481.613583, 127: 49.65159, 128: 1125.041203, 129: 776.2348, 130: 1029.015513, 131: 1116.728571, 132: 665.450506, 133: 812.3839359999999, 134: 604.968442, 135: 899.763837, 136: 1138.958235, 137: 926.024063, 138: 1139.888554, 139: 114.931729, 140: 1075.877944, 141: 518.268677, 142: 353.931371, 143: 526.285839, 144: 50.133189, 145: 253.645361, 146: 322.143672, 147: 1110.395243, 148: 358.520734, 149: 335.217298, 150: 489.353546, 151: 104.425534, 152: 261.061393, 153: 542.0856219999999, 154: 148.118451, 155: 291.241096, 156: 333.754534, 157: 418.567325, 158: 169.13266, 159: 7.314998, 160: 273.654618, 161: 1137.550054, 162: 471.791772, 163: 38.188766, 164: 969.704706, 165: 429.789583, 166: 533.770624, 167: 822.445117, 168: 47.370014, 169: 220.880523, 170: 115.186086, 171: 347.904979, 172: 862.025647, 173: 720.623286, 174: 1086.580086, 175: 1067.000014, 176: 160.963304, 177: 541.551293, 178: 141.512467, 179: 128.091969, 180: 475.459854, 181: 888.85097, 182: 627.464892, 183: 70.693699, 184: 327.342631, 185: 353.482992, 186: 414.488731, 187: 513.182123, 188: 487.713439, 189: 49.990144, 190: 367.255722, 191: 599.43301];
earn = [0: 2.369346, 1: 0.238317, 2: 0.827593, 3: 1.855304, 4: 0.760117, 5: 0.848946, 6: 1.787108, 7: 0.061596, 8: 1.886249, 9: 1.221314, 10: 0.02684, 11: 0.302503, 12: 0.998602, 13: 2.060247, 14: 1.832569, 15: 1.97193, 16: 2.188271, 17: 0.363885, 18: 0.43608, 19: 1.481656, 20: 1.145669, 21: 0.010294, 22: 0.268329, 23: 1.0838, 24: 2.473095, 25: 2.314175, 26: 0.526724, 27: 0.846816, 28: 1.6884, 29: 2.426348, 30: 0.805512, 31: 3.573318, 32: 2.00596, 33: 2.202699, 34: 2.189651, 35: 0.862536, 36: 0.742946, 37: 2.01616, 38: 1.696901, 39: 0.801334, 40: 1.548216, 41: 0.767599, 42: 1.230076, 43: 2.201035, 44: 1.973224, 45: 0.642197, 46: 2.208779, 47: 0.796744, 48: 1.462633, 49: 1.780553, 50: 1.10203, 51: 1.729512, 52: 1.214786, 53: 1.731097, 54: 1.696312, 55: 0.33776, 56: 1.957935, 57: 1.758134, 58: 0.246502, 59: 0.537324, 60: 1.598378, 61: 0.473257, 62: 1.956816, 63: 0.64293, 64: 1.77795, 65: 0.7323539999999999, 66: 0.158819, 67: 1.158167, 68: 1.520505, 69: 1.71389, 70: 1.021218, 71: 0.000155, 72: 2.132385, 73: 2.513352, 74: 2.908557, 75: 1.006952, 76: 1.509502, 77: 3.659001, 78: 3.154737, 79: 2.329305, 80: 2.286723, 81: 1.877137, 82: 1.792993, 83: 1.696748, 84: 0.300724, 85: 1.3277, 86: 2.70235, 87: 3.056085, 88: 2.109896, 89: 0.886659, 90: 1.159143, 91: 1.800282, 92: 0.043642, 93: 1.833393, 94: 1.547828, 95: 1.927628, 96: 2.59752, 97: 1.074658, 98: 2.034945, 99: 2.323148, 100: 1.247637, 101: 2.229296, 102: 2.592695, 103: 2.513333, 104: 0.66682, 105: 0.893404, 106: 1.502028, 107: 2.234022, 108: 2.321211, 109: 1.331041, 110: 2.36531, 111: 1.509048, 112: 1.262143, 113: 2.457768, 114: 0.438901, 115: 1.950904, 116: 2.198869, 117: 1.271416, 118: 3.072426, 119: 2.117558, 120: 3.10585, 121: 2.121608, 122: 3.105952, 123: 1.228746, 124: 1.573897, 125: 1.178231, 126: 1.404069, 127: 2.443442, 128: 2.166617, 129: 0.0506, 130: 3.045833, 131: 0.388395, 132: 0.379252, 133: 2.06208, 134: 0.845324, 135: 1.251872, 136: 1.139853, 137: 0.728983, 138: 1.270014, 139: 1.401539, 140: 1.348865, 141: 1.149421, 142: 1.50704, 143: 0.181953, 144: 0.689275, 145: 1.516315, 146: 1.621098, 147: 1.239609, 148: 0.285271, 149: 1.141144, 150: 0.055671, 151: 0.36271, 152: 0.896274, 153: 0.757663, 154: 0.782126, 155: 0.509456, 156: 0.381483, 157: 0.051703, 158: 0.380457, 159: 0.409682, 160: 1.612409, 161: 1.632912, 162: 2.016626, 163: 1.379399, 164: 1.071395, 165: 0.753038, 166: 0.834514, 167: 2.231677, 168: 1.367913, 169: 0.055036, 170: 1.042061, 171: 1.516053, 172: 0.122156, 173: 1.785232, 174: 4.301823, 175: 1.616772, 176: 2.004095, 177: 2.444386, 178: 2.929053, 179: 1.579612, 180: 1.847737, 181: 0.469971, 182: 0.582056, 183: 0.072326, 184: 2.392036, 185: 2.862286, 186: 2.979469, 187: 0.498021, 188: 0.322203, 189: 2.456065, 190: 0.785202, 191: 0.433371];
total_cost = 89.2755237685205;
total_earn = 50.73410128327863;
