t_strength = 
[|    UNSKILLED: SEMI_SKILLED: SKILLED: 
 | 0:      2500,         1800,    1200
 | 1:      2000,         1767,    1137
 | 2:      1500,         1400,    1220
 | 3:      1198,         1237,     889
 |];
u_recruit = 
[| UNSKILLED: SEMI_SKILLED: SKILLED: 
 |         0,            0,     300
 |       300,            0,       2
 |         1,          400,     294
 |];
transfer = array3d(1..3, UNSKILLED..SKILLED, UNSKILLED..SKILLED, [0, 160, 0, 0, 0, 0, 0, 294, 0, 0, 150, 0, 0, 0, 123, 0, 0, 0, 0, 0, 0, 419, 0, 0, 559, 0, 0]);
w_redundancy = 
[| UNSKILLED: SEMI_SKILLED: SKILLED: 
 |       140,          160,       3
 |       430,          310,       4
 |       574,            0,       0
 |];
x_short = 
[| UNSKILLED: SEMI_SKILLED: SKILLED: 
 |         0,            0,      74
 |         0,            0,      74
 |         0,           74,      74
 |];
y_overmanning = 
[| UNSKILLED: SEMI_SKILLED: SKILLED: 
 |         0,          200,       0
 |         0,            0,     183
 |       198,            0,       2
 |];
% _objective = 2222500.0;
