t_strength = 
[|    UNSKILLED: SEMI_SKILLED: SKILLED: 
 | 0:      2500,         1800,    1200
 | 1:      2000,         1810,    1137
 | 2:      1500,         1632,    1037
 | 3:      1190,         1247,     850
 |];
u_recruit = 
[| UNSKILLED: SEMI_SKILLED: SKILLED: 
 |         0,            2,     298
 |       300,            0,       2
 |         0,          394,     300
 |];
transfer = array3d(1..3, UNSKILLED..SKILLED, UNSKILLED..SKILLED, [0, 165, 0, 10, 0, 240, 0, 528, 0, 0, 160, 0, 0, 0, 223, 0, 13, 0, 0, 153, 0, 835, 0, 163, 0, 583, 0]);
w_redundancy = 
[| UNSKILLED: SEMI_SKILLED: SKILLED: 
 |       139,            0,       0
 |       420,            2,     271
 |       371,            1,       1
 |];
x_short = 
[| UNSKILLED: SEMI_SKILLED: SKILLED: 
 |         0,           54,      74
 |         1,           74,      66
 |         0,           74,       0
 |];
y_overmanning = 
[| UNSKILLED: SEMI_SKILLED: SKILLED: 
 |         0,          183,       0
 |         0,          195,       4
 |       190,           10,       0
 |];
% _objective = 2197000.0;
