production = [0.0, 0.0, 0.0, 0.0, 0.0, 0.0, 0.0, 0.0, 0.0, 0.0, 0.0, 0.0, 0.0, 0.0, 0.0, 0.0, 0.0, 0.0, 0.0, 0.0, 0.0, 0.0, 0.0, 0.000135, 0.000287, 7.2e-05, 0.0002, 0.005276, 0.005708, 0.009598000000000001, 0.001122, 0.129192, 0.06499199999999999, 0.020178, 0.038195, 0.191381, 0.202854, 0.169252, 0.0895, 0.12577, 0.646817, 0.472808, 2.9e-05, 0.483172, 0.403971, 0.237314, 0.368742, 0.837799, 0.532571, 0.800587, 2.535049, 0.2319, 0.404608, 0.666231, 1.452366, 0.08183, 0.261403, 0.503211, 0.078176, 0.477586, 0.5359120000000001, 0.09063599999999999, 0.330145, 0.534821, 0.156319, 0.080064, 0.062731, 0.292254, 0.740497, 0.141782, 0.208846, 0.264122, 0.145775, 0.211141, 0.000153, 0.040241, 0.001111, 0.009887999999999999, 0.002859, 0.0, 0.0, 0.0, 0.0, 0.0, 0.0, 0.0, 0.0, 0.0, 0.0, 0.0, 0.0, 0.0, 0.0, 0.0, 0.0, 0.0];
buy = [691.292089, 577.622156, 983.856467, 363.46521, 601.995361, 37.422746, 160.853222, 794.525858, 238.375124, 882.245261, 640.700569, 605.457138, 636.468709, 336.093895, 526.74748, 357.1869, 663.974786, 561.749188, 961.629775, 147.435012, 216.559184, 940.737374, 820.046243, 552.547512, 970.891856, 500.737945, 427.990424, 79.64504599999999, 664.297431, 799.154715, 587.558358, 956.162491, 24.907144, 335.38173, 547.217111, 622.62664, 332.523971, 151.376835, 115.842192, 848.052607, 302.556665, 287.637333, 579.517473, 515.21922, 807.007825, 530.187327, 159.795789, 646.075258, 33.522235, 320.045056, 494.143071, 305.628326, 96.60332099999999, 290.582946, 857.12135, 776.574252, 658.871388, 49.475696, 940.804576, 398.45516, 766.4655780000001, 288.94444, 767.875929, 860.76793, 719.55732, 321.522058, 781.746471, 22.737041, 911.005477, 452.993165, 65.870716, 880.854211, 792.5389740000001, 493.630274, 949.310305, 534.605954, 170.821932, 696.819532, 700.144535, 190.168551, 838.771398, 411.403627, 481.87267, 909.8167999999999, 735.2886, 583.463383, 166.874461, 659.7514640000001, 146.539082, 957.751484, 339.276268, 638.12572, 934.343019, 712.20499, 725.528559, 675.370354];
sell = [1.595566, 2.699438, 0.8032280000000001, 0.112558, 1.071653, 1.839249, 3.25171, 2.731313, 2.948503, 3.737451, 0.32209, 1.02648, 0.943735, 0.386294, 2.753248, 3.005924, 1.080564, 3.771238, 1.498658, 3.123117, 0.041458, 2.065962, 2.771664, 3.060369, 2.253762, 2.889251, 1.201204, 0.813698, 0.987665, 0.696906, 1.318904, 3.7741, 0.795222, 1.662667, 3.098948, 1.215414, 1.679109, 3.832041, 3.545015, 1.155679, 3.753811, 3.425795, 0.048489, 0.273926, 2.535535, 3.311916, 3.028429, 1.567794, 1.658332, 0.457704, 3.072295, 0.814931, 2.010202, 0.063698, 1.791539, 0.055745, 0.377558, 2.911601, 0.952867, 0.043934, 2.30645, 0.313786, 1.303718, 0.045134, 3.722676, 1.934547, 0.247217, 1.80169, 2.988269, 1.545918, 1.399519, 0.535609, 2.135953, 0.99769, 2.381231, 0.465478, 0.153366, 0.224867, 2.63509, 3.223182, 0.05045, 3.621723, 0.317317, 1.199534, 3.737936, 2.281025, 0.162102, 2.709062, 3.501257, 0.8484699999999999, 0.037857, 3.36539, 3.114982, 0.146981, 0.671896, 0.865626];
charge = [0.041869, 0.407089, 0.49587, 0.338953, 0.106917, 0.714472, 0.627353, 0.633876, 0.779255, 0.7932439999999999, 0.09379999999999999, 0.476697, 0.187299, 0.793893, 0.443569, 0.953846, 0.804202, 0.346506, 0.329456, 0.857175, 0.259841, 0.555102, 0.587568, 0.030064, 0.5785670000000001, 0.07118099999999999, 0.433775, 0.468586, 0.745406, 0.671328, 0.791505, 0.944056, 0.542547, 0.681853, 0.7548, 0.259394, 0.911447, 0.985062, 0.194401, 0.200846, 0.548179, 0.443623, 0.4103, 0.237021, 0.983644, 0.040903, 0.871528, 0.553388, 0.232633, 0.705803, 0.606921, 0.824719, 0.739086, 0.470993, 0.154233, 0.321275, 0.530902, 0.025143, 0.249878, 0.075045, 0.402617, 0.185081, 0.580619, 0.8629869999999999, 0.921934, 0.247725, 0.063503, 0.597549, 0.764398, 0.868313, 0.991832, 0.010836, 0.403298, 0.677357, 0.469665, 0.998271, 0.611453, 0.304054, 0.225727, 0.286777, 0.088311, 0.4315, 0.099189, 0.54048, 0.356467, 0.673705, 0.419618, 0.963521, 0.938367, 0.792015, 0.379313, 0.771888, 0.631393, 0.108447, 0.962887, 0.627149];
discharge = [0.65199, 0.81581, 0.273705, 0.544048, 0.591899, 0.764432, 0.7931, 0.09989199999999999, 0.101952, 0.861251, 0.432411, 0.752931, 0.829784, 0.363749, 0.391159, 0.010282, 0.519806, 0.995102, 0.392343, 0.273709, 0.394417, 0.771383, 0.60549, 0.396645, 0.054456, 0.941956, 0.463917, 0.9134139999999999, 0.987134, 0.268147, 0.157253, 0.564208, 0.203823, 0.030306, 0.43768, 0.284342, 0.340951, 0.278756, 0.7428940000000001, 0.61092, 0.159683, 0.903049, 0.22136, 0.759394, 0.47329, 0.059206, 0.295292, 0.709124, 0.466508, 0.389448, 0.042829, 0.583974, 0.558818, 0.317591, 0.342187, 0.084329, 0.238791, 0.698616, 0.146303, 0.134404, 0.725496, 0.917575, 0.826043, 0.166647, 0.733098, 0.933216, 0.848465, 0.8962020000000001, 0.741726, 0.534008, 0.14986, 0.172772, 0.426345, 0.853528, 0.893099, 0.96841, 0.332213, 0.151085, 0.972314, 0.584405, 0.540427, 0.341615, 0.32141, 0.287659, 0.867904, 0.001267, 0.361382, 0.580773, 0.246441, 0.274554, 0.348274, 0.67536, 0.365665, 0.472931, 0.315778, 0.6933510000000001];
soc = [8.157339, 8.435416999999999, 7.3404, 10.148653, 4.349448, 11.717224, 4.691031, 13.945767, 14.881189, 8.594009, 14.122097, 10.213338, 14.917613, 10.906153, 13.331397, 6.318873, 12.991156, 7.674549, 14.058077, 13.802778, 8.767632000000001, 4.224892, 5.258801, 10.437456, 14.061152, 7.402065, 11.828955, 7.328592, 10.478137, 6.93782, 4.165269, 14.979733, 12.246263, 14.986944, 3.126697, 10.962839, 7.886482, 12.425004, 12.131939, 9.818184, 5.371815, 13.896006, 3.075081, 4.956744, 9.994099, 13.25031, 5.967405, 13.176655, 11.375943, 11.95425, 4.848581, 6.202157, 5.012768, 4.774175, 9.190567, 8.882484, 4.871497, 7.268393, 3.199612, 8.655806999999999, 2.872115, 15.25065, 5.324557, 10.526923, 13.204326, 8.547936999999999, 9.065277999999999, 2.800727, 3.049694, 10.31669, 11.542118, 6.445991, 7.148815, 13.750229, 5.830834, 3.542308, 7.490523, 13.415329, 11.261754, 4.105375, 8.476789, 14.600435, 10.725022, 13.267544, 6.497403, 14.642868, 5.628472, 11.918994, 3.746624, 11.161415, 3.535785, 4.808879, 2.717581, 9.600315, 3.772164, 12.535185];
cost = [514.907252, 21.936772, 523.149816, 418.86586, 26.712021, 522.886443, 580.168226, 244.259462, 581.683906, 96.948427, 176.205808, 138.47577, 20.783629, 288.735681, 28.206004, 469.173427, 582.770993, 436.785139, 608.988905, 146.206027, 86.559353, 207.23579, 359.151939, 420.344715, 587.189531, 643.26223, 1094.226046, 264.740178, 277.676045, 1181.152031, 410.986345, 130.127316, 1120.097375, 727.004534, 1178.970239, 699.17672, 722.063166, 680.537479, 344.295647, 651.8108580000001, 1106.648788, 1049.607933, 975.197819, 838.105558, 141.567161, 596.182544, 690.461816, 519.102081, 546.515208, 1066.38281, 214.857994, 516.838571, 553.677222, 464.373986, 214.710009, 17.387497, 75.85163300000001, 517.656278, 208.654976, 241.807912, 419.947903, 642.218784, 320.301442, 97.773071, 555.555983, 1077.651108, 787.8069829999999, 241.04254, 3.394923, 589.114749, 15.878882, 678.502841, 490.162165, 241.323848, 309.271755, 974.660425, 965.024588, 897.378333, 872.206169, 1178.858805, 1005.488098, 433.968583, 826.1408740000001, 680.781488, 923.307206, 670.291579, 145.025854, 473.452494, 273.345774, 318.614217, 325.943059, 324.895339, 549.764812, 286.5434, 139.741156, 226.324026];
earn = [0.175349, 1.158973, 2.016563, 2.408089, 1.390605, 0.416533, 2.066704, 0.463394, 1.373468, 1.225038, 2.04472, 0.106705, 2.09817, 0.383285, 0.156493, 1.457489, 0.957732, 1.168819, 0.752521, 1.398468, 1.178869, 1.13798, 1.445135, 0.30775, 2.089103, 0.111397, 0.313454, 2.526002, 2.077922, 1.421886, 2.557678, 2.572537, 1.045567, 2.358746, 2.388785, 0.62281, 1.027465, 1.758488, 1.045538, 1.734776, 0.409943, 0.658251, 0.791941, 0.131031, 0.054351, 0.09968200000000001, 0.411026, 0.197006, 0.436857, 0.019794, 0.111007, 0.050366, 0.00912, 0.032937, 0.031623, 0.011481, 0.015454, 0.006298, 0.014602, 0.025006, 0.085616, 0.138392, 0.055861, 0.162194, 0.453448, 0.810238, 0.463695, 1.100075, 1.649819, 1.869802, 1.369699, 1.565224, 0.336755, 1.494953, 1.552998, 0.409125, 1.594813, 0.055079, 0.5864509999999999, 0.806736, 1.75901, 2.637717, 0.329005, 1.30175, 1.864962, 1.807309, 1.455766, 2.033448, 2.006214, 1.290816, 1.314222, 1.382491, 1.011783, 1.205556, 1.429522, 1.639533];
total_cost = 58.86991551346534;
total_earn = 13.18125519682331;
% _objective = 45.68866031664203;
