production = [0: 0.0, 1: 0.0, 2: 0.0, 3: 0.0, 4: 0.0, 5: 0.0, 6: 0.0, 7: 0.0, 8: 0.0, 9: 0.0, 10: 0.0, 11: 0.0, 12: 0.0, 13: 0.0, 14: 0.0, 15: 0.0, 16: 0.0, 17: 0.0, 18: 0.0, 19: 0.0, 20: 0.0, 21: 0.0, 22: 0.0, 23: 0.000276, 24: 1.4e-05, 25: 0.000213, 26: 0.000449, 27: 0.008333, 28: 0.008231, 29: 0.028272, 30: 0.07949299999999999, 31: 0.055067, 32: 0.04728, 33: 0.059628, 34: 0.128402, 35: 0.114209, 36: 0.058845, 37: 0.158745, 38: 0.110926, 39: 0.41055, 40: 0.570323, 41: 0.49844, 42: 0.454661, 43: 0.742803, 44: 0.642541, 45: 0.312544, 46: 0.07105, 47: 0.476292, 48: 0.016618, 49: 0.7527160000000001, 50: 0.006536, 51: 0.519097, 52: 0.234168, 53: 0.190634, 54: 0.773267, 55: 0.062166, 56: 0.125244, 57: 0.39186, 58: 0.333675, 59: 0.215416, 60: 0.003758, 61: 0.492709, 62: 0.415279, 63: 0.333116, 64: 0.109095, 65: 0.186753, 66: 0.348902, 67: 0.864322, 68: 0.266289, 69: 0.214163, 70: 0.299856, 71: 0.220772, 72: 0.194791, 73: 0.209822, 74: 0.049519, 75: 0.002355, 76: 0.008492, 77: 0.01708, 78: 0.002793, 79: 0.0, 80: 0.0, 81: 0.0, 82: 0.0, 83: 0.0, 84: 0.0, 85: 0.0, 86: 0.0, 87: 0.0, 88: 0.0, 89: 0.0, 90: 0.0, 91: 0.0, 92: 0.0, 93: 0.0, 94: 0.0, 95: 0.0];
buy = [0: 727.789168, 1: 945.91724, 2: 65.21623700000001, 3: 257.492732, 4: 473.563162, 5: 1.463963, 6: 348.620871, 7: 535.799395, 8: 705.777832, 9: 191.23232, 10: 746.46672, 11: 664.742023, 12: 997.017782, 13: 331.257783, 14: 305.453029, 15: 128.311822, 16: 851.188436, 17: 28.123589, 18: 541.646337, 19: 641.677192, 20: 436.93791, 21: 287.860685, 22: 570.518194, 23: 994.113441, 24: 525.949134, 25: 526.345516, 26: 562.380348, 27: 133.531142, 28: 165.22642, 29: 45.104914, 30: 80.925701, 31: 499.324123, 32: 823.78562, 33: 172.308703, 34: 752.98605, 35: 821.051054, 36: 24.580078, 37: 534.84126, 38: 351.585912, 39: 890.736729, 40: 637.485912, 41: 252.701045, 42: 563.1042639999999, 43: 992.80529, 44: 125.772716, 45: 202.074073, 46: 286.208461, 47: 501.374727, 48: 850.992692, 49: 404.2159, 50: 810.175341, 51: 362.767574, 52: 803.50847, 53: 760.318751, 54: 964.570271, 55: 716.353177, 56: 730.5919740000001, 57: 515.711671, 58: 936.341894, 59: 976.200081, 60: 750.668979, 61: 78.434651, 62: 19.909081, 63: 813.421364, 64: 632.509314, 65: 200.871243, 66: 602.627915, 67: 504.614573, 68: 184.095699, 69: 114.089309, 70: 686.373323, 71: 857.135024, 72: 434.962141, 73: 546.9357209999999, 74: 267.335642, 75: 68.586825, 76: 929.032093, 77: 236.681139, 78: 543.952077, 79: 950.644192, 80: 997.067496, 81: 286.015496, 82: 508.196315, 83: 625.103781, 84: 356.355624, 85: 48.514866, 86: 536.805877, 87: 887.775139, 88: 257.447433, 89: 135.668562, 90: 656.744444, 91: 106.803293, 92: 540.0087590000001, 93: 525.564061, 94: 813.432645, 95: 683.174967];
sell = [0: 0.6454569999999999, 1: 0.372389, 2: 0.349664, 3: 1.267713, 4: 3.73491, 5: 2.662827, 6: 0.639809, 7: 1.948586, 8: 0.766724, 9: 3.80027, 10: 0.804428, 11: 0.874842, 12: 0.859136, 13: 1.154461, 14: 0.283626, 15: 0.499157, 16: 0.074561, 17: 0.749655, 18: 2.639935, 19: 1.471108, 20: 3.304735, 21: 3.088282, 22: 2.732351, 23: 3.833093, 24: 3.829617, 25: 1.084641, 26: 0.85973, 27: 1.908485, 28: 1.988022, 29: 0.985475, 30: 2.287827, 31: 2.607258, 32: 1.377839, 33: 2.761744, 34: 3.398556, 35: 1.560744, 36: 2.477262, 37: 0.655317, 38: 0.276159, 39: 2.876914, 40: 0.82263, 41: 2.839262, 42: 3.055419, 43: 1.574798, 44: 2.044386, 45: 3.197243, 46: 1.882657, 47: 1.442458, 48: 1.805153, 49: 3.624421, 50: 2.899017, 51: 3.572547, 52: 0.741264, 53: 2.91961, 54: 0.870557, 55: 1.463148, 56: 0.335726, 57: 0.768876, 58: 3.235344, 59: 1.621717, 60: 0.580192, 61: 0.205546, 62: 1.018543, 63: 0.023551, 64: 1.549473, 65: 0.291122, 66: 1.370658, 67: 2.841443, 68: 3.14055, 69: 0.41532, 70: 2.401662, 71: 2.651164, 72: 0.57375, 73: 3.104141, 74: 0.8684460000000001, 75: 2.043691, 76: 2.735051, 77: 1.000084, 78: 2.949398, 79: 2.654596, 80: 2.958199, 81: 1.930463, 82: 1.697355, 83: 3.115418, 84: 1.682362, 85: 3.41455, 86: 1.777436, 87: 2.217815, 88: 3.230794, 89: 2.195252, 90: 3.242118, 91: 1.132517, 92: 2.803992, 93: 0.037388, 94: 2.52074, 95: 1.414954];
charge = [0: 0.916542, 1: 0.987808, 2: 0.867471, 3: 0.646639, 4: 0.913633, 5: 0.684086, 6: 0.7093699999999999, 7: 0.570116, 8: 0.180394, 9: 0.832074, 10: 0.499747, 11: 0.554528, 12: 0.645166, 13: 0.150296, 14: 0.409575, 15: 0.740347, 16: 0.48853, 17: 0.772962, 18: 0.942087, 19: 0.753088, 20: 0.931891, 21: 0.585835, 22: 0.156159, 23: 0.419392, 24: 0.398795, 25: 0.13632, 26: 0.495924, 27: 0.035987, 28: 0.111219, 29: 0.116611, 30: 0.31659, 31: 0.615256, 32: 0.694277, 33: 0.405678, 34: 0.841234, 35: 0.533592, 36: 0.9414, 37: 0.261576, 38: 0.689894, 39: 0.533511, 40: 0.6876060000000001, 41: 0.6689079999999999, 42: 0.4136, 43: 0.36976, 44: 0.174299, 45: 0.920497, 46: 0.51539, 47: 0.403742, 48: 0.31094, 49: 0.159184, 50: 0.796549, 51: 0.98175, 52: 0.08282, 53: 0.740233, 54: 0.896562, 55: 0.8389489999999999, 56: 0.439637, 57: 0.265717, 58: 0.643504, 59: 0.547339, 60: 0.658237, 61: 0.449451, 62: 0.085857, 63: 0.250621, 64: 0.507633, 65: 0.315184, 66: 0.719342, 67: 0.773436, 68: 0.639724, 69: 0.740443, 70: 0.214209, 71: 0.720408, 72: 0.082464, 73: 0.151849, 74: 0.987087, 75: 0.6690469999999999, 76: 0.193636, 77: 0.139812, 78: 0.905837, 79: 0.838301, 80: 0.180798, 81: 0.517471, 82: 0.454387, 83: 0.748041, 84: 0.208125, 85: 0.4956, 86: 0.983078, 87: 0.496598, 88: 0.040016, 89: 0.782393, 90: 0.9703349999999999, 91: 0.689984, 92: 0.370921, 93: 0.732576, 94: 0.466291, 95: 0.704962];
discharge = [0: 0.471921, 1: 0.004792, 2: 0.532837, 3: 0.091014, 4: 0.365795, 5: 0.415837, 6: 0.069248, 7: 0.07721500000000001, 8: 0.222449, 9: 0.89907, 10: 0.763907, 11: 0.28434, 12: 0.5960569999999999, 13: 0.842849, 14: 0.036938, 15: 0.723594, 16: 0.808077, 17: 0.121017, 18: 0.414824, 19: 0.271906, 20: 0.712087, 21: 0.980683, 22: 0.368613, 23: 0.115206, 24: 0.750611, 25: 0.992984, 26: 0.447996, 27: 0.966992, 28: 0.059122, 29: 0.408795, 30: 0.7608470000000001, 31: 0.158736, 32: 0.630298, 33: 0.846115, 34: 0.926535, 35: 0.065816, 36: 0.666722, 37: 0.952067, 38: 0.216955, 39: 0.961326, 40: 0.342973, 41: 0.859295, 42: 0.636921, 43: 0.6792820000000001, 44: 0.740517, 45: 0.835665, 46: 0.059242, 47: 0.011569, 48: 0.437178, 49: 0.74926, 50: 0.87432, 51: 0.480391, 52: 0.8647319999999999, 53: 0.027562, 54: 0.31962, 55: 0.890786, 56: 0.895853, 57: 0.526587, 58: 0.898522, 59: 0.780319, 60: 0.547762, 61: 0.8113669999999999, 62: 0.5613359999999999, 63: 0.944064, 64: 0.997174, 65: 0.346833, 66: 0.366075, 67: 0.385669, 68: 0.306575, 69: 0.278825, 70: 0.534155, 71: 0.766196, 72: 0.993441, 73: 0.120882, 74: 0.980491, 75: 0.369179, 76: 0.213056, 77: 0.852563, 78: 0.901416, 79: 0.003768, 80: 0.921474, 81: 0.010269, 82: 0.437136, 83: 0.163723, 84: 0.937392, 85: 0.659251, 86: 0.812249, 87: 0.8094440000000001, 88: 0.075575, 89: 0.478102, 90: 0.143257, 91: 0.826462, 92: 0.725427, 93: 0.281052, 94: 0.84661, 95: 0.191661];
soc = [0: 7.373746, 1: 7.348935, 2: 8.083686, 3: 4.876615, 4: 8.883998, 5: 2.797163, 6: 10.499529, 7: 2.773354, 8: 10.161193, 9: 12.556708, 10: 4.719286, 11: 8.838384, 12: 6.31421, 13: 8.097721, 14: 9.238498999999999, 15: 7.230294, 16: 6.138662, 17: 7.764115, 18: 7.517851, 19: 6.562828, 20: 13.07005, 21: 3.039096, 22: 9.222751000000001, 23: 5.9793, 24: 9.808548999999999, 25: 7.989494, 26: 3.977089, 27: 14.806341, 28: 6.35733, 29: 5.036238, 30: 5.281968, 31: 9.277426, 32: 6.437024, 33: 6.906885, 34: 6.027031, 35: 13.225413, 36: 10.789661, 37: 3.39912, 38: 12.89299, 39: 9.947025, 40: 6.1908, 41: 13.26993, 42: 7.381132, 43: 8.907465999999999, 44: 9.978756000000001, 45: 8.548247999999999, 46: 7.985897, 47: 3.469007, 48: 14.972318, 49: 5.944412, 50: 9.497356999999999, 51: 13.103219, 52: 7.884011, 53: 5.295012, 54: 4.505961, 55: 14.497601, 56: 8.705489, 57: 11.243603, 58: 3.96645, 59: 4.598598, 60: 7.842627, 61: 14.992394, 62: 11.072943, 63: 15.555784, 64: 14.123555, 65: 12.89522, 66: 10.263101, 67: 9.436674999999999, 68: 4.792202, 69: 8.17582, 70: 14.609298, 71: 6.158971, 72: 12.77764, 73: 14.710133, 74: 7.491083, 75: 9.989585, 76: 10.07997, 77: 8.010268999999999, 78: 6.214235, 79: 14.276891, 80: 6.408533, 81: 10.970642, 82: 13.442061, 83: 4.526671, 84: 12.931169, 85: 12.997588, 86: 15.375252, 87: 7.114327, 88: 12.46428, 89: 9.227532999999999, 90: 10.436687, 91: 8.693182999999999, 92: 3.384561, 93: 5.762576, 94: 4.078017, 95: 15.237561];
cost = [0: 410.511305, 1: 41.928028, 2: 356.564378, 3: 343.97181, 4: 407.175436, 5: 154.551511, 6: 606.242662, 7: 520.080566, 8: 257.123454, 9: 262.405872, 10: 212.757011, 11: 203.369939, 12: 55.237915, 13: 475.500214, 14: 209.611941, 15: 429.01566, 16: 377.480362, 17: 600.073405, 18: 469.589489, 19: 4.136355, 20: 415.321026, 21: 382.887729, 22: 581.122712, 23: 537.505648, 24: 606.019781, 25: 958.305716, 26: 659.024633, 27: 1001.151861, 28: 883.399283, 29: 718.344309, 30: 809.04455, 31: 992.443433, 32: 863.735331, 33: 240.046576, 34: 1005.887253, 35: 341.28451, 36: 4.482991, 37: 722.0127, 38: 129.155363, 39: 547.4824609999999, 40: 1183.641392, 41: 2.495125, 42: 1142.578945, 43: 1001.605206, 44: 1130.651401, 45: 685.346231, 46: 1172.816827, 47: 819.601938, 48: 1121.984485, 49: 775.9440540000001, 50: 753.599207, 51: 250.704487, 52: 410.50317, 53: 311.869443, 54: 562.235807, 55: 165.958751, 56: 351.433456, 57: 360.277041, 58: 86.857781, 59: 138.61603, 60: 571.126274, 61: 174.249578, 62: 976.255402, 63: 1151.301626, 64: 706.137506, 65: 1023.680891, 66: 635.452296, 67: 390.989125, 68: 344.595259, 69: 479.09975, 70: 966.322682, 71: 971.545947, 72: 589.175868, 73: 658.079163, 74: 504.762757, 75: 980.003507, 76: 159.441466, 77: 583.849345, 78: 38.814783, 79: 170.043336, 80: 205.049346, 81: 169.867386, 82: 543.674067, 83: 186.177074, 84: 1150.314954, 85: 508.57955, 86: 982.008731, 87: 873.71023, 88: 241.198652, 89: 243.709968, 90: 542.350641, 91: 492.515366, 92: 102.86472, 93: 280.758125, 94: 85.85239900000001, 95: 198.767456];
earn = [0: 0.394291, 1: 1.457793, 2: 0.845155, 3: 2.520523, 4: 1.190875, 5: 1.803282, 6: 1.225266, 7: 2.095281, 8: 0.022362, 9: 1.643387, 10: 1.710988, 11: 1.062186, 12: 2.231075, 13: 0.777593, 14: 0.10468, 15: 1.025221, 16: 1.92992, 17: 0.784081, 18: 1.020254, 19: 0.419048, 20: 1.393491, 21: 1.782989, 22: 0.900821, 23: 0.144036, 24: 1.258931, 25: 1.769213, 26: 0.855835, 27: 0.5532899999999999, 28: 0.596154, 29: 1.430014, 30: 0.808497, 31: 1.044222, 32: 2.508893, 33: 1.587954, 34: 1.0705, 35: 1.879051, 36: 0.7386819999999999, 37: 0.965322, 38: 0.509587, 39: 0.575805, 40: 0.5502280000000001, 41: 0.848753, 42: 0.651034, 43: 0.8988429999999999, 44: 0.058025, 45: 0.217085, 46: 0.048933, 47: 0.221099, 48: 0.331659, 49: 0.100439, 50: 0.090831, 51: 0.022973, 52: 0.08110000000000001, 53: 0.044791, 54: 0.034994, 55: 0.007645, 56: 0.000627, 57: 0.008454, 58: 0.010938, 59: 0.035777, 60: 0.180585, 61: 0.151273, 62: 0.155876, 63: 0.247916, 64: 0.151192, 65: 0.203318, 66: 0.494272, 67: 1.085035, 68: 0.418989, 69: 0.232226, 70: 0.087432, 71: 1.24019, 72: 0.833588, 73: 0.932245, 74: 2.367171, 75: 0.500403, 76: 2.675211, 77: 2.868042, 78: 0.650764, 79: 2.385261, 80: 2.260308, 81: 1.982104, 82: 2.372636, 83: 0.055378, 84: 1.982191, 85: 0.863698, 86: 0.331479, 87: 1.616225, 88: 2.047657, 89: 1.028617, 90: 0.451625, 91: 0.757474, 92: 0.317099, 93: 1.18758, 94: 1.333789, 95: 0.522412];
total_cost = 51.21548042469222;
total_earn = 13.93787228528386;
