production = [0: 0.0, 1: 0.0, 2: 0.0, 3: 0.0, 4: 0.0, 5: 0.0, 6: 0.0, 7: 0.0, 8: 0.0, 9: 0.0, 10: 0.0, 11: 0.0, 12: 0.0, 13: 0.0, 14: 0.0, 15: 0.0, 16: 0.0, 17: 0.0, 18: 0.0, 19: 0.0, 20: 0.0, 21: 0.0, 22: 0.0, 23: 0.00015, 24: 0.000101, 25: 5e-06, 26: 0.002951, 27: 0.005158, 28: 0.009051, 29: 0.035699, 30: 0.026684, 31: 0.10335, 32: 0.019935, 33: 0.078419, 34: 0.007752, 35: 0.101778, 36: 0.329585, 37: 0.250153, 38: 0.149825, 39: 0.054515, 40: 0.123305, 41: 0.416865, 42: 0.288145, 43: 0.78072, 44: 0.544968, 45: 0.441817, 46: 0.626327, 47: 0.487831, 48: 0.28959, 49: 0.724921, 50: 1.07823, 51: 0.351432, 52: 0.433083, 53: 0.007889, 54: 1.609916, 55: 0.261784, 56: 0.407627, 57: 0.328162, 58: 0.004792, 59: 0.221987, 60: 0.575145, 61: 0.591349, 62: 0.155624, 63: 0.346135, 64: 0.619324, 65: 1.032467, 66: 0.788916, 67: 0.704677, 68: 0.328856, 69: 0.429487, 70: 0.108542, 71: 0.365788, 72: 0.192689, 73: 0.070858, 74: 0.063596, 75: 0.006583, 76: 0.01204, 77: 0.01384, 78: 0.00046, 79: 0.0, 80: 0.0, 81: 0.0, 82: 0.0, 83: 0.0, 84: 0.0, 85: 0.0, 86: 0.0, 87: 0.0, 88: 0.0, 89: 0.0, 90: 0.0, 91: 0.0, 92: 0.0, 93: 0.0, 94: 0.0, 95: 0.0];
buy = [0: 443.613831, 1: 55.008682, 2: 721.174548, 3: 812.167139, 4: 646.6579840000001, 5: 528.733099, 6: 459.1787, 7: 495.396239, 8: 412.566892, 9: 123.357401, 10: 291.224175, 11: 898.161871, 12: 932.944948, 13: 435.13991, 14: 144.900567, 15: 91.538133, 16: 423.15635, 17: 313.382731, 18: 456.23085, 19: 683.687851, 20: 996.418675, 21: 464.06166, 22: 165.667349, 23: 120.040817, 24: 104.474687, 25: 904.142457, 26: 957.967613, 27: 720.206146, 28: 473.390771, 29: 764.393299, 30: 343.951994, 31: 185.185887, 32: 366.306886, 33: 483.105887, 34: 424.001467, 35: 242.959684, 36: 666.750321, 37: 507.42379, 38: 811.1305170000001, 39: 221.122027, 40: 210.567723, 41: 268.098998, 42: 453.007481, 43: 569.498644, 44: 291.437464, 45: 106.787244, 46: 364.421421, 47: 143.035485, 48: 277.426052, 49: 253.030382, 50: 90.336297, 51: 263.353824, 52: 309.50324, 53: 190.805229, 54: 32.664679, 55: 528.827861, 56: 24.590668, 57: 622.308944, 58: 532.079105, 59: 57.718495, 60: 817.6984189999999, 61: 207.921391, 62: 567.095314, 63: 644.406245, 64: 47.713013, 65: 837.540948, 66: 460.139418, 67: 992.190491, 68: 251.348167, 69: 793.164868, 70: 101.571142, 71: 64.24426, 72: 194.578604, 73: 411.384046, 74: 214.150197, 75: 858.316435, 76: 591.890449, 77: 853.175782, 78: 792.8322879999999, 79: 375.626521, 80: 566.674092, 81: 384.610302, 82: 359.138468, 83: 504.686593, 84: 853.729944, 85: 956.727817, 86: 72.663246, 87: 32.810986, 88: 785.886427, 89: 68.695584, 90: 263.205042, 91: 533.588452, 92: 121.949321, 93: 99.665885, 94: 680.049922, 95: 525.3636279999999];
sell = [0: 3.205793, 1: 2.852462, 2: 3.064951, 3: 3.647459, 4: 0.99203, 5: 0.350434, 6: 2.547336, 7: 0.237183, 8: 1.204187, 9: 2.51402, 10: 1.629971, 11: 1.45543, 12: 3.557536, 13: 3.645764, 14: 2.030489, 15: 3.566411, 16: 2.185058, 17: 3.323822, 18: 1.657751, 19: 0.70909, 20: 0.788484, 21: 3.775234, 22: 2.54706, 23: 2.877433, 24: 2.107675, 25: 1.833833, 26: 3.613991, 27: 1.451507, 28: 1.602302, 29: 3.231576, 30: 3.233779, 31: 0.728217, 32: 3.469776, 33: 3.478431, 34: 3.16315, 35: 3.353728, 36: 1.794241, 37: 2.918232, 38: 2.011281, 39: 1.612968, 40: 1.266216, 41: 2.541178, 42: 2.489398, 43: 0.5011, 44: 3.427483, 45: 1.851468, 46: 3.335935, 47: 1.682987, 48: 0.033131, 49: 2.253955, 50: 3.444742, 51: 2.312781, 52: 0.112905, 53: 1.875236, 54: 2.597907, 55: 3.216433, 56: 2.32026, 57: 3.913348, 58: 3.241024, 59: 1.420231, 60: 0.030838, 61: 2.450337, 62: 3.127391, 63: 3.152432, 64: 2.715566, 65: 3.356075, 66: 2.101911, 67: 1.024017, 68: 3.224562, 69: 0.780457, 70: 3.535407, 71: 0.120298, 72: 3.337026, 73: 1.434687, 74: 3.345264, 75: 0.050674, 76: 1.972971, 77: 3.182941, 78: 2.211954, 79: 2.882873, 80: 0.203451, 81: 1.766712, 82: 3.397358, 83: 3.233999, 84: 0.800713, 85: 1.196011, 86: 3.126437, 87: 3.142334, 88: 1.213452, 89: 3.603922, 90: 3.432259, 91: 2.423451, 92: 0.32937, 93: 3.598048, 94: 1.931423, 95: 2.215636];
charge = [0: 0.820008, 1: 0.670783, 2: 0.840801, 3: 0.859198, 4: 0.173192, 5: 0.950804, 6: 0.474418, 7: 0.213927, 8: 0.62825, 9: 0.767227, 10: 0.966992, 11: 0.581765, 12: 0.598383, 13: 0.971509, 14: 0.9712, 15: 0.301125, 16: 0.255914, 17: 0.758387, 18: 0.9840449999999999, 19: 0.77067, 20: 0.281084, 21: 0.011366, 22: 0.465039, 23: 0.232908, 24: 0.958001, 25: 0.289717, 26: 0.060938, 27: 0.673046, 28: 0.284804, 29: 0.847982, 30: 0.952682, 31: 0.738546, 32: 0.823304, 33: 0.286844, 34: 0.502345, 35: 0.576168, 36: 0.135575, 37: 0.662876, 38: 0.290514, 39: 0.667176, 40: 0.504338, 41: 0.745545, 42: 0.988163, 43: 0.15365, 44: 0.432097, 45: 0.570344, 46: 0.788363, 47: 0.012174, 48: 0.420129, 49: 0.429518, 50: 0.307926, 51: 0.672587, 52: 0.591357, 53: 0.908519, 54: 0.257338, 55: 0.935966, 56: 0.8785230000000001, 57: 0.478914, 58: 0.604372, 59: 0.0434, 60: 0.082894, 61: 0.100174, 62: 0.392725, 63: 0.399576, 64: 0.08759400000000001, 65: 0.425266, 66: 0.483408, 67: 0.637378, 68: 0.520943, 69: 0.385021, 70: 0.914849, 71: 0.7259330000000001, 72: 0.432432, 73: 0.261398, 74: 0.97642, 75: 0.489356, 76: 0.906743, 77: 0.824184, 78: 0.181238, 79: 0.05186, 80: 0.621353, 81: 0.700636, 82: 0.050146, 83: 0.005349, 84: 0.893079, 85: 0.871165, 86: 0.034934, 87: 0.574195, 88: 0.361261, 89: 0.480346, 90: 0.8539639999999999, 91: 0.452879, 92: 0.953499, 93: 0.451726, 94: 0.338063, 95: 0.359869];
discharge = [0: 0.29555, 1: 0.457732, 2: 0.10353, 3: 0.354793, 4: 0.440773, 5: 0.459212, 6: 0.32776, 7: 0.586749, 8: 0.049485, 9: 0.770115, 10: 0.554122, 11: 0.700075, 12: 0.846372, 13: 0.498846, 14: 0.262233, 15: 0.665254, 16: 0.10312, 17: 0.947636, 18: 5.1e-05, 19: 0.797944, 20: 0.828758, 21: 0.74281, 22: 0.155584, 23: 0.523844, 24: 0.344008, 25: 0.171379, 26: 0.682485, 27: 0.970147, 28: 0.110392, 29: 0.449282, 30: 0.861018, 31: 0.013495, 32: 0.8042550000000001, 33: 0.579493, 34: 0.961771, 35: 0.102971, 36: 0.374004, 37: 0.516902, 38: 0.334383, 39: 0.980828, 40: 0.211666, 41: 0.050641, 42: 0.853055, 43: 0.990388, 44: 0.068881, 45: 0.638418, 46: 0.153903, 47: 0.365913, 48: 0.698985, 49: 0.688912, 50: 0.044599, 51: 0.716044, 52: 0.381134, 53: 0.307061, 54: 0.30951, 55: 0.116726, 56: 0.818372, 57: 0.8481919999999999, 58: 0.908546, 59: 0.672378, 60: 0.856683, 61: 0.095414, 62: 0.6287239999999999, 63: 0.156752, 64: 0.471349, 65: 0.296976, 66: 0.523672, 67: 0.304486, 68: 0.52455, 69: 0.682594, 70: 0.992096, 71: 0.420408, 72: 0.022933, 73: 0.016737, 74: 0.6088519999999999, 75: 0.474327, 76: 0.36935, 77: 0.559785, 78: 0.667091, 79: 0.776129, 80: 0.744526, 81: 0.413588, 82: 0.597783, 83: 0.323129, 84: 0.207993, 85: 0.344511, 86: 0.043223, 87: 0.8223, 88: 0.638796, 89: 0.892465, 90: 0.327122, 91: 0.417402, 92: 0.46132, 93: 0.209857, 94: 0.038506, 95: 0.6219710000000001];
soc = [0: 7.010138, 1: 6.037792, 2: 6.634469, 3: 10.289881, 4: 8.558783999999999, 5: 12.30271, 6: 13.527638, 7: 12.360613, 8: 4.274156, 9: 4.716509, 10: 3.113104, 11: 7.337182, 12: 13.127077, 13: 9.033882999999999, 14: 5.58357, 15: 12.009181, 16: 14.528755, 17: 13.533133, 18: 14.936286, 19: 6.846314, 20: 7.698666, 21: 10.45825, 22: 13.822877, 23: 10.854148, 24: 4.902281, 25: 12.661417, 26: 6.091419, 27: 7.018756, 28: 5.399819, 29: 3.355044, 30: 15.205929, 31: 9.266515999999999, 32: 15.266261, 33: 6.401669, 34: 7.450298, 35: 5.489724, 36: 3.042011, 37: 7.525344, 38: 5.543157, 39: 7.133468, 40: 8.197825999999999, 41: 3.232083, 42: 6.023297, 43: 4.349635, 44: 8.448404999999999, 45: 13.268474, 46: 13.326447, 47: 4.824706, 48: 10.552564, 49: 6.22388, 50: 5.570901, 51: 4.307208, 52: 11.504948, 53: 13.010662, 54: 3.159749, 55: 9.239660000000001, 56: 10.751873, 57: 7.849362, 58: 4.326522, 59: 12.970081, 60: 4.168024, 61: 3.074652, 62: 9.717923000000001, 63: 6.24641, 64: 3.447219, 65: 13.329684, 66: 10.70511, 67: 7.020022, 68: 13.931793, 69: 10.787349, 70: 13.297648, 71: 12.277231, 72: 8.529033, 73: 12.260102, 74: 13.977548, 75: 9.912034999999999, 76: 12.806311, 77: 10.206635, 78: 12.010687, 79: 9.431308, 80: 12.27945, 81: 15.19887, 82: 4.238757, 83: 9.754654, 84: 8.126860000000001, 85: 5.039392, 86: 4.116029, 87: 10.784483, 88: 10.867862, 89: 4.570222, 90: 14.901425, 91: 13.237801, 92: 14.076803, 93: 4.032715, 94: 3.121789, 95: 15.242472];
cost = [0: 250.324306, 1: 75.932216, 2: 101.697574, 3: 322.454163, 4: 339.445153, 5: 44.442139, 6: 271.471263, 7: 540.918955, 8: 440.747202, 9: 360.38212, 10: 341.607987, 11: 332.364729, 12: 498.552222, 13: 517.337681, 14: 287.121063, 15: 255.490994, 16: 276.623607, 17: 280.712348, 18: 292.580976, 19: 213.055309, 20: 210.01094, 21: 103.557678, 22: 267.203371, 23: 575.124782, 24: 735.592482, 25: 446.249688, 26: 1036.715656, 27: 183.040373, 28: 942.15914, 29: 599.515554, 30: 964.305624, 31: 134.475746, 32: 126.633858, 33: 261.05502, 34: 261.353104, 35: 929.611938, 36: 179.831468, 37: 356.25218, 38: 1179.631221, 39: 1163.024321, 40: 924.088403, 41: 796.784428, 42: 204.990848, 43: 926.474367, 44: 570.375316, 45: 1044.449102, 46: 339.541908, 47: 128.344551, 48: 1069.305078, 49: 1181.865624, 50: 187.60581, 51: 722.109954, 52: 533.3450319999999, 53: 575.392434, 54: 199.522035, 55: 373.769128, 56: 581.215703, 57: 130.580451, 58: 588.7352519999999, 59: 64.23956200000001, 60: 504.104092, 61: 518.858592, 62: 676.36675, 63: 1162.036362, 64: 248.84228, 65: 375.415548, 66: 1111.411637, 67: 743.308034, 68: 521.488023, 69: 230.777111, 70: 896.866625, 71: 725.751202, 72: 936.034129, 73: 131.426171, 74: 982.648108, 75: 991.743426, 76: 1165.245735, 77: 960.864965, 78: 737.1423140000001, 79: 659.726719, 80: 566.218057, 81: 996.368415, 82: 831.078562, 83: 1094.877736, 84: 609.25004, 85: 680.167117, 86: 101.105074, 87: 844.408174, 88: 263.646701, 89: 437.434044, 90: 587.479794, 91: 19.399372, 92: 266.744755, 93: 372.482908, 94: 65.84940400000001, 95: 542.247176];
earn = [0: 1.799827, 1: 2.46742, 2: 0.7778310000000001, 3: 2.16343, 4: 2.042324, 5: 1.924248, 6: 0.533123, 7: 1.317276, 8: 1.177953, 9: 1.104139, 10: 1.618245, 11: 0.09031699999999999, 12: 0.097372, 13: 1.195243, 14: 1.013688, 15: 1.695601, 16: 1.712649, 17: 1.950947, 18: 0.997242, 19: 0.448526, 20: 1.348458, 21: 2.22452, 22: 1.789483, 23: 0.049352, 24: 1.87916, 25: 0.672076, 26: 0.332769, 27: 0.259885, 28: 0.314716, 29: 1.962195, 30: 1.016203, 31: 1.128385, 32: 0.836494, 33: 1.029658, 34: 0.387514, 35: 1.311481, 36: 1.505292, 37: 1.729371, 38: 1.941131, 39: 0.258987, 40: 0.262627, 41: 1.215062, 42: 1.284396, 43: 0.955712, 44: 0.726079, 45: 0.787202, 46: 0.163736, 47: 0.469158, 48: 0.400352, 49: 0.09402199999999999, 50: 0.051796, 51: 0.044975, 52: 0.011067, 53: 0.08866599999999999, 54: 0.033987, 55: 0.000688, 56: 0.01739, 57: 0.006268, 58: 0.002474, 59: 0.043505, 60: 0.024302, 61: 0.009209, 62: 0.071815, 63: 0.115425, 64: 0.591892, 65: 0.415091, 66: 1.006067, 67: 1.04312, 68: 0.734805, 69: 1.870724, 70: 1.088605, 71: 0.736495, 72: 1.565785, 73: 0.145838, 74: 1.982557, 75: 2.178341, 76: 0.336283, 77: 1.370219, 78: 1.039636, 79: 2.583503, 80: 1.310863, 81: 0.811222, 82: 2.892577, 83: 1.716479, 84: 1.409297, 85: 0.29363, 86: 0.34945, 87: 0.606851, 88: 2.027263, 89: 0.857441, 90: 0.562462, 91: 0.238231, 92: 1.538596, 93: 1.145048, 94: 0.002806, 95: 0.864886];
total_cost = 53.57214863908179;
total_earn = 16.26887334750001;
