production = [0: 0.0, 1: 0.0, 2: 0.0, 3: 0.0, 4: 0.0, 5: 0.0, 6: 0.0, 7: 0.0, 8: 0.0, 9: 0.0, 10: 0.0, 11: 0.0, 12: 0.0, 13: 0.0, 14: 0.0, 15: 0.0, 16: 0.0, 17: 0.0, 18: 0.0, 19: 0.0, 20: 0.0, 21: 0.0, 22: 0.0, 23: 0.0003, 24: 0.0, 25: 0.038, 26: 0.0, 27: 0.0, 28: 0.1032, 29: 0.077, 30: 0.1355, 31: 0.144, 32: 0.1055, 33: 0.0, 34: 0.2082, 35: 0.0, 36: 0.2767, 37: 0.0, 38: 0.5278, 39: 0.0, 40: 0.824, 41: 0.8782, 42: 0.752, 43: 0.0, 44: 0.0, 45: 0.0, 46: 0.393, 47: 0.3777, 48: 0.39, 49: 0.4455, 50: 0.3675, 51: 0.2878, 52: 0.0, 53: 0.0, 54: 0.0, 55: 0.2045, 56: 0.2105, 57: 0.199, 58: 0.0, 59: 0.0, 60: 0.2305, 61: 0.0, 62: 0.1722, 63: 0.1815, 64: 0.0, 65: 0.0, 66: 0.0, 67: 0.0, 68: 0.0, 69: 0.0505, 70: 0.0182, 71: 0.003, 72: 0.0, 73: 0.0, 74: 0.0, 75: 0.0, 76: 0.0, 77: 0.0, 78: 0.0, 79: 0.0, 80: 0.0, 81: 0.0, 82: 0.0, 83: 0.0, 84: 0.0, 85: 0.0, 86: 0.0, 87: 0.0, 88: 0.0, 89: 0.0, 90: 0.0, 91: 0.0, 92: 0.0, 93: 0.0, 94: 0.0, 95: 0.0];
buy = [0: 0.0, 1: 1.220625, 2: 1.221625, 3: 1.224125, 4: 0.212825, 5: 0.0, 6: 0.210325, 7: 1.211125, 8: 0.212325, 9: 0.0, 10: 0.211125, 11: 0.197425, 12: 1.075125, 13: 0.0, 14: 0.074125, 15: 0.0, 16: 0.07642500000000001, 17: 1.074425, 18: 0.072625, 19: 0.07442500000000001, 20: 1.072925, 21: 0.073925, 22: 0.074125, 23: 0.0, 24: 0.0, 25: 0.0, 26: 1.057425, 27: 0.0, 28: 0.953425, 29: 0.0, 30: 0.9203249999999999, 31: 0.0, 32: 0.0, 33: 1.056825, 34: 0.0, 35: 0.0, 36: 0.793625, 37: 0.0, 38: 0.553625, 39: 0.0, 40: 0.0, 41: 0.211725, 42: 0.0, 43: 0.349625, 44: 0.089125, 45: 1.086325, 46: 0.0, 47: 0.701125, 48: 0.688825, 49: 1.134625, 50: 0.771625, 51: 0.813025, 52: 1.104925, 53: 0.902125, 54: 1.444925, 55: 0.0, 56: 0.243425, 57: 0.0, 58: 0.453125, 59: 0.0, 60: 0.868625, 61: 0.0, 62: 0.907125, 63: 0.0, 64: 1.081925, 65: 0.0, 66: 1.089125, 67: 0.0, 68: 0.09732499999999999, 69: 0.0, 70: 1.110925, 71: 0.0, 72: 0.0, 73: 0.0, 74: 0.75384739, 75: 0.0, 76: 0.0, 77: 0.0, 78: 0.058425, 79: 0.0, 80: 0.0, 81: 1.057925, 82: 1.056325, 83: 0.055625, 84: 0.056325, 85: 1.074625, 86: 0.0, 87: 0.0, 88: 0.0, 89: 1.237325, 90: 1.291825, 91: 0.293325, 92: 0.295125, 93: 0.294325, 94: 0.0, 95: 1.230325];
sell = [0: 0.679875, 1: 0.0, 2: 0.0, 3: 0.0, 4: 0.0, 5: 0.689175, 6: 0.0, 7: 0.0, 8: 0.0, 9: 0.686875, 10: 0.0, 11: 0.0, 12: 0.0, 13: 0.825375, 14: 0.0, 15: 0.827675, 16: 0.0, 17: 0.0, 18: 0.0, 19: 0.0, 20: 0.0, 21: 0.0, 22: 0.0, 23: 0.840375, 24: 0.808875, 25: 0.880375, 26: 0.0, 27: 0.842575, 28: 0.0, 29: 0.020175, 30: 0.0, 31: 0.08787499999999999, 32: 0.949175, 33: 0.0, 34: 1.052375, 35: 0.843375, 36: 0.0, 37: 0.0, 38: 0.0, 39: 0.819375, 40: 0.741375, 41: 0.0, 42: 1.565175, 43: 0.0, 44: 0.0, 45: 0.0, 46: 1.166875, 47: 0.0, 48: 0.0, 49: 0.0, 50: 0.0, 51: 0.0, 52: 0.0, 53: 0.0, 54: 0.0, 55: 0.652375, 56: 0.0, 57: 0.650075, 58: 0.0, 59: 0.447075, 60: 0.0, 61: 0.806875, 62: 0.0, 63: 1.003675, 64: 0.0, 65: 0.818075, 66: 0.0, 67: 0.812175, 68: 0.0, 69: 0.858575, 70: 0.0, 71: 0.697675, 72: 0.835875, 73: 0.836375, 74: 0.0, 75: 0.838375, 76: 0.836175, 77: 0.841075, 78: 0.0, 79: 0.842075, 80: 0.840875, 81: 0.0, 82: 0.0, 83: 0.0, 84: 0.0, 85: 0.0, 86: 0.843675, 87: 0.823175, 88: 0.822675, 89: 0.0, 90: 0.0, 91: 0.0, 92: 0.0, 93: 0.0, 94: 0.639375, 95: 0.0];
charge = [0: 0.0, 1: 1.0, 2: 1.0, 3: 1.0, 4: 0.0, 5: 0.0, 6: 0.0, 7: 1.0, 8: 0.0, 9: 0.0, 10: 0.0, 11: 0.0, 12: 1.0, 13: 0.0, 14: 0.0, 15: 0.0, 16: 0.0, 17: 1.0, 18: 0.0, 19: 0.0, 20: 1.0, 21: 0.0, 22: 0.0, 23: 0.0, 24: 0.0, 25: 0.0, 26: 1.0, 27: 0.0, 28: 1.0, 29: 0.0, 30: 1.0, 31: 0.0, 32: 0.0, 33: 1.0, 34: 0.0, 35: 0.0, 36: 1.0, 37: 0.0, 38: 1.0, 39: 0.0, 40: 0.0, 41: 1.0, 42: 0.0, 43: 0.0, 44: 0.0, 45: 1.0, 46: 0.0, 47: 1.0, 48: 1.0, 49: 1.0, 50: 1.0, 51: 1.0, 52: 1.0, 53: 0.0, 54: 1.0, 55: 0.0, 56: 0.0, 57: 0.0, 58: 0.0, 59: 0.0, 60: 1.0, 61: 0.0, 62: 1.0, 63: 0.0, 64: 1.0, 65: 0.0, 66: 1.0, 67: 0.0, 68: 0.0, 69: 0.0, 70: 1.0, 71: 0.0, 72: 0.0, 73: 0.0, 74: 0.69122239, 75: 0.0, 76: 0.0, 77: 0.0, 78: 0.0, 79: 0.0, 80: 0.0, 81: 1.0, 82: 1.0, 83: 0.0, 84: 0.0, 85: 1.0, 86: 0.0, 87: 0.0, 88: 0.0, 89: 1.0, 90: 1.0, 91: 0.0, 92: 0.0, 93: 0.0, 94: 0.0, 95: 1.0];
discharge = [0: 1.0, 1: 0.0, 2: 0.0, 3: 0.0, 4: 0.0, 5: 1.0, 6: 0.0, 7: 0.0, 8: 0.0, 9: 1.0, 10: 0.0, 11: 0.0, 12: 0.0, 13: 1.0, 14: 0.0, 15: 1.0, 16: 0.0, 17: 0.0, 18: 0.0, 19: 0.0, 20: 0.0, 21: 0.0, 22: 0.0, 23: 1.0, 24: 1.0, 25: 1.0, 26: 0.0, 27: 1.0, 28: 0.0, 29: 0.0, 30: 0.0, 31: 0.0, 32: 1.0, 33: 0.0, 34: 1.0, 35: 1.0, 36: 0.0, 37: 0.062027778, 38: 0.0, 39: 1.0, 40: 0.0, 41: 0.0, 42: 1.0, 43: 0.0, 44: 0.0, 45: 0.0, 46: 1.0, 47: 0.0, 48: 0.0, 49: 0.0, 50: 0.0, 51: 0.0, 52: 0.0, 53: 0.0, 54: 0.0, 55: 1.0, 56: 0.0, 57: 1.0, 58: 0.0, 59: 1.0, 60: 0.0, 61: 1.0, 62: 0.0, 63: 1.0, 64: 0.0, 65: 1.0, 66: 0.0, 67: 1.0, 68: 0.0, 69: 1.0, 70: 0.0, 71: 1.0, 72: 1.0, 73: 1.0, 74: 0.0, 75: 1.0, 76: 1.0, 77: 1.0, 78: 0.0, 79: 1.0, 80: 1.0, 81: 0.0, 82: 0.0, 83: 0.0, 84: 0.0, 85: 0.0, 86: 1.0, 87: 1.0, 88: 1.0, 89: 0.0, 90: 0.0, 91: 0.0, 92: 0.0, 93: 0.0, 94: 1.0, 95: 0.0];
soc = [0: 8.248150000000001, 1: 9.14650037, 2: 10.04467107, 3: 10.942662136, 4: 10.940473603, 5: 9.938285509, 6: 9.936297851000001, 7: 10.834310592, 8: 10.83214373, 9: 9.829977301, 10: 9.828011306000001, 11: 9.826045703, 12: 10.724080494, 13: 9.721935677999999, 14: 9.719991290999999, 15: 8.718047293, 16: 8.716303683, 17: 9.614560422, 18: 9.612637510000001, 19: 9.610714982999999, 20: 10.50879284, 21: 10.506691081, 22: 10.504589743, 23: 9.502488825, 24: 8.500588327000001, 25: 7.49888821, 26: 8.397388432, 27: 7.395708954, 28: 8.294229812999999, 29: 8.292570967, 30: 9.190912451999999, 31: 9.189074270000001, 32: 8.187236455000001, 33: 9.085599008000001, 34: 8.083781888000001, 35: 7.082165132, 36: 7.980748699, 37: 7.917124771, 38: 8.815541346, 39: 7.813778238, 40: 7.812215482, 41: 8.710653039, 42: 7.708910909, 43: 7.707369126, 44: 7.705827653, 45: 8.604286487, 46: 7.60256563, 47: 8.501045117, 48: 9.399344908, 49: 10.297465039, 50: 11.195405546, 51: 12.093166464, 52: 12.990747831, 53: 12.988149682, 54: 13.885552052, 55: 12.882774941, 56: 12.880198386, 57: 11.877622347, 58: 11.875246822, 59: 10.872871773, 60: 11.770697198, 61: 10.768343059, 62: 11.66618939, 63: 10.663856152, 64: 11.561723381, 65: 10.559411037, 66: 11.457299154, 67: 10.455007695, 68: 10.452916693, 69: 9.45082611, 70: 10.348935944, 71: 9.346866156999999, 72: 8.344996783999999, 73: 7.343327785, 74: 7.96395927, 75: 6.962366478, 76: 5.960974005, 77: 4.95978181, 78: 4.958789854, 79: 3.957798096, 80: 2.957006536, 81: 3.856415135, 82: 4.755643852, 83: 4.754692723, 84: 4.753741785, 85: 5.652791036, 86: 4.651660478, 87: 3.650730146, 88: 2.65, 89: 3.54947, 90: 4.448760106, 91: 4.447870354, 92: 4.44698078, 93: 4.446091384, 94: 3.445202165, 95: 4.344513125];
cost = [0: 0.0, 1: 0.863857978, 2: 0.8644688780000001, 3: 0.865996128, 4: 0.130014793, 5: 0.0, 6: 0.128487543, 7: 0.858054428, 8: 0.129709343, 9: 0.0, 10: 0.128976263, 11: 0.120606933, 12: 0.774972028, 13: 0.0, 14: 0.045282962, 15: 0.0, 16: 0.046688033, 17: 0.774544398, 18: 0.044366613, 19: 0.045466233, 20: 0.773628048, 21: 0.045160783, 22: 0.045282962, 23: 0.0, 24: 0.0, 25: 0.0, 26: 1.376090945, 27: 0.0, 28: 1.252372545, 29: 0.0, 30: 1.212996785, 31: 0.0, 32: 0.0, 33: 1.375377185, 34: 0.0, 35: 0.0, 36: 1.062274465, 37: 0.0, 38: 0.776770465, 39: 0.0, 40: 0.0, 41: 0.370046225, 42: 0.0, 43: 0.4159139, 44: 0.1060231, 45: 1.410470385, 46: 0.0, 47: 0.952236465, 48: 0.937604385, 49: 1.467928065, 50: 1.036103265, 51: 1.085352705, 52: 0.793176848, 53: 0.551108162, 54: 1.000882848, 55: 0.0, 56: 0.148708332, 57: 0.0, 58: 0.276814062, 59: 0.0, 60: 1.151494465, 61: 0.0, 62: 1.197294065, 63: 0.0, 64: 1.405236145, 65: 0.0, 66: 1.413801265, 67: 0.0, 68: 0.11577782, 69: 0.0, 70: 1.439734545, 71: 0.0, 72: 0.0, 73: 0.0, 74: 0.978464249, 75: 0.0, 76: 0.0, 77: 0.0, 78: 0.06950238, 79: 0.0, 80: 0.0, 81: 1.376685745, 82: 1.374782385, 83: 0.06617149999999999, 84: 0.06700422, 85: 1.396552065, 86: 0.0, 87: 0.0, 88: 0.0, 89: 0.8740600080000001, 90: 0.907354058, 91: 0.179192242, 92: 0.180291862, 93: 0.179803142, 94: 0.0, 95: 0.869783708];
earn = [0: 0.539616788, 1: 0.0, 2: 0.0, 3: 0.0, 4: 0.0, 5: 0.492691208, 6: 0.0, 7: 0.0, 8: 0.0, 9: 0.48987925, 10: 0.0, 11: 0.0, 12: 0.0, 13: 0.58931775, 14: 0.0, 15: 0.600643748, 16: 0.0, 17: 0.0, 18: 0.0, 19: 0.0, 20: 0.0, 21: 0.0, 22: 0.0, 23: 0.718604663, 24: 0.7508786629999999, 25: 0.852026925, 26: 0.0, 27: 0.776348605, 28: 0.0, 29: 0.01925502, 30: 0.0, 31: 0.080792275, 32: 0.822934725, 33: 0.0, 34: 0.882837388, 35: 0.633374625, 36: 0.0, 37: 0.0, 38: 0.0, 39: 0.574791563, 40: 0.456761137, 41: 0.0, 42: 0.89715831, 43: 0.0, 44: 0.0, 45: 0.0, 46: 0.652633188, 47: 0.0, 48: 0.0, 49: 0.0, 50: 0.0, 51: 0.0, 52: 0.0, 53: 0.0, 54: 0.0, 55: 0.405059638, 56: 0.0, 57: 0.39290533, 58: 0.0, 59: 0.286351538, 60: 0.0, 61: 0.572074375, 62: 0.0, 63: 0.757272788, 64: 0.0, 65: 0.63908019, 66: 0.0, 67: 0.700500938, 68: 0.0, 69: 0.77786895, 70: 0.0, 71: 0.74093085, 72: 0.93618, 73: 0.9936135, 74: 0.0, 75: 1.03120125, 76: 1.014280275, 77: 0.9924685, 78: 0.0, 79: 0.933861175, 80: 0.798747163, 81: 0.0, 82: 0.0, 83: 0.0, 84: 0.0, 85: 0.0, 86: 0.70463736, 87: 0.67072299, 88: 0.677472863, 89: 0.0, 90: 0.0, 91: 0.0, 92: 0.0, 93: 0.0, 94: 0.471794813, 95: 0.0];
total_cost = 39.53680136;
total_earn = 25.32757031;
% _objective = 14.20923105;