production = [0: 0.0, 1: 0.0, 2: 0.0, 3: 0.0, 4: 0.0, 5: 0.0, 6: 0.0, 7: 0.0, 8: 0.0, 9: 0.0, 10: 0.0, 11: 0.0, 12: 0.0, 13: 0.0, 14: 0.0, 15: 0.0, 16: 0.0, 17: 0.0, 18: 0.0, 19: 0.0, 20: 0.0, 21: 0.0, 22: 0.0, 23: 0.0, 24: 0.0005, 25: 0.038, 26: 0.0, 27: 0.0, 28: 0.1032, 29: 0.077, 30: 0.0, 31: 0.144, 32: 0.0, 33: 0.1573, 34: 0.2082, 35: 0.286, 36: 0.0, 37: 0.0, 38: 0.0, 39: 0.5925, 40: 0.824, 41: 0.8782, 42: 0.752, 43: 0.474, 44: 0.3915, 45: 0.0, 46: 0.0, 47: 0.0, 48: 0.0, 49: 0.4455, 50: 0.3675, 51: 0.0, 52: 0.0, 53: 0.2562, 54: 0.2248, 55: 0.2045, 56: 0.2105, 57: 0.199, 58: 0.0, 59: 0.0, 60: 0.2305, 61: 0.0, 62: 0.0, 63: 0.1815, 64: 0.2213, 65: 0.2367, 66: 0.0, 67: 0.0, 68: 0.0892, 69: 0.0505, 70: 0.0, 71: 0.0, 72: 0.0, 73: 0.0, 74: 0.0, 75: 0.0, 76: 0.0, 77: 0.0, 78: 0.0, 79: 0.0, 80: 0.0, 81: 0.0, 82: 0.0, 83: 0.0, 84: 0.0, 85: 0.0, 86: 0.0, 87: 0.0, 88: 0.0, 89: 0.0, 90: 0.0, 91: 0.0, 92: 0.0, 93: 0.0, 94: 0.0, 95: 0.0];
buy = [0: 0.0, 1: 0.220625, 2: 1.221625, 3: 0.0, 4: 1.212825, 5: 0.716657651, 6: 0.210325, 7: 0.0, 8: 1.212325, 9: 0.213125, 10: 1.211125, 11: 0.197425, 12: 1.075125, 13: 0.074625, 14: 0.074125, 15: 1.072325, 16: 1.076425, 17: 0.07442500000000001, 18: 0.0, 19: 0.0, 20: 1.072925, 21: 0.0, 22: 0.074125, 23: 1.059925, 24: 0.0, 25: 1.019625, 26: 1.057425, 27: 1.057425, 28: 0.0, 29: 0.0, 30: 1.055825, 31: 0.0, 32: 0.0, 33: 0.899525, 34: 0.847625, 35: 0.770625, 36: 1.070325, 37: 0.055825, 38: 0.0, 39: 0.0, 40: 0.0, 41: 0.211725, 42: 0.0, 43: 0.0, 44: 0.0, 45: 0.0, 46: 0.0, 47: 0.07882500000000001, 48: 0.0, 49: 0.0, 50: 0.0, 51: 0.100825, 52: 0.104925, 53: 0.645925, 54: 0.0, 55: 0.0, 56: 0.0, 57: 0.249925, 58: 0.0, 59: 1.452925, 60: 0.0, 61: 0.0, 62: 1.079325, 63: 0.0, 64: 0.0, 65: 0.0, 66: 1.089125, 67: 1.087825, 68: 1.008125, 69: 1.041425, 70: 0.0, 71: 1.205325, 72: 0.0, 73: 0.0, 74: 0.0, 75: 0.0, 76: 0.06382500000000001, 77: 1.058925, 78: 0.019093731, 79: 1.057925, 80: 0.0, 81: 1.057925, 82: 0.0, 83: 1.055625, 84: 1.056325, 85: 0.0, 86: 0.0, 87: 1.076825, 88: 1.077325, 89: 0.0, 90: 0.291825, 91: 0.0, 92: 0.0, 93: 1.294325, 94: 0.0, 95: 0.0];
sell = [0: 0.679875, 1: 0.0, 2: 0.0, 3: 0.0, 4: 0.0, 5: 0.0, 6: 0.0, 7: 0.688875, 8: 0.0, 9: 0.0, 10: 0.0, 11: 0.0, 12: 0.0, 13: 0.0, 14: 0.0, 15: 0.0, 16: 0.0, 17: 0.0, 18: 0.827375, 19: 0.8255749999999999, 20: 0.0, 21: 0.826075, 22: 0.0, 23: 0.0, 24: 0.809375, 25: 0.0, 26: 0.0, 27: 0.0, 28: 0.9465750000000001, 29: 0.920175, 30: 0.0, 31: 0.08787499999999999, 32: 0.843675, 33: 0.0, 34: 0.0, 35: 0.0, 36: 0.0, 37: 0.0, 38: 0.8185750000000001, 39: 1.411875, 40: 0.741375, 41: 0.0, 42: 1.565175, 43: 0.265031548, 44: 1.202375, 45: 0.813675, 46: 0.773875, 47: 0.0, 48: 0.821175, 49: 0.765375, 50: 0.228375, 51: 0.0, 52: 0.0, 53: 0.0, 54: 0.679875, 55: 0.652375, 56: 0.656575, 57: 0.0, 58: 0.446875, 59: 0.0, 60: 1.031375, 61: 0.806875, 62: 0.0, 63: 0.103675, 64: 0.139375, 65: 1.054775, 66: 0.0, 67: 0.0, 68: 0.0, 69: 0.0, 70: 0.770875, 71: 0.0, 72: 0.835875, 73: 0.836375, 74: 0.837375, 75: 0.838375, 76: 0.0, 77: 0.0, 78: 0.0, 79: 0.0, 80: 0.0, 81: 0.0, 82: 0.843675, 83: 0.0, 84: 0.0, 85: 0.825375, 86: 0.0, 87: 0.0, 88: 0.0, 89: 0.662675, 90: 0.0, 91: 0.606675, 92: 0.6048750000000001, 93: 0.0, 94: 0.639375, 95: 0.669675];
charge = [0: 0.0, 1: 0.0, 2: 1.0, 3: 0.0, 4: 1.0, 5: 0.505832651, 6: 0.0, 7: 0.0, 8: 1.0, 9: 0.0, 10: 1.0, 11: 0.0, 12: 1.0, 13: 0.0, 14: 0.0, 15: 1.0, 16: 1.0, 17: 0.0, 18: 0.0, 19: 0.0, 20: 1.0, 21: 0.0, 22: 0.0, 23: 1.0, 24: 0.0, 25: 1.0, 26: 1.0, 27: 1.0, 28: 0.0, 29: 0.0, 30: 1.0, 31: 0.0, 32: 0.0, 33: 1.0, 34: 1.0, 35: 1.0, 36: 1.0, 37: 0.0, 38: 0.0, 39: 0.0, 40: 0.0, 41: 1.0, 42: 0.0, 43: 0.0, 44: 0.0, 45: 0.0, 46: 0.0, 47: 0.0, 48: 0.0, 49: 0.0, 50: 0.0, 51: 0.0, 52: 0.0, 53: 0.0, 54: 0.0, 55: 0.0, 56: 0.0, 57: 0.0, 58: 0.0, 59: 1.0, 60: 0.0, 61: 0.0, 62: 1.0, 63: 0.0, 64: 0.0, 65: 0.0, 66: 1.0, 67: 1.0, 68: 1.0, 69: 1.0, 70: 0.0, 71: 1.0, 72: 0.0, 73: 0.0, 74: 0.0, 75: 0.0, 76: 0.0, 77: 1.0, 78: 0.0, 79: 1.0, 80: 0.0, 81: 1.0, 82: 0.0, 83: 1.0, 84: 1.0, 85: 0.0, 86: 0.0, 87: 1.0, 88: 1.0, 89: 0.0, 90: 0.0, 91: 0.0, 92: 0.0, 93: 1.0, 94: 0.0, 95: 0.0];
discharge = [0: 1.0, 1: 0.0, 2: 0.0, 3: 0.249027778, 4: 0.0, 5: 0.0, 6: 0.0, 7: 1.0, 8: 0.0, 9: 0.0, 10: 0.0, 11: 0.0, 12: 0.0, 13: 0.0, 14: 0.0, 15: 0.0, 16: 0.0, 17: 0.0, 18: 1.0, 19: 1.0, 20: 0.0, 21: 1.0, 22: 0.0, 23: 0.0, 24: 1.0, 25: 0.0, 26: 0.0, 27: 0.0, 28: 1.0, 29: 1.0, 30: 0.0, 31: 0.0, 32: 1.0, 33: 0.0, 34: 0.0, 35: 0.0, 36: 0.0, 37: 0.0, 38: 1.0, 39: 1.0, 40: 0.0, 41: 0.0, 42: 1.0, 43: 0.156285053, 44: 1.0, 45: 1.0, 46: 1.0, 47: 0.0, 48: 1.0, 49: 1.0, 50: 0.0, 51: 0.0, 52: 0.0, 53: 0.0, 54: 1.0, 55: 1.0, 56: 1.0, 57: 0.0, 58: 1.0, 59: 0.0, 60: 1.0, 61: 1.0, 62: 0.0, 63: 0.0, 64: 0.0, 65: 1.0, 66: 0.0, 67: 0.0, 68: 0.0, 69: 0.0, 70: 1.0, 71: 0.0, 72: 1.0, 73: 1.0, 74: 1.0, 75: 1.0, 76: 0.0, 77: 0.0, 78: 0.04370141, 79: 0.0, 80: 0.065694444, 81: 0.0, 82: 1.0, 83: 0.0, 84: 0.0, 85: 1.0, 86: 0.062583333, 87: 0.0, 88: 0.0, 89: 1.0, 90: 0.0, 91: 1.0, 92: 1.0, 93: 0.0, 94: 1.0, 95: 1.0];
soc = [0: 8.248150000000001, 1: 8.24650037, 2: 9.14485107, 3: 8.893994321999999, 4: 9.792215522999999, 5: 10.245506466, 6: 10.243457364, 7: 9.241408673, 8: 10.139560391, 9: 10.137532479, 10: 11.035504973, 11: 11.033297872, 12: 11.931091212, 13: 11.928704994, 14: 11.926319253, 15: 12.823933989, 16: 13.721369202, 17: 13.718624928, 18: 12.715881203, 19: 11.713338027, 20: 12.61099536, 21: 11.60847316, 22: 11.606151466, 23: 12.503830236, 24: 11.501329469, 25: 12.399029204, 26: 13.296549398, 27: 14.193890088, 28: 13.19105131, 29: 12.1884131, 30: 13.085975417, 31: 13.083358222, 32: 12.08074155, 33: 12.978325402, 34: 13.875729737, 35: 14.772954591, 36: 15.67, 37: 15.666866, 38: 14.663732627, 39: 13.66079988, 40: 13.65806772, 41: 14.555336107, 42: 13.55242504, 43: 13.393429501, 44: 12.390750815, 45: 11.388272665, 46: 10.385995011, 47: 10.383917812, 48: 9.381841028, 49: 8.379964660000001, 50: 8.378288667, 51: 8.376613009, 52: 8.374937686999999, 53: 8.373262699, 54: 7.371588046, 55: 6.370113729, 56: 5.368839706, 57: 5.367765938, 58: 4.366692385, 59: 5.265819047, 60: 4.264765883, 61: 3.26391293, 62: 4.163260147, 63: 4.162427495, 64: 4.161595009, 65: 3.16076269, 66: 4.060130538, 67: 4.959318512, 68: 5.858326648, 69: 6.757154983, 70: 5.755803552, 71: 6.654652391, 72: 5.653321461, 73: 4.652190796, 74: 3.651260358, 75: 2.650530106, 76: 2.65, 77: 3.54947, 78: 3.505058696, 79: 4.404357684, 80: 4.337782368, 81: 5.236914812, 82: 4.235867429, 83: 5.135020255, 84: 6.033993251, 85: 5.032786453, 86: 4.969196562, 87: 5.868202723, 88: 6.767029082, 89: 5.765675676, 90: 5.764522541, 91: 4.763369637, 92: 3.762416963, 93: 4.661664479, 94: 3.660732146, 95: 2.66];
cost = [0: 0.0, 1: 0.134779813, 2: 0.8644688780000001, 3: 0.0, 4: 0.859092958, 5: 0.497584534, 6: 0.128487543, 7: 0.0, 8: 0.858787508, 9: 0.130198063, 10: 0.858054428, 11: 0.120606933, 12: 0.774972028, 13: 0.045588412, 14: 0.045282962, 15: 0.773261508, 16: 0.775766198, 17: 0.045466233, 18: 0.0, 19: 0.0, 20: 0.773628048, 21: 0.0, 22: 0.045282962, 23: 0.765686348, 24: 0.0, 25: 1.331124065, 26: 1.376090945, 27: 1.376090945, 28: 0.0, 29: 0.0, 30: 1.374187585, 31: 0.0, 32: 0.0, 33: 1.188253105, 34: 1.126512865, 35: 1.034913665, 36: 1.391436785, 37: 0.06640942, 38: 0.0, 39: 0.0, 40: 0.0, 41: 0.370046225, 42: 0.0, 43: 0.0, 44: 0.0, 45: 0.0, 46: 0.0, 47: 0.09377022, 48: 0.0, 49: 0.0, 50: 0.0, 51: 0.11994142, 52: 0.064098682, 53: 0.394595583, 54: 0.0, 55: 0.0, 56: 0.0, 57: 0.152679182, 58: 0.0, 59: 1.005770048, 60: 0.0, 61: 0.0, 62: 1.402143185, 63: 0.0, 64: 0.0, 65: 0.0, 66: 1.413801265, 67: 1.412254785, 68: 1.317443665, 69: 1.357057345, 70: 0.0, 71: 1.552032785, 72: 0.0, 73: 0.0, 74: 0.0, 75: 0.0, 76: 0.07592622, 77: 1.377875345, 78: 0.022713902, 79: 1.376685745, 80: 0.0, 81: 1.376685745, 82: 0.0, 83: 1.373949665, 84: 1.374782385, 85: 0.0, 86: 0.0, 87: 1.399169185, 88: 0.776316008, 89: 0.0, 90: 0.178275892, 91: 0.0, 92: 0.0, 93: 0.908881308, 94: 0.0, 95: 0.0];
earn = [0: 0.539616788, 1: 0.0, 2: 0.0, 3: 0.0, 4: 0.0, 5: 0.0, 6: 0.0, 7: 0.487654613, 8: 0.0, 9: 0.0, 10: 0.0, 11: 0.0, 12: 0.0, 13: 0.0, 14: 0.0, 15: 0.0, 16: 0.0, 17: 0.0, 18: 0.607127775, 19: 0.629583495, 20: 0.0, 21: 0.65028624, 22: 0.0, 23: 0.0, 24: 0.7513428130000001, 25: 0.0, 26: 0.0, 27: 0.0, 28: 0.92991528, 29: 0.87821502, 30: 0.0, 31: 0.080792275, 32: 0.731466225, 33: 0.0, 34: 0.0, 35: 0.0, 36: 0.0, 37: 0.0, 38: 0.534938763, 39: 0.990430313, 40: 0.456761137, 41: 0.0, 42: 0.89715831, 43: 0.145899867, 44: 0.699421538, 45: 0.455658, 46: 0.432828288, 47: 0.0, 48: 0.421673363, 49: 0.3998319, 50: 0.11939445, 51: 0.0, 52: 0.0, 53: 0.0, 54: 0.412888088, 55: 0.405059638, 56: 0.396768273, 57: 0.0, 58: 0.291854063, 59: 0.0, 60: 0.8091136880000001, 61: 0.572074375, 62: 0.0, 63: 0.078222787, 64: 0.096363875, 65: 0.82399023, 66: 0.0, 67: 0.0, 68: 0.0, 69: 0.0, 70: 0.740502525, 71: 0.0, 72: 0.93618, 73: 0.9936135, 74: 1.02997125, 75: 1.03120125, 76: 0.0, 77: 0.0, 78: 0.0, 79: 0.0, 80: 0.0, 81: 0.0, 82: 0.73332231, 83: 0.0, 84: 0.0, 85: 0.671029875, 86: 0.0, 87: 0.0, 88: 0.0, 89: 0.549556378, 90: 0.0, 91: 0.456522938, 92: 0.483960488, 93: 0.0, 94: 0.471794813, 95: 0.47841582];
total_cost = 39.658910534;
total_earn = 24.30240261;
% _objective = 15.356507924;