production = [0: 0.0, 1: 0.0, 2: 0.0, 3: 0.0, 4: 0.0, 5: 0.0, 6: 0.0, 7: 0.0, 8: 0.0, 9: 0.0, 10: 0.0, 11: 0.0, 12: 0.0, 13: 0.0, 14: 0.0, 15: 0.0, 16: 0.0, 17: 0.0, 18: 0.0, 19: 0.0, 20: 0.0, 21: 0.0, 22: 0.0, 23: 0.0, 24: 0.0, 25: 0.038, 26: 0.0838, 27: 0.149, 28: 0.1032, 29: 0.0, 30: 0.1355, 31: 0.144, 32: 0.0, 33: 0.0, 34: 0.2082, 35: 0.0, 36: 0.2767, 37: 0.0, 38: 0.0, 39: 0.5925, 40: 0.824, 41: 0.8782, 42: 0.0, 43: 0.474, 44: 0.0, 45: 0.0, 46: 0.0, 47: 0.3777, 48: 0.0, 49: 0.0, 50: 0.3675, 51: 0.0, 52: 0.0, 53: 0.0, 54: 0.0, 55: 0.0, 56: 0.2105, 57: 0.0, 58: 0.1988, 59: 0.2062, 60: 0.2305, 61: 0.2025, 62: 0.0, 63: 0.1815, 64: 0.0, 65: 0.0, 66: 0.1727, 67: 0.1365, 68: 0.0, 69: 0.0, 70: 0.0, 71: 0.0, 72: 0.0, 73: 0.0, 74: 0.0, 75: 0.0, 76: 0.0, 77: 0.0, 78: 0.0, 79: 0.0, 80: 0.0, 81: 0.0, 82: 0.0, 83: 0.0, 84: 0.0, 85: 0.0, 86: 0.0, 87: 0.0, 88: 0.0, 89: 0.0, 90: 0.0, 91: 0.0, 92: 0.0, 93: 0.0, 94: 0.0, 95: 0.0];
buy = [0: 1.220125, 1: 0.0, 2: 0.352833442, 3: 0.0, 4: 0.0, 5: 0.210825, 6: 0.0, 7: 0.211125, 8: 0.212325, 9: 0.213125, 10: 0.211125, 11: 1.197425, 12: 0.0, 13: 1.074625, 14: 1.074125, 15: 0.072325, 16: 0.07642500000000001, 17: 0.07442500000000001, 18: 0.072625, 19: 0.0, 20: 0.0, 21: 1.073925, 22: 1.074125, 23: 1.059925, 24: 1.091125, 25: 1.019625, 26: 0.973625, 27: 0.908425, 28: 0.0, 29: 0.0, 30: 0.9203249999999999, 31: 0.912125, 32: 1.056325, 33: 0.0, 34: 0.0, 35: 1.056625, 36: 0.0, 37: 0.0, 38: 1.081425, 39: 0.0, 40: 0.258625, 41: 0.211725, 42: 0.0, 43: 0.875625, 44: 0.0, 45: 1.086325, 46: 0.126125, 47: 0.0, 48: 0.07882500000000001, 49: 0.0, 50: 0.0, 51: 1.100825, 52: 1.104925, 53: 1.902125, 54: 0.0, 55: 0.0, 56: 1.243425, 57: 0.448925, 58: 1.254325, 59: 0.0, 60: 0.868625, 61: 0.890625, 62: 0.0, 63: 0.0, 64: 0.0, 65: 0.0, 66: 0.916425, 67: 0.0, 68: 0.0, 69: 1.091925, 70: 1.129125, 71: 0.0, 72: 1.064125, 73: 1.063625, 74: 0.0, 75: 0.0, 76: 1.063825, 77: 0.058925, 78: 1.003862458, 79: 1.057925, 80: 1.059125, 81: 0.0, 82: 1.056325, 83: 0.0, 84: 0.056325, 85: 1.074625, 86: 0.0, 87: 0.076825, 88: 1.077325, 89: 0.237325, 90: 0.0, 91: 0.0, 92: 0.295125, 93: 0.0, 94: 1.260625, 95: 1.230325];
sell = [0: 0.0, 1: 0.679375, 2: 0.0, 3: 0.675875, 4: 0.687175, 5: 0.0, 6: 0.689675, 7: 0.0, 8: 0.0, 9: 0.0, 10: 0.0, 11: 0.0, 12: 0.824875, 13: 0.0, 14: 0.0, 15: 0.0, 16: 0.0, 17: 0.0, 18: 0.0, 19: 0.8255749999999999, 20: 0.827075, 21: 0.0, 22: 0.0, 23: 0.0, 24: 0.0, 25: 0.0, 26: 0.0, 27: 0.0, 28: 0.046575, 29: 0.843175, 30: 0.0, 31: 0.0, 32: 0.0, 33: 0.843175, 34: 0.0, 35: 0.0, 36: 1.106375, 37: 0.844175, 38: 0.0, 39: 0.511875, 40: 0.0, 41: 0.0, 42: 0.813175, 43: 0.0, 44: 0.810875, 45: 0.0, 46: 0.0, 47: 1.198875, 48: 0.0, 49: 0.319875, 50: 0.228375, 51: 0.0, 52: 0.0, 53: 0.0, 54: 0.455075, 55: 0.447875, 56: 0.0, 57: 0.0, 58: 0.0, 59: 0.6532750000000001, 60: 0.0, 61: 0.0, 62: 0.820675, 63: 0.103675, 64: 0.818075, 65: 0.818075, 66: 0.0, 67: 0.948675, 68: 0.802675, 69: 0.0, 70: 0.0, 71: 0.694675, 72: 0.0, 73: 0.0, 74: 0.837375, 75: 0.838375, 76: 0.0, 77: 0.0, 78: 0.0, 79: 0.0, 80: 0.0, 81: 0.842075, 82: 0.0, 83: 0.844375, 84: 0.0, 85: 0.0, 86: 0.843675, 87: 0.0, 88: 0.0, 89: 0.0, 90: 0.608175, 91: 0.606675, 92: 0.0, 93: 0.605675, 94: 0.0, 95: 0.0];
charge = [0: 1.0, 1: 0.0, 2: 0.131208442, 3: 0.0, 4: 0.0, 5: 0.0, 6: 0.0, 7: 0.0, 8: 0.0, 9: 0.0, 10: 0.0, 11: 1.0, 12: 0.0, 13: 1.0, 14: 1.0, 15: 0.0, 16: 0.0, 17: 0.0, 18: 0.0, 19: 0.0, 20: 0.0, 21: 1.0, 22: 1.0, 23: 1.0, 24: 1.0, 25: 1.0, 26: 1.0, 27: 1.0, 28: 0.0, 29: 0.0, 30: 1.0, 31: 1.0, 32: 1.0, 33: 0.0, 34: 0.152375, 35: 1.0, 36: 0.0, 37: 0.0, 38: 1.0, 39: 0.0, 40: 1.0, 41: 1.0, 42: 0.0, 43: 1.0, 44: 0.0, 45: 1.0, 46: 0.0, 47: 0.0, 48: 0.0, 49: 0.0, 50: 0.0, 51: 1.0, 52: 1.0, 53: 1.0, 54: 0.0, 55: 0.0, 56: 1.0, 57: 0.0, 58: 1.0, 59: 0.0, 60: 1.0, 61: 1.0, 62: 0.0, 63: 0.0, 64: 0.0, 65: 0.0, 66: 1.0, 67: 0.0, 68: 0.0, 69: 1.0, 70: 1.0, 71: 0.0, 72: 1.0, 73: 1.0, 74: 0.0, 75: 0.0, 76: 1.0, 77: 0.0, 78: 0.945437458, 79: 1.0, 80: 1.0, 81: 0.0, 82: 1.0, 83: 0.0, 84: 0.0, 85: 1.0, 86: 0.0, 87: 0.0, 88: 1.0, 89: 0.0, 90: 0.0, 91: 0.0, 92: 0.0, 93: 0.0, 94: 1.0, 95: 1.0];
discharge = [0: 0.0, 1: 1.0, 2: 0.0, 3: 1.0, 4: 1.0, 5: 0.0, 6: 1.0, 7: 0.0, 8: 0.0, 9: 0.0, 10: 0.0, 11: 0.0, 12: 1.0, 13: 0.0, 14: 0.0, 15: 0.0, 16: 0.0, 17: 0.0, 18: 0.0, 19: 1.0, 20: 1.0, 21: 0.0, 22: 0.0, 23: 0.0, 24: 0.0, 25: 0.0, 26: 0.0, 27: 0.0, 28: 0.0, 29: 1.0, 30: 0.0, 31: 0.0, 32: 0.0, 33: 1.0, 34: 0.0, 35: 0.0, 36: 1.0, 37: 1.0, 38: 0.0, 39: 0.0, 40: 0.0, 41: 0.0, 42: 1.0, 43: 0.0, 44: 1.0, 45: 0.0, 46: 0.0, 47: 1.0, 48: 0.0, 49: 1.0, 50: 0.0, 51: 0.0, 52: 0.0, 53: 0.0, 54: 1.0, 55: 1.0, 56: 0.0, 57: 0.0, 58: 0.0, 59: 1.0, 60: 0.0, 61: 0.0, 62: 1.0, 63: 0.0, 64: 1.0, 65: 1.0, 66: 0.0, 67: 1.0, 68: 1.0, 69: 0.0, 70: 0.0, 71: 1.0, 72: 0.0, 73: 0.0, 74: 1.0, 75: 1.0, 76: 0.0, 77: 0.0, 78: 0.0, 79: 0.0, 80: 0.0, 81: 1.0, 82: 0.0, 83: 1.0, 84: 0.0, 85: 0.0, 86: 1.0, 87: 0.0, 88: 0.0, 89: 0.0, 90: 1.0, 91: 1.0, 92: 0.0, 93: 1.0, 94: 0.0, 95: 0.0];
soc = [0: 10.14815, 1: 9.14612037, 2: 9.262378743999999, 3: 8.260526268, 4: 7.258874163, 5: 7.257422388, 6: 6.255970904, 7: 6.254719709, 8: 6.253468765, 9: 6.252218072, 10: 6.250967628, 11: 7.149717435, 12: 6.148287491, 13: 7.047057834, 14: 7.945648422, 15: 7.944059292, 16: 7.942470481, 17: 7.940881986, 18: 7.93929381, 19: 6.937705951, 20: 5.93631841, 21: 6.835131146, 22: 7.73376412, 23: 8.632217367000001, 24: 9.530490924, 25: 10.428584826, 26: 11.326499109, 27: 12.224233809, 28: 12.221788962, 29: 11.219344604, 30: 12.117100735, 31: 13.014677315, 32: 13.91207438, 33: 12.909291965, 34: 13.043847607, 35: 13.941238837, 36: 12.938450589, 37: 11.935862899, 38: 12.833475727, 39: 12.830909031, 40: 13.72834285, 41: 14.625597181, 42: 13.622672062, 43: 14.519947527, 44: 13.517043538, 45: 14.414340129, 46: 14.411457261, 47: 13.408574969, 48: 13.405893254, 49: 12.403212076, 50: 12.400731433, 51: 13.298251287, 52: 14.195591637, 53: 15.092752519, 54: 14.089733968, 55: 13.086916021, 56: 13.984298638, 57: 13.981501778, 58: 14.878705478, 59: 13.875729737, 60: 14.772954591, 61: 15.67, 62: 14.666866, 63: 14.663932627, 64: 13.66099984, 65: 12.65826764, 66: 13.555735987, 67: 12.55302484, 68: 11.550514235, 69: 12.448204132, 70: 13.345714491, 71: 12.343045348, 72: 13.240576739, 73: 14.137928624, 74: 13.135101038, 75: 12.132474018, 76: 13.030047523, 77: 13.027441513, 78: 13.875729737, 79: 14.772954591, 80: 15.67, 81: 14.666866, 82: 15.563932627, 83: 14.56081984, 84: 14.557907676, 85: 15.454996095, 86: 14.451905096, 87: 14.449014715, 88: 15.346124912, 89: 15.343055687, 90: 14.339987075, 91: 13.337119078, 92: 13.334451654, 93: 12.331784764, 94: 13.229318407, 95: 14.126672543];
cost = [0: 0.863552528, 1: 0.0, 2: 0.231051923, 3: 0.0, 4: 0.0, 5: 0.128792993, 6: 0.0, 7: 0.128976263, 8: 0.129709343, 9: 0.130198063, 10: 0.128976263, 11: 0.849685098, 12: 0.0, 13: 0.7746665780000001, 14: 0.774361128, 15: 0.044183343, 16: 0.046688033, 17: 0.045466233, 18: 0.044366613, 19: 0.0, 20: 0.0, 21: 0.774238948, 22: 0.774361128, 23: 0.765686348, 24: 1.416180465, 25: 1.331124065, 26: 1.276402465, 27: 1.198840545, 28: 0.0, 29: 0.0, 30: 1.212996785, 31: 1.203242065, 32: 1.374782385, 33: 0.0, 34: 0.018007398, 35: 1.375139265, 36: 0.0, 37: 0.0, 38: 1.404641345, 39: 0.0, 40: 0.425838465, 41: 0.370046225, 42: 0.0, 43: 1.159821665, 44: 0.0, 45: 1.410470385, 46: 0.1500383, 47: 0.0, 48: 0.09377022, 49: 0.0, 50: 0.0, 51: 1.427719585, 52: 0.793176848, 53: 1.280186328, 54: 0.0, 55: 0.0, 56: 0.877786498, 57: 0.274248283, 58: 0.884445308, 59: 0.0, 60: 1.151494465, 61: 1.177665665, 62: 0.0, 63: 0.0, 64: 0.0, 65: 0.0, 66: 1.208357345, 67: 0.0, 68: 0.0, 69: 1.417132145, 70: 1.461385265, 71: 0.0, 72: 1.384061265, 73: 1.383466465, 74: 0.0, 75: 0.0, 76: 1.383704385, 77: 0.07009718, 78: 1.305924844, 79: 1.376685745, 80: 1.378113265, 81: 0.0, 82: 1.374782385, 83: 0.0, 84: 0.06700422, 85: 1.396552065, 86: 0.0, 87: 0.09139102, 88: 0.776316008, 89: 0.144981843, 90: 0.0, 91: 0.0, 92: 0.180291862, 93: 0.0, 94: 0.888293978, 95: 0.869783708];
earn = [0: 0.0, 1: 0.51714025, 2: 0.0, 3: 0.492374938, 4: 0.497308548, 5: 0.0, 6: 0.489807185, 7: 0.0, 8: 0.0, 9: 0.0, 10: 0.0, 11: 0.0, 12: 0.589785625, 13: 0.0, 14: 0.0, 15: 0.0, 16: 0.0, 17: 0.0, 18: 0.0, 19: 0.629583495, 20: 0.631306348, 21: 0.0, 22: 0.0, 23: 0.0, 24: 0.0, 25: 0.0, 26: 0.0, 27: 0.0, 28: 0.04575528, 29: 0.80472622, 30: 0.0, 31: 0.0, 32: 0.0, 33: 0.737187903, 34: 0.0, 35: 0.0, 36: 0.944954888, 37: 0.6468068850000001, 38: 0.0, 39: 0.359080313, 40: 0.0, 41: 0.0, 42: 0.46611191, 43: 0.0, 44: 0.471685988, 45: 0.0, 46: 0.0, 47: 0.672089325, 48: 0.0, 49: 0.1671027, 50: 0.11939445, 51: 0.0, 52: 0.0, 53: 0.0, 54: 0.276367047, 55: 0.278085588, 56: 0.0, 57: 0.0, 58: 0.0, 59: 0.418422638, 60: 0.0, 61: 0.0, 62: 0.588998448, 63: 0.078222787, 64: 0.565617055, 65: 0.63908019, 66: 0.0, 67: 0.818232188, 68: 0.687571405, 69: 0.0, 70: 0.0, 71: 0.73774485, 72: 0.0, 73: 0.0, 74: 1.02997125, 75: 1.03120125, 76: 0.0, 77: 0.0, 78: 0.0, 79: 0.0, 80: 0.0, 81: 0.75652018, 82: 0.0, 83: 0.706066375, 84: 0.0, 85: 0.0, 86: 0.70463736, 87: 0.0, 88: 0.0, 89: 0.0, 90: 0.469450283, 91: 0.456522938, 92: 0.0, 93: 0.473758985, 94: 0.0, 95: 0.0];
total_cost = 48.081350846;
total_earn = 19.998673062;
% _objective = 28.082677784;