p = 
[| 0,  2,  0
 | 0,  0, 39
 | 0,  3,  0
 | 0,  3,  0
 | 0,  3,  0
 | 0,  3,  0
 | 0,  4,  0
 | 0,  4,  0
 | 0,  4,  0
 | 1,  0,  0
 | 1,  0,  0
 | 1,  0,  0
 | 1,  0, 15
 | 1,  0,  0
 | 1,  0,  0
 | 1,  0,  0
 | 1,  0,  0
 | 1,  0,  0
 | 1,  0,  0
 | 1,  0,  0
 | 1,  0,  0
 | 1,  0,  0
 | 1,  0,  0
 | 0, 14,  1
 | 1,  0,  0
 | 1,  0,  0
 | 1,  0,  0
 | 1,  0,  0
 | 1,  0,  0
 | 1,  0,  0
 | 1,  0,  0
 | 1,  0,  0
 | 1,  0,  0
 | 1,  0,  0
 | 1,  0,  0
 | 1,  0,  0
 | 1,  0,  0
 | 1,  0,  0
 | 1,  0,  0
 | 1,  0,  0
 | 1,  0,  0
 | 1,  0,  0
 | 1,  0,  0
 | 1,  0,  9
 | 1,  0,  0
 | 1,  0,  0
 | 1,  0,  0
 | 1,  0,  0
 | 1,  0,  0
 | 1,  0,  0
 |];
R = [435, 31, 2];
% _objective = 468;
