p = 
[|  0,  0,  1
 |  0,  0,  1
 | 26,  1,  1
 |  0, 37,  1
 |  0,  0,  2
 |  0,  0,  2
 |  0,  0,  2
 |  0,  2,  2
 |  1,  0,  0
 |  1, 40,  0
 |  1,  0,  0
 |  1,  0,  0
 |  1,  0,  0
 |  1,  0,  0
 |  1,  0,  0
 |  1,  0,  0
 |  1,  0,  0
 |  1,  0,  0
 |  1,  0,  0
 |  1,  0,  0
 |  1,  0,  0
 |  1,  0,  0
 |  1,  0,  0
 |  1,  0,  0
 |  1,  0,  0
 |  1,  0,  0
 |  1,  0,  0
 |  0,  0,  5
 |  1,  0,  0
 |  1,  0,  0
 |  0,  0,  5
 |  1,  0,  0
 |  1,  0,  0
 |  0,  0,  8
 |  1,  0,  0
 |  1,  0,  0
 |  1,  0,  0
 |  1,  0,  0
 |  1,  0,  0
 |  1,  0,  0
 |  1,  0,  0
 |  1,  0,  0
 |  1,  0,  0
 |  1,  0,  0
 |  1,  0,  0
 |  1,  0,  0
 |  1,  0,  0
 |  2,  0,  0
 |  2,  0,  0
 |  0,  0, 10
 |];
R = [270, 1, 54];
% _objective = 325;
