p = 
[|  0,  2, 0
 |  0,  2, 0
 |  0,  2, 0
 |  0,  2, 0
 |  0,  3, 0
 |  0,  3, 0
 |  0,  0, 1
 |  0,  4, 0
 |  0,  4, 0
 |  0,  0, 1
 |  0,  0, 1
 |  0,  0, 1
 |  0,  0, 1
 |  0,  0, 1
 |  0,  0, 1
 |  0,  0, 1
 |  0, 40, 1
 |  0,  0, 1
 |  0,  4, 1
 |  0,  0, 1
 |  0,  0, 1
 |  0,  0, 1
 |  0,  0, 1
 |  0,  0, 1
 |  0,  6, 0
 |  0,  0, 1
 |  0,  0, 1
 |  0,  0, 1
 |  0,  0, 1
 |  0,  0, 1
 | 20,  0, 1
 | 20, 12, 0
 |  0,  0, 1
 |  0,  0, 1
 |  0,  0, 1
 |  0,  0, 1
 |  0,  0, 1
 |  0,  0, 1
 |  0,  0, 1
 |  0,  0, 1
 |  0,  0, 1
 |  0,  0, 1
 |  0,  0, 1
 |  0,  0, 1
 |  0,  0, 1
 |  0,  0, 1
 |  0,  0, 1
 |  0,  0, 1
 |  0,  0, 1
 |  0,  0, 1
 |];
R = [1, 30, 437];
% _objective = 468;
