production = [0: 0.0, 1: 0.0, 2: 0.0, 3: 0.0, 4: 0.0, 5: 0.0, 6: 0.0, 7: 0.0, 8: 0.0, 9: 0.0, 10: 0.0, 11: 0.0, 12: 0.0, 13: 0.0, 14: 0.0, 15: 0.0, 16: 0.0, 17: 0.0, 18: 0.0, 19: 0.0, 20: 0.0, 21: 0.0, 22: 0.0, 23: 0.0, 24: 0.004165, 25: 0.008399999999999999, 26: 0.007917, 27: 0.000507, 28: 0.130921, 29: 0.164399, 30: 0.027148, 31: 0.064987, 32: 0.280913, 33: 0.363738, 34: 0.57603, 35: 0.998073, 36: 0.781368, 37: 0.890136, 38: 1.022859, 39: 0.151051, 40: 1.041707, 41: 0.118641, 42: 1.051431, 43: 0.178496, 44: 1.416524, 45: 1.486837, 46: 0.09557599999999999, 47: 1.788122, 48: 0.443401, 49: 1.060183, 50: 0.143206, 51: 0.015075, 52: 0.633121, 53: 1.251799, 54: 1.267849, 55: 0.694202, 56: 0.244993, 57: 0.140504, 58: 0.992659, 59: 0.285364, 60: 0.347221, 61: 0.328931, 62: 0.510579, 63: 0.40049, 64: 0.536102, 65: 0.251336, 66: 0.257308, 67: 0.06436, 68: 0.050344, 69: 0.021474, 70: 0.003475, 71: 0.023619, 72: 0.002082, 73: 0.000247, 74: 0.0, 75: 0.0, 76: 0.0, 77: 0.0, 78: 0.0, 79: 0.0, 80: 0.0, 81: 0.0, 82: 0.0, 83: 0.0, 84: 0.0, 85: 0.0, 86: 0.0, 87: 0.0, 88: 0.0, 89: 0.0, 90: 0.0, 91: 0.0, 92: 0.0, 93: 0.0, 94: 0.0, 95: 0.0, 96: 0.0, 97: 0.0, 98: 0.0, 99: 0.0, 100: 0.0, 101: 0.0, 102: 0.0, 103: 0.0, 104: 0.0, 105: 0.0, 106: 0.0, 107: 0.0, 108: 0.0, 109: 0.0, 110: 0.0, 111: 0.0, 112: 0.0, 113: 0.0, 114: 0.0, 115: 0.0, 116: 0.0, 117: 0.0, 118: 0.0, 119: 0.000249, 120: 0.000387, 121: 0.030854, 122: 0.012112, 123: 0.139804, 124: 0.058723, 125: 0.036879, 126: 0.027852, 127: 0.020527, 128: 0.033474, 129: 0.097055, 130: 0.008203, 131: 0.155331, 132: 0.149111, 133: 0.303706, 134: 0.116318, 135: 0.154224, 136: 0.355029, 137: 0.11429, 138: 0.017465, 139: 0.27042, 140: 0.378362, 141: 0.396548, 142: 0.36855, 143: 0.206874, 144: 0.088798, 145: 0.246579, 146: 0.09901600000000001, 147: 0.129578, 148: 0.104885, 149: 0.181026, 150: 0.14137, 151: 0.02308, 152: 0.210396, 153: 0.012872, 154: 0.178881, 155: 0.15795, 156: 0.157297, 157: 0.022621, 158: 0.124506, 159: 0.050121, 160: 0.027868, 161: 0.214575, 162: 0.117843, 163: 0.000328, 164: 0.039076, 165: 0.040715, 166: 0.008635, 167: 0.000121, 168: 0.0, 169: 0.0, 170: 0.0, 171: 0.0, 172: 0.0, 173: 0.0, 174: 0.0, 175: 0.0, 176: 0.0, 177: 0.0, 178: 0.0, 179: 0.0, 180: 0.0, 181: 0.0, 182: 0.0, 183: 0.0, 184: 0.0, 185: 0.0, 186: 0.0, 187: 0.0, 188: 0.0, 189: 0.0, 190: 0.0, 191: 0.0];
buy = [0: 196.514016, 1: 744.466605, 2: 329.104277, 3: 961.4540009999999, 4: 363.618003, 5: 951.969383, 6: 949.138265, 7: 832.856812, 8: 308.748709, 9: 895.698728, 10: 125.066081, 11: 372.647568, 12: 413.52798, 13: 720.17342, 14: 195.363871, 15: 915.867965, 16: 13.68454, 17: 820.680609, 18: 27.23667, 19: 34.436601, 20: 556.064599, 21: 849.745217, 22: 737.703762, 23: 13.137619, 24: 294.337535, 25: 221.842097, 26: 1.649295, 27: 545.061073, 28: 522.274504, 29: 418.941571, 30: 568.181503, 31: 397.081066, 32: 253.853073, 33: 68.42619500000001, 34: 327.149853, 35: 223.639386, 36: 614.922178, 37: 56.309438, 38: 207.273414, 39: 52.50482, 40: 515.294019, 41: 958.469217, 42: 877.321867, 43: 702.503891, 44: 463.327799, 45: 167.901918, 46: 357.861597, 47: 83.475883, 48: 278.368199, 49: 8.152596000000001, 50: 461.404661, 51: 427.666432, 52: 309.67855, 53: 834.728925, 54: 699.212494, 55: 469.552774, 56: 691.710494, 57: 302.607551, 58: 963.781863, 59: 254.06389, 60: 934.201237, 61: 617.189515, 62: 907.718154, 63: 13.413619, 64: 111.108299, 65: 952.984851, 66: 289.187815, 67: 778.880468, 68: 823.8982590000001, 69: 138.331484, 70: 38.685347, 71: 910.072964, 72: 73.04689500000001, 73: 463.127547, 74: 599.824103, 75: 294.47005, 76: 552.471014, 77: 502.218183, 78: 157.678458, 79: 719.55736, 80: 376.180603, 81: 469.188292, 82: 329.81939, 83: 752.01706, 84: 827.94692, 85: 637.481903, 86: 467.927198, 87: 235.786465, 88: 747.027693, 89: 604.170668, 90: 0.503918, 91: 737.7235030000001, 92: 936.309716, 93: 224.037809, 94: 935.923309, 95: 998.021959, 96: 42.815115, 97: 856.811738, 98: 82.7171, 99: 498.220528, 100: 67.423323, 101: 951.7394, 102: 436.602358, 103: 960.721773, 104: 662.477481, 105: 529.4277489999999, 106: 297.910653, 107: 457.742546, 108: 29.422642, 109: 485.962237, 110: 987.819537, 111: 606.347221, 112: 534.311907, 113: 640.3153119999999, 114: 694.3462960000001, 115: 335.463769, 116: 996.270613, 117: 173.477873, 118: 151.628717, 119: 976.709392, 120: 220.779656, 121: 629.505429, 122: 929.903546, 123: 696.50828, 124: 280.888899, 125: 973.979517, 126: 661.154589, 127: 876.158087, 128: 714.476259, 129: 411.874008, 130: 841.557686, 131: 721.707081, 132: 414.127613, 133: 181.118982, 134: 39.517246, 135: 414.538288, 136: 676.431014, 137: 470.526106, 138: 461.422455, 139: 859.5240680000001, 140: 674.914321, 141: 98.34472700000001, 142: 197.023743, 143: 91.35954, 144: 563.816029, 145: 578.083031, 146: 425.366933, 147: 329.133218, 148: 295.089741, 149: 855.474127, 150: 111.590911, 151: 439.276143, 152: 593.015439, 153: 95.998262, 154: 280.256626, 155: 820.138559, 156: 907.0389750000001, 157: 854.737494, 158: 64.516676, 159: 179.064676, 160: 490.462868, 161: 463.503072, 162: 850.943223, 163: 272.604704, 164: 358.496029, 165: 86.662627, 166: 683.772339, 167: 846.041331, 168: 305.842337, 169: 43.520648, 170: 922.356178, 171: 126.578842, 172: 28.756806, 173: 826.897251, 174: 324.804413, 175: 938.587052, 176: 324.370984, 177: 93.65893699999999, 178: 834.246162, 179: 934.492146, 180: 636.621472, 181: 327.341766, 182: 941.4009600000001, 183: 607.670353, 184: 960.771899, 185: 716.034983, 186: 153.589013, 187: 804.716779, 188: 344.062878, 189: 841.94592, 190: 791.943411, 191: 751.212951];
sell = [0: 2.50713, 1: 0.519407, 2: 3.188459, 3: 1.298391, 4: 2.945144, 5: 3.56422, 6: 3.571967, 7: 1.245888, 8: 0.604707, 9: 3.48455, 10: 3.150009, 11: 0.850724, 12: 2.48419, 13: 3.605203, 14: 3.054614, 15: 0.66712, 16: 0.582093, 17: 0.809408, 18: 2.396863, 19: 3.219011, 20: 3.647746, 21: 2.850799, 22: 2.986336, 23: 3.406573, 24: 0.043752, 25: 1.751944, 26: 1.508686, 27: 3.83573, 28: 0.977001, 29: 1.078369, 30: 3.728942, 31: 2.964965, 32: 3.38463, 33: 2.398638, 34: 2.237005, 35: 1.049887, 36: 2.380021, 37: 3.224853, 38: 2.832534, 39: 2.266667, 40: 2.563192, 41: 2.385441, 42: 2.581957, 43: 2.242287, 44: 2.793737, 45: 3.035987, 46: 3.053053, 47: 3.638643, 48: 3.026137, 49: 0.800722, 50: 1.76311, 51: 0.6492869999999999, 52: 0.901597, 53: 3.687063, 54: 2.546081, 55: 1.521154, 56: 0.722858, 57: 1.370737, 58: 2.881882, 59: 3.122667, 60: 0.547992, 61: 0.841746, 62: 3.864691, 63: 3.811676, 64: 2.179683, 65: 2.601164, 66: 0.793884, 67: 3.452041, 68: 3.156282, 69: 3.690126, 70: 2.083373, 71: 0.551544, 72: 0.6395690000000001, 73: 2.003226, 74: 1.307316, 75: 1.427328, 76: 2.368654, 77: 3.089657, 78: 0.614573, 79: 0.259716, 80: 1.20665, 81: 3.378002, 82: 0.423024, 83: 2.88564, 84: 0.307614, 85: 1.777882, 86: 2.898204, 87: 0.931249, 88: 3.510965, 89: 0.401992, 90: 2.295142, 91: 1.751372, 92: 0.186431, 93: 1.801009, 94: 1.002989, 95: 3.448773, 96: 0.99882, 97: 1.631895, 98: 3.157014, 99: 1.334553, 100: 0.7008180000000001, 101: 0.95056, 102: 0.320896, 103: 2.797029, 104: 1.947523, 105: 3.392719, 106: 0.546063, 107: 3.736125, 108: 1.898198, 109: 1.766939, 110: 0.721176, 111: 0.661551, 112: 0.359618, 113: 2.445694, 114: 0.876277, 115: 0.101024, 116: 2.004519, 117: 0.147225, 118: 1.215099, 119: 3.530008, 120: 2.882879, 121: 2.896412, 122: 3.821252, 123: 1.238406, 124: 0.824206, 125: 1.353464, 126: 1.336783, 127: 0.929979, 128: 3.490708, 129: 0.160496, 130: 3.775469, 131: 0.884356, 132: 3.339333, 133: 2.422391, 134: 2.69887, 135: 2.945505, 136: 2.735043, 137: 2.625862, 138: 2.507986, 139: 3.793664, 140: 0.292225, 141: 0.315764, 142: 0.714161, 143: 0.134182, 144: 2.459727, 145: 1.619504, 146: 3.694731, 147: 1.374302, 148: 3.429522, 149: 3.321213, 150: 1.310891, 151: 3.202971, 152: 0.107535, 153: 1.88998, 154: 2.575611, 155: 0.585769, 156: 0.965672, 157: 0.556687, 158: 3.224855, 159: 0.47742, 160: 3.188625, 161: 3.785745, 162: 3.61044, 163: 3.93007, 164: 3.848371, 165: 2.907575, 166: 0.775136, 167: 1.129479, 168: 0.292547, 169: 2.028533, 170: 1.073559, 171: 2.173599, 172: 1.140675, 173: 3.451607, 174: 0.018812, 175: 1.122011, 176: 1.266057, 177: 2.959747, 178: 3.482914, 179: 3.819135, 180: 3.39713, 181: 2.407322, 182: 3.771342, 183: 3.966518, 184: 3.712331, 185: 1.681004, 186: 1.501254, 187: 1.908657, 188: 2.294096, 189: 1.09715, 190: 0.052944, 191: 0.9296140000000001];
charge = [0: 0.298656, 1: 0.849928, 2: 0.644383, 3: 0.471882, 4: 0.761646, 5: 0.679764, 6: 0.367211, 7: 0.86336, 8: 0.565313, 9: 0.490063, 10: 0.433768, 11: 0.741425, 12: 0.828437, 13: 0.020477, 14: 0.9577329999999999, 15: 0.6601590000000001, 16: 0.225742, 17: 0.025812, 18: 0.639184, 19: 0.402467, 20: 0.839963, 21: 0.080779, 22: 0.484333, 23: 0.800262, 24: 0.699931, 25: 0.747262, 26: 0.037882, 27: 0.414795, 28: 0.59237, 29: 0.321156, 30: 0.333305, 31: 0.981808, 32: 0.220999, 33: 0.615561, 34: 0.6416770000000001, 35: 0.939836, 36: 0.927624, 37: 0.968791, 38: 0.043764, 39: 0.001994, 40: 0.137723, 41: 0.142625, 42: 0.7088100000000001, 43: 0.74577, 44: 0.889323, 45: 0.900295, 46: 0.300162, 47: 0.915138, 48: 0.151301, 49: 0.195333, 50: 0.820737, 51: 0.507085, 52: 0.998173, 53: 0.925935, 54: 0.133638, 55: 0.305751, 56: 0.191974, 57: 0.081252, 58: 0.365759, 59: 0.060968, 60: 0.153789, 61: 0.610984, 62: 0.8786620000000001, 63: 0.443169, 64: 0.483933, 65: 0.011827, 66: 0.318287, 67: 0.07464899999999999, 68: 0.171706, 69: 0.835355, 70: 0.78263, 71: 0.585179, 72: 0.66787, 73: 0.867078, 74: 0.303264, 75: 0.806186, 76: 0.562231, 77: 0.451391, 78: 0.27338, 79: 0.7705109999999999, 80: 0.892455, 81: 0.884713, 82: 0.246284, 83: 0.800814, 84: 0.606362, 85: 0.872856, 86: 0.5736250000000001, 87: 0.475471, 88: 0.960526, 89: 0.994573, 90: 0.60749, 91: 0.283389, 92: 0.558615, 93: 0.17505, 94: 0.497631, 95: 0.208666, 96: 0.179857, 97: 0.323575, 98: 0.051438, 99: 0.162919, 100: 0.9775779999999999, 101: 0.449809, 102: 0.591789, 103: 0.16751, 104: 0.645966, 105: 0.599762, 106: 0.226175, 107: 0.058069, 108: 0.406726, 109: 0.308197, 110: 0.320545, 111: 0.405941, 112: 0.175771, 113: 0.169053, 114: 0.655481, 115: 0.356302, 116: 0.850003, 117: 0.506414, 118: 0.82136, 119: 0.137393, 120: 0.05523, 121: 0.696784, 122: 0.76531, 123: 0.17705, 124: 0.125511, 125: 0.475171, 126: 0.571175, 127: 0.007654, 128: 0.459929, 129: 0.468461, 130: 0.777016, 131: 0.232734, 132: 0.5943619999999999, 133: 0.453671, 134: 0.557899, 135: 0.045612, 136: 0.670836, 137: 0.936967, 138: 0.635201, 139: 0.190146, 140: 0.765239, 141: 0.893388, 142: 0.341454, 143: 0.392613, 144: 0.294765, 145: 0.054583, 146: 0.9707519999999999, 147: 0.999803, 148: 0.3677, 149: 0.72015, 150: 0.001974, 151: 0.882583, 152: 0.51273, 153: 0.803357, 154: 0.796602, 155: 0.425653, 156: 0.32897, 157: 0.603001, 158: 0.270371, 159: 0.256207, 160: 0.253502, 161: 0.669843, 162: 0.031792, 163: 0.32646, 164: 0.676682, 165: 0.434696, 166: 0.279297, 167: 0.326011, 168: 0.96859, 169: 0.879493, 170: 0.779647, 171: 0.884147, 172: 0.493134, 173: 0.567101, 174: 0.587932, 175: 0.85862, 176: 0.126518, 177: 0.761483, 178: 0.68113, 179: 0.036402, 180: 0.549735, 181: 0.695391, 182: 0.401022, 183: 0.656522, 184: 0.627273, 185: 0.91837, 186: 0.8992520000000001, 187: 0.584335, 188: 0.375767, 189: 0.062489, 190: 0.419364, 191: 0.693017];
discharge = [0: 0.817634, 1: 0.397738, 2: 0.42828, 3: 0.323697, 4: 0.728636, 5: 0.354701, 6: 0.35666, 7: 0.431487, 8: 0.165501, 9: 0.165426, 10: 0.090882, 11: 0.776308, 12: 0.213666, 13: 0.798667, 14: 0.242239, 15: 0.728434, 16: 0.160857, 17: 0.861666, 18: 0.198672, 19: 0.767972, 20: 0.949121, 21: 0.982753, 22: 0.716062, 23: 0.845955, 24: 0.07970099999999999, 25: 0.164604, 26: 0.781753, 27: 0.716616, 28: 0.430437, 29: 0.890804, 30: 0.9687249999999999, 31: 0.281904, 32: 0.932752, 33: 0.493649, 34: 0.975287, 35: 0.795424, 36: 0.222626, 37: 0.123854, 38: 0.812806, 39: 0.176252, 40: 0.338103, 41: 0.362378, 42: 0.28633, 43: 0.280476, 44: 0.860189, 45: 0.172349, 46: 0.513458, 47: 0.119307, 48: 0.901861, 49: 0.270792, 50: 0.651143, 51: 0.565334, 52: 0.521999, 53: 0.857578, 54: 0.688041, 55: 0.775608, 56: 0.274028, 57: 0.9741880000000001, 58: 0.506584, 59: 0.152981, 60: 0.9048850000000001, 61: 0.007188, 62: 0.691715, 63: 0.151606, 64: 0.193243, 65: 0.249423, 66: 0.184319, 67: 0.880055, 68: 0.535386, 69: 0.087296, 70: 0.928875, 71: 0.316305, 72: 0.887185, 73: 0.423171, 74: 0.702824, 75: 0.083311, 76: 0.331416, 77: 0.013775, 78: 0.734934, 79: 0.185537, 80: 0.450351, 81: 0.45726, 82: 0.19528, 83: 0.252458, 84: 0.352824, 85: 0.166515, 86: 0.5886479999999999, 87: 0.376273, 88: 0.422614, 89: 0.244708, 90: 0.167347, 91: 0.779281, 92: 0.610422, 93: 0.10752, 94: 0.47511, 95: 0.507016, 96: 0.579085, 97: 0.529492, 98: 0.949526, 99: 0.846696, 100: 0.491677, 101: 0.12911, 102: 0.192574, 103: 0.656238, 104: 0.653667, 105: 0.124805, 106: 0.415969, 107: 0.42658, 108: 0.597461, 109: 0.7001270000000001, 110: 0.430451, 111: 0.317405, 112: 0.729231, 113: 0.760637, 114: 0.754444, 115: 0.523654, 116: 0.029636, 117: 0.951555, 118: 0.226787, 119: 0.562742, 120: 0.111863, 121: 0.01991, 122: 0.714228, 123: 0.6888919999999999, 124: 0.5617799999999999, 125: 0.834732, 126: 0.793997, 127: 0.774383, 128: 0.291932, 129: 0.128711, 130: 0.031299, 131: 0.231048, 132: 0.188723, 133: 0.321713, 134: 0.063057, 135: 0.99746, 136: 0.474138, 137: 0.367805, 138: 0.473273, 139: 0.267136, 140: 0.935879, 141: 0.84863, 142: 0.295499, 143: 0.485719, 144: 0.61808, 145: 0.992947, 146: 0.840714, 147: 0.047955, 148: 0.347881, 149: 0.257196, 150: 0.098061, 151: 0.074208, 152: 0.100633, 153: 0.052313, 154: 0.938053, 155: 0.174393, 156: 0.88948, 157: 0.83249, 158: 0.732321, 159: 0.965741, 160: 0.917614, 161: 0.774348, 162: 0.503794, 163: 0.926076, 164: 0.802065, 165: 0.282721, 166: 0.692363, 167: 0.385594, 168: 0.411799, 169: 0.828618, 170: 0.08626499999999999, 171: 0.846485, 172: 0.03753, 173: 0.579677, 174: 0.621823, 175: 0.465103, 176: 0.330624, 177: 0.341525, 178: 0.766971, 179: 0.112439, 180: 0.12035, 181: 0.535133, 182: 0.7210839999999999, 183: 0.035631, 184: 0.778047, 185: 0.345954, 186: 0.748256, 187: 0.698373, 188: 0.336958, 189: 0.038166, 190: 0.579738, 191: 0.07727199999999999];
soc = [0: 8.004723, 1: 10.127383, 2: 8.020765000000001, 3: 8.510771999999999, 4: 12.41186, 5: 10.803507, 6: 3.662159, 7: 6.072055, 8: 12.948578, 9: 6.211115, 10: 13.729411, 11: 3.683988, 12: 11.993973, 13: 12.452874, 14: 2.88882, 15: 13.353803, 16: 13.409645, 17: 13.060063, 18: 10.767501, 19: 4.954544, 20: 7.749753, 21: 8.822953999999999, 22: 3.049119, 23: 4.588707, 24: 13.183336, 25: 9.897228999999999, 26: 11.414248, 27: 10.595619, 28: 12.843483, 29: 9.198772, 30: 3.699952, 31: 11.898926, 32: 13.571805, 33: 12.164428, 34: 12.990567, 35: 10.01659, 36: 6.963265, 37: 6.397651, 38: 7.676037, 39: 10.925224, 40: 5.975592, 41: 3.004564, 42: 13.914098, 43: 5.699913, 44: 11.97177, 45: 8.444172999999999, 46: 14.594149, 47: 8.845862, 48: 10.225132, 49: 4.168364, 50: 11.517667, 51: 12.955415, 52: 14.499, 53: 12.815355, 54: 3.228514, 55: 15.079093, 56: 5.948518, 57: 13.929512, 58: 10.949125, 59: 8.536801000000001, 60: 14.612844, 61: 6.341536, 62: 4.127646, 63: 13.340503, 64: 15.064989, 65: 11.837852, 66: 3.487058, 67: 7.841837, 68: 3.017326, 69: 11.670522, 70: 13.706228, 71: 6.29118, 72: 3.436178, 73: 3.047235, 74: 9.705271, 75: 13.142132, 76: 8.311821, 77: 5.635751, 78: 8.031065999999999, 79: 13.685862, 80: 14.411584, 81: 13.044231, 82: 8.255234, 83: 7.110088, 84: 11.377787, 85: 14.917175, 86: 9.529025000000001, 87: 5.191904, 88: 10.701484, 89: 2.986946, 90: 9.518641000000001, 91: 6.331811, 92: 7.93899, 93: 9.520695, 94: 3.519464, 95: 14.680223, 96: 12.002301, 97: 11.225313, 98: 14.803917, 99: 15.520562, 100: 13.654294, 101: 3.858422, 102: 4.842276, 103: 12.731846, 104: 8.187445, 105: 13.619445, 106: 10.734651, 107: 6.033837, 108: 4.316861, 109: 8.810135000000001, 110: 3.330452, 111: 12.515728, 112: 10.999742, 113: 5.241566, 114: 14.317202, 115: 14.901304, 116: 4.876636, 117: 4.750359, 118: 14.908059, 119: 11.123616, 120: 13.067321, 121: 8.669385, 122: 14.650065, 123: 15.664443, 124: 8.967568, 125: 10.226665, 126: 13.653397, 127: 10.888213, 128: 12.781997, 129: 7.922404, 130: 6.964465, 131: 14.202239, 132: 2.764563, 133: 10.290101, 134: 14.430626, 135: 12.836364, 136: 11.150075, 137: 6.531403, 138: 2.949847, 139: 3.871403, 140: 7.234385, 141: 10.44134, 142: 8.174301, 143: 4.30383, 144: 14.765944, 145: 7.078059, 146: 5.171427, 147: 12.319148, 148: 13.185351, 149: 5.990197, 150: 14.825687, 151: 3.67698, 152: 12.872913, 153: 6.18358, 154: 15.37614, 155: 8.52305, 156: 6.186835, 157: 10.077055, 158: 5.511338, 159: 14.089076, 160: 6.765605, 161: 5.774198, 162: 13.454432, 163: 9.196020000000001, 164: 5.578399, 165: 11.055318, 166: 9.013273, 167: 7.909277, 168: 9.328856, 169: 11.327317, 170: 4.164876, 171: 4.572122, 172: 6.46495, 173: 13.237819, 174: 4.669152, 175: 6.172897, 176: 11.618623, 177: 12.840844, 178: 12.46169, 179: 15.240116, 180: 5.261878, 181: 9.701993999999999, 182: 7.410766, 183: 12.033383, 184: 4.147708, 185: 3.041603, 186: 3.867318, 187: 7.000198, 188: 11.101383, 189: 11.374705, 190: 10.360826, 191: 11.716737];
cost = [0: 0.676738, 1: 390.801895, 2: 118.48104, 3: 184.717268, 4: 595.7441710000001, 5: 242.069091, 6: 304.462372, 7: 385.293545, 8: 356.922456, 9: 419.023104, 10: 48.670672, 11: 432.327603, 12: 38.918185, 13: 176.740506, 14: 249.466534, 15: 570.589299, 16: 137.972048, 17: 419.295404, 18: 466.711878, 19: 415.078532, 20: 542.116808, 21: 136.3736, 22: 342.916888, 23: 595.981408, 24: 436.257064, 25: 564.461442, 26: 507.963347, 27: 812.909945, 28: 1184.505602, 29: 860.899183, 30: 650.403308, 31: 1021.607935, 32: 271.728355, 33: 310.3883, 34: 221.724257, 35: 596.850131, 36: 441.669775, 37: 1120.805895, 38: 1130.772867, 39: 236.674807, 40: 758.617748, 41: 1075.028213, 42: 853.600387, 43: 497.585874, 44: 199.199543, 45: 776.967313, 46: 1028.871216, 47: 848.2417359999999, 48: 1025.127912, 49: 414.068359, 50: 263.135783, 51: 935.23338, 52: 477.936114, 53: 575.678551, 54: 503.107802, 55: 571.505186, 56: 242.835349, 57: 273.491093, 58: 350.282025, 59: 334.014958, 60: 590.273263, 61: 930.046568, 62: 1007.993521, 63: 863.0509970000001, 64: 795.986194, 65: 930.451735, 66: 782.819293, 67: 594.084253, 68: 254.03923, 69: 1078.122053, 70: 181.034601, 71: 852.76474, 72: 196.361763, 73: 93.608447, 74: 836.60725, 75: 670.036646, 76: 865.253845, 77: 107.404416, 78: 4.021536, 79: 190.787142, 80: 1118.081949, 81: 264.766485, 82: 77.730251, 83: 917.260362, 84: 902.227879, 85: 773.151282, 86: 1120.695852, 87: 312.943717, 88: 293.333372, 89: 355.553284, 90: 22.981147, 91: 485.383428, 92: 520.9947069999999, 93: 472.151769, 94: 580.9187930000001, 95: 532.621446, 96: 547.2988329999999, 97: 375.239827, 98: 517.15602, 99: 397.053387, 100: 66.19248899999999, 101: 446.25059, 102: 75.54050700000001, 103: 586.143478, 104: 530.532504, 105: 252.83092, 106: 387.108555, 107: 289.336232, 108: 69.155175, 109: 507.312165, 110: 239.845488, 111: 23.065461, 112: 125.026841, 113: 99.810964, 114: 112.169683, 115: 381.117962, 116: 102.33721, 117: 481.232782, 118: 284.981986, 119: 553.186774, 120: 969.366526, 121: 1016.340029, 122: 931.238345, 123: 315.223501, 124: 499.811168, 125: 267.79182, 126: 417.158464, 127: 654.5199689999999, 128: 687.135331, 129: 980.675193, 130: 8.450612, 131: 1006.139368, 132: 1063.825209, 133: 537.233793, 134: 928.4009160000001, 135: 55.257457, 136: 493.237417, 137: 850.600372, 138: 825.559975, 139: 1056.209831, 140: 625.389407, 141: 1029.98697, 142: 354.413635, 143: 1126.360857, 144: 93.73615599999999, 145: 1133.584954, 146: 446.71028, 147: 484.620094, 148: 230.645769, 149: 334.36919, 150: 281.759495, 151: 417.395507, 152: 194.036003, 153: 298.904196, 154: 167.490246, 155: 275.101392, 156: 731.736463, 157: 912.573537, 158: 438.164305, 159: 454.761095, 160: 920.939846, 161: 55.286939, 162: 1145.528541, 163: 601.995574, 164: 964.714993, 165: 681.2153510000001, 166: 306.345354, 167: 780.0701350000001, 168: 1158.729002, 169: 603.717428, 170: 500.581169, 171: 535.9772819999999, 172: 107.972042, 173: 57.753355, 174: 1136.071406, 175: 25.611668, 176: 326.830575, 177: 221.91947, 178: 231.318419, 179: 632.431995, 180: 109.250896, 181: 1124.164197, 182: 1036.957192, 183: 762.765185, 184: 215.75001, 185: 462.594871, 186: 399.896016, 187: 365.337561, 188: 448.056122, 189: 569.774251, 190: 101.537832, 191: 28.630781];
earn = [0: 2.362255, 1: 2.093911, 2: 2.326899, 3: 0.869487, 4: 0.409298, 5: 0.153119, 6: 1.271119, 7: 0.237336, 8: 1.959042, 9: 1.169761, 10: 0.28963, 11: 1.162381, 12: 2.29527, 13: 0.959964, 14: 2.019246, 15: 0.7059029999999999, 16: 1.219521, 17: 1.407497, 18: 0.081446, 19: 2.115026, 20: 1.178327, 21: 2.738251, 22: 1.924012, 23: 2.304323, 24: 2.035244, 25: 2.878801, 26: 2.007503, 27: 0.577255, 28: 2.117726, 29: 2.902631, 30: 0.562322, 31: 1.49024, 32: 1.5747, 33: 2.323993, 34: 0.219625, 35: 0.9623620000000001, 36: 2.09628, 37: 0.06432300000000001, 38: 0.597733, 39: 0.691156, 40: 0.116932, 41: 0.509509, 42: 0.393289, 43: 0.045974, 44: 0.061756, 45: 0.132516, 46: 0.028689, 47: 0.003382, 48: 0.002732, 49: 0.042426, 50: 0.049729, 51: 0.009926000000000001, 52: 0.003025, 53: 0.111296, 54: 0.022916, 55: 0.305682, 56: 0.375553, 57: 1.017771, 58: 0.582099, 59: 1.298263, 60: 1.395002, 61: 0.647942, 62: 1.198818, 63: 1.892463, 64: 0.525294, 65: 2.27301, 66: 0.199093, 67: 0.5074, 68: 2.64204, 69: 2.012737, 70: 0.040922, 71: 3.834289, 72: 0.634121, 73: 2.423487, 74: 3.781428, 75: 1.945285, 76: 0.044251, 77: 1.004098, 78: 0.508588, 79: 3.524352, 80: 0.7641210000000001, 81: 0.677352, 82: 1.812529, 83: 1.228066, 84: 1.724983, 85: 0.700419, 86: 0.273183, 87: 2.188355, 88: 1.130693, 89: 2.609563, 90: 1.807285, 91: 0.410585, 92: 2.034916, 93: 1.481864, 94: 0.006305, 95: 1.834217, 96: 2.84875, 97: 2.187999, 98: 2.554601, 99: 2.59957, 100: 0.777485, 101: 2.227278, 102: 2.40827, 103: 2.170396, 104: 2.615197, 105: 0.994621, 106: 1.994958, 107: 1.258297, 108: 1.329879, 109: 0.655941, 110: 1.800785, 111: 1.280837, 112: 1.012174, 113: 2.269297, 114: 0.269632, 115: 1.679412, 116: 2.017659, 117: 2.437243, 118: 0.722065, 119: 0.317976, 120: 2.1806, 121: 0.736922, 122: 1.134505, 123: 2.916493, 124: 0.554566, 125: 1.379991, 126: 0.233225, 127: 2.615457, 128: 0.021852, 129: 0.272004, 130: 2.145464, 131: 0.464788, 132: 0.716409, 133: 1.766836, 134: 1.819257, 135: 0.04986, 136: 1.587957, 137: 1.632092, 138: 1.774755, 139: 1.686083, 140: 1.96439, 141: 0.420972, 142: 0.113309, 143: 0.611831, 144: 1.305396, 145: 1.026872, 146: 1.871654, 147: 1.25706, 148: 0.31391, 149: 0.078391, 150: 2.045449, 151: 1.817019, 152: 0.623939, 153: 0.695122, 154: 1.144972, 155: 1.587222, 156: 0.995103, 157: 0.993639, 158: 0.799171, 159: 0.9978, 160: 0.055628, 161: 0.404216, 162: 0.625806, 163: 0.506912, 164: 2.904483, 165: 2.438964, 166: 0.930816, 167: 0.102068, 168: 0.683872, 169: 0.623689, 170: 4.536958, 171: 3.343561, 172: 4.327894, 173: 0.513593, 174: 2.461965, 175: 4.096206, 176: 2.780612, 177: 3.548185, 178: 2.442485, 179: 1.601961, 180: 2.173462, 181: 1.113193, 182: 0.218135, 183: 2.317342, 184: 0.6075700000000001, 185: 1.551668, 186: 1.53159, 187: 2.33458, 188: 2.535309, 189: 0.8564310000000001, 190: 0.57652, 191: 2.337502];
total_cost = 91.02485551015828;
total_earn = 42.0188157301202;
