production = [0: 0.0, 1: 0.0, 2: 0.0, 3: 0.0, 4: 0.0, 5: 0.0, 6: 0.0, 7: 0.0, 8: 0.0, 9: 0.0, 10: 0.0, 11: 0.0, 12: 0.0, 13: 0.0, 14: 0.0, 15: 0.0, 16: 0.0, 17: 0.0, 18: 0.0, 19: 0.0, 20: 0.0, 21: 0.0, 22: 0.0, 23: 0.00016, 24: 0.001973, 25: 0.037837, 26: 0.049163, 27: 0.013157, 28: 0.150529, 29: 0.065635, 30: 0.177724, 31: 0.005768, 32: 0.069216, 33: 0.16175, 34: 0.060536, 35: 0.901361, 36: 0.9108039999999999, 37: 0.515299, 38: 0.844208, 39: 0.419613, 40: 0.208625, 41: 0.105661, 42: 0.418046, 43: 0.584259, 44: 0.910162, 45: 0.362257, 46: 0.277613, 47: 0.220917, 48: 0.565014, 49: 0.577705, 50: 0.584529, 51: 0.874873, 52: 0.452245, 53: 0.408991, 54: 1.482283, 55: 0.829921, 56: 0.693283, 57: 0.6606649999999999, 58: 1.148076, 59: 0.535652, 60: 0.017329, 61: 0.179328, 62: 0.330337, 63: 0.247179, 64: 0.45846, 65: 0.182704, 66: 0.129418, 67: 0.140138, 68: 0.046432, 69: 0.044219, 70: 0.04055, 71: 0.021379, 72: 0.003954, 73: 0.000166, 74: 0.0, 75: 0.0, 76: 0.0, 77: 0.0, 78: 0.0, 79: 0.0, 80: 0.0, 81: 0.0, 82: 0.0, 83: 0.0, 84: 0.0, 85: 0.0, 86: 0.0, 87: 0.0, 88: 0.0, 89: 0.0, 90: 0.0, 91: 0.0, 92: 0.0, 93: 0.0, 94: 0.0, 95: 0.0, 96: 0.0, 97: 0.0, 98: 0.0, 99: 0.0, 100: 0.0, 101: 0.0, 102: 0.0, 103: 0.0, 104: 0.0, 105: 0.0, 106: 0.0, 107: 0.0, 108: 0.0, 109: 0.0, 110: 0.0, 111: 0.0, 112: 0.0, 113: 0.0, 114: 0.0, 115: 0.0, 116: 0.0, 117: 0.0, 118: 0.0, 119: 0.000289, 120: 0.000471, 121: 0.012569, 122: 0.063045, 123: 8e-06, 124: 0.04995, 125: 0.06278499999999999, 126: 0.06253, 127: 0.04557, 128: 0.101606, 129: 0.117405, 130: 0.007616, 131: 0.250924, 132: 0.250093, 133: 0.126289, 134: 0.107687, 135: 0.041781, 136: 0.503872, 137: 0.154284, 138: 0.132419, 139: 0.360354, 140: 0.116228, 141: 0.376473, 142: 0.173707, 143: 0.013624, 144: 0.043496, 145: 0.243395, 146: 0.245495, 147: 0.164624, 148: 0.081677, 149: 0.037284, 150: 0.116365, 151: 0.121719, 152: 0.002027, 153: 0.071204, 154: 0.151241, 155: 0.056247, 156: 0.075548, 157: 0.105598, 158: 0.157742, 159: 0.065819, 160: 0.220038, 161: 0.204988, 162: 0.04749, 163: 0.058904, 164: 0.000701, 165: 0.005063, 166: 0.01182, 167: 0.000272, 168: 0.0, 169: 0.0, 170: 0.0, 171: 0.0, 172: 0.0, 173: 0.0, 174: 0.0, 175: 0.0, 176: 0.0, 177: 0.0, 178: 0.0, 179: 0.0, 180: 0.0, 181: 0.0, 182: 0.0, 183: 0.0, 184: 0.0, 185: 0.0, 186: 0.0, 187: 0.0, 188: 0.0, 189: 0.0, 190: 0.0, 191: 0.0];
buy = [0: 970.380988, 1: 946.346316, 2: 571.797131, 3: 822.607381, 4: 411.3497, 5: 322.560821, 6: 525.0451880000001, 7: 830.7439910000001, 8: 802.212308, 9: 7.002466, 10: 56.578374, 11: 269.864419, 12: 715.492768, 13: 804.2095839999999, 14: 408.875763, 15: 114.124279, 16: 906.941449, 17: 264.860519, 18: 506.844154, 19: 897.678615, 20: 602.8723660000001, 21: 673.2909509999999, 22: 898.207465, 23: 342.014686, 24: 812.1403, 25: 451.568884, 26: 755.936001, 27: 222.982241, 28: 199.313504, 29: 172.113767, 30: 718.260061, 31: 680.87788, 32: 949.333059, 33: 58.772928, 34: 591.282506, 35: 298.996658, 36: 562.555507, 37: 189.822967, 38: 136.583775, 39: 942.156359, 40: 699.885003, 41: 883.844482, 42: 806.823362, 43: 461.066753, 44: 842.584071, 45: 392.974228, 46: 876.976566, 47: 508.877257, 48: 443.823566, 49: 254.031516, 50: 998.963668, 51: 608.6166469999999, 52: 628.001706, 53: 939.708044, 54: 841.864087, 55: 168.364719, 56: 864.328127, 57: 164.838523, 58: 427.796108, 59: 818.873475, 60: 250.669475, 61: 407.399838, 62: 310.388512, 63: 737.821318, 64: 641.912452, 65: 5.314222, 66: 990.6633409999999, 67: 200.787149, 68: 479.153345, 69: 506.662005, 70: 275.307688, 71: 345.180636, 72: 396.558583, 73: 301.566598, 74: 922.090095, 75: 106.835138, 76: 43.286863, 77: 22.142493, 78: 263.748707, 79: 911.565931, 80: 616.16922, 81: 439.478184, 82: 927.010277, 83: 323.065741, 84: 259.258626, 85: 641.9101910000001, 86: 833.5364949999999, 87: 175.974008, 88: 342.761255, 89: 887.237479, 90: 31.511748, 91: 737.814429, 92: 753.701285, 93: 689.5202839999999, 94: 5.05063, 95: 740.398786, 96: 35.650922, 97: 713.522482, 98: 545.495714, 99: 861.736387, 100: 544.491578, 101: 549.412168, 102: 92.55410500000001, 103: 686.9792629999999, 104: 359.890536, 105: 322.53062, 106: 747.051974, 107: 303.793643, 108: 666.556744, 109: 770.455282, 110: 224.385676, 111: 475.434841, 112: 142.413821, 113: 236.576448, 114: 848.944699, 115: 255.292473, 116: 97.49541000000001, 117: 194.611702, 118: 774.446383, 119: 567.746027, 120: 234.32967, 121: 59.620866, 122: 710.541737, 123: 760.025921, 124: 223.012835, 125: 777.390519, 126: 890.379554, 127: 578.954437, 128: 489.764419, 129: 36.808755, 130: 531.540308, 131: 174.432867, 132: 229.118319, 133: 635.230671, 134: 191.846324, 135: 767.596005, 136: 978.88143, 137: 794.640237, 138: 331.453074, 139: 849.754607, 140: 518.999686, 141: 768.885126, 142: 498.091013, 143: 836.463316, 144: 695.926184, 145: 718.40685, 146: 213.681921, 147: 917.053059, 148: 300.187636, 149: 391.459859, 150: 76.004435, 151: 887.7390810000001, 152: 813.2651540000001, 153: 995.271033, 154: 835.6016990000001, 155: 233.815643, 156: 251.818852, 157: 528.742126, 158: 709.513839, 159: 819.4946, 160: 170.46508, 161: 844.706626, 162: 109.673522, 163: 233.285791, 164: 402.389716, 165: 226.828775, 166: 260.224696, 167: 380.547131, 168: 91.59301000000001, 169: 728.6017869999999, 170: 390.798347, 171: 254.350968, 172: 266.304294, 173: 863.256989, 174: 530.193089, 175: 54.764269, 176: 834.208257, 177: 30.488832, 178: 490.844621, 179: 182.111186, 180: 433.63699, 181: 855.649144, 182: 569.232874, 183: 591.074264, 184: 433.887722, 185: 682.84905, 186: 281.665906, 187: 529.001217, 188: 941.599838, 189: 261.089736, 190: 297.857592, 191: 659.566257];
sell = [0: 3.702659, 1: 3.426804, 2: 3.594909, 3: 2.133939, 4: 2.22142, 5: 1.59558, 6: 2.469739, 7: 1.646434, 8: 2.633554, 9: 1.434399, 10: 3.442415, 11: 3.27371, 12: 2.463788, 13: 3.714262, 14: 2.24277, 15: 2.942294, 16: 3.60134, 17: 1.457299, 18: 2.290137, 19: 2.426177, 20: 3.40159, 21: 0.782375, 22: 2.334694, 23: 0.134747, 24: 1.323264, 25: 3.497104, 26: 2.191442, 27: 2.778076, 28: 2.44548, 29: 3.499149, 30: 3.777041, 31: 1.529285, 32: 1.640257, 33: 0.826749, 34: 2.25141, 35: 1.184957, 36: 3.338702, 37: 1.345173, 38: 3.182047, 39: 0.6763749999999999, 40: 2.139698, 41: 3.180776, 42: 2.259792, 43: 0.638099, 44: 0.724943, 45: 1.410149, 46: 2.267173, 47: 0.190918, 48: 3.815624, 49: 0.871884, 50: 3.759411, 51: 0.811911, 52: 1.987377, 53: 3.290104, 54: 2.161658, 55: 3.592542, 56: 3.107138, 57: 0.288182, 58: 1.197323, 59: 0.485579, 60: 1.493169, 61: 2.148883, 62: 0.716983, 63: 0.101697, 64: 0.887618, 65: 3.493933, 66: 2.76368, 67: 0.324042, 68: 2.429929, 69: 1.814195, 70: 1.885308, 71: 2.159966, 72: 1.825212, 73: 0.436474, 74: 0.5707449999999999, 75: 1.934918, 76: 1.112368, 77: 2.514954, 78: 2.092656, 79: 2.71013, 80: 1.55356, 81: 1.621176, 82: 2.703835, 83: 3.927834, 84: 1.450269, 85: 3.029746, 86: 2.500693, 87: 3.131619, 88: 0.003202, 89: 0.337303, 90: 0.611561, 91: 0.896687, 92: 2.224699, 93: 2.747613, 94: 2.746173, 95: 0.204822, 96: 2.200717, 97: 2.799565, 98: 3.838604, 99: 0.9684970000000001, 100: 2.026482, 101: 2.74889, 102: 3.45578, 103: 0.044554, 104: 2.997378, 105: 3.761736, 106: 0.995653, 107: 1.807457, 108: 1.607952, 109: 3.244134, 110: 1.394934, 111: 2.005974, 112: 1.247819, 113: 0.001401, 114: 3.288365, 115: 3.12708, 116: 1.049877, 117: 0.752131, 118: 3.446048, 119: 2.981744, 120: 1.511743, 121: 2.682258, 122: 1.904932, 123: 1.061554, 124: 2.534154, 125: 2.739044, 126: 1.660199, 127: 0.061907, 128: 2.561479, 129: 1.396744, 130: 1.833201, 131: 1.507769, 132: 0.943094, 133: 2.143944, 134: 3.472104, 135: 2.410891, 136: 3.278931, 137: 0.632204, 138: 1.797638, 139: 1.834098, 140: 3.286918, 141: 1.226149, 142: 2.393946, 143: 0.400599, 144: 3.619363, 145: 0.20761, 146: 1.149645, 147: 0.101047, 148: 0.154375, 149: 3.937948, 150: 3.144516, 151: 3.865974, 152: 1.065884, 153: 2.212538, 154: 3.304392, 155: 2.533331, 156: 1.773762, 157: 1.531252, 158: 1.361794, 159: 3.333186, 160: 0.918831, 161: 1.922078, 162: 0.558281, 163: 1.094846, 164: 0.290701, 165: 1.229762, 166: 0.8033169999999999, 167: 1.116793, 168: 2.466165, 169: 0.131201, 170: 2.392328, 171: 3.744312, 172: 0.920899, 173: 1.877793, 174: 3.362449, 175: 3.374611, 176: 3.935416, 177: 0.859164, 178: 3.716161, 179: 1.124843, 180: 0.054888, 181: 1.275595, 182: 0.922008, 183: 1.353163, 184: 1.61547, 185: 0.280847, 186: 3.340263, 187: 1.367608, 188: 0.309194, 189: 3.839405, 190: 0.285912, 191: 1.333052];
charge = [0: 0.8905960000000001, 1: 0.07445400000000001, 2: 0.36643, 3: 0.606326, 4: 0.471212, 5: 0.43661, 6: 0.300949, 7: 0.83923, 8: 0.39415, 9: 0.640442, 10: 0.281434, 11: 0.139541, 12: 0.51808, 13: 0.606368, 14: 0.43182, 15: 0.286229, 16: 0.321678, 17: 0.083436, 18: 0.231365, 19: 0.471278, 20: 0.736934, 21: 0.498778, 22: 0.969118, 23: 0.375593, 24: 0.690555, 25: 0.927401, 26: 0.582657, 27: 0.378309, 28: 0.8446129999999999, 29: 0.820619, 30: 0.319046, 31: 0.429631, 32: 0.545703, 33: 0.8667010000000001, 34: 0.317958, 35: 0.746345, 36: 0.859935, 37: 0.48783, 38: 0.528927, 39: 0.21163, 40: 0.139387, 41: 0.801624, 42: 0.659115, 43: 0.191579, 44: 0.397896, 45: 0.074504, 46: 0.858066, 47: 0.132907, 48: 0.781257, 49: 0.440961, 50: 0.689287, 51: 0.433812, 52: 0.220159, 53: 0.832936, 54: 0.819535, 55: 0.079744, 56: 0.945962, 57: 0.410129, 58: 0.319444, 59: 0.089292, 60: 0.435032, 61: 0.642286, 62: 0.653903, 63: 0.647034, 64: 0.791828, 65: 0.763019, 66: 0.193475, 67: 0.369808, 68: 0.214871, 69: 0.603668, 70: 0.362263, 71: 0.72596, 72: 0.901979, 73: 0.5278350000000001, 74: 0.556957, 75: 0.7508010000000001, 76: 0.063416, 77: 0.283743, 78: 0.66828, 79: 0.555578, 80: 0.898326, 81: 0.755201, 82: 0.157188, 83: 0.040219, 84: 0.8839630000000001, 85: 0.407276, 86: 0.867332, 87: 0.178683, 88: 0.872252, 89: 0.5816249999999999, 90: 0.632819, 91: 0.321286, 92: 0.9297260000000001, 93: 0.08699800000000001, 94: 0.759175, 95: 0.746689, 96: 0.81286, 97: 0.5920879999999999, 98: 0.489411, 99: 0.129782, 100: 0.187007, 101: 0.490949, 102: 0.606138, 103: 0.644242, 104: 0.462325, 105: 0.977908, 106: 0.970141, 107: 0.140099, 108: 0.293665, 109: 0.094013, 110: 0.960041, 111: 0.975181, 112: 0.317737, 113: 0.183151, 114: 0.378597, 115: 0.441733, 116: 0.797932, 117: 0.042615, 118: 0.757087, 119: 0.634505, 120: 0.502865, 121: 0.316117, 122: 0.919888, 123: 0.225616, 124: 0.358786, 125: 0.104871, 126: 0.282558, 127: 0.708175, 128: 0.122274, 129: 0.09580900000000001, 130: 0.497356, 131: 0.76657, 132: 0.314991, 133: 0.500429, 134: 0.619623, 135: 0.08953899999999999, 136: 0.935198, 137: 0.432677, 138: 0.489968, 139: 0.7247400000000001, 140: 0.317191, 141: 0.377215, 142: 0.757704, 143: 0.899817, 144: 0.808902, 145: 0.138847, 146: 0.232089, 147: 0.300138, 148: 0.161898, 149: 0.048869, 150: 0.444406, 151: 0.810947, 152: 0.876591, 153: 0.816207, 154: 0.388305, 155: 0.495637, 156: 0.225658, 157: 0.9781840000000001, 158: 0.046742, 159: 0.834219, 160: 0.941195, 161: 0.991588, 162: 0.8513579999999999, 163: 0.242531, 164: 0.948578, 165: 0.670314, 166: 0.9078580000000001, 167: 0.773004, 168: 0.975097, 169: 0.197441, 170: 0.300372, 171: 0.612783, 172: 0.069912, 173: 0.509814, 174: 0.852559, 175: 0.517351, 176: 0.5638649999999999, 177: 0.712081, 178: 0.968965, 179: 0.076101, 180: 0.073799, 181: 0.406925, 182: 0.532913, 183: 0.02952, 184: 0.051732, 185: 0.892751, 186: 0.928114, 187: 0.50334, 188: 0.79401, 189: 0.110385, 190: 0.261177, 191: 0.233808];
discharge = [0: 0.93712, 1: 0.025703, 2: 0.060281, 3: 0.494262, 4: 0.052105, 5: 0.180162, 6: 0.187954, 7: 0.91443, 8: 0.7853830000000001, 9: 0.954891, 10: 0.410486, 11: 0.109272, 12: 0.183798, 13: 0.890812, 14: 0.281555, 15: 0.423916, 16: 0.150599, 17: 0.6757570000000001, 18: 0.621565, 19: 0.851064, 20: 0.182874, 21: 0.197281, 22: 0.771609, 23: 0.604206, 24: 0.220914, 25: 0.46732, 26: 0.7351569999999999, 27: 0.626202, 28: 0.9085029999999999, 29: 0.088077, 30: 0.141757, 31: 0.050274, 32: 0.400809, 33: 0.800111, 34: 0.74591, 35: 0.300877, 36: 0.309151, 37: 0.369715, 38: 0.710055, 39: 0.995159, 40: 0.158441, 41: 0.570159, 42: 0.457733, 43: 0.631529, 44: 0.136302, 45: 0.900871, 46: 0.265559, 47: 0.323571, 48: 0.346595, 49: 0.100571, 50: 0.283381, 51: 0.401598, 52: 0.402536, 53: 0.374728, 54: 0.962691, 55: 0.432784, 56: 0.7159990000000001, 57: 0.499887, 58: 0.503355, 59: 0.231342, 60: 0.937199, 61: 0.640915, 62: 0.361908, 63: 0.474147, 64: 0.724531, 65: 0.704209, 66: 0.741846, 67: 0.333851, 68: 0.428393, 69: 0.791452, 70: 0.515887, 71: 0.495493, 72: 0.564823, 73: 0.390558, 74: 0.489685, 75: 0.177285, 76: 0.179194, 77: 0.823971, 78: 0.72366, 79: 0.613366, 80: 0.163281, 81: 0.404686, 82: 0.9301739999999999, 83: 0.359094, 84: 0.047246, 85: 0.834098, 86: 0.613299, 87: 0.487954, 88: 0.704889, 89: 0.315981, 90: 0.110711, 91: 0.190475, 92: 0.075949, 93: 0.464644, 94: 0.425681, 95: 0.306105, 96: 0.608079, 97: 0.038948, 98: 0.878746, 99: 0.047189, 100: 0.873251, 101: 0.774012, 102: 0.136483, 103: 0.751826, 104: 0.035884, 105: 0.843485, 106: 0.5574750000000001, 107: 0.137645, 108: 0.124358, 109: 0.168479, 110: 0.224771, 111: 0.104685, 112: 0.946792, 113: 0.705745, 114: 0.794355, 115: 0.7587390000000001, 116: 0.462383, 117: 0.5571, 118: 0.488807, 119: 0.467993, 120: 0.782999, 121: 0.920808, 122: 0.197467, 123: 0.753938, 124: 0.083569, 125: 0.936698, 126: 0.06420099999999999, 127: 0.863856, 128: 0.834206, 129: 0.228582, 130: 0.38408, 131: 0.815297, 132: 0.409967, 133: 0.121928, 134: 0.683037, 135: 0.938373, 136: 0.995637, 137: 0.469006, 138: 0.582839, 139: 0.346688, 140: 0.049111, 141: 0.8068149999999999, 142: 0.527295, 143: 0.15922, 144: 0.161892, 145: 0.94579, 146: 0.189459, 147: 0.349993, 148: 0.294861, 149: 0.958923, 150: 0.029736, 151: 0.980754, 152: 0.396433, 153: 0.585296, 154: 0.328433, 155: 0.297791, 156: 0.839011, 157: 0.8290999999999999, 158: 0.350837, 159: 0.763508, 160: 0.033445, 161: 0.599739, 162: 0.011785, 163: 0.823839, 164: 0.567962, 165: 0.62822, 166: 0.318511, 167: 0.26239, 168: 0.736578, 169: 0.849346, 170: 0.8102510000000001, 171: 0.735934, 172: 0.537174, 173: 0.322684, 174: 0.8032550000000001, 175: 0.796811, 176: 0.403548, 177: 0.549114, 178: 0.359098, 179: 0.348963, 180: 0.9652269999999999, 181: 0.31754, 182: 0.165512, 183: 0.625244, 184: 0.111942, 185: 0.089971, 186: 0.178678, 187: 0.211582, 188: 0.251612, 189: 0.224413, 190: 0.932761, 191: 0.006105];
soc = [0: 9.449012, 1: 9.655835, 2: 6.24635, 3: 8.886393999999999, 4: 6.888703, 5: 2.948641, 6: 8.922153, 7: 11.254461, 8: 10.630094, 9: 3.431523, 10: 5.806978, 11: 13.281102, 12: 13.738572, 13: 5.271011, 14: 11.980026, 15: 7.239257, 16: 13.074387, 17: 3.017314, 18: 5.731204, 19: 6.885994, 20: 10.979862, 21: 6.556354, 22: 10.104571, 23: 15.341662, 24: 8.826017, 25: 9.7051, 26: 4.12536, 27: 4.866167, 28: 15.346209, 29: 12.73508, 30: 4.529485, 31: 3.818852, 32: 11.435845, 33: 14.977878, 34: 6.046404, 35: 6.306597, 36: 6.493827, 37: 11.999656, 38: 9.099364, 39: 6.331264, 40: 4.337, 41: 9.153407, 42: 13.806408, 43: 7.175422, 44: 5.63266, 45: 5.193125, 46: 6.67079, 47: 5.781912, 48: 14.636702, 49: 3.739763, 50: 9.926000999999999, 51: 9.946503999999999, 52: 9.387468, 53: 15.329878, 54: 3.309711, 55: 10.401074, 56: 4.543115, 57: 4.366803, 58: 4.070382, 59: 9.07014, 60: 4.743367, 61: 11.095412, 62: 12.927959, 63: 8.947932, 64: 7.274136, 65: 3.973905, 66: 10.264091, 67: 9.996098, 68: 3.895002, 69: 12.039481, 70: 5.289294, 71: 9.887578, 72: 8.234731999999999, 73: 3.932605, 74: 5.356662, 75: 7.097732, 76: 11.697936, 77: 2.894153, 78: 12.274014, 79: 7.73735, 80: 3.826281, 81: 13.92936, 82: 5.821676, 83: 14.585677, 84: 11.96463, 85: 9.539342, 86: 9.443882, 87: 8.484230999999999, 88: 11.28845, 89: 7.78145, 90: 14.486185, 91: 14.037364, 92: 13.968058, 93: 4.871935, 94: 14.288224, 95: 5.849423, 96: 7.453052, 97: 13.965619, 98: 8.839325000000001, 99: 14.80788, 100: 8.398386, 101: 4.38789, 102: 14.394341, 103: 6.771547, 104: 13.576225, 105: 2.666029, 106: 5.481293, 107: 6.485393, 108: 14.580108, 109: 5.115311, 110: 10.735822, 111: 4.832301, 112: 4.106956, 113: 5.411254, 114: 6.380525, 115: 4.207504, 116: 3.935462, 117: 11.881018, 118: 10.109466, 119: 9.399509, 120: 14.161004, 121: 14.021929, 122: 9.281649, 123: 11.179948, 124: 2.947853, 125: 10.61639, 126: 3.26716, 127: 4.049391, 128: 12.934718, 129: 5.939498, 130: 13.423797, 131: 11.407336, 132: 10.050055, 133: 11.564162, 134: 4.993012, 135: 8.437464, 136: 9.145403999999999, 137: 4.584226, 138: 4.695687, 139: 15.388012, 140: 8.726305, 141: 10.060948, 142: 10.337261, 143: 14.727095, 144: 5.134953, 145: 11.986726, 146: 8.005701, 147: 12.166962, 148: 14.528374, 149: 13.697351, 150: 4.345924, 151: 7.524208, 152: 9.101537, 153: 5.833902, 154: 14.303718, 155: 10.76562, 156: 3.981276, 157: 10.481695, 158: 9.68281, 159: 10.198671, 160: 9.887319, 161: 7.436394, 162: 7.927986, 163: 11.250866, 164: 8.340778999999999, 165: 6.493022, 166: 6.686331, 167: 8.933551, 168: 14.080944, 169: 14.331025, 170: 2.737852, 171: 5.026578, 172: 8.883694999999999, 173: 10.590488, 174: 5.002061, 175: 6.855631, 176: 6.902824, 177: 9.378125000000001, 178: 14.410659, 179: 15.476928, 180: 10.779065, 181: 3.255686, 182: 9.211467000000001, 183: 3.665164, 184: 9.280010000000001, 185: 5.118666, 186: 4.580522, 187: 11.455769, 188: 9.876256, 189: 9.881558999999999, 190: 7.847132, 191: 6.411639];
cost = [0: 147.682879, 1: 352.065078, 2: 99.897138, 3: 70.70083099999999, 4: 88.62335, 5: 149.796108, 6: 416.806529, 7: 84.495311, 8: 347.147607, 9: 78.07294, 10: 542.287652, 11: 28.276631, 12: 101.961104, 13: 94.161057, 14: 277.115463, 15: 66.64028999999999, 16: 303.779926, 17: 273.315614, 18: 245.643918, 19: 28.931858, 20: 290.982183, 21: 452.458892, 22: 493.330226, 23: 399.213735, 24: 756.275143, 25: 417.805588, 26: 796.710989, 27: 454.734078, 28: 196.340792, 29: 442.674599, 30: 486.189249, 31: 196.768245, 32: 406.431522, 33: 148.760774, 34: 296.157257, 35: 382.56413, 36: 982.433544, 37: 521.906624, 38: 100.180405, 39: 193.533031, 40: 1170.780019, 41: 113.538205, 42: 162.870928, 43: 99.134736, 44: 1042.38382, 45: 915.59777, 46: 20.242881, 47: 458.217946, 48: 586.319093, 49: 850.179707, 50: 735.658127, 51: 824.645638, 52: 123.700842, 53: 267.200438, 54: 75.929143, 55: 352.809128, 56: 209.240865, 57: 234.757112, 58: 321.427816, 59: 383.15874, 60: 650.428085, 61: 281.623143, 62: 286.414954, 63: 268.269227, 64: 1129.471093, 65: 1167.88781, 66: 706.998682, 67: 702.618002, 68: 1139.277859, 69: 268.653391, 70: 371.018798, 71: 367.141348, 72: 501.188901, 73: 399.878828, 74: 446.529273, 75: 365.250414, 76: 614.4687259999999, 77: 195.830917, 78: 493.623066, 79: 1112.968376, 80: 639.359719, 81: 606.826633, 82: 456.673839, 83: 1169.05243, 84: 1028.607947, 85: 324.2967, 86: 913.299477, 87: 896.92233, 88: 123.015262, 89: 522.008417, 90: 498.439908, 91: 236.410906, 92: 138.339075, 93: 219.479055, 94: 253.274576, 95: 377.247726, 96: 471.431514, 97: 602.317173, 98: 296.847436, 99: 231.343698, 100: 544.3899, 101: 585.5804010000001, 102: 431.686238, 103: 591.830297, 104: 569.259393, 105: 190.792052, 106: 170.4604, 107: 416.321312, 108: 535.9952929999999, 109: 589.15389, 110: 186.594273, 111: 236.381004, 112: 219.063168, 113: 444.776268, 114: 11.061678, 115: 61.580116, 116: 582.068653, 117: 154.545732, 118: 186.802224, 119: 258.067759, 120: 77.87488399999999, 121: 758.54883, 122: 109.21358, 123: 1003.813651, 124: 94.685327, 125: 539.827244, 126: 1029.849417, 127: 1149.736153, 128: 1022.720955, 129: 825.496506, 130: 989.783487, 131: 819.392216, 132: 667.100314, 133: 1101.549633, 134: 93.43687799999999, 135: 1154.875495, 136: 439.960506, 137: 857.535104, 138: 10.18127, 139: 770.802136, 140: 1169.399604, 141: 230.382651, 142: 431.153033, 143: 1071.346408, 144: 504.586023, 145: 140.992877, 146: 404.679406, 147: 513.0672070000001, 148: 481.619112, 149: 51.696763, 150: 378.275729, 151: 540.765884, 152: 483.978333, 153: 334.596343, 154: 434.708033, 155: 460.712421, 156: 166.34673, 157: 519.190758, 158: 226.621805, 159: 931.058438, 160: 1055.464792, 161: 505.622004, 162: 779.601641, 163: 93.652241, 164: 478.522761, 165: 657.786867, 166: 393.28593, 167: 69.67153999999999, 168: 696.255808, 169: 317.480249, 170: 603.114829, 171: 628.1032, 172: 266.944848, 173: 934.389085, 174: 82.39971, 175: 827.814918, 176: 1070.46642, 177: 1171.12604, 178: 25.900567, 179: 1167.879227, 180: 646.537592, 181: 498.992691, 182: 514.485204, 183: 625.817143, 184: 0.339406, 185: 254.046258, 186: 185.225875, 187: 5.23046, 188: 118.444966, 189: 84.01207599999999, 190: 335.510184, 191: 186.201081];
earn = [0: 2.29597, 1: 0.193366, 2: 0.425989, 3: 1.548109, 4: 0.433803, 5: 0.164942, 6: 1.244257, 7: 2.281551, 8: 0.447412, 9: 0.085415, 10: 1.540262, 11: 2.025295, 12: 1.056183, 13: 0.303108, 14: 0.838788, 15: 1.11957, 16: 0.871407, 17: 2.341219, 18: 0.804983, 19: 1.227107, 20: 2.100512, 21: 1.655101, 22: 2.553834, 23: 2.089491, 24: 2.884533, 25: 1.382327, 26: 0.053494, 27: 2.408099, 28: 1.750157, 29: 3.358588, 30: 2.017888, 31: 1.942366, 32: 2.070067, 33: 2.699057, 34: 2.032789, 35: 1.538945, 36: 0.5779879999999999, 37: 0.534987, 38: 0.194032, 39: 0.04872, 40: 0.126132, 41: 0.937294, 42: 0.577044, 43: 0.489199, 44: 0.043468, 45: 0.033332, 46: 0.032749, 47: 0.037349, 48: 0.003742, 49: 0.052061, 50: 0.051544, 51: 0.013842, 52: 0.078386, 53: 0.172516, 54: 0.392532, 55: 0.377422, 56: 0.993275, 57: 0.186063, 58: 1.517568, 59: 1.370503, 60: 0.034872, 61: 0.865115, 62: 1.047466, 63: 1.106357, 64: 2.379503, 65: 1.853411, 66: 1.821296, 67: 1.72663, 68: 1.250171, 69: 2.009813, 70: 2.089288, 71: 0.884559, 72: 3.889069, 73: 0.669525, 74: 3.813517, 75: 2.256031, 76: 4.613757, 77: 2.873957, 78: 0.59022, 79: 0.774979, 80: 0.9182630000000001, 81: 2.570384, 82: 1.899346, 83: 1.278151, 84: 1.510803, 85: 2.380609, 86: 2.114385, 87: 1.37003, 88: 2.10318, 89: 2.150904, 90: 1.380118, 91: 1.965761, 92: 0.535525, 93: 2.161297, 94: 0.058166, 95: 1.707349, 96: 2.479883, 97: 2.276199, 98: 1.049432, 99: 0.69013, 100: 0.905621, 101: 2.029802, 102: 1.918207, 103: 2.103744, 104: 2.763062, 105: 0.195272, 106: 2.469767, 107: 2.439837, 108: 1.199435, 109: 2.78539, 110: 0.724028, 111: 1.778238, 112: 1.609868, 113: 1.492259, 114: 0.564922, 115: 2.60601, 116: 0.865733, 117: 0.886593, 118: 1.022584, 119: 1.34422, 120: 3.204426, 121: 2.465361, 122: 2.936141, 123: 0.085094, 124: 3.533322, 125: 2.939613, 126: 0.176983, 127: 0.240432, 128: 2.040011, 129: 0.144166, 130: 1.797094, 131: 1.339559, 132: 1.183024, 133: 0.983206, 134: 2.055386, 135: 2.152878, 136: 0.360257, 137: 0.222085, 138: 0.926809, 139: 0.306157, 140: 1.167378, 141: 0.695904, 142: 1.703987, 143: 1.13731, 144: 1.300249, 145: 0.7912439999999999, 146: 0.654575, 147: 0.26874, 148: 1.761561, 149: 0.427426, 150: 0.006569, 151: 1.578855, 152: 1.221044, 153: 1.412377, 154: 0.628186, 155: 0.84151, 156: 2.870842, 157: 1.638383, 158: 1.596041, 159: 2.489192, 160: 2.276469, 161: 0.370559, 162: 2.575152, 163: 2.817581, 164: 0.440466, 165: 1.09919, 166: 1.624957, 167: 2.804039, 168: 0.817963, 169: 3.732672, 170: 4.59355, 171: 2.636526, 172: 1.369114, 173: 4.248975, 174: 2.309285, 175: 1.207879, 176: 1.790215, 177: 0.827359, 178: 1.989957, 179: 1.048934, 180: 1.676351, 181: 3.248025, 182: 1.563109, 183: 0.954877, 184: 2.594631, 185: 0.560126, 186: 0.034957, 187: 0.533213, 188: 1.523402, 189: 1.16265, 190: 2.77064, 191: 1.599653];
total_cost = 87.65864833113443;
total_earn = 41.66306818367665;
