production = [0.0, 0.0, 0.0, 0.0, 0.0, 0.0, 0.0, 0.0, 0.0, 0.0, 0.0, 0.0, 0.0, 0.0, 0.0, 0.0, 0.0, 0.0, 0.0, 0.0, 0.0, 0.0, 0.0, 0.000372, 0.002309, 0.025058, 0.033862, 0.07245, 0.08136400000000001, 0.174501, 0.150861, 0.175103, 0.358984, 0.282213, 0.187015, 0.818062, 0.357733, 0.8587900000000001, 0.632844, 0.150057, 0.381027, 0.79414, 1.000363, 1.108703, 1.539141, 1.174192, 1.692841, 1.421751, 1.730431, 0.625367, 0.585972, 1.351025, 0.773901, 1.135904, 0.886043, 0.734509, 1.432453, 0.280206, 0.316289, 0.612738, 0.525168, 0.293898, 0.534427, 0.593479, 0.400158, 0.269328, 0.078962, 0.027513, 0.103335, 0.023123, 0.005909, 0.012015, 0.002382, 3.6e-05, 0.0, 0.0, 0.0, 0.0, 0.0, 0.0, 0.0, 0.0, 0.0, 0.0, 0.0, 0.0, 0.0, 0.0, 0.0, 0.0, 0.0, 0.0, 0.0, 0.0, 0.0, 0.0, 0.0, 0.0, 0.0, 0.0, 0.0, 0.0, 0.0, 0.0, 0.0, 0.0, 0.0, 0.0, 0.0, 0.0, 0.0, 0.0, 0.0, 0.0, 0.0, 0.0, 0.0, 0.0, 0.0, 0.000272, 0.00012, 0.001836, 0.025608, 0.049591, 0.081613, 0.02483, 0.115113, 0.069856, 0.056015, 0.109838, 0.169724, 0.126848, 0.06397, 0.192868, 0.222553, 0.320979, 0.31967, 0.107621, 0.5149589999999999, 0.401931, 0.094388, 0.338883, 0.100886, 0.014799, 0.159517, 0.295643, 0.350862, 0.282852, 0.2152, 0.059831, 0.148268, 0.200586, 0.201007, 0.180846, 0.127797, 0.003626, 0.116834, 0.158134, 0.014954, 0.030334, 0.059851, 0.060998, 0.146389, 0.073958, 0.070577, 0.032499, 0.011048, 0.001871, 0.0, 0.0, 0.0, 0.0, 0.0, 0.0, 0.0, 0.0, 0.0, 0.0, 0.0, 0.0, 0.0, 0.0, 0.0, 0.0, 0.0, 0.0, 0.0, 0.0, 0.0, 0.0, 0.0, 0.0];
buy = [800.101727, 676.623685, 442.949079, 698.587473, 611.441128, 273.72595, 525.655786, 789.355223, 594.3127030000001, 243.543405, 678.635476, 997.8096410000001, 164.973225, 370.064042, 582.128541, 729.65203, 710.867733, 437.633909, 443.193128, 347.07879, 908.293398, 557.855649, 187.625169, 998.833975, 883.200701, 760.998431, 29.477447, 153.69266, 826.245389, 891.669855, 451.080742, 400.839491, 756.17126, 122.666715, 81.870304, 736.67611, 762.85234, 753.917515, 596.552322, 856.658378, 894.846578, 493.765339, 85.885836, 882.701538, 738.860668, 113.687036, 343.058927, 406.031729, 751.936221, 307.051844, 873.307807, 962.210326, 646.064488, 423.161171, 508.623468, 718.757581, 117.927321, 898.692376, 838.521273, 817.148791, 370.029069, 659.573837, 863.241627, 24.646405, 714.438503, 37.575035, 278.270082, 68.79676000000001, 219.594229, 403.546306, 853.687965, 327.304336, 235.056699, 977.4021, 686.156305, 165.341902, 172.132399, 790.598062, 524.574706, 388.310483, 259.336516, 134.826884, 951.866335, 423.654691, 486.490134, 260.515267, 403.967341, 99.08121800000001, 951.084925, 587.902143, 395.453328, 600.510123, 31.043035, 548.861308, 489.258623, 870.557403, 130.111486, 450.382388, 926.404413, 299.233652, 848.885344, 129.22432, 246.151892, 440.740586, 171.437697, 994.630934, 889.639261, 593.685685, 198.757928, 376.327905, 37.393417, 350.266786, 12.877161, 621.390949, 379.013615, 931.545292, 211.114708, 416.626545, 480.771676, 836.148406, 896.363417, 107.173679, 672.474524, 198.312516, 668.632368, 794.862559, 143.653831, 223.359143, 4.07848, 956.554945, 884.443682, 950.550039, 539.0391990000001, 908.012022, 946.353179, 886.736879, 774.558948, 290.709293, 550.97887, 253.883775, 710.488662, 894.734662, 757.296374, 705.331574, 803.79336, 532.12287, 417.691186, 844.022614, 798.081891, 386.818223, 349.425135, 379.303969, 4.498179, 361.928298, 622.3429620000001, 957.453698, 385.320593, 540.71747, 497.269805, 79.633488, 572.494895, 388.928039, 351.870562, 701.847754, 663.391511, 78.313333, 391.146489, 934.771282, 570.018273, 879.469474, 429.180838, 940.722628, 672.18364, 590.902188, 600.681601, 429.151198, 283.708909, 40.724699, 259.672434, 786.371079, 749.624989, 36.3575, 784.789384, 50.059797, 420.225643, 283.286761, 729.52135, 10.718309, 869.205743, 842.576092, 634.0735089999999, 755.116822];
sell = [0.664027, 2.255088, 3.898686, 2.698596, 3.98442, 2.503174, 3.353663, 3.262371, 1.886809, 0.984059, 1.304815, 1.555631, 2.087812, 3.67338, 2.033916, 2.184634, 2.367041, 0.147211, 1.420504, 1.611966, 1.173752, 3.315989, 0.292543, 1.688931, 2.856889, 0.028361, 1.925551, 1.796298, 2.625535, 2.747862, 2.478906, 0.993164, 3.594522, 0.914878, 3.92518, 1.908642, 2.478369, 3.699823, 0.980615, 2.194505, 3.033383, 1.615807, 1.58986, 0.532386, 2.549386, 0.862386, 1.133958, 1.794005, 0.08763, 1.582611, 2.871031, 3.819867, 3.269296, 0.633772, 1.013435, 3.222266, 3.676486, 3.064645, 1.764722, 2.964468, 2.02772, 2.397728, 2.661189, 0.29884, 1.10827, 3.282311, 1.127883, 2.845426, 0.453895, 0.837098, 3.586986, 1.687986, 3.013267, 1.114817, 2.083487, 0.577515, 0.445876, 1.09577, 1.414936, 3.799323, 1.631191, 3.39114, 3.402313, 2.74702, 3.270629, 2.411524, 0.039245, 0.93136, 0.247307, 3.010596, 1.248132, 1.075661, 1.320959, 3.436997, 2.901526, 0.771567, 3.944239, 0.758683, 1.677623, 3.013112, 3.270331, 0.07682799999999999, 0.715309, 2.816743, 3.814988, 2.116144, 2.427538, 0.612774, 3.446792, 3.269465, 2.32999, 0.609727, 1.846961, 0.771681, 1.9896, 0.785633, 0.951332, 0.832261, 3.200263, 2.921035, 3.703654, 0.698304, 1.483185, 1.249961, 0.938076, 1.413122, 3.086649, 2.384257, 2.308927, 2.807933, 0.509332, 1.163751, 3.511286, 0.631919, 1.86234, 1.358099, 2.3444, 2.846876, 1.747849, 3.767241, 2.408141, 1.795933, 1.794541, 3.262405, 0.273946, 0.33209, 0.280815, 3.659876, 1.092762, 3.077741, 0.067305, 3.295417, 0.773841, 1.740814, 2.733828, 1.008292, 0.732341, 3.983888, 1.17929, 2.117319, 2.829197, 1.404236, 3.82854, 2.625582, 1.960102, 0.828049, 2.168174, 2.776804, 0.46165, 1.025782, 2.51811, 1.5275, 0.70633, 1.352738, 0.783341, 2.597514, 2.573108, 1.98848, 3.956552, 2.271553, 0.77255, 3.468292, 3.2228, 0.988026, 0.422823, 2.096458, 3.554049, 0.468097, 3.4206, 2.615467, 3.224526, 0.815784];
charge = [0.422042, 0.369656, 0.290256, 0.782265, 0.908826, 0.251066, 0.97207, 0.655233, 0.387239, 0.662382, 0.949028, 0.590316, 0.515806, 0.798499, 0.906257, 0.684038, 0.455871, 0.142903, 0.180946, 0.350447, 0.394687, 0.76222, 0.284977, 0.248444, 0.229656, 0.234642, 0.002384, 0.761402, 0.686627, 0.09088, 0.105502, 0.230549, 0.181486, 0.322905, 0.438907, 0.649179, 0.792917, 0.939149, 0.306533, 0.164944, 0.294072, 0.16386, 0.8724420000000001, 0.777468, 0.06899, 0.473686, 0.14565, 0.750995, 0.104735, 0.8274049999999999, 0.222435, 0.260339, 0.120757, 0.398078, 0.789083, 0.948262, 0.606395, 0.757301, 0.907332, 0.968352, 0.216365, 0.718332, 0.292179, 0.963819, 0.665571, 0.7638239999999999, 0.670787, 0.784934, 0.448229, 0.715551, 0.977399, 0.704322, 0.066182, 0.685953, 0.905033, 0.896602, 0.53942, 0.414556, 0.366004, 0.5907289999999999, 0.385562, 0.306888, 0.389672, 0.49096, 0.146118, 0.357654, 0.291451, 0.201417, 0.828572, 0.036493, 0.390935, 0.833147, 0.349833, 0.279923, 0.128939, 0.271731, 0.8200769999999999, 0.668279, 0.970204, 0.785789, 0.809643, 0.906461, 0.284151, 0.836473, 0.781594, 0.329646, 0.093109, 0.932937, 0.854216, 0.366627, 0.419389, 0.455314, 0.122534, 0.118072, 0.153319, 0.592931, 0.531566, 0.892448, 0.112369, 0.249645, 0.843845, 0.104803, 0.418581, 0.214884, 0.018268, 0.520842, 0.326711, 0.51993, 0.603252, 0.416937, 0.262637, 0.033908, 0.313612, 0.445536, 0.253547, 0.550574, 0.537128, 0.416554, 0.982297, 0.5102179999999999, 0.066603, 0.996549, 0.97465, 0.56923, 0.168535, 0.994911, 0.408636, 0.234296, 0.532256, 0.834036, 0.51585, 0.550862, 0.779982, 0.955033, 0.346468, 0.271973, 0.017153, 0.203207, 0.343037, 0.168798, 0.701866, 0.35412, 0.949994, 0.945845, 0.788115, 0.76441, 0.403843, 0.180562, 0.61915, 0.660514, 0.851588, 0.426789, 0.171342, 0.609206, 0.8609830000000001, 0.986154, 0.353941, 0.028363, 0.9098309999999999, 0.235797, 0.814093, 0.532338, 0.144326, 0.120314, 0.854419, 0.144258, 0.851495, 0.619196, 0.218515, 0.721264, 0.481804, 0.990466];
discharge = [0.111363, 0.018936, 0.471644, 0.5027239999999999, 0.052087, 0.109761, 0.88612, 0.237851, 0.040404, 0.138294, 0.015618, 0.062694, 0.788443, 0.623511, 0.839334, 0.520452, 0.790677, 0.7043, 0.924806, 0.305782, 0.07642599999999999, 0.145894, 0.103205, 0.009487000000000001, 0.912273, 0.920328, 0.846209, 0.681658, 0.439566, 0.314257, 0.549978, 0.971975, 0.806648, 0.424268, 0.035733, 0.228298, 0.713072, 0.132702, 0.960054, 0.701547, 0.013542, 0.460601, 0.712549, 0.962717, 0.6819460000000001, 0.331338, 0.262487, 0.491354, 0.637592, 0.443815, 0.371049, 0.287874, 0.910949, 0.03952, 0.470628, 0.929179, 0.894633, 0.513759, 0.157375, 0.892309, 0.6539199999999999, 0.423172, 0.137736, 0.702719, 0.5952769999999999, 0.389448, 0.013218, 0.924811, 0.208488, 0.31121, 0.552135, 0.573078, 0.606227, 0.377987, 0.354911, 0.376733, 0.882239, 0.6591630000000001, 0.7497779999999999, 0.557756, 0.688856, 0.60456, 0.219291, 0.541896, 0.212802, 0.368615, 0.942763, 0.965645, 0.053087, 0.415851, 0.552403, 0.798045, 0.7857499999999999, 0.8531, 0.419606, 0.397073, 0.219692, 0.7192269999999999, 0.62836, 0.63343, 0.912731, 0.611235, 0.553619, 0.328589, 0.977662, 0.55514, 0.759144, 0.087854, 0.770093, 0.332439, 0.645192, 0.968896, 0.289284, 0.811825, 0.456865, 0.722816, 0.483302, 0.951352, 0.794631, 0.501771, 0.994749, 0.018339, 0.954927, 0.572806, 0.374969, 0.269592, 0.091118, 0.9956739999999999, 0.6651280000000001, 0.885968, 0.7616270000000001, 0.38319, 0.313756, 0.046344, 0.268685, 0.521532, 0.134813, 0.82827, 0.888846, 0.917909, 0.753372, 0.552827, 0.046756, 0.050185, 0.190107, 0.955806, 0.83879, 0.10015, 0.209308, 0.338736, 0.090444, 0.610854, 0.80105, 0.501286, 0.057305, 0.35805, 0.9726089999999999, 0.871062, 0.737274, 0.23379, 0.09474, 0.830449, 0.5144879999999999, 0.722495, 0.488329, 0.596403, 0.217099, 0.569899, 0.39688, 0.971693, 0.692928, 0.858636, 0.689105, 0.185644, 0.205148, 0.301889, 0.032774, 0.451141, 0.244185, 0.100285, 0.114256, 0.19333, 0.551894, 0.960446, 0.784978, 0.750561, 0.309836, 0.274586, 0.988253, 0.021635, 0.950031, 0.173279];
soc = [8.782863000000001, 10.516875, 11.114252, 8.739004, 7.322654, 5.868113, 8.988263, 12.296357, 8.216574, 15.480539, 14.500404, 11.563927, 5.1062, 5.790236, 10.022389, 10.984583, 14.339273, 10.141077, 14.821545, 7.583416, 12.553805, 15.575939, 10.627509, 15.390916, 11.895209, 12.32125, 14.905316, 12.817794, 4.752189, 9.760928, 7.025603, 3.535842, 2.709551, 4.991167, 3.885079, 12.000667, 4.284541, 8.816007000000001, 13.792374, 8.078798000000001, 8.880694999999999, 12.203261, 7.151177, 3.518944, 7.364227, 7.018975, 8.250942999999999, 8.958648, 15.180647, 9.42271, 11.074898, 13.487293, 11.38698, 2.868195, 14.161433, 14.817828, 5.550268, 8.418227, 12.767071, 11.721418, 4.699603, 15.37359, 11.012687, 13.595742, 7.809092, 7.437228, 10.922623, 14.229912, 8.414621, 10.347871, 6.618975, 8.660334000000001, 15.295811, 4.554671, 13.121294, 11.538456, 11.007083, 14.759523, 8.951269, 11.445536, 13.053348, 7.443224, 4.826078, 9.17807, 4.410265, 3.415549, 6.52673, 4.430175, 7.757404, 8.844412, 3.547522, 14.815018, 5.27736, 8.644959999999999, 13.441174, 12.079506, 12.382464, 13.965304, 11.7452, 12.608873, 13.719259, 13.88034, 13.484151, 12.418823, 10.773164, 4.017998, 5.166773, 8.240304, 14.018997, 14.979051, 7.265132, 10.647052, 13.150717, 5.378453, 5.51124, 5.00935, 12.446206, 7.270237, 4.838502, 7.906944, 13.758233, 5.235903, 12.694568, 3.027409, 10.461963, 5.832906, 4.038345, 5.346526, 11.829674, 11.220064, 7.112534, 7.268929, 14.271974, 12.422388, 11.910103, 3.132164, 9.924123, 11.255907, 11.582016, 4.467052, 6.59148, 9.795662, 7.799394, 8.040449000000001, 11.561862, 10.204884, 14.54252, 6.960699, 8.309435000000001, 2.951975, 10.560007, 10.743647, 2.926593, 11.081216, 8.373279999999999, 15.176234, 7.592199, 4.505159, 15.315769, 5.533541, 14.470065, 9.746603, 13.518671, 13.247515, 4.327342, 14.46527, 11.571289, 9.884425, 14.044631, 8.836009000000001, 5.451182, 7.264684, 12.140005, 10.980336, 7.687535, 8.288055999999999, 6.533731, 9.109747, 13.284723, 10.201622, 7.209445, 4.196909, 3.116824, 13.912787, 8.025388, 3.702488, 15.612608, 6.962232, 6.953458, 3.846061, 4.918848, 13.146647];
cost = [193.19625, 419.293916, 463.602962, 72.155669, 121.545497, 54.775241, 136.100269, 71.713947, 284.700553, 122.526208, 420.126212, 341.625878, 265.31912, 92.443636, 180.037826, 174.602438, 290.726451, 313.38394, 231.341152, 456.97054, 76.924897, 508.637947, 606.324368, 399.591621, 122.054031, 594.218644, 963.1452430000001, 1078.529344, 105.567803, 1038.065893, 71.61421300000001, 920.547561, 562.270259, 446.025258, 626.257106, 225.970382, 55.151964, 1080.787078, 996.890093, 405.552191, 322.246215, 1109.846581, 271.52656, 482.315239, 770.7774899999999, 597.769768, 1047.771917, 702.210516, 428.387145, 330.785725, 163.158706, 170.387128, 503.989684, 578.040128, 226.029208, 522.4965560000001, 118.652776, 536.212276, 407.099005, 561.839569, 665.791142, 272.891804, 137.426435, 107.362999, 98.50896400000001, 389.913442, 516.82089, 694.391152, 733.875257, 1049.937286, 202.618621, 275.869055, 450.755801, 835.683059, 137.626503, 559.610285, 1091.42329, 1.535579, 1018.881598, 420.785197, 740.280205, 824.878996, 759.534568, 47.808349, 219.583995, 753.3956020000001, 167.682316, 281.54787, 224.826109, 64.048635, 570.795832, 294.257844, 53.543016, 232.37217, 178.851157, 163.719507, 99.287524, 440.974129, 443.44301, 421.896595, 32.663708, 39.557598, 205.594885, 553.470141, 384.170499, 277.005651, 266.302496, 424.217391, 563.6043079999999, 270.650177, 270.200911, 268.448681, 433.989424, 497.594869, 333.221257, 19.372607, 86.494308, 165.196536, 318.684786, 502.586186, 522.3232, 37.559923, 420.038121, 947.917132, 690.040566, 190.844329, 799.130643, 989.7343049999999, 840.5857119999999, 1136.779388, 216.062573, 1116.992619, 371.580152, 708.536207, 771.994328, 411.444744, 264.413755, 515.556901, 887.61735, 976.502039, 714.76546, 4.92984, 1184.516164, 568.930058, 690.161911, 843.819991, 579.878585, 1110.366439, 357.306144, 486.162773, 312.417368, 227.335467, 348.104494, 216.421984, 259.914059, 92.102293, 341.206151, 459.059475, 426.51148, 522.972807, 306.803579, 495.976767, 976.963352, 865.731102, 751.4150969999999, 632.213898, 805.153349, 837.755782, 903.624738, 55.329986, 785.058791, 289.504091, 129.646467, 1112.965469, 300.627032, 876.922457, 513.493165, 904.169444, 1165.488683, 590.517865, 12.66982, 239.558454, 489.90657, 400.106588, 42.501002, 569.501647, 40.721541, 576.4897999999999, 244.849456, 100.001199, 503.694717, 606.844066];
earn = [2.224568, 0.445054, 1.032193, 1.821863, 1.214131, 0.6798, 1.366072, 2.240525, 1.6329, 0.696402, 0.54237, 1.138274, 0.586079, 1.60041, 0.241028, 1.49327, 0.712758, 0.282619, 0.200853, 2.392794, 1.662685, 0.134966, 0.029293, 2.626757, 2.697169, 0.548814, 0.885811, 1.097077, 0.694991, 2.787784, 0.841865, 2.769224, 1.186593, 2.546729, 1.995534, 1.668908, 2.189121, 1.574926, 0.036848, 0.421352, 0.300756, 1.028794, 0.256671, 0.453352, 0.198105, 0.054924, 0.044686, 0.000906, 0.030047, 0.021534, 0.054753, 0.035152, 0.17591, 0.055781, 0.431274, 0.139743, 0.321344, 1.116322, 0.702744, 1.465835, 1.424465, 1.076441, 0.472135, 1.027169, 0.234403, 1.56209, 1.626982, 2.928314, 1.059751, 1.896843, 3.473397, 0.942427, 0.08572299999999999, 0.768304, 2.087121, 3.813461, 2.878576, 3.713317, 2.206676, 1.982231, 2.103617, 1.170049, 3.233286, 2.213645, 1.075925, 0.934797, 2.951611, 2.566327, 2.001514, 2.886383, 1.862465, 2.279878, 0.266282, 2.278558, 1.864609, 0.196487, 0.396004, 2.878818, 2.760921, 2.448665, 1.432251, 2.473006, 2.68376, 2.112391, 2.209706, 2.835151, 2.251463, 2.231397, 1.715244, 2.826009, 1.199387, 2.603906, 1.015519, 1.441871, 1.324333, 2.00231, 1.055609, 1.016476, 1.768958, 0.689426, 2.610251, 1.330571, 0.326959, 0.047914, 0.260984, 1.883715, 0.975564, 3.253512, 3.430052, 2.028297, 2.186216, 0.159215, 2.30779, 1.372764, 1.872788, 2.19282, 0.144621, 0.921346, 1.149004, 0.923134, 2.27438, 2.204726, 1.068898, 0.796488, 0.789563, 1.46891, 0.780549, 0.603759, 1.871816, 1.090611, 1.820501, 0.329696, 2.130665, 1.538665, 0.152549, 1.153408, 0.13748, 0.546336, 0.401432, 1.410935, 1.464676, 0.50812, 1.29249, 1.289758, 2.62101, 2.697595, 0.775072, 1.784862, 0.069785, 1.414573, 0.223022, 2.890694, 4.105922, 4.677552, 2.458423, 4.130347, 1.347332, 1.417064, 2.064271, 2.273291, 2.398745, 2.703119, 0.98548, 0.012551, 2.626931, 2.588375, 1.856021, 2.214288, 3.134145, 3.033994, 2.615454, 0.94146];
total_cost = 81.02449954216067;
total_earn = 42.86992482123104;
