production = [0: 0.0, 1: 0.0, 2: 0.0, 3: 0.0, 4: 0.0, 5: 0.0, 6: 0.0, 7: 0.0, 8: 0.0, 9: 0.0, 10: 0.0, 11: 0.0, 12: 0.0, 13: 0.0, 14: 0.0, 15: 0.0, 16: 0.0, 17: 0.0, 18: 0.0, 19: 0.0, 20: 0.0, 21: 0.0, 22: 0.0, 23: 0.000546, 24: 0.000436, 25: 0.009979, 26: 0.022421, 27: 0.027396, 28: 0.051592, 29: 0.006076, 30: 0.210084, 31: 0.177135, 32: 0.004151, 33: 0.06568499999999999, 34: 0.785308, 35: 0.506333, 36: 0.429371, 37: 0.186235, 38: 0.7435659999999999, 39: 0.542699, 40: 0.058495, 41: 0.268851, 42: 0.974673, 43: 1.064489, 44: 0.233161, 45: 0.145986, 46: 0.8781060000000001, 47: 0.005507, 48: 0.563738, 49: 0.509723, 50: 1.747585, 51: 1.178022, 52: 1.190132, 53: 0.623409, 54: 0.479694, 55: 0.155446, 56: 1.427754, 57: 0.467002, 58: 0.874017, 59: 0.767568, 60: 0.428884, 61: 0.049753, 62: 0.148613, 63: 0.345484, 64: 0.302345, 65: 0.118409, 66: 0.337774, 67: 0.106605, 68: 0.053143, 69: 0.02361, 70: 0.040149, 71: 0.008336, 72: 0.000932, 73: 0.000257, 74: 0.0, 75: 0.0, 76: 0.0, 77: 0.0, 78: 0.0, 79: 0.0, 80: 0.0, 81: 0.0, 82: 0.0, 83: 0.0, 84: 0.0, 85: 0.0, 86: 0.0, 87: 0.0, 88: 0.0, 89: 0.0, 90: 0.0, 91: 0.0, 92: 0.0, 93: 0.0, 94: 0.0, 95: 0.0, 96: 0.0, 97: 0.0, 98: 0.0, 99: 0.0, 100: 0.0, 101: 0.0, 102: 0.0, 103: 0.0, 104: 0.0, 105: 0.0, 106: 0.0, 107: 0.0, 108: 0.0, 109: 0.0, 110: 0.0, 111: 0.0, 112: 0.0, 113: 0.0, 114: 0.0, 115: 0.0, 116: 0.0, 117: 0.0, 118: 0.0, 119: 0.000169, 120: 0.000139, 121: 0.006171, 122: 0.007872000000000001, 123: 0.094011, 124: 0.006937, 125: 0.06625399999999999, 126: 0.093047, 127: 0.01562, 128: 0.053522, 129: 0.076459, 130: 0.173612, 131: 0.246288, 132: 0.134838, 133: 0.157122, 134: 0.107819, 135: 0.01665, 136: 0.448518, 137: 0.5469850000000001, 138: 0.568488, 139: 0.065841, 140: 0.140844, 141: 0.060786, 142: 0.195431, 143: 0.216268, 144: 0.267336, 145: 0.156211, 146: 0.234245, 147: 0.064599, 148: 0.232293, 149: 0.255484, 150: 0.194562, 151: 0.194319, 152: 0.079523, 153: 0.059623, 154: 0.186875, 155: 0.106132, 156: 0.043065, 157: 0.002604, 158: 0.148996, 159: 0.047611, 160: 0.171712, 161: 0.218074, 162: 0.079372, 163: 0.123177, 164: 0.057121, 165: 0.008928999999999999, 166: 0.007944, 167: 0.001183, 168: 0.0, 169: 0.0, 170: 0.0, 171: 0.0, 172: 0.0, 173: 0.0, 174: 0.0, 175: 0.0, 176: 0.0, 177: 0.0, 178: 0.0, 179: 0.0, 180: 0.0, 181: 0.0, 182: 0.0, 183: 0.0, 184: 0.0, 185: 0.0, 186: 0.0, 187: 0.0, 188: 0.0, 189: 0.0, 190: 0.0, 191: 0.0];
buy = [0: 206.62832, 1: 283.27073, 2: 955.758966, 3: 552.6831539999999, 4: 386.98328, 5: 208.243249, 6: 808.0817050000001, 7: 108.254206, 8: 517.292285, 9: 858.053838, 10: 413.42116, 11: 182.948661, 12: 477.511995, 13: 777.826757, 14: 456.349811, 15: 409.03187, 16: 723.281604, 17: 143.402176, 18: 525.370215, 19: 809.011919, 20: 675.374608, 21: 519.260219, 22: 888.922908, 23: 50.570909, 24: 764.4358130000001, 25: 140.884302, 26: 381.595491, 27: 63.415812, 28: 975.6299770000001, 29: 495.608889, 30: 294.769914, 31: 567.346947, 32: 570.455468, 33: 23.736959, 34: 518.911196, 35: 523.1242130000001, 36: 878.974874, 37: 838.256394, 38: 365.926897, 39: 542.696319, 40: 368.660399, 41: 607.833783, 42: 419.97727, 43: 496.027675, 44: 556.408897, 45: 557.071728, 46: 370.818256, 47: 244.991877, 48: 921.397382, 49: 609.918028, 50: 27.123274, 51: 77.393528, 52: 299.548175, 53: 273.227076, 54: 55.305568, 55: 757.64865, 56: 44.789188, 57: 976.369993, 58: 975.2991490000001, 59: 287.961179, 60: 846.3754750000001, 61: 667.340794, 62: 307.193547, 63: 264.405824, 64: 995.742293, 65: 4.774071, 66: 111.218962, 67: 836.9424320000001, 68: 747.402553, 69: 680.029054, 70: 463.805198, 71: 388.458385, 72: 852.480695, 73: 705.88361, 74: 689.903361, 75: 660.239672, 76: 205.86619, 77: 607.435021, 78: 906.440251, 79: 321.352967, 80: 678.43157, 81: 145.786799, 82: 564.74313, 83: 926.704111, 84: 469.462379, 85: 404.949018, 86: 924.200642, 87: 650.528072, 88: 713.085271, 89: 715.597877, 90: 766.7400239999999, 91: 471.870557, 92: 1.014967, 93: 227.54374, 94: 764.72522, 95: 914.372588, 96: 816.15041, 97: 96.36879500000001, 98: 553.930964, 99: 114.754015, 100: 656.153047, 101: 351.366466, 102: 745.258344, 103: 648.152621, 104: 182.84667, 105: 188.455, 106: 443.092204, 107: 943.867263, 108: 898.904859, 109: 630.8919540000001, 110: 759.64328, 111: 926.073079, 112: 527.841178, 113: 504.687089, 114: 62.406453, 115: 454.472931, 116: 375.131211, 117: 382.810248, 118: 548.860847, 119: 599.5331210000001, 120: 120.357051, 121: 676.337257, 122: 766.459085, 123: 972.635465, 124: 543.13726, 125: 588.525042, 126: 294.695513, 127: 190.031751, 128: 430.17579, 129: 719.460851, 130: 351.777883, 131: 528.499058, 132: 192.424144, 133: 890.407199, 134: 236.851602, 135: 863.191102, 136: 866.554537, 137: 981.747956, 138: 937.916255, 139: 525.47743, 140: 374.931875, 141: 142.009046, 142: 188.362956, 143: 556.519828, 144: 654.251481, 145: 638.25078, 146: 522.437551, 147: 637.048537, 148: 100.231972, 149: 776.78578, 150: 132.180523, 151: 944.980882, 152: 595.168627, 153: 203.362296, 154: 469.236006, 155: 669.5046599999999, 156: 222.020307, 157: 461.254149, 158: 888.37544, 159: 517.425282, 160: 218.744946, 161: 489.666876, 162: 404.056556, 163: 571.09629, 164: 210.821984, 165: 39.289318, 166: 955.652269, 167: 646.71342, 168: 836.579764, 169: 832.103818, 170: 615.7217429999999, 171: 140.987982, 172: 255.862136, 173: 761.379611, 174: 387.539496, 175: 735.187092, 176: 890.17879, 177: 398.850632, 178: 290.640685, 179: 371.119969, 180: 107.709126, 181: 608.916976, 182: 818.353412, 183: 434.503082, 184: 651.180124, 185: 756.033954, 186: 147.865721, 187: 722.958989, 188: 262.856484, 189: 29.312035, 190: 93.242052, 191: 684.981162];
sell = [0: 2.585635, 1: 1.069613, 2: 1.617896, 3: 2.150832, 4: 1.688421, 5: 2.411927, 6: 1.47452, 7: 2.626426, 8: 1.09372, 9: 3.209297, 10: 1.914901, 11: 1.103177, 12: 3.766768, 13: 2.316577, 14: 0.075198, 15: 1.032343, 16: 3.588625, 17: 2.960816, 18: 0.359935, 19: 1.108159, 20: 3.187989, 21: 0.317053, 22: 0.548027, 23: 1.028229, 24: 0.137754, 25: 3.731488, 26: 2.614661, 27: 2.659961, 28: 1.633946, 29: 1.25563, 30: 1.76336, 31: 0.712025, 32: 2.70153, 33: 1.015081, 34: 0.8489100000000001, 35: 0.67774, 36: 1.509112, 37: 3.689037, 38: 3.020324, 39: 0.0061, 40: 2.786747, 41: 3.105735, 42: 2.016875, 43: 2.114564, 44: 2.763175, 45: 1.017706, 46: 0.202781, 47: 3.743072, 48: 1.489969, 49: 3.908411, 50: 0.633541, 51: 0.037735, 52: 2.102495, 53: 0.138138, 54: 3.943899, 55: 1.422919, 56: 2.82704, 57: 0.451439, 58: 3.924297, 59: 2.906391, 60: 2.740753, 61: 1.38329, 62: 1.732961, 63: 2.285321, 64: 3.585363, 65: 1.429658, 66: 3.489302, 67: 2.112529, 68: 3.530745, 69: 3.079095, 70: 1.144399, 71: 3.325756, 72: 2.904502, 73: 3.542356, 74: 3.903871, 75: 1.869802, 76: 2.045698, 77: 1.369073, 78: 1.608386, 79: 2.294799, 80: 0.8176870000000001, 81: 3.774354, 82: 0.34873, 83: 1.272949, 84: 0.758931, 85: 2.573588, 86: 3.450174, 87: 1.71454, 88: 0.549787, 89: 1.64438, 90: 1.564283, 91: 3.617646, 92: 1.847375, 93: 0.560079, 94: 1.223892, 95: 3.161302, 96: 0.565755, 97: 2.913561, 98: 2.273989, 99: 0.646312, 100: 0.99884, 101: 2.788998, 102: 1.264348, 103: 3.438548, 104: 2.292117, 105: 1.004997, 106: 1.30934, 107: 3.062025, 108: 2.758671, 109: 1.380135, 110: 3.098613, 111: 2.951559, 112: 2.631341, 113: 2.221363, 114: 2.114172, 115: 3.686182, 116: 1.218961, 117: 3.562153, 118: 2.194494, 119: 0.976714, 120: 2.718598, 121: 3.359216, 122: 1.711809, 123: 3.304938, 124: 1.326149, 125: 0.309167, 126: 1.587476, 127: 0.803053, 128: 3.785066, 129: 3.271467, 130: 0.66245, 131: 0.674739, 132: 1.1012, 133: 3.12949, 134: 1.364534, 135: 2.869856, 136: 2.338687, 137: 2.21297, 138: 3.164134, 139: 1.237134, 140: 3.637026, 141: 1.788963, 142: 0.757978, 143: 0.369683, 144: 0.907749, 145: 3.055943, 146: 3.328887, 147: 3.742013, 148: 3.713475, 149: 1.278737, 150: 3.377236, 151: 3.387798, 152: 1.685827, 153: 3.35935, 154: 1.847811, 155: 1.951043, 156: 2.075991, 157: 2.650319, 158: 3.959667, 159: 0.529004, 160: 0.329157, 161: 1.609988, 162: 0.472521, 163: 1.826154, 164: 2.452394, 165: 3.390659, 166: 2.748005, 167: 1.176491, 168: 3.950202, 169: 3.403673, 170: 3.051843, 171: 0.342269, 172: 2.727932, 173: 1.001075, 174: 1.436654, 175: 3.264531, 176: 2.559317, 177: 1.731368, 178: 0.07419000000000001, 179: 1.60802, 180: 0.086982, 181: 1.745182, 182: 2.639963, 183: 3.541018, 184: 3.698862, 185: 2.056449, 186: 3.270437, 187: 2.566889, 188: 2.747901, 189: 2.243973, 190: 0.331417, 191: 1.586424];
charge = [0: 0.64117, 1: 0.60176, 2: 0.36045, 3: 0.071921, 4: 0.862049, 5: 0.437118, 6: 0.093087, 7: 0.484475, 8: 0.314615, 9: 0.486081, 10: 0.465392, 11: 0.944719, 12: 0.428479, 13: 0.999914, 14: 0.846573, 15: 0.770711, 16: 0.692642, 17: 0.045056, 18: 0.154111, 19: 0.829206, 20: 0.301491, 21: 0.316642, 22: 0.9290350000000001, 23: 0.622285, 24: 0.52717, 25: 0.7765649999999999, 26: 0.517948, 27: 0.229679, 28: 0.157688, 29: 0.557136, 30: 0.743763, 31: 0.864079, 32: 0.820605, 33: 0.396371, 34: 0.68768, 35: 0.925258, 36: 0.7197249999999999, 37: 0.413206, 38: 0.209146, 39: 0.645129, 40: 0.333665, 41: 0.153607, 42: 0.37262, 43: 0.054473, 44: 0.15558, 45: 0.25828, 46: 0.030024, 47: 0.964882, 48: 0.316563, 49: 0.148742, 50: 0.659439, 51: 0.725698, 52: 0.488373, 53: 0.563339, 54: 0.575157, 55: 0.433727, 56: 0.690782, 57: 0.042986, 58: 0.323539, 59: 0.235507, 60: 0.910793, 61: 0.333779, 62: 0.810178, 63: 0.075615, 64: 0.405407, 65: 0.176879, 66: 0.8852370000000001, 67: 0.947178, 68: 0.45518, 69: 0.241845, 70: 0.302426, 71: 0.720588, 72: 0.795083, 73: 0.062127, 74: 0.798239, 75: 0.10591, 76: 0.972232, 77: 0.366693, 78: 0.629513, 79: 0.243191, 80: 0.667723, 81: 0.473882, 82: 0.501528, 83: 0.602785, 84: 0.290195, 85: 0.338635, 86: 0.623818, 87: 0.548212, 88: 0.438095, 89: 0.503598, 90: 0.828311, 91: 0.327038, 92: 0.4512, 93: 0.221158, 94: 0.699504, 95: 0.58535, 96: 0.594267, 97: 0.93518, 98: 0.345647, 99: 0.191995, 100: 0.878767, 101: 0.886549, 102: 0.9475749999999999, 103: 0.603283, 104: 0.10839, 105: 0.742391, 106: 0.324498, 107: 0.901322, 108: 0.899786, 109: 0.425256, 110: 0.394981, 111: 0.237512, 112: 0.130398, 113: 0.642134, 114: 0.190446, 115: 0.108987, 116: 0.724789, 117: 0.218585, 118: 0.515998, 119: 0.307221, 120: 0.535685, 121: 0.7090649999999999, 122: 0.873695, 123: 0.326802, 124: 0.59315, 125: 0.09006599999999999, 126: 0.980687, 127: 0.836693, 128: 0.337179, 129: 0.729175, 130: 0.043796, 131: 0.484899, 132: 0.824008, 133: 0.09936499999999999, 134: 0.382948, 135: 0.061327, 136: 0.849978, 137: 0.035579, 138: 0.218546, 139: 0.6933280000000001, 140: 0.155601, 141: 0.02656, 142: 0.346143, 143: 0.417661, 144: 0.560157, 145: 0.579697, 146: 0.29822, 147: 0.579627, 148: 0.16247, 149: 0.691121, 150: 0.652438, 151: 0.383025, 152: 0.255512, 153: 0.188099, 154: 0.613226, 155: 0.275692, 156: 0.179054, 157: 0.870549, 158: 0.817336, 159: 0.871635, 160: 0.594429, 161: 0.650102, 162: 0.642356, 163: 0.837284, 164: 0.512872, 165: 0.9877359999999999, 166: 0.487447, 167: 0.411826, 168: 0.299649, 169: 0.127886, 170: 0.965846, 171: 0.996632, 172: 0.795996, 173: 0.483186, 174: 0.025847, 175: 0.153173, 176: 0.490187, 177: 0.644603, 178: 0.506812, 179: 0.187456, 180: 0.794314, 181: 0.432413, 182: 0.745386, 183: 0.797628, 184: 0.111214, 185: 0.913682, 186: 0.73117, 187: 0.576431, 188: 0.650065, 189: 0.217773, 190: 0.991966, 191: 0.432387];
discharge = [0: 0.845181, 1: 0.225069, 2: 0.847307, 3: 0.342444, 4: 0.21306, 5: 0.7694260000000001, 6: 0.985557, 7: 0.110871, 8: 0.573232, 9: 0.158137, 10: 0.191578, 11: 0.687482, 12: 0.935257, 13: 0.222561, 14: 0.961538, 15: 0.493489, 16: 0.994722, 17: 0.018702, 18: 0.50332, 19: 0.09976400000000001, 20: 0.614803, 21: 0.567192, 22: 0.770781, 23: 0.370462, 24: 0.337053, 25: 0.284029, 26: 0.358358, 27: 0.8452769999999999, 28: 0.49526, 29: 0.388904, 30: 0.351746, 31: 0.149796, 32: 0.477119, 33: 0.325933, 34: 0.935073, 35: 0.818701, 36: 0.284938, 37: 0.811411, 38: 0.707884, 39: 0.453256, 40: 0.5196730000000001, 41: 0.074077, 42: 0.627403, 43: 0.764145, 44: 0.45583, 45: 0.207317, 46: 0.708409, 47: 0.349448, 48: 0.29406, 49: 0.907411, 50: 0.793115, 51: 0.742656, 52: 0.201432, 53: 0.013059, 54: 0.850892, 55: 0.287132, 56: 0.37233, 57: 0.514582, 58: 0.602993, 59: 0.663579, 60: 0.333553, 61: 0.882668, 62: 0.564351, 63: 0.713659, 64: 0.231679, 65: 0.638282, 66: 0.982766, 67: 0.025165, 68: 0.675273, 69: 0.5144840000000001, 70: 0.633293, 71: 0.278517, 72: 0.5175920000000001, 73: 0.09518799999999999, 74: 0.173125, 75: 0.87304, 76: 0.9353399999999999, 77: 0.791056, 78: 0.29505, 79: 0.307816, 80: 0.367394, 81: 0.799367, 82: 0.468854, 83: 0.338511, 84: 0.106857, 85: 0.429517, 86: 0.562793, 87: 0.829569, 88: 0.743204, 89: 0.38491, 90: 0.581913, 91: 0.125944, 92: 0.872096, 93: 0.301133, 94: 0.784186, 95: 0.880355, 96: 0.397488, 97: 0.426729, 98: 0.715527, 99: 0.89916, 100: 0.831548, 101: 0.9287530000000001, 102: 0.493146, 103: 0.544822, 104: 0.576574, 105: 0.845967, 106: 0.813086, 107: 0.018143, 108: 0.136302, 109: 0.9469880000000001, 110: 0.55655, 111: 0.342646, 112: 0.075318, 113: 0.45025, 114: 0.059712, 115: 0.331199, 116: 0.028785, 117: 0.036457, 118: 0.670726, 119: 0.795036, 120: 0.589137, 121: 0.576904, 122: 0.267946, 123: 0.6159, 124: 0.658008, 125: 0.985008, 126: 0.506086, 127: 0.54831, 128: 0.852886, 129: 0.577392, 130: 0.839473, 131: 0.504169, 132: 0.729758, 133: 0.230751, 134: 0.720424, 135: 0.846521, 136: 0.488932, 137: 0.113017, 138: 0.855138, 139: 0.04847, 140: 0.216211, 141: 0.976519, 142: 0.994991, 143: 0.510971, 144: 0.379645, 145: 0.6703710000000001, 146: 0.328118, 147: 0.444096, 148: 0.068993, 149: 0.587825, 150: 0.7333499999999999, 151: 0.422966, 152: 0.659197, 153: 0.344022, 154: 0.322033, 155: 0.6978529999999999, 156: 0.121704, 157: 0.472362, 158: 0.95494, 159: 0.6047630000000001, 160: 0.510975, 161: 0.06517100000000001, 162: 0.968515, 163: 0.852817, 164: 0.101196, 165: 0.9744119999999999, 166: 0.071602, 167: 0.629903, 168: 0.881533, 169: 0.950568, 170: 0.394827, 171: 0.15357, 172: 0.601007, 173: 0.04981, 174: 0.797067, 175: 0.381108, 176: 0.151143, 177: 0.260176, 178: 0.315117, 179: 0.179969, 180: 0.023556, 181: 0.599208, 182: 0.678342, 183: 0.711132, 184: 0.142306, 185: 0.236613, 186: 0.141754, 187: 0.409089, 188: 0.960205, 189: 0.07094399999999999, 190: 0.017545, 191: 0.024567];
soc = [0: 9.14953, 1: 8.352194000000001, 2: 9.617425000000001, 3: 5.07603, 4: 7.68261, 5: 7.199005, 6: 3.328329, 7: 8.49094, 8: 10.168642, 9: 6.029851, 10: 12.234017, 11: 6.739345, 12: 7.95297, 13: 12.69068, 14: 4.046225, 15: 12.041278, 16: 11.366325, 17: 4.230536, 18: 11.093465, 19: 12.992451, 20: 15.232679, 21: 10.007125, 22: 14.011325, 23: 14.340212, 24: 8.925642, 25: 15.381397, 26: 6.873129, 27: 13.59302, 28: 3.921032, 29: 14.993162, 30: 12.465538, 31: 7.899698, 32: 12.48007, 33: 12.4933, 34: 9.583329000000001, 35: 10.858245, 36: 4.175722, 37: 9.020818999999999, 38: 8.624022, 39: 14.113525, 40: 7.161763, 41: 10.454578, 42: 3.160342, 43: 6.237054, 44: 9.188686000000001, 45: 2.969647, 46: 12.891364, 47: 3.55238, 48: 13.385016, 49: 8.451238999999999, 50: 14.544747, 51: 6.233954, 52: 10.156731, 53: 8.40626, 54: 6.895387, 55: 15.465257, 56: 10.682099, 57: 11.876014, 58: 7.383428, 59: 4.143982, 60: 13.010685, 61: 13.981279, 62: 3.743429, 63: 5.408127, 64: 3.692274, 65: 4.912345, 66: 14.55856, 67: 4.656643, 68: 12.900969, 69: 8.274240000000001, 70: 5.402137, 71: 10.782646, 72: 11.409898, 73: 10.101303, 74: 15.491573, 75: 12.435777, 76: 9.026031, 77: 6.321213, 78: 14.264252, 79: 7.528681, 80: 4.048808, 81: 14.924221, 82: 10.084388, 83: 6.614974, 84: 14.821044, 85: 15.160806, 86: 3.569546, 87: 6.089757, 88: 3.011043, 89: 10.14057, 90: 9.242001, 91: 4.375, 92: 10.698354, 93: 6.523847, 94: 13.607046, 95: 10.386663, 96: 4.710167, 97: 5.871785, 98: 12.234114, 99: 15.232362, 100: 6.039277, 101: 2.769584, 102: 7.805035, 103: 14.701731, 104: 6.558097, 105: 6.680056, 106: 5.128084, 107: 9.614661, 108: 12.875833, 109: 3.259739, 110: 7.628069, 111: 14.616904, 112: 11.335312, 113: 3.350704, 114: 12.494408, 115: 14.159589, 116: 5.241587, 117: 8.496306000000001, 118: 4.444562, 119: 14.79362, 120: 4.425296, 121: 12.109953, 122: 8.366405, 123: 12.227074, 124: 14.618043, 125: 14.545498, 126: 3.036019, 127: 7.58826, 128: 7.899526, 129: 10.840043, 130: 14.441775, 131: 9.471449, 132: 9.93887, 133: 6.045264, 134: 6.491578, 135: 9.087486999999999, 136: 9.286103000000001, 137: 6.714904, 138: 7.222671, 139: 7.373306, 140: 10.314628, 141: 10.428861, 142: 4.954065, 143: 8.440728, 144: 12.202619, 145: 13.215871, 146: 10.388307, 147: 7.043088, 148: 8.391465, 149: 2.872358, 150: 8.791041999999999, 151: 13.38329, 152: 6.083574, 153: 9.437112000000001, 154: 3.733526, 155: 15.137001, 156: 3.49516, 157: 12.448496, 158: 8.909534000000001, 159: 14.407381, 160: 6.403908, 161: 7.285068, 162: 4.234564, 163: 9.830795999999999, 164: 14.056256, 165: 4.582312, 166: 14.768897, 167: 10.789674, 168: 2.80334, 169: 10.359909, 170: 4.960465, 171: 12.494293, 172: 3.899231, 173: 8.703682000000001, 174: 6.666498, 175: 7.762414, 176: 5.0666, 177: 6.408047, 178: 10.896538, 179: 10.59064, 180: 8.803929999999999, 181: 10.042713, 182: 9.888585000000001, 183: 15.641038, 184: 7.990713, 185: 15.229774, 186: 12.413782, 187: 6.493479, 188: 7.561434, 189: 15.512313, 190: 5.60517, 191: 14.260683];
cost = [0: 563.505763, 1: 231.880361, 2: 99.330806, 3: 377.267838, 4: 306.011109, 5: 539.926839, 6: 215.875003, 7: 332.098354, 8: 412.022191, 9: 261.986193, 10: 478.498253, 11: 579.152613, 12: 455.91732, 13: 244.644302, 14: 349.161516, 15: 112.399647, 16: 173.099764, 17: 10.948995, 18: 411.109464, 19: 121.439771, 20: 240.860569, 21: 556.383338, 22: 193.395667, 23: 87.308966, 24: 619.100737, 25: 355.095979, 26: 1086.755179, 27: 773.010016, 28: 657.911783, 29: 416.582823, 30: 511.295413, 31: 741.247156, 32: 931.355893, 33: 261.539141, 34: 1.753798, 35: 265.76043, 36: 1064.120182, 37: 266.438032, 38: 111.233788, 39: 48.114743, 40: 50.760942, 41: 877.17246, 42: 1157.862386, 43: 494.96332, 44: 72.676137, 45: 487.613245, 46: 571.060692, 47: 918.00356, 48: 335.420757, 49: 392.05139, 50: 970.613391, 51: 1030.86744, 52: 265.423352, 53: 311.391622, 54: 81.383735, 55: 28.705611, 56: 527.682531, 57: 100.107195, 58: 444.950961, 59: 64.25774, 60: 743.7561009999999, 61: 310.328189, 62: 1080.802877, 63: 196.880234, 64: 655.759013, 65: 1100.52501, 66: 345.525258, 67: 1112.572459, 68: 548.952371, 69: 1071.619643, 70: 204.760621, 71: 876.643005, 72: 394.956213, 73: 710.026157, 74: 286.021848, 75: 600.291837, 76: 848.020889, 77: 1035.689975, 78: 441.265499, 79: 652.008526, 80: 389.581537, 81: 58.201888, 82: 1177.390295, 83: 239.23782, 84: 622.901628, 85: 443.910646, 86: 246.320999, 87: 935.8076610000001, 88: 242.34824, 89: 444.778426, 90: 18.909442, 91: 185.537318, 92: 258.509878, 93: 302.107214, 94: 385.241185, 95: 562.114904, 96: 471.988315, 97: 126.958307, 98: 555.323886, 99: 364.496152, 100: 162.851978, 101: 292.628744, 102: 251.114614, 103: 427.707944, 104: 601.38626, 105: 507.603917, 106: 483.709832, 107: 175.954471, 108: 377.036179, 109: 194.705849, 110: 408.152198, 111: 603.6214199999999, 112: 146.384536, 113: 95.918555, 114: 592.346537, 115: 496.654442, 116: 413.721677, 117: 436.13541, 118: 81.913871, 119: 156.288612, 120: 946.093359, 121: 425.030297, 122: 591.236995, 123: 661.310241, 124: 713.589892, 125: 830.760456, 126: 1083.983158, 127: 1139.273414, 128: 412.410218, 129: 885.016568, 130: 679.256648, 131: 976.484416, 132: 806.750493, 133: 990.052328, 134: 1095.79753, 135: 735.484566, 136: 413.734428, 137: 22.715181, 138: 420.814033, 139: 148.751686, 140: 41.752764, 141: 1165.945685, 142: 258.574114, 143: 837.386603, 144: 666.972704, 145: 835.34225, 146: 276.663323, 147: 990.4591349999999, 148: 210.234006, 149: 350.00365, 150: 561.117674, 151: 92.361465, 152: 131.637757, 153: 237.622835, 154: 397.210509, 155: 78.251081, 156: 830.641618, 157: 694.693353, 158: 898.094833, 159: 619.92175, 160: 1154.484796, 161: 1142.459246, 162: 297.238404, 163: 745.597957, 164: 234.12385, 165: 611.491732, 166: 23.850114, 167: 539.140177, 168: 228.607128, 169: 278.277862, 170: 753.991593, 171: 648.317123, 172: 431.055142, 173: 498.748504, 174: 495.026561, 175: 835.608834, 176: 207.760579, 177: 919.917786, 178: 334.941125, 179: 817.9243289999999, 180: 1184.515992, 181: 766.138751, 182: 738.03016, 183: 156.280909, 184: 289.857271, 185: 207.430404, 186: 595.007324, 187: 270.661302, 188: 502.279892, 189: 336.623124, 190: 524.065281, 191: 389.940606];
earn = [0: 0.772577, 1: 0.150644, 2: 1.661542, 3: 0.203068, 4: 1.066403, 5: 1.026518, 6: 0.659382, 7: 0.629798, 8: 1.469623, 9: 0.928488, 10: 0.862001, 11: 0.810589, 12: 1.223875, 13: 2.065989, 14: 1.779141, 15: 1.321091, 16: 0.277428, 17: 1.01345, 18: 2.069436, 19: 0.909203, 20: 0.17535, 21: 2.103526, 22: 1.590666, 23: 1.330091, 24: 2.473336, 25: 1.94329, 26: 3.056919, 27: 2.030608, 28: 3.321826, 29: 1.673593, 30: 2.209909, 31: 0.9600919999999999, 32: 1.297058, 33: 0.932321, 34: 0.001723, 35: 1.986037, 36: 1.657589, 37: 0.205214, 38: 0.663183, 39: 0.226874, 40: 0.699631, 41: 0.679464, 42: 0.085839, 43: 0.061114, 44: 0.045983, 45: 0.060334, 46: 0.039498, 47: 0.014215, 48: 0.029524, 49: 0.008784, 50: 0.047875, 51: 0.006319, 52: 0.043731, 53: 0.081939, 54: 0.424782, 55: 0.11357, 56: 0.788016, 57: 1.311094, 58: 1.108208, 59: 0.285565, 60: 1.96647, 61: 0.984049, 62: 0.390206, 63: 2.323821, 64: 0.030495, 65: 2.486739, 66: 2.636953, 67: 2.817729, 68: 2.487986, 69: 2.786006, 70: 1.558562, 71: 2.672665, 72: 2.506923, 73: 4.366764, 74: 2.393275, 75: 2.719547, 76: 2.188497, 77: 1.389442, 78: 0.312475, 79: 3.846012, 80: 3.086856, 81: 1.22553, 82: 1.121065, 83: 0.21382, 84: 0.457178, 85: 0.314891, 86: 2.882607, 87: 0.9381159999999999, 88: 2.777389, 89: 1.763654, 90: 0.503544, 91: 0.557673, 92: 0.822635, 93: 0.799325, 94: 1.331893, 95: 1.658492, 96: 2.306258, 97: 2.846969, 98: 0.356535, 99: 0.23069, 100: 0.397019, 101: 1.949444, 102: 1.117798, 103: 0.484138, 104: 0.641025, 105: 0.108468, 106: 0.556166, 107: 0.812659, 108: 1.739016, 109: 0.061793, 110: 0.562011, 111: 1.254731, 112: 0.671714, 113: 1.478208, 114: 1.62121, 115: 1.42288, 116: 1.742041, 117: 2.204849, 118: 0.8485009999999999, 119: 3.156773, 120: 0.386362, 121: 2.18523, 122: 1.660281, 123: 2.484872, 124: 3.808754, 125: 3.054808, 126: 3.161154, 127: 0.161553, 128: 1.262695, 129: 2.492309, 130: 2.032675, 131: 2.560998, 132: 2.288641, 133: 2.862953, 134: 0.331274, 135: 1.86757, 136: 0.069662, 137: 0.575, 138: 1.89958, 139: 0.110141, 140: 1.543598, 141: 0.805402, 142: 0.337994, 143: 1.519101, 144: 1.539781, 145: 0.325787, 146: 1.197285, 147: 1.88653, 148: 1.507758, 149: 1.184128, 150: 1.143039, 151: 2.413212, 152: 0.543959, 153: 2.374606, 154: 1.596485, 155: 1.929929, 156: 1.097736, 157: 1.939539, 158: 2.868174, 159: 1.602795, 160: 1.159888, 161: 2.770273, 162: 1.036914, 163: 3.363533, 164: 3.094906, 165: 3.607403, 166: 2.121376, 167: 1.366471, 168: 3.774092, 169: 2.450912, 170: 2.137078, 171: 4.778149, 172: 2.149336, 173: 1.891998, 174: 4.174466, 175: 1.099982, 176: 3.196668, 177: 0.411295, 178: 2.249616, 179: 0.18599, 180: 1.997534, 181: 2.155177, 182: 0.202646, 183: 0.53493, 184: 1.913629, 185: 1.554243, 186: 2.006464, 187: 2.383974, 188: 0.002474, 189: 1.021492, 190: 1.432158, 191: 2.238635];
total_cost = 91.99696882011311;
total_earn = 43.74157213152891;
