production = [0: 0.0, 1: 0.0, 2: 0.0, 3: 0.0, 4: 0.0, 5: 0.0, 6: 0.0, 7: 0.0, 8: 0.0, 9: 0.0, 10: 0.0, 11: 0.0, 12: 0.0, 13: 0.0, 14: 0.0, 15: 0.0, 16: 0.0, 17: 0.0, 18: 0.0, 19: 0.0, 20: 0.0, 21: 0.0, 22: 0.0, 23: 0.000352, 24: 0.005398, 25: 0.026173, 26: 0.009117999999999999, 27: 0.048727, 28: 0.055211, 29: 0.188872, 30: 0.186878, 31: 0.022163, 32: 0.421688, 33: 0.577645, 34: 0.166972, 35: 0.123904, 36: 0.662632, 37: 0.057778, 38: 0.48484, 39: 1.365682, 40: 0.734298, 41: 1.043779, 42: 0.681715, 43: 0.717459, 44: 0.756887, 45: 1.246021, 46: 0.894088, 47: 0.269872, 48: 0.444459, 49: 0.49836, 50: 0.172523, 51: 0.7196900000000001, 52: 0.826231, 53: 1.006554, 54: 1.407537, 55: 0.870538, 56: 0.406548, 57: 0.326324, 58: 0.589136, 59: 0.855523, 60: 0.270143, 61: 0.242286, 62: 0.337933, 63: 0.237829, 64: 0.23955, 65: 0.104732, 66: 0.121586, 67: 0.141384, 68: 0.065344, 69: 0.06872499999999999, 70: 0.029518, 71: 0.003094, 72: 0.003237, 73: 5.6e-05, 74: 0.0, 75: 0.0, 76: 0.0, 77: 0.0, 78: 0.0, 79: 0.0, 80: 0.0, 81: 0.0, 82: 0.0, 83: 0.0, 84: 0.0, 85: 0.0, 86: 0.0, 87: 0.0, 88: 0.0, 89: 0.0, 90: 0.0, 91: 0.0, 92: 0.0, 93: 0.0, 94: 0.0, 95: 0.0, 96: 0.0, 97: 0.0, 98: 0.0, 99: 0.0, 100: 0.0, 101: 0.0, 102: 0.0, 103: 0.0, 104: 0.0, 105: 0.0, 106: 0.0, 107: 0.0, 108: 0.0, 109: 0.0, 110: 0.0, 111: 0.0, 112: 0.0, 113: 0.0, 114: 0.0, 115: 0.0, 116: 0.0, 117: 0.0, 118: 0.0, 119: 0.000226, 120: 3.9e-05, 121: 0.029413, 122: 0.04519, 123: 0.001271, 124: 0.04759, 125: 0.015494, 126: 0.018693, 127: 0.071532, 128: 0.08695700000000001, 129: 0.046455, 130: 0.168668, 131: 0.174418, 132: 0.057539, 133: 0.023681, 134: 0.221359, 135: 0.461976, 136: 0.193957, 137: 0.473104, 138: 0.46, 139: 0.180849, 140: 0.002171, 141: 0.074394, 142: 0.264678, 143: 0.222967, 144: 0.102165, 145: 0.181889, 146: 0.261768, 147: 0.055507, 148: 0.105501, 149: 0.204643, 150: 0.065979, 151: 0.016087, 152: 0.011134, 153: 0.042114, 154: 0.176611, 155: 0.058625, 156: 0.154194, 157: 0.08447300000000001, 158: 0.170337, 159: 0.06716, 160: 0.086145, 161: 0.067633, 162: 0.108572, 163: 0.056157, 164: 0.047285, 165: 0.048188, 166: 0.008527, 167: 0.001593, 168: 0.0, 169: 0.0, 170: 0.0, 171: 0.0, 172: 0.0, 173: 0.0, 174: 0.0, 175: 0.0, 176: 0.0, 177: 0.0, 178: 0.0, 179: 0.0, 180: 0.0, 181: 0.0, 182: 0.0, 183: 0.0, 184: 0.0, 185: 0.0, 186: 0.0, 187: 0.0, 188: 0.0, 189: 0.0, 190: 0.0, 191: 0.0];
buy = [0: 460.222261, 1: 853.436097, 2: 197.874193, 3: 530.068687, 4: 449.237599, 5: 472.494864, 6: 213.718737, 7: 533.471855, 8: 686.6856749999999, 9: 42.669628, 10: 323.975788, 11: 585.212542, 12: 361.569582, 13: 765.01541, 14: 627.910545, 15: 0.998028, 16: 942.212179, 17: 964.127786, 18: 35.975108, 19: 581.259946, 20: 381.657403, 21: 321.848124, 22: 615.703728, 23: 329.427862, 24: 247.941579, 25: 893.2791580000001, 26: 170.465067, 27: 838.337611, 28: 894.582284, 29: 599.0826070000001, 30: 379.445348, 31: 804.199603, 32: 821.979005, 33: 173.250442, 34: 744.692524, 35: 798.438341, 36: 22.544616, 37: 11.266354, 38: 485.591882, 39: 648.900353, 40: 454.425818, 41: 910.698918, 42: 259.40033, 43: 700.250585, 44: 264.358665, 45: 433.680519, 46: 73.26039900000001, 47: 380.670305, 48: 483.016797, 49: 284.211467, 50: 934.689556, 51: 96.78530600000001, 52: 945.091337, 53: 608.467934, 54: 832.71811, 55: 665.613202, 56: 987.241885, 57: 814.423481, 58: 572.6502829999999, 59: 593.077239, 60: 898.239014, 61: 69.74462, 62: 397.069293, 63: 407.050577, 64: 446.601713, 65: 768.402458, 66: 825.2388999999999, 67: 889.773972, 68: 802.344279, 69: 500.101864, 70: 963.926436, 71: 505.95112, 72: 908.142545, 73: 950.940949, 74: 488.304134, 75: 769.9595880000001, 76: 822.635675, 77: 345.746974, 78: 52.44914, 79: 875.050297, 80: 223.775077, 81: 744.38099, 82: 804.076019, 83: 198.309555, 84: 78.330281, 85: 408.997824, 86: 6.756009, 87: 2.428502, 88: 559.919086, 89: 770.210554, 90: 733.6745100000001, 91: 555.216639, 92: 1.741371, 93: 965.508294, 94: 224.709647, 95: 321.294139, 96: 532.653369, 97: 207.11452, 98: 15.112764, 99: 743.704938, 100: 573.479595, 101: 613.462566, 102: 277.5576, 103: 612.789205, 104: 311.452962, 105: 447.792996, 106: 7.154841, 107: 20.066791, 108: 656.695025, 109: 360.073157, 110: 816.514421, 111: 837.175422, 112: 881.700551, 113: 218.380514, 114: 160.357767, 115: 386.633102, 116: 236.556089, 117: 680.167951, 118: 340.383579, 119: 545.343691, 120: 979.637523, 121: 721.213183, 122: 990.7889730000001, 123: 17.97052, 124: 254.693926, 125: 847.169723, 126: 848.090097, 127: 994.066252, 128: 948.861238, 129: 879.668714, 130: 485.991113, 131: 422.459521, 132: 535.988026, 133: 348.594811, 134: 838.076817, 135: 80.662633, 136: 648.912478, 137: 104.320361, 138: 568.097804, 139: 179.213238, 140: 786.975594, 141: 705.743302, 142: 674.152336, 143: 296.361015, 144: 35.27896, 145: 154.617724, 146: 740.161391, 147: 50.587195, 148: 542.935109, 149: 28.363513, 150: 821.622775, 151: 20.099368, 152: 809.4173510000001, 153: 358.967146, 154: 524.647316, 155: 23.225378, 156: 938.406279, 157: 614.76526, 158: 925.123331, 159: 875.939106, 160: 162.327714, 161: 707.60076, 162: 157.179535, 163: 243.096218, 164: 342.606215, 165: 244.633719, 166: 775.096799, 167: 323.11262, 168: 822.984233, 169: 823.8414330000001, 170: 870.419456, 171: 236.597305, 172: 918.4522470000001, 173: 837.120886, 174: 336.548386, 175: 615.5478859999999, 176: 174.593942, 177: 22.160975, 178: 965.5799009999999, 179: 198.939984, 180: 57.82212, 181: 561.89422, 182: 318.652033, 183: 491.877738, 184: 207.682904, 185: 800.087407, 186: 498.004722, 187: 790.513119, 188: 595.6921129999999, 189: 997.909687, 190: 76.14637, 191: 958.12911];
sell = [0: 0.207689, 1: 2.996687, 2: 2.576982, 3: 2.295452, 4: 0.172975, 5: 1.992452, 6: 1.943247, 7: 0.275274, 8: 2.960255, 9: 0.251679, 10: 1.211773, 11: 2.917606, 12: 0.593032, 13: 1.287013, 14: 2.542382, 15: 2.313118, 16: 3.078116, 17: 2.640289, 18: 0.491241, 19: 0.782453, 20: 0.735924, 21: 1.348051, 22: 2.035198, 23: 3.07046, 24: 0.031981, 25: 3.248446, 26: 0.905245, 27: 2.882622, 28: 2.807699, 29: 0.920829, 30: 2.426467, 31: 0.831165, 32: 2.666683, 33: 0.394139, 34: 0.107211, 35: 3.768886, 36: 2.140587, 37: 0.833237, 38: 2.241579, 39: 3.734899, 40: 3.109041, 41: 1.336255, 42: 1.176256, 43: 2.835998, 44: 0.707514, 45: 0.854063, 46: 2.78675, 47: 2.77743, 48: 1.648236, 49: 3.465221, 50: 0.843683, 51: 0.209423, 52: 2.365189, 53: 3.031151, 54: 2.818971, 55: 1.519059, 56: 2.727246, 57: 2.456019, 58: 1.220344, 59: 1.450915, 60: 1.879331, 61: 3.320925, 62: 2.616682, 63: 0.701572, 64: 2.740428, 65: 2.981999, 66: 2.289933, 67: 0.493855, 68: 1.859848, 69: 1.183099, 70: 2.228976, 71: 0.510351, 72: 0.817462, 73: 0.307134, 74: 2.935493, 75: 1.151791, 76: 0.770743, 77: 0.826919, 78: 1.166335, 79: 2.842165, 80: 3.070049, 81: 2.236088, 82: 2.167487, 83: 2.669379, 84: 2.086736, 85: 0.9159389999999999, 86: 3.671402, 87: 3.932309, 88: 1.347266, 89: 3.384811, 90: 3.652301, 91: 3.487638, 92: 0.677083, 93: 0.04419, 94: 1.559453, 95: 1.069054, 96: 1.365182, 97: 2.012476, 98: 0.101951, 99: 2.261207, 100: 0.072085, 101: 2.820949, 102: 2.5836, 103: 2.357348, 104: 1.64839, 105: 3.877023, 106: 1.415448, 107: 1.677844, 108: 0.647404, 109: 3.352862, 110: 0.062047, 111: 0.9279500000000001, 112: 0.444236, 113: 3.596262, 114: 0.728555, 115: 2.30553, 116: 2.89298, 117: 2.135361, 118: 2.888814, 119: 2.345064, 120: 3.872556, 121: 3.749111, 122: 2.574769, 123: 2.987443, 124: 3.578125, 125: 0.854088, 126: 0.628557, 127: 1.981794, 128: 3.69525, 129: 3.563319, 130: 1.377458, 131: 0.984564, 132: 2.444675, 133: 3.200619, 134: 0.66093, 135: 3.338937, 136: 1.279011, 137: 2.229023, 138: 1.125086, 139: 2.673293, 140: 0.753416, 141: 3.115161, 142: 2.515257, 143: 2.034636, 144: 0.184724, 145: 3.955664, 146: 3.014184, 147: 3.141717, 148: 1.871589, 149: 2.703621, 150: 3.862877, 151: 3.976358, 152: 1.402528, 153: 3.784375, 154: 2.61551, 155: 3.555234, 156: 0.921634, 157: 3.97485, 158: 0.8385089999999999, 159: 2.295912, 160: 1.742338, 161: 2.518464, 162: 1.259925, 163: 2.527974, 164: 1.049562, 165: 3.611512, 166: 3.908108, 167: 1.336268, 168: 3.145318, 169: 0.31069, 170: 3.946899, 171: 0.092901, 172: 0.541146, 173: 3.131577, 174: 1.180611, 175: 2.10596, 176: 2.739179, 177: 2.558453, 178: 2.502379, 179: 1.664895, 180: 2.053409, 181: 3.753593, 182: 0.295833, 183: 2.399798, 184: 3.930184, 185: 1.610881, 186: 0.689338, 187: 3.797003, 188: 1.496576, 189: 3.164187, 190: 2.0257, 191: 1.624313];
charge = [0: 0.013553, 1: 0.407018, 2: 0.64755, 3: 0.761222, 4: 0.909019, 5: 0.746711, 6: 0.560005, 7: 0.184207, 8: 0.8481109999999999, 9: 0.872447, 10: 0.15942, 11: 0.140984, 12: 0.333789, 13: 0.184647, 14: 0.139939, 15: 0.032591, 16: 0.852826, 17: 0.144456, 18: 0.502729, 19: 0.403297, 20: 0.846214, 21: 0.475044, 22: 0.391588, 23: 0.759159, 24: 0.5734669999999999, 25: 0.888639, 26: 0.9618679999999999, 27: 0.270639, 28: 0.883599, 29: 0.741733, 30: 0.944971, 31: 0.334554, 32: 0.03129, 33: 0.08694, 34: 0.7490790000000001, 35: 0.178602, 36: 0.09034200000000001, 37: 0.821471, 38: 0.35858, 39: 0.117109, 40: 0.564412, 41: 0.80344, 42: 0.973639, 43: 0.402468, 44: 0.660572, 45: 0.375806, 46: 0.9615320000000001, 47: 0.056931, 48: 0.5817870000000001, 49: 0.914627, 50: 0.118214, 51: 0.512841, 52: 0.776927, 53: 0.010193, 54: 0.541395, 55: 0.884612, 56: 0.090291, 57: 0.05382, 58: 0.043502, 59: 0.195218, 60: 0.441025, 61: 0.892562, 62: 0.004905, 63: 0.652331, 64: 0.509734, 65: 0.656416, 66: 0.594486, 67: 0.126279, 68: 0.184201, 69: 0.6539239999999999, 70: 0.936659, 71: 0.765785, 72: 0.232031, 73: 0.8768359999999999, 74: 0.569551, 75: 0.545601, 76: 0.607783, 77: 0.78808, 78: 0.049126, 79: 0.764215, 80: 0.19728, 81: 0.247063, 82: 0.074514, 83: 0.733735, 84: 0.098429, 85: 0.732948, 86: 0.357685, 87: 0.143613, 88: 0.924749, 89: 0.241483, 90: 0.936783, 91: 0.438583, 92: 0.357032, 93: 0.362646, 94: 0.392307, 95: 0.192171, 96: 0.935965, 97: 0.665781, 98: 0.6598810000000001, 99: 0.5789879999999999, 100: 0.295904, 101: 0.280157, 102: 0.743541, 103: 0.80802, 104: 0.529748, 105: 0.711506, 106: 0.722272, 107: 0.387948, 108: 0.915917, 109: 0.937961, 110: 0.968507, 111: 0.885703, 112: 0.498581, 113: 0.328555, 114: 0.296217, 115: 0.318515, 116: 0.673154, 117: 0.715399, 118: 0.232199, 119: 0.38567, 120: 0.199347, 121: 0.550686, 122: 0.965512, 123: 0.987009, 124: 0.414149, 125: 0.613834, 126: 0.618733, 127: 0.459675, 128: 0.200521, 129: 0.329536, 130: 0.423876, 131: 0.252688, 132: 0.255146, 133: 0.287432, 134: 0.300095, 135: 0.43879, 136: 0.599186, 137: 0.429327, 138: 0.534933, 139: 0.058651, 140: 0.519483, 141: 0.7691519999999999, 142: 0.450586, 143: 0.8195170000000001, 144: 0.14057, 145: 0.28568, 146: 0.537342, 147: 0.045513, 148: 0.860416, 149: 0.901597, 150: 0.132209, 151: 0.309377, 152: 0.268057, 153: 0.024261, 154: 0.350566, 155: 0.998625, 156: 0.978254, 157: 0.909004, 158: 0.08125599999999999, 159: 0.717861, 160: 0.391153, 161: 0.91315, 162: 0.681863, 163: 0.593607, 164: 0.491739, 165: 0.975618, 166: 0.437424, 167: 0.338546, 168: 0.322306, 169: 0.727931, 170: 0.215754, 171: 0.972097, 172: 0.34563, 173: 0.440044, 174: 0.813064, 175: 0.981669, 176: 0.128619, 177: 0.81001, 178: 0.458046, 179: 0.410082, 180: 0.788201, 181: 0.879953, 182: 0.474593, 183: 0.87471, 184: 0.288353, 185: 0.930544, 186: 0.109717, 187: 0.409589, 188: 0.099652, 189: 0.12074, 190: 0.604387, 191: 0.174598];
discharge = [0: 0.692872, 1: 0.688087, 2: 0.130529, 3: 0.845426, 4: 0.309537, 5: 0.092644, 6: 0.302038, 7: 0.109355, 8: 0.201874, 9: 0.725729, 10: 0.304816, 11: 0.450623, 12: 0.470739, 13: 0.882561, 14: 0.875089, 15: 0.969512, 16: 0.391664, 17: 0.903788, 18: 0.342086, 19: 0.5032759999999999, 20: 0.077602, 21: 0.642712, 22: 0.769493, 23: 0.078444, 24: 0.76978, 25: 0.5741039999999999, 26: 0.082884, 27: 0.953724, 28: 0.301918, 29: 0.408893, 30: 0.437581, 31: 0.59263, 32: 0.468768, 33: 0.235369, 34: 0.541677, 35: 0.306707, 36: 0.501366, 37: 0.995181, 38: 0.5767060000000001, 39: 0.200515, 40: 0.735966, 41: 0.69634, 42: 0.728407, 43: 0.107405, 44: 0.063349, 45: 0.036174, 46: 0.941554, 47: 0.898814, 48: 0.699331, 49: 0.934933, 50: 0.578929, 51: 0.071355, 52: 0.715368, 53: 0.07353899999999999, 54: 0.566692, 55: 0.340682, 56: 0.9264, 57: 0.514271, 58: 0.002664, 59: 0.131643, 60: 0.278064, 61: 0.019663, 62: 0.475735, 63: 0.553675, 64: 0.376394, 65: 0.912802, 66: 0.978175, 67: 0.477581, 68: 0.209947, 69: 0.040193, 70: 0.481751, 71: 0.339231, 72: 0.157211, 73: 0.590314, 74: 0.439353, 75: 0.704201, 76: 0.9348880000000001, 77: 0.6021339999999999, 78: 0.872426, 79: 0.9627, 80: 0.964994, 81: 0.6667419999999999, 82: 0.398231, 83: 0.986792, 84: 0.192493, 85: 0.597593, 86: 0.351844, 87: 0.549578, 88: 0.541777, 89: 0.013955, 90: 0.599104, 91: 0.707948, 92: 0.800287, 93: 0.408551, 94: 0.329885, 95: 0.874746, 96: 0.418074, 97: 0.5597259999999999, 98: 0.799047, 99: 0.944407, 100: 0.036075, 101: 0.964755, 102: 0.686131, 103: 0.623625, 104: 0.272186, 105: 0.916075, 106: 0.393297, 107: 0.333134, 108: 0.754683, 109: 0.577809, 110: 0.757265, 111: 0.875183, 112: 0.648066, 113: 0.716342, 114: 0.025724, 115: 0.905826, 116: 0.016075, 117: 0.506024, 118: 0.437424, 119: 0.150978, 120: 0.4906, 121: 0.411713, 122: 0.252834, 123: 0.821935, 124: 0.463293, 125: 0.043969, 126: 0.827377, 127: 0.457466, 128: 0.219312, 129: 0.465823, 130: 0.277814, 131: 0.870856, 132: 0.497845, 133: 0.57569, 134: 0.103479, 135: 0.629925, 136: 0.768505, 137: 0.559885, 138: 0.192705, 139: 0.191954, 140: 0.116009, 141: 0.765018, 142: 0.9175720000000001, 143: 0.862202, 144: 0.820289, 145: 0.39201, 146: 0.202034, 147: 0.191065, 148: 0.006907, 149: 0.315882, 150: 0.559763, 151: 0.813308, 152: 0.992083, 153: 0.244181, 154: 0.306465, 155: 0.472999, 156: 0.643981, 157: 0.074457, 158: 0.393382, 159: 0.461264, 160: 0.834853, 161: 0.941699, 162: 0.090183, 163: 0.900591, 164: 0.499952, 165: 0.809372, 166: 0.579987, 167: 0.714024, 168: 0.643963, 169: 0.982366, 170: 0.209873, 171: 0.429008, 172: 0.191068, 173: 0.687037, 174: 0.748212, 175: 0.820142, 176: 0.864194, 177: 0.527529, 178: 0.581532, 179: 0.427637, 180: 0.365866, 181: 0.976088, 182: 0.6828379999999999, 183: 0.77572, 184: 0.7183580000000001, 185: 0.5580079999999999, 186: 0.393168, 187: 0.695107, 188: 0.892568, 189: 0.066789, 190: 0.829615, 191: 0.58027];
soc = [0: 9.813827, 1: 10.019537, 2: 6.386189, 3: 7.439798, 4: 4.961263, 5: 6.398562, 6: 15.001229, 7: 10.735604, 8: 11.059016, 9: 7.151604, 10: 4.019551, 11: 6.044043, 12: 6.176612, 13: 8.556613, 14: 12.810788, 15: 6.787724, 16: 3.612849, 17: 9.703082, 18: 7.706309, 19: 15.252502, 20: 13.971201, 21: 6.505777, 22: 12.058786, 23: 4.585615, 24: 4.121951, 25: 8.606748, 26: 13.85504, 27: 15.175032, 28: 5.10864, 29: 2.755474, 30: 8.754531999999999, 31: 15.134131, 32: 4.75252, 33: 4.889148, 34: 9.839077, 35: 14.694971, 36: 9.873141, 37: 4.820423, 38: 14.010963, 39: 13.702095, 40: 8.829615, 41: 4.715157, 42: 11.549101, 43: 2.829061, 44: 9.859349, 45: 14.971339, 46: 4.010643, 47: 12.385341, 48: 6.461949, 49: 4.922653, 50: 7.729038, 51: 7.99755, 52: 5.141437, 53: 10.989362, 54: 12.640355, 55: 5.256328, 56: 10.642662, 57: 4.423477, 58: 15.447321, 59: 14.716751, 60: 5.146854, 61: 15.555332, 62: 2.826815, 63: 3.412443, 64: 3.990837, 65: 12.554752, 66: 10.680377, 67: 3.143591, 68: 15.137427, 69: 13.663572, 70: 15.367462, 71: 12.412323, 72: 10.138916, 73: 13.425912, 74: 9.354056999999999, 75: 15.287248, 76: 3.927147, 77: 7.858138, 78: 3.244931, 79: 6.666493, 80: 15.068556, 81: 14.439198, 82: 15.450202, 83: 7.283068, 84: 9.044758, 85: 9.486034, 86: 7.9156, 87: 7.280206, 88: 10.469419, 89: 4.516723, 90: 3.748804, 91: 7.309082, 92: 12.116938, 93: 11.242665, 94: 11.989088, 95: 12.02663, 96: 8.990833, 97: 2.757035, 98: 7.516743, 99: 14.082086, 100: 7.331817, 101: 7.427796, 102: 15.203907, 103: 11.182468, 104: 9.11992, 105: 8.329495, 106: 11.440201, 107: 10.701232, 108: 12.40539, 109: 15.586671, 110: 5.034833, 111: 7.503571, 112: 5.695929, 113: 9.999162999999999, 114: 12.703247, 115: 14.863155, 116: 12.14714, 117: 6.298372, 118: 12.417024, 119: 12.736099, 120: 10.007137, 121: 3.894294, 122: 12.848833, 123: 11.634447, 124: 12.193913, 125: 5.390158, 126: 8.772710999999999, 127: 6.210668, 128: 7.093005, 129: 5.358825, 130: 10.706147, 131: 10.922196, 132: 3.050526, 133: 15.25887, 134: 13.268011, 135: 5.278712, 136: 10.585437, 137: 5.103892, 138: 2.944071, 139: 9.277039, 140: 14.973487, 141: 9.757766999999999, 142: 5.137193, 143: 6.019661, 144: 14.722173, 145: 13.849192, 146: 7.823367, 147: 15.3849, 148: 11.628453, 149: 5.230562, 150: 9.794752000000001, 151: 9.105299, 152: 12.761599, 153: 9.907545000000001, 154: 12.304756, 155: 2.842658, 156: 7.575608, 157: 3.821825, 158: 12.809531, 159: 7.893596, 160: 6.622817, 161: 11.545944, 162: 10.81124, 163: 5.039641, 164: 4.984235, 165: 9.040931, 166: 8.044128000000001, 167: 10.227129, 168: 5.768603, 169: 10.303097, 170: 12.553229, 171: 7.606595, 172: 11.025697, 173: 8.178839999999999, 174: 12.129928, 175: 5.880888, 176: 7.270014, 177: 13.340494, 178: 7.580255, 179: 10.642812, 180: 3.998867, 181: 10.46297, 182: 4.099921, 183: 8.983034, 184: 2.90391, 185: 2.748694, 186: 13.607764, 187: 11.659799, 188: 13.926365, 189: 4.957909, 190: 12.614815, 191: 6.227251];
cost = [0: 498.033822, 1: 369.658194, 2: 230.545303, 3: 104.409915, 4: 72.759593, 5: 101.715982, 6: 559.861427, 7: 13.824356, 8: 342.551273, 9: 555.236579, 10: 373.077256, 11: 166.184467, 12: 525.183087, 13: 247.027952, 14: 35.61771, 15: 138.80157, 16: 470.936369, 17: 330.233291, 18: 609.478939, 19: 175.174111, 20: 405.17181, 21: 106.693327, 22: 235.711912, 23: 73.046381, 24: 1103.404875, 25: 975.1275869999999, 26: 715.313525, 27: 470.472711, 28: 633.55006, 29: 722.834017, 30: 718.631424, 31: 214.113156, 32: 663.614609, 33: 898.465424, 34: 163.228064, 35: 329.375529, 36: 1168.11629, 37: 1021.684626, 38: 643.4870519999999, 39: 931.493743, 40: 1014.024689, 41: 398.807481, 42: 985.922876, 43: 542.705725, 44: 130.179648, 45: 590.39277, 46: 898.010009, 47: 1074.835554, 48: 652.166419, 49: 326.808257, 50: 513.852888, 51: 646.021798, 52: 508.507163, 53: 140.213447, 54: 124.710061, 55: 533.0746810000001, 56: 212.990597, 57: 332.357701, 58: 533.218696, 59: 289.036573, 60: 570.536726, 61: 675.677554, 62: 955.084719, 63: 220.798571, 64: 696.086097, 65: 1071.064184, 66: 425.477286, 67: 284.383326, 68: 1053.809248, 69: 1044.117794, 70: 642.799723, 71: 817.757095, 72: 1044.306498, 73: 933.157139, 74: 144.461891, 75: 186.210029, 76: 548.1360120000001, 77: 163.919372, 78: 490.456032, 79: 131.639844, 80: 982.6455570000001, 81: 457.468519, 82: 505.279907, 83: 827.751096, 84: 1141.678065, 85: 405.993885, 86: 1066.557825, 87: 1121.419601, 88: 268.630573, 89: 465.045328, 90: 322.726743, 91: 352.688042, 92: 65.937618, 93: 277.966001, 94: 290.325049, 95: 589.861204, 96: 252.49886, 97: 421.556948, 98: 136.25923, 99: 13.388651, 100: 267.355839, 101: 48.095754, 102: 498.510082, 103: 336.410533, 104: 166.085265, 105: 106.484019, 106: 440.727724, 107: 89.813951, 108: 12.891357, 109: 610.360428, 110: 106.243188, 111: 454.110352, 112: 563.716956, 113: 579.284943, 114: 503.336517, 115: 500.748477, 116: 508.967412, 117: 148.694099, 118: 214.019051, 119: 187.843194, 120: 1095.989155, 121: 751.628632, 122: 336.782428, 123: 385.51992, 124: 818.377693, 125: 764.628432, 126: 1111.044289, 127: 10.426897, 128: 646.769775, 129: 578.795717, 130: 750.475722, 131: 47.876202, 132: 264.676873, 133: 793.565612, 134: 781.674665, 135: 894.730682, 136: 692.700796, 137: 116.945887, 138: 1103.185884, 139: 858.659349, 140: 477.467431, 141: 863.305124, 142: 447.101517, 143: 268.371264, 144: 346.067077, 145: 37.107999, 146: 39.727691, 147: 893.780383, 148: 532.115514, 149: 64.736363, 150: 297.442842, 151: 468.958545, 152: 396.857148, 153: 157.559376, 154: 437.420139, 155: 570.649224, 156: 239.48807, 157: 1044.291148, 158: 222.484931, 159: 387.848925, 160: 957.540741, 161: 453.523579, 162: 133.553623, 163: 1139.42802, 164: 479.823031, 165: 1130.741682, 166: 386.126582, 167: 923.332683, 168: 874.240065, 169: 600.102924, 170: 2.487415, 171: 413.793081, 172: 828.985137, 173: 353.741269, 174: 1114.603275, 175: 214.955597, 176: 186.076553, 177: 630.316023, 178: 464.020074, 179: 399.691764, 180: 954.043711, 181: 406.205112, 182: 861.676082, 183: 775.937214, 184: 136.931088, 185: 455.065898, 186: 159.61839, 187: 608.79656, 188: 63.445815, 189: 260.729643, 190: 532.165032, 191: 91.35520200000001];
earn = [0: 0.442524, 1: 0.8638439999999999, 2: 1.466263, 3: 1.185433, 4: 0.408975, 5: 0.975452, 6: 1.70732, 7: 1.646371, 8: 0.066358, 9: 0.194615, 10: 0.094109, 11: 0.341311, 12: 2.295967, 13: 2.124231, 14: 0.144939, 15: 2.282308, 16: 1.567978, 17: 0.05612, 18: 1.360908, 19: 0.915335, 20: 1.970256, 21: 2.282398, 22: 0.004375, 23: 1.79854, 24: 1.09131, 25: 0.400211, 26: 3.033833, 27: 2.201611, 28: 2.038504, 29: 1.326237, 30: 0.315743, 31: 2.526275, 32: 0.849561, 33: 0.72415, 34: 1.852236, 35: 0.123767, 36: 1.244079, 37: 1.328811, 38: 0.519653, 39: 0.855739, 40: 0.006958, 41: 0.216933, 42: 0.817061, 43: 0.125848, 44: 0.254442, 45: 0.108408, 46: 0.018455, 47: 0.036178, 48: 0.019423, 49: 0.041547, 50: 0.009558000000000001, 51: 0.014335, 52: 0.194049, 53: 0.188422, 54: 0.399251, 55: 0.248474, 56: 0.839843, 57: 1.367749, 58: 0.498398, 59: 0.5899219999999999, 60: 1.529359, 61: 0.7288520000000001, 62: 2.135247, 63: 1.140081, 64: 0.254853, 65: 1.230652, 66: 0.656135, 67: 2.05433, 68: 1.703956, 69: 0.222654, 70: 0.761255, 71: 2.921479, 72: 3.802328, 73: 1.043128, 74: 0.945358, 75: 0.006681, 76: 0.454836, 77: 3.20638, 78: 1.432655, 79: 2.956719, 80: 2.712487, 81: 2.120624, 82: 2.738721, 83: 0.802365, 84: 1.965306, 85: 1.364238, 86: 0.163065, 87: 2.215704, 88: 1.404112, 89: 0.471897, 90: 2.06605, 91: 1.251358, 92: 2.782956, 93: 0.526905, 94: 1.920256, 95: 0.855712, 96: 3.083154, 97: 1.852487, 98: 0.170868, 99: 2.041895, 100: 0.495413, 101: 1.071547, 102: 0.951139, 103: 2.799434, 104: 1.517853, 105: 2.175294, 106: 2.397491, 107: 2.26872, 108: 0.19606, 109: 0.20138, 110: 1.96731, 111: 2.084957, 112: 0.765299, 113: 0.825196, 114: 0.598907, 115: 2.411355, 116: 0.923141, 117: 0.058817, 118: 0.176637, 119: 1.279074, 120: 2.225262, 121: 0.546139, 122: 1.464675, 123: 2.661814, 124: 0.823422, 125: 0.475346, 126: 0.599452, 127: 0.340463, 128: 2.810058, 129: 2.091409, 130: 0.624522, 131: 0.242973, 132: 0.160193, 133: 0.75775, 134: 2.210018, 135: 0.772056, 136: 1.312271, 137: 1.889784, 138: 1.677411, 139: 2.107416, 140: 0.615471, 141: 1.517868, 142: 2.08013, 143: 0.468276, 144: 1.693116, 145: 0.029053, 146: 1.34548, 147: 1.517307, 148: 0.341862, 149: 0.124203, 150: 2.072197, 151: 0.920616, 152: 2.150813, 153: 1.621982, 154: 0.68287, 155: 2.527779, 156: 1.027903, 157: 2.371796, 158: 0.322125, 159: 1.171368, 160: 0.5027430000000001, 161: 0.390661, 162: 2.680741, 163: 2.445658, 164: 1.263003, 165: 0.207071, 166: 1.584685, 167: 4.133271, 168: 1.572857, 169: 2.163511, 170: 0.681507, 171: 0.856476, 172: 3.529523, 173: 1.603415, 174: 4.471072, 175: 2.813159, 176: 0.943754, 177: 1.382084, 178: 0.632516, 179: 2.545038, 180: 1.580728, 181: 2.76522, 182: 3.190608, 183: 2.023618, 184: 1.045814, 185: 0.073242, 186: 1.26093, 187: 2.457982, 188: 0.059442, 189: 0.428007, 190: 0.659065, 191: 2.757391];
total_cost = 91.02485551015828;
total_earn = 42.0188157301202;
