production = [0: 0.0, 1: 0.0, 2: 0.0, 3: 0.0, 4: 0.0, 5: 0.0, 6: 0.0, 7: 0.0, 8: 0.0, 9: 0.0, 10: 0.0, 11: 0.0, 12: 0.0, 13: 0.0, 14: 0.0, 15: 0.0, 16: 0.0, 17: 0.0, 18: 0.0, 19: 0.0, 20: 0.0, 21: 0.000207, 22: 0.00014, 23: 0.005081, 24: 0.01689, 25: 0.065925, 26: 0.052914, 27: 0.050087, 28: 0.019613, 29: 0.198204, 30: 0.36419, 31: 0.347979, 32: 0.268842, 33: 0.398707, 34: 0.8399219999999999, 35: 0.338886, 36: 0.327959, 37: 0.307505, 38: 0.113417, 39: 0.136482, 40: 0.154399, 41: 0.96078, 42: 1.045975, 43: 0.150769, 44: 1.394735, 45: 0.9014720000000001, 46: 1.482845, 47: 1.154593, 48: 0.395374, 49: 1.109839, 50: 0.707159, 51: 0.32488, 52: 0.692408, 53: 0.440855, 54: 1.024841, 55: 0.410907, 56: 0.363713, 57: 0.319901, 58: 0.556585, 59: 0.346267, 60: 0.86961, 61: 0.245478, 62: 0.5493170000000001, 63: 0.640272, 64: 0.166085, 65: 0.530411, 66: 0.214712, 67: 0.321158, 68: 0.148688, 69: 0.007738, 70: 0.091104, 71: 0.035575, 72: 0.022303, 73: 0.003623, 74: 0.000218, 75: 0.0, 76: 0.0, 77: 0.0, 78: 0.0, 79: 0.0, 80: 0.0, 81: 0.0, 82: 0.0, 83: 0.0, 84: 0.0, 85: 0.0, 86: 0.0, 87: 0.0, 88: 0.0, 89: 0.0, 90: 0.0, 91: 0.0, 92: 0.0, 93: 0.0, 94: 0.0, 95: 0.0, 96: 0.0, 97: 0.0, 98: 0.0, 99: 0.0, 100: 0.0, 101: 0.0, 102: 0.0, 103: 0.0, 104: 0.0, 105: 0.0, 106: 0.0, 107: 0.0, 108: 0.0, 109: 0.0, 110: 0.0, 111: 0.0, 112: 0.0, 113: 0.0, 114: 0.0, 115: 0.0, 116: 0.0, 117: 0.0, 118: 0.000834, 119: 0.011641, 120: 0.00433, 121: 0.073749, 122: 0.013268, 123: 0.18552, 124: 0.109493, 125: 0.191556, 126: 0.453853, 127: 0.642357, 128: 0.495657, 129: 0.434856, 130: 0.242949, 131: 1.108654, 132: 0.729095, 133: 0.32033, 134: 0.115565, 135: 0.578142, 136: 0.964205, 137: 0.888473, 138: 0.525832, 139: 0.781122, 140: 1.223407, 141: 0.234658, 142: 0.412939, 143: 0.065774, 144: 0.558243, 145: 0.28009, 146: 1.219933, 147: 0.36188, 148: 0.675025, 149: 0.9675319999999999, 150: 1.483775, 151: 1.379538, 152: 1.089343, 153: 0.36809, 154: 0.829891, 155: 0.084105, 156: 0.467499, 157: 0.029985, 158: 0.409062, 159: 0.48841, 160: 0.041809, 161: 0.189019, 162: 0.250649, 163: 0.092457, 164: 0.049374, 165: 0.022314, 166: 0.006429, 167: 0.001802, 168: 0.000187, 169: 0.000961, 170: 0.0, 171: 7.2e-05, 172: 0.0, 173: 0.0, 174: 0.0, 175: 0.0, 176: 0.0, 177: 0.0, 178: 0.0, 179: 0.0, 180: 0.0, 181: 0.0, 182: 0.0, 183: 0.0, 184: 0.0, 185: 0.0, 186: 0.0, 187: 0.0, 188: 0.0, 189: 0.0, 190: 0.0, 191: 0.0];
buy = [0: 713.313429, 1: 432.549648, 2: 671.446263, 3: 312.851058, 4: 672.425066, 5: 387.178436, 6: 72.49531500000001, 7: 795.3569670000001, 8: 823.741669, 9: 726.586958, 10: 490.990973, 11: 295.871158, 12: 671.5412219999999, 13: 960.537246, 14: 188.024874, 15: 277.21788, 16: 832.264822, 17: 5.013175, 18: 500.683239, 19: 124.180747, 20: 254.042087, 21: 914.804516, 22: 957.551822, 23: 74.61288, 24: 761.849287, 25: 87.52339000000001, 26: 744.835141, 27: 255.80793, 28: 437.04664, 29: 48.470522, 30: 528.624005, 31: 233.838272, 32: 11.016951, 33: 129.479956, 34: 16.493495, 35: 81.405406, 36: 963.458256, 37: 370.457137, 38: 606.855687, 39: 935.369959, 40: 396.366311, 41: 350.086374, 42: 152.379349, 43: 490.057521, 44: 231.345984, 45: 918.345768, 46: 227.018624, 47: 24.814502, 48: 727.121361, 49: 984.6790140000001, 50: 534.774753, 51: 170.306305, 52: 971.327432, 53: 231.699859, 54: 629.114251, 55: 591.651805, 56: 503.041411, 57: 465.047392, 58: 172.541503, 59: 662.461384, 60: 32.481968, 61: 728.464754, 62: 391.068834, 63: 382.708822, 64: 414.290238, 65: 466.195423, 66: 205.124029, 67: 9.881715, 68: 794.8269320000001, 69: 22.47859, 70: 880.646077, 71: 500.991193, 72: 853.631457, 73: 198.671198, 74: 201.225389, 75: 866.791488, 76: 230.953197, 77: 33.854685, 78: 586.8666040000001, 79: 192.193063, 80: 277.623377, 81: 90.05197099999999, 82: 181.049566, 83: 228.312289, 84: 55.602568, 85: 735.543144, 86: 624.140564, 87: 788.785765, 88: 895.564081, 89: 323.092812, 90: 894.640832, 91: 838.626862, 92: 33.548554, 93: 478.815068, 94: 943.804608, 95: 271.451878, 96: 975.815778, 97: 589.828692, 98: 78.44434699999999, 99: 680.785222, 100: 975.99715, 101: 537.767656, 102: 651.012254, 103: 209.033593, 104: 196.961361, 105: 258.126318, 106: 52.398476, 107: 726.949164, 108: 17.194179, 109: 662.264202, 110: 685.380421, 111: 721.782925, 112: 272.345216, 113: 792.89976, 114: 1.384366, 115: 540.567096, 116: 441.115838, 117: 388.643547, 118: 121.044849, 119: 434.432259, 120: 399.13147, 121: 571.229832, 122: 15.043883, 123: 566.1311899999999, 124: 123.507522, 125: 288.186699, 126: 626.058331, 127: 274.582239, 128: 137.627971, 129: 832.854391, 130: 646.604906, 131: 786.371382, 132: 404.740967, 133: 374.463193, 134: 991.964771, 135: 37.284549, 136: 653.066974, 137: 580.387582, 138: 514.002656, 139: 759.410921, 140: 44.506025, 141: 453.393534, 142: 950.194042, 143: 252.889285, 144: 657.8439049999999, 145: 532.612081, 146: 685.645765, 147: 254.493059, 148: 777.147277, 149: 797.864997, 150: 907.853728, 151: 797.478649, 152: 175.66055, 153: 121.957282, 154: 511.071657, 155: 835.098497, 156: 694.9451800000001, 157: 800.254578, 158: 701.1498319999999, 159: 601.410877, 160: 171.352423, 161: 274.666912, 162: 116.528231, 163: 334.374627, 164: 70.44130800000001, 165: 494.22249, 166: 489.322607, 167: 790.105726, 168: 385.619396, 169: 303.205521, 170: 499.768369, 171: 516.050344, 172: 432.373697, 173: 651.238566, 174: 189.550142, 175: 807.438354, 176: 440.545548, 177: 589.9172589999999, 178: 775.450349, 179: 866.617121, 180: 702.348794, 181: 726.958915, 182: 808.170357, 183: 691.662613, 184: 80.28312, 185: 538.111544, 186: 709.483966, 187: 978.779006, 188: 311.402111, 189: 466.303221, 190: 958.846682, 191: 923.765942];
sell = [0: 3.895599, 1: 0.398681, 2: 3.934679, 3: 2.566316, 4: 3.921709, 5: 3.758366, 6: 1.69066, 7: 2.127523, 8: 1.688126, 9: 2.161404, 10: 1.099098, 11: 1.509169, 12: 0.467512, 13: 0.158663, 14: 0.419513, 15: 2.124599, 16: 2.966121, 17: 0.5530929999999999, 18: 2.796723, 19: 2.677528, 20: 3.435342, 21: 2.53809, 22: 2.737786, 23: 2.407217, 24: 3.395798, 25: 0.948187, 26: 1.148076, 27: 2.212045, 28: 0.343936, 29: 0.061511, 30: 2.639114, 31: 1.418208, 32: 2.50948, 33: 0.661359, 34: 1.705613, 35: 3.410085, 36: 3.371454, 37: 1.269055, 38: 2.329957, 39: 1.815238, 40: 3.307283, 41: 3.464399, 42: 1.494986, 43: 1.755259, 44: 2.717161, 45: 0.742147, 46: 0.142696, 47: 2.327517, 48: 2.788006, 49: 2.519534, 50: 0.365908, 51: 2.367904, 52: 3.987075, 53: 1.758605, 54: 2.100859, 55: 0.8423580000000001, 56: 0.825688, 57: 1.30045, 58: 2.525844, 59: 3.107548, 60: 3.195859, 61: 3.742817, 62: 2.791458, 63: 3.97178, 64: 0.6150600000000001, 65: 0.571597, 66: 1.384419, 67: 3.860579, 68: 3.367689, 69: 0.258457, 70: 0.746895, 71: 3.514928, 72: 0.582908, 73: 2.672755, 74: 0.188067, 75: 0.584, 76: 0.055957, 77: 2.369775, 78: 1.892209, 79: 2.863344, 80: 2.890967, 81: 0.625314, 82: 0.543663, 83: 1.511469, 84: 1.530865, 85: 2.206153, 86: 0.052132, 87: 3.696745, 88: 2.427421, 89: 0.79175, 90: 1.576044, 91: 1.049571, 92: 0.654823, 93: 2.838971, 94: 3.522398, 95: 2.426747, 96: 0.026954, 97: 1.334681, 98: 1.703862, 99: 3.177066, 100: 2.794941, 101: 0.6974359999999999, 102: 1.322854, 103: 1.061271, 104: 1.338255, 105: 2.586718, 106: 1.106194, 107: 1.222748, 108: 0.004637, 109: 1.695215, 110: 3.707993, 111: 2.954977, 112: 2.154782, 113: 2.10632, 114: 3.085658, 115: 3.000689, 116: 1.156364, 117: 2.754906, 118: 1.995475, 119: 0.891199, 120: 1.450304, 121: 2.096873, 122: 1.725854, 123: 0.910999, 124: 2.927619, 125: 1.96975, 126: 3.186366, 127: 3.158993, 128: 3.54458, 129: 1.515528, 130: 1.333661, 131: 1.059647, 132: 1.720832, 133: 3.685482, 134: 2.44811, 135: 0.418586, 136: 0.875634, 137: 0.79073, 138: 0.238469, 139: 2.757099, 140: 3.708536, 141: 1.852433, 142: 2.520728, 143: 0.824434, 144: 3.53114, 145: 0.679243, 146: 2.013796, 147: 1.417714, 148: 3.834624, 149: 2.371039, 150: 0.170078, 151: 1.083627, 152: 3.410477, 153: 2.226768, 154: 0.055184, 155: 1.699607, 156: 3.700644, 157: 2.352792, 158: 0.033581, 159: 3.098802, 160: 2.975301, 161: 2.740255, 162: 1.578473, 163: 2.482933, 164: 3.331217, 165: 3.073354, 166: 1.927073, 167: 2.186288, 168: 3.181995, 169: 3.442954, 170: 1.674893, 171: 3.200034, 172: 3.68729, 173: 1.938168, 174: 0.054625, 175: 1.444399, 176: 0.437786, 177: 3.903075, 178: 0.653596, 179: 3.813839, 180: 3.937624, 181: 0.527446, 182: 1.438103, 183: 2.625082, 184: 0.16865, 185: 1.049504, 186: 2.385733, 187: 0.526247, 188: 3.767018, 189: 1.484307, 190: 3.87112, 191: 0.21971];
charge = [0: 0.020494, 1: 0.649555, 2: 0.740327, 3: 0.508728, 4: 0.876547, 5: 0.038767, 6: 0.372413, 7: 0.02875, 8: 0.661465, 9: 0.609331, 10: 0.280951, 11: 0.868309, 12: 0.941053, 13: 0.6500860000000001, 14: 0.150696, 15: 0.02033, 16: 0.299244, 17: 0.813072, 18: 0.574167, 19: 0.013812, 20: 0.900531, 21: 0.007925, 22: 0.170641, 23: 0.384755, 24: 0.871258, 25: 0.02279, 26: 0.264439, 27: 0.331427, 28: 0.9913419999999999, 29: 0.790605, 30: 0.116471, 31: 0.474197, 32: 0.975218, 33: 0.08340400000000001, 34: 0.637425, 35: 0.9145450000000001, 36: 0.168484, 37: 0.526903, 38: 0.959794, 39: 0.632111, 40: 0.012361, 41: 0.20463, 42: 0.316505, 43: 0.036187, 44: 0.444492, 45: 0.08849600000000001, 46: 0.08389199999999999, 47: 0.938593, 48: 0.545659, 49: 0.654296, 50: 0.201883, 51: 0.558075, 52: 0.85284, 53: 0.430621, 54: 0.5686, 55: 0.395284, 56: 0.878986, 57: 0.883746, 58: 0.957519, 59: 0.428321, 60: 0.174604, 61: 0.444718, 62: 0.764261, 63: 0.316064, 64: 0.667692, 65: 0.849003, 66: 0.269375, 67: 0.063219, 68: 0.981264, 69: 0.051621, 70: 0.911862, 71: 0.610735, 72: 0.534452, 73: 0.058272, 74: 0.863182, 75: 0.096709, 76: 0.072615, 77: 0.036759, 78: 0.634313, 79: 0.07342600000000001, 80: 0.519791, 81: 0.716889, 82: 0.014677, 83: 0.015764, 84: 0.36791, 85: 0.742905, 86: 0.285449, 87: 0.749359, 88: 0.568892, 89: 0.607216, 90: 0.961392, 91: 0.261934, 92: 0.436671, 93: 0.58499, 94: 0.5152139999999999, 95: 0.001364, 96: 0.477565, 97: 0.623336, 98: 0.326759, 99: 0.372203, 100: 0.475179, 101: 0.927026, 102: 0.270497, 103: 0.310064, 104: 0.260518, 105: 0.004465, 106: 0.036136, 107: 0.712371, 108: 0.15618, 109: 0.020796, 110: 0.842827, 111: 0.388549, 112: 0.311772, 113: 0.861774, 114: 0.274539, 115: 0.118793, 116: 0.26488, 117: 0.515249, 118: 0.76946, 119: 0.7342379999999999, 120: 0.158353, 121: 0.050842, 122: 0.138349, 123: 0.252494, 124: 0.942541, 125: 0.068647, 126: 0.027785, 127: 0.595793, 128: 0.908107, 129: 0.567538, 130: 0.535188, 131: 0.391147, 132: 0.444902, 133: 0.178154, 134: 0.6767570000000001, 135: 0.945495, 136: 0.467913, 137: 0.296801, 138: 0.110922, 139: 0.819789, 140: 0.527762, 141: 0.105681, 142: 0.194727, 143: 0.6116239999999999, 144: 0.123521, 145: 0.345288, 146: 0.269113, 147: 0.337629, 148: 0.697647, 149: 0.584721, 150: 0.796018, 151: 0.871463, 152: 0.584931, 153: 0.7576000000000001, 154: 0.694291, 155: 0.632636, 156: 0.431387, 157: 0.136021, 158: 0.540772, 159: 0.734401, 160: 0.703357, 161: 0.705511, 162: 0.866424, 163: 0.549206, 164: 0.499898, 165: 0.885646, 166: 0.69689, 167: 0.567227, 168: 0.577604, 169: 0.526907, 170: 0.252253, 171: 0.202994, 172: 0.868113, 173: 0.155246, 174: 0.295831, 175: 0.862611, 176: 0.261879, 177: 0.456144, 178: 0.673787, 179: 0.295282, 180: 0.090821, 181: 0.464176, 182: 0.706085, 183: 0.156971, 184: 0.277989, 185: 0.629874, 186: 0.07903300000000001, 187: 0.887301, 188: 0.129634, 189: 0.304122, 190: 0.7042310000000001, 191: 0.032299];
discharge = [0: 0.316031, 1: 0.883721, 2: 0.841425, 3: 0.125062, 4: 0.908823, 5: 0.507721, 6: 0.400865, 7: 0.247123, 8: 0.493237, 9: 0.164244, 10: 0.193732, 11: 0.249342, 12: 0.012155, 13: 0.63037, 14: 0.44891, 15: 0.21847, 16: 0.154552, 17: 0.475104, 18: 0.794861, 19: 0.540339, 20: 0.245515, 21: 0.885491, 22: 0.3906, 23: 0.814845, 24: 0.44811, 25: 0.843406, 26: 0.686719, 27: 0.191947, 28: 0.364223, 29: 0.41734, 30: 0.027921, 31: 0.077913, 32: 0.103392, 33: 0.116209, 34: 0.866692, 35: 0.034682, 36: 0.679393, 37: 0.123056, 38: 0.370459, 39: 0.111444, 40: 0.874342, 41: 0.26756, 42: 0.171571, 43: 0.7070109999999999, 44: 0.933664, 45: 0.014344, 46: 0.697709, 47: 0.443754, 48: 0.674767, 49: 0.559357, 50: 0.889614, 51: 0.435134, 52: 0.677577, 53: 0.214912, 54: 0.399404, 55: 0.601482, 56: 0.197679, 57: 0.696441, 58: 0.06387900000000001, 59: 0.457054, 60: 0.666658, 61: 0.498384, 62: 0.454986, 63: 0.55367, 64: 0.326904, 65: 0.940717, 66: 0.644445, 67: 0.306192, 68: 0.288772, 69: 0.186887, 70: 0.3458, 71: 0.394893, 72: 0.682291, 73: 0.479051, 74: 0.402597, 75: 0.458583, 76: 0.583479, 77: 0.693404, 78: 0.125957, 79: 0.299378, 80: 0.5426840000000001, 81: 0.700364, 82: 0.897022, 83: 0.438045, 84: 0.263851, 85: 0.669255, 86: 0.17034, 87: 0.686589, 88: 0.814563, 89: 0.943865, 90: 0.21056, 91: 0.060567, 92: 0.433233, 93: 0.069519, 94: 0.069145, 95: 0.208872, 96: 0.166868, 97: 0.148189, 98: 0.266694, 99: 0.875414, 100: 0.842372, 101: 0.004893, 102: 0.968496, 103: 0.514112, 104: 0.169288, 105: 0.575356, 106: 0.405043, 107: 0.13442, 108: 0.750092, 109: 0.571573, 110: 0.790578, 111: 0.202394, 112: 0.844701, 113: 0.590347, 114: 0.795162, 115: 0.46922, 116: 0.808423, 117: 0.815154, 118: 0.746197, 119: 0.721947, 120: 0.893492, 121: 0.714591, 122: 0.092796, 123: 0.439641, 124: 0.317204, 125: 0.492746, 126: 0.619826, 127: 0.706359, 128: 0.662775, 129: 0.84397, 130: 0.04141, 131: 0.518304, 132: 0.915592, 133: 0.318401, 134: 0.245451, 135: 0.564217, 136: 0.753807, 137: 0.01819, 138: 0.603284, 139: 0.336072, 140: 0.07097000000000001, 141: 0.841174, 142: 0.097431, 143: 0.268292, 144: 0.8881790000000001, 145: 0.633371, 146: 0.790462, 147: 0.709954, 148: 0.647879, 149: 0.39957, 150: 0.071855, 151: 0.216325, 152: 0.147198, 153: 0.9507640000000001, 154: 0.460365, 155: 0.258005, 156: 0.198984, 157: 0.440806, 158: 0.551144, 159: 0.334997, 160: 0.470461, 161: 0.036998, 162: 0.987619, 163: 0.938304, 164: 0.442737, 165: 0.158664, 166: 0.2177, 167: 0.898524, 168: 0.75553, 169: 0.855225, 170: 0.890717, 171: 0.220071, 172: 0.754541, 173: 0.407775, 174: 0.308551, 175: 0.08428099999999999, 176: 0.614776, 177: 0.87185, 178: 0.633139, 179: 0.780832, 180: 0.769253, 181: 0.050908, 182: 0.07990899999999999, 183: 0.43721, 184: 0.924512, 185: 0.5757139999999999, 186: 0.662127, 187: 0.322468, 188: 0.208977, 189: 0.640537, 190: 0.57057, 191: 0.091778];
soc = [0: 9.275922, 1: 10.443087, 2: 10.972275, 3: 6.708775, 4: 6.93915, 5: 13.307812, 6: 12.066655, 7: 12.528435, 8: 9.111625, 9: 13.046665, 10: 5.042835, 11: 11.529245, 12: 14.497238, 13: 6.260434, 14: 4.417631, 15: 7.015773, 16: 4.180805, 17: 7.051558, 18: 13.758447, 19: 10.348555, 20: 9.691966000000001, 21: 8.659094, 22: 5.743949, 23: 9.581346999999999, 24: 2.677355, 25: 9.028817, 26: 7.059001, 27: 9.623206, 28: 6.690685, 29: 5.432759, 30: 10.482789, 31: 11.441842, 32: 7.304554, 33: 2.73073, 34: 13.279444, 35: 14.961664, 36: 13.777172, 37: 14.618222, 38: 3.556566, 39: 7.323014, 40: 7.88833, 41: 8.754576999999999, 42: 3.455658, 43: 5.029436, 44: 8.018139, 45: 4.525256, 46: 7.580531, 47: 13.45486, 48: 9.001167000000001, 49: 9.025646, 50: 2.926727, 51: 12.032472, 52: 6.537855, 53: 11.23561, 54: 15.649709, 55: 7.342791, 56: 8.946251999999999, 57: 15.158861, 58: 8.06155, 59: 11.795635, 60: 9.930156, 61: 3.63735, 62: 6.517293, 63: 5.87589, 64: 4.163579, 65: 11.983967, 66: 4.927625, 67: 12.359148, 68: 5.19272, 69: 15.113714, 70: 4.867573, 71: 9.228298000000001, 72: 10.841567, 73: 10.503977, 74: 7.329676, 75: 6.32166, 76: 4.684701, 77: 13.587897, 78: 2.650265, 79: 10.935993, 80: 15.194491, 81: 5.714956, 82: 4.313887, 83: 10.218719, 84: 7.026572, 85: 15.093824, 86: 14.613818, 87: 15.565368, 88: 12.874919, 89: 13.854387, 90: 14.985888, 91: 14.292615, 92: 2.98149, 93: 11.248653, 94: 4.449583, 95: 10.827638, 96: 15.268759, 97: 5.697577, 98: 7.938313, 99: 3.273276, 100: 11.853185, 101: 9.818516000000001, 102: 6.388234, 103: 13.103918, 104: 12.305562, 105: 3.384873, 106: 2.82072, 107: 3.778091, 108: 6.873771, 109: 10.205713, 110: 14.801132, 111: 14.450316, 112: 12.924865, 113: 6.143222, 114: 3.800055, 115: 3.951816, 116: 2.767752, 117: 14.19802, 118: 10.207085, 119: 15.423087, 120: 9.763038999999999, 121: 2.978609, 122: 10.14318, 123: 10.634276, 124: 5.607748, 125: 5.176353, 126: 7.242736, 127: 10.324645, 128: 6.594643, 129: 4.724934, 130: 12.112373, 131: 6.70198, 132: 13.160854, 133: 13.896881, 134: 3.521257, 135: 13.714076, 136: 3.668669, 137: 11.563356, 138: 11.073114, 139: 6.795167, 140: 4.654689, 141: 9.843963, 142: 9.879336, 143: 6.16151, 144: 10.802326, 145: 14.407179, 146: 15.267859, 147: 7.558193, 148: 12.198199, 149: 6.89965, 150: 8.926641999999999, 151: 13.431487, 152: 6.336431, 153: 12.347869, 154: 13.828255, 155: 6.704736, 156: 7.491946, 157: 5.114927, 158: 4.941161, 159: 6.515758, 160: 13.429821, 161: 8.159112, 162: 6.638139, 163: 10.00762, 164: 8.725512, 165: 3.41769, 166: 10.668562, 167: 12.322001, 168: 12.004655, 169: 8.423746, 170: 2.661676, 171: 3.478544, 172: 14.130917, 173: 14.290693, 174: 11.657703, 175: 7.244757, 176: 13.00849, 177: 6.496595, 178: 3.738236, 179: 13.655787, 180: 7.964995, 181: 10.755338, 182: 7.846936, 183: 10.223584, 184: 12.667653, 185: 12.99021, 186: 9.013598999999999, 187: 10.220315, 188: 7.90777, 189: 9.962894, 190: 13.769507, 191: 14.322481];
cost = [0: 394.608753, 1: 388.390787, 2: 285.456527, 3: 398.14751, 4: 192.836906, 5: 516.906982, 6: 461.047911, 7: 332.621118, 8: 81.6056, 9: 114.121161, 10: 107.210199, 11: 525.309362, 12: 30.118906, 13: 372.436037, 14: 40.720077, 15: 339.259489, 16: 289.702634, 17: 67.68850999999999, 18: 103.550751, 19: 517.082841, 20: 391.807395, 21: 330.863247, 22: 268.142091, 23: 134.229947, 24: 350.125074, 25: 793.9041570000001, 26: 455.653728, 27: 987.6904060000001, 28: 334.139781, 29: 392.782379, 30: 113.276986, 31: 864.000097, 32: 449.031133, 33: 359.94069, 34: 258.809913, 35: 963.969391, 36: 708.250086, 37: 375.265239, 38: 546.93701, 39: 1015.449822, 40: 820.440309, 41: 20.761158, 42: 23.800678, 43: 888.3582280000001, 44: 17.318025, 45: 1170.645002, 46: 213.954947, 47: 115.026153, 48: 33.57387, 49: 6.236134, 50: 637.308293, 51: 1086.940416, 52: 198.865317, 53: 544.034574, 54: 275.774876, 55: 145.030264, 56: 353.613239, 57: 304.103651, 58: 263.647803, 59: 607.745343, 60: 748.941004, 61: 748.219546, 62: 508.746577, 63: 1146.49149, 64: 975.590212, 65: 386.747911, 66: 829.645432, 67: 107.416889, 68: 461.347297, 69: 1178.216021, 70: 752.185287, 71: 79.657886, 72: 121.585288, 73: 312.893126, 74: 1002.668075, 75: 150.010812, 76: 32.660589, 77: 546.559306, 78: 769.974668, 79: 635.109274, 80: 1033.694472, 81: 73.280832, 82: 758.454896, 83: 280.309083, 84: 244.433249, 85: 948.534997, 86: 274.754312, 87: 835.241812, 88: 147.399109, 89: 472.783906, 90: 324.172423, 91: 514.764593, 92: 528.311047, 93: 608.288828, 94: 220.980485, 95: 550.535743, 96: 199.235462, 97: 88.94386, 98: 539.100983, 99: 405.609408, 100: 233.200669, 101: 47.438356, 102: 503.110667, 103: 448.812784, 104: 195.406633, 105: 329.188, 106: 583.994059, 107: 506.992296, 108: 570.673587, 109: 543.81466, 110: 253.131736, 111: 181.636029, 112: 558.452845, 113: 97.10386, 114: 399.584932, 115: 249.552722, 116: 149.689148, 117: 319.669824, 118: 376.559447, 119: 423.756236, 120: 795.962385, 121: 455.216056, 122: 1090.491539, 123: 959.779645, 124: 907.025005, 125: 36.676428, 126: 966.184817, 127: 268.720238, 128: 266.054455, 129: 243.014848, 130: 74.882913, 131: 485.964472, 132: 908.78441, 133: 524.452645, 134: 536.552471, 135: 1050.57325, 136: 747.802862, 137: 309.295707, 138: 3.32781, 139: 278.485272, 140: 18.130435, 141: 318.470955, 142: 530.29012, 143: 931.818356, 144: 834.708809, 145: 314.260998, 146: 919.118119, 147: 290.055773, 148: 565.682355, 149: 546.526473, 150: 464.630837, 151: 82.686674, 152: 525.24947, 153: 161.585182, 154: 462.068685, 155: 296.595765, 156: 921.540379, 157: 776.522504, 158: 429.461325, 159: 249.538967, 160: 889.914249, 161: 1016.162783, 162: 987.4654399999999, 163: 503.130089, 164: 953.875987, 165: 323.833899, 166: 634.708312, 167: 1009.096156, 168: 26.282348, 169: 290.262996, 170: 816.036628, 171: 672.552222, 172: 627.9683669999999, 173: 897.463841, 174: 208.784852, 175: 563.80204, 176: 1159.767294, 177: 89.594643, 178: 339.426139, 179: 78.464589, 180: 641.488163, 181: 866.4626960000001, 182: 412.139731, 183: 300.834998, 184: 125.620261, 185: 379.176847, 186: 461.987975, 187: 589.515272, 188: 474.742105, 189: 23.402032, 190: 560.795665, 191: 32.128123];
earn = [0: 1.284068, 1: 1.314184, 2: 1.386185, 3: 2.296077, 4: 2.260941, 5: 2.305884, 6: 1.653646, 7: 0.135164, 8: 0.812657, 9: 2.120119, 10: 1.309426, 11: 0.992924, 12: 1.797429, 13: 1.879404, 14: 1.790962, 15: 0.051708, 16: 0.892161, 17: 1.053051, 18: 2.393199, 19: 1.535822, 20: 0.344306, 21: 1.504801, 22: 2.71873, 23: 2.499553, 24: 1.150057, 25: 0.160465, 26: 0.774641, 27: 0.756067, 28: 2.049508, 29: 1.521194, 30: 2.502952, 31: 0.929122, 32: 1.214663, 33: 0.061835, 34: 1.364605, 35: 1.68545, 36: 0.773663, 37: 1.935323, 38: 0.60171, 39: 0.474284, 40: 0.69512, 41: 0.690878, 42: 1.202883, 43: 0.061152, 44: 0.77632, 45: 0.492244, 46: 0.030958, 47: 0.078199, 48: 0.06283999999999999, 49: 0.283328, 50: 0.411921, 51: 0.277702, 52: 0.526359, 53: 0.046332, 54: 0.766416, 55: 0.170411, 56: 0.464134, 57: 0.256094, 58: 0.493277, 59: 0.064084, 60: 0.974383, 61: 0.709571, 62: 0.999931, 63: 0.920624, 64: 2.268265, 65: 1.776075, 66: 1.115935, 67: 2.579379, 68: 1.250851, 69: 1.831268, 70: 0.77207, 71: 2.046189, 72: 3.076816, 73: 1.38071, 74: 1.105786, 75: 0.190643, 76: 1.205714, 77: 1.60028, 78: 1.075522, 79: 2.49333, 80: 2.885895, 81: 1.233714, 82: 1.906723, 83: 1.797954, 84: 1.499402, 85: 0.465379, 86: 0.736772, 87: 1.451863, 88: 1.401766, 89: 2.062478, 90: 0.877627, 91: 0.591717, 92: 0.158993, 93: 0.217301, 94: 1.162631, 95: 0.706093, 96: 2.254039, 97: 1.980713, 98: 0.876702, 99: 1.392846, 100: 1.670382, 101: 1.356237, 102: 0.47326, 103: 2.135237, 104: 0.727947, 105: 0.462516, 106: 1.412417, 107: 1.594348, 108: 2.205524, 109: 0.832201, 110: 0.464488, 111: 0.129645, 112: 0.990437, 113: 0.894969, 114: 0.579526, 115: 1.86888, 116: 0.035231, 117: 0.466813, 118: 0.5973039999999999, 119: 0.8882139999999999, 120: 1.120678, 121: 1.668852, 122: 1.327367, 123: 0.8807779999999999, 124: 0.955245, 125: 0.52085, 126: 0.5646910000000001, 127: 0.019429, 128: 1.291583, 129: 0.305776, 130: 0.481634, 131: 0.538841, 132: 0.366343, 133: 0.937585, 134: 0.601731, 135: 0.15785, 136: 0.239968, 137: 0.26219, 138: 0.00371, 139: 0.032846, 140: 0.143538, 141: 0.113639, 142: 0.04064, 143: 0.09393700000000001, 144: 0.009109000000000001, 145: 0.006046, 146: 0.105028, 147: 0.092887, 148: 0.06913900000000001, 149: 0.11493, 150: 0.199297, 151: 0.08167099999999999, 152: 0.391482, 153: 0.08856600000000001, 154: 0.383191, 155: 0.403729, 156: 1.015785, 157: 1.094361, 158: 0.973621, 159: 0.73221, 160: 1.125642, 161: 0.861556, 162: 2.222495, 163: 1.766029, 164: 0.953397, 165: 2.15824, 166: 1.579363, 167: 2.336295, 168: 0.976638, 169: 2.020246, 170: 0.246949, 171: 2.09297, 172: 0.500776, 173: 1.745293, 174: 0.837816, 175: 1.375125, 176: 3.028241, 177: 1.470913, 178: 0.789069, 179: 0.009194000000000001, 180: 2.02929, 181: 0.456296, 182: 0.514436, 183: 2.320035, 184: 2.397815, 185: 2.018067, 186: 2.43778, 187: 0.903469, 188: 2.104328, 189: 0.31207, 190: 0.6413990000000001, 191: 1.059414];
total_cost = 94.302836299961;
total_earn = 33.91340221259365;
