production = [0: 0.0, 1: 0.0, 2: 0.0, 3: 0.0, 4: 0.0, 5: 0.0, 6: 0.0, 7: 0.0, 8: 0.0, 9: 0.0, 10: 0.0, 11: 0.0, 12: 0.0, 13: 0.0, 14: 0.0, 15: 0.0, 16: 0.0, 17: 0.0, 18: 0.0, 19: 0.0, 20: 0.0, 21: 0.0, 22: 0.001644, 23: 0.010019, 24: 0.033731, 25: 0.002884, 26: 0.126233, 27: 0.137395, 28: 0.006148, 29: 0.025639, 30: 0.175018, 31: 0.149987, 32: 0.683065, 33: 0.301988, 34: 0.195274, 35: 0.64829, 36: 0.705238, 37: 0.336676, 38: 0.374163, 39: 0.078788, 40: 0.653469, 41: 0.267509, 42: 0.374877, 43: 1.470888, 44: 0.656821, 45: 0.507, 46: 0.126666, 47: 0.428684, 48: 0.436896, 49: 0.85823, 50: 1.348791, 51: 1.60989, 52: 0.439495, 53: 0.743634, 54: 0.647513, 55: 1.210199, 56: 0.209316, 57: 0.763995, 58: 1.158481, 59: 0.9929789999999999, 60: 0.287376, 61: 0.211632, 62: 0.677252, 63: 0.811428, 64: 0.147691, 65: 0.156885, 66: 0.053223, 67: 0.046898, 68: 0.044592, 69: 0.008293, 70: 0.023727, 71: 0.014411, 72: 0.0006089999999999999, 73: 0.000604, 74: 0.0, 75: 1.8e-05, 76: 0.0, 77: 0.0, 78: 0.0, 79: 0.0, 80: 0.0, 81: 0.0, 82: 0.0, 83: 0.0, 84: 0.0, 85: 0.0, 86: 0.0, 87: 0.0, 88: 0.0, 89: 0.0, 90: 0.0, 91: 0.0, 92: 0.0, 93: 0.0, 94: 0.0, 95: 0.0, 96: 0.0, 97: 0.0, 98: 0.0, 99: 0.0, 100: 0.0, 101: 0.0, 102: 0.0, 103: 0.0, 104: 0.0, 105: 0.0, 106: 0.0, 107: 0.0, 108: 0.0, 109: 0.0, 110: 0.0, 111: 0.0, 112: 0.0, 113: 0.0, 114: 0.0, 115: 0.0, 116: 0.0, 117: 0.0, 118: 0.0, 119: 0.0, 120: 5.3e-05, 121: 1.1e-05, 122: 0.000407, 123: 0.000319, 124: 0.000919, 125: 0.009938000000000001, 126: 0.010135, 127: 0.011405, 128: 0.005474, 129: 0.072675, 130: 0.209802, 131: 0.138982, 132: 0.158175, 133: 0.155429, 134: 0.124972, 135: 0.021484, 136: 0.18535, 137: 0.07265199999999999, 138: 0.122796, 139: 0.10989, 140: 0.06540600000000001, 141: 0.219321, 142: 0.065044, 143: 0.181119, 144: 0.110752, 145: 0.151058, 146: 0.233959, 147: 0.388055, 148: 0.033243, 149: 0.168862, 150: 0.240177, 151: 0.197493, 152: 0.321497, 153: 0.045123, 154: 0.217028, 155: 0.618189, 156: 0.283107, 157: 0.414894, 158: 0.385468, 159: 0.038064, 160: 0.103867, 161: 0.05937, 162: 0.045474, 163: 0.028799, 164: 0.188237, 165: 0.035248, 166: 0.209037, 167: 0.005693, 168: 0.084055, 169: 0.050672, 170: 0.026019, 171: 0.009549999999999999, 172: 0.015105, 173: 0.000804, 174: 0.000484, 175: 0.0, 176: 0.0, 177: 0.0, 178: 0.0, 179: 0.0, 180: 0.0, 181: 0.0, 182: 0.0, 183: 0.0, 184: 0.0, 185: 0.0, 186: 0.0, 187: 0.0, 188: 0.0, 189: 0.0, 190: 0.0, 191: 0.0];
buy = [0: 580.958845, 1: 278.777101, 2: 625.502223, 3: 267.125315, 4: 877.106464, 5: 966.67728, 6: 679.678631, 7: 230.791922, 8: 50.267289, 9: 722.572274, 10: 255.023251, 11: 20.800241, 12: 646.9596299999999, 13: 50.036533, 14: 557.69976, 15: 662.561476, 16: 786.901482, 17: 978.400579, 18: 862.663765, 19: 783.900108, 20: 514.592667, 21: 924.7685729999999, 22: 406.044636, 23: 510.02032, 24: 839.648091, 25: 846.784542, 26: 825.599406, 27: 273.679636, 28: 74.222042, 29: 224.093496, 30: 210.524483, 31: 162.678327, 32: 864.313389, 33: 591.6380810000001, 34: 344.233464, 35: 200.694613, 36: 231.379914, 37: 946.67285, 38: 585.311238, 39: 181.503838, 40: 613.580169, 41: 407.024443, 42: 692.132687, 43: 369.415161, 44: 290.998053, 45: 629.04826, 46: 271.617316, 47: 603.576465, 48: 565.407337, 49: 520.575828, 50: 629.063863, 51: 169.785769, 52: 92.680485, 53: 849.71491, 54: 306.93065, 55: 394.835678, 56: 14.341265, 57: 870.783081, 58: 818.616037, 59: 405.349517, 60: 547.287601, 61: 274.398224, 62: 196.048686, 63: 962.931584, 64: 852.512086, 65: 356.181857, 66: 775.284296, 67: 779.269761, 68: 922.157966, 69: 706.150051, 70: 905.972141, 71: 740.559602, 72: 231.284786, 73: 17.485493, 74: 848.169987, 75: 239.866196, 76: 834.940891, 77: 858.659399, 78: 651.6374520000001, 79: 989.04716, 80: 415.703503, 81: 103.19831, 82: 614.940152, 83: 44.539869, 84: 56.236757, 85: 217.16859, 86: 205.260687, 87: 784.102639, 88: 179.688652, 89: 790.450305, 90: 192.525547, 91: 518.409338, 92: 44.308151, 93: 660.112286, 94: 153.19603, 95: 70.890677, 96: 119.593382, 97: 295.030047, 98: 963.914741, 99: 314.3393, 100: 446.990816, 101: 10.770809, 102: 699.33796, 103: 363.966534, 104: 256.789596, 105: 542.0367220000001, 106: 869.951545, 107: 54.000095, 108: 866.697838, 109: 176.534025, 110: 46.670798, 111: 707.578449, 112: 474.259634, 113: 950.523311, 114: 718.908438, 115: 2.896272, 116: 346.246141, 117: 27.985345, 118: 931.181426, 119: 738.452223, 120: 285.358609, 121: 749.499636, 122: 609.382741, 123: 750.7408809999999, 124: 723.329073, 125: 443.234849, 126: 490.777546, 127: 799.061852, 128: 711.482484, 129: 670.151084, 130: 551.859933, 131: 839.562484, 132: 259.853528, 133: 428.940126, 134: 280.672898, 135: 625.844532, 136: 383.2709, 137: 956.676054, 138: 832.6735159999999, 139: 756.334815, 140: 14.904696, 141: 603.954688, 142: 148.113155, 143: 891.649255, 144: 589.743413, 145: 474.212257, 146: 34.043867, 147: 690.5372640000001, 148: 417.080164, 149: 180.155876, 150: 461.631203, 151: 189.541938, 152: 595.208357, 153: 87.736811, 154: 77.81669599999999, 155: 210.499693, 156: 503.572621, 157: 608.97399, 158: 957.269094, 159: 600.3333710000001, 160: 814.151415, 161: 501.757007, 162: 205.945161, 163: 737.731343, 164: 278.365274, 165: 676.57391, 166: 436.113092, 167: 31.267516, 168: 576.892479, 169: 727.841345, 170: 196.593819, 171: 876.371475, 172: 119.06342, 173: 58.377918, 174: 76.809647, 175: 753.576321, 176: 596.603339, 177: 272.037161, 178: 298.837908, 179: 575.59263, 180: 600.431927, 181: 259.437549, 182: 417.906269, 183: 960.506802, 184: 980.433387, 185: 599.5385680000001, 186: 743.399316, 187: 834.5223120000001, 188: 877.2224189999999, 189: 372.482492, 190: 279.422181, 191: 986.249194];
sell = [0: 3.6819, 1: 3.09109, 2: 0.785541, 3: 2.803873, 4: 1.166618, 5: 0.701004, 6: 0.605303, 7: 0.677499, 8: 3.106418, 9: 3.799165, 10: 0.246628, 11: 3.266276, 12: 1.735976, 13: 3.985074, 14: 2.869973, 15: 1.091296, 16: 2.792654, 17: 1.350123, 18: 1.292608, 19: 3.25749, 20: 2.707884, 21: 2.554436, 22: 3.898309, 23: 3.872692, 24: 3.135922, 25: 1.694908, 26: 3.594974, 27: 0.648702, 28: 0.062008, 29: 3.060191, 30: 1.427275, 31: 2.442306, 32: 0.917955, 33: 3.97323, 34: 0.181243, 35: 0.586803, 36: 3.69225, 37: 3.331092, 38: 1.667671, 39: 3.290002, 40: 1.675854, 41: 0.09556099999999999, 42: 1.989238, 43: 0.24502, 44: 0.892308, 45: 3.302021, 46: 1.059246, 47: 3.636501, 48: 0.5399969999999999, 49: 0.07167, 50: 3.816119, 51: 3.216868, 52: 1.181054, 53: 3.543691, 54: 2.138498, 55: 1.37991, 56: 2.44929, 57: 3.678931, 58: 1.729591, 59: 1.431544, 60: 3.097667, 61: 1.793767, 62: 3.745132, 63: 0.445187, 64: 0.833807, 65: 0.631362, 66: 3.838638, 67: 3.873069, 68: 1.015946, 69: 1.752343, 70: 1.941079, 71: 2.93432, 72: 2.937682, 73: 2.001726, 74: 1.127192, 75: 0.856932, 76: 3.337118, 77: 3.107373, 78: 3.761016, 79: 1.104423, 80: 3.129819, 81: 1.10574, 82: 1.492997, 83: 1.182584, 84: 3.582645, 85: 2.589965, 86: 1.366875, 87: 0.385937, 88: 0.316731, 89: 0.194043, 90: 3.968533, 91: 0.429774, 92: 2.763672, 93: 0.464922, 94: 0.447278, 95: 3.497384, 96: 2.261675, 97: 2.421237, 98: 2.920277, 99: 0.119582, 100: 0.32994, 101: 1.778065, 102: 3.38987, 103: 1.002338, 104: 3.580166, 105: 1.847696, 106: 1.680238, 107: 1.215631, 108: 0.233147, 109: 1.165422, 110: 0.186369, 111: 2.917626, 112: 0.776885, 113: 3.208156, 114: 3.78738, 115: 3.721837, 116: 3.109878, 117: 3.573973, 118: 0.096011, 119: 0.753937, 120: 2.662405, 121: 2.142408, 122: 1.807828, 123: 0.732761, 124: 1.644264, 125: 2.501984, 126: 3.566351, 127: 1.081174, 128: 3.568799, 129: 2.876611, 130: 3.621027, 131: 2.032946, 132: 0.976064, 133: 3.227544, 134: 0.697636, 135: 0.287828, 136: 2.214461, 137: 0.339505, 138: 0.361649, 139: 2.160787, 140: 3.048066, 141: 0.899135, 142: 3.248479, 143: 1.48753, 144: 3.929505, 145: 2.700876, 146: 1.053606, 147: 0.707333, 148: 3.982305, 149: 2.027817, 150: 0.469043, 151: 0.156186, 152: 1.504885, 153: 2.729904, 154: 3.766096, 155: 0.468927, 156: 0.227778, 157: 0.88397, 158: 1.577057, 159: 0.530347, 160: 3.93409, 161: 3.295153, 162: 1.533386, 163: 2.162653, 164: 2.110783, 165: 0.231635, 166: 1.333719, 167: 1.924994, 168: 1.727002, 169: 0.75001, 170: 1.800377, 171: 0.943665, 172: 3.964233, 173: 1.032408, 174: 3.198719, 175: 1.09049, 176: 3.405174, 177: 0.63736, 178: 2.55742, 179: 2.453051, 180: 3.162159, 181: 1.199837, 182: 0.297356, 183: 3.603702, 184: 2.849264, 185: 3.724918, 186: 2.395112, 187: 1.023895, 188: 3.025099, 189: 0.483958, 190: 3.020623, 191: 1.568414];
charge = [0: 0.417743, 1: 0.582382, 2: 0.890629, 3: 0.501741, 4: 0.7626270000000001, 5: 0.660699, 6: 0.6889459999999999, 7: 0.580904, 8: 0.264742, 9: 0.884839, 10: 0.686277, 11: 0.684022, 12: 0.93316, 13: 0.698344, 14: 0.427119, 15: 0.429202, 16: 0.31144, 17: 0.767213, 18: 0.141565, 19: 0.415373, 20: 0.094891, 21: 0.840353, 22: 0.979915, 23: 0.219083, 24: 0.518765, 25: 0.663712, 26: 0.437108, 27: 0.881924, 28: 0.995368, 29: 0.060453, 30: 0.5181249999999999, 31: 0.538045, 32: 0.251886, 33: 0.574462, 34: 0.325349, 35: 0.675256, 36: 0.632378, 37: 0.326703, 38: 0.723563, 39: 0.065493, 40: 0.386706, 41: 0.461636, 42: 0.431023, 43: 0.534892, 44: 0.865198, 45: 0.050134, 46: 0.435886, 47: 0.271228, 48: 0.229386, 49: 0.488952, 50: 0.033547, 51: 0.773936, 52: 0.083186, 53: 0.068997, 54: 0.846966, 55: 0.337135, 56: 0.963684, 57: 0.913006, 58: 0.929843, 59: 0.853567, 60: 0.565767, 61: 0.140007, 62: 0.355409, 63: 0.602025, 64: 0.548079, 65: 0.796149, 66: 0.476308, 67: 0.94845, 68: 0.858135, 69: 0.766971, 70: 0.256786, 71: 0.532788, 72: 0.677706, 73: 0.235227, 74: 0.634674, 75: 0.51706, 76: 0.7620130000000001, 77: 0.243856, 78: 0.16987, 79: 0.122172, 80: 0.046406, 81: 0.892444, 82: 0.816177, 83: 0.963062, 84: 0.720781, 85: 0.6722399999999999, 86: 0.6579, 87: 0.415261, 88: 0.556878, 89: 0.588104, 90: 0.596596, 91: 0.779906, 92: 0.8265130000000001, 93: 0.71148, 94: 0.93601, 95: 0.30392, 96: 0.689318, 97: 0.67309, 98: 0.286546, 99: 0.96395, 100: 0.730267, 101: 0.218124, 102: 0.207528, 103: 0.247603, 104: 0.405673, 105: 0.58546, 106: 0.719757, 107: 0.6551, 108: 0.924827, 109: 0.916509, 110: 0.429631, 111: 0.042259, 112: 0.5711580000000001, 113: 0.927469, 114: 0.343498, 115: 0.705152, 116: 0.939559, 117: 0.639086, 118: 0.991649, 119: 0.601785, 120: 0.756531, 121: 0.586925, 122: 0.8173820000000001, 123: 0.697871, 124: 0.278867, 125: 0.713417, 126: 0.440131, 127: 0.928477, 128: 0.259452, 129: 0.75769, 130: 0.134299, 131: 0.419075, 132: 0.025941, 133: 0.199134, 134: 0.434595, 135: 0.163048, 136: 0.106588, 137: 0.164444, 138: 0.377789, 139: 0.763269, 140: 0.229697, 141: 0.705304, 142: 0.493656, 143: 0.996742, 144: 0.57944, 145: 0.372934, 146: 0.548965, 147: 0.525895, 148: 0.8556, 149: 0.01451, 150: 0.690086, 151: 0.515469, 152: 0.983108, 153: 0.159741, 154: 0.902095, 155: 0.877443, 156: 0.062934, 157: 0.5634, 158: 0.823254, 159: 0.589537, 160: 0.961718, 161: 0.31467, 162: 0.05468, 163: 0.464314, 164: 0.312261, 165: 0.940864, 166: 0.868267, 167: 0.746097, 168: 0.422261, 169: 0.229981, 170: 0.447193, 171: 0.740963, 172: 0.358747, 173: 0.908119, 174: 0.139144, 175: 0.773299, 176: 0.08243499999999999, 177: 0.408303, 178: 0.916588, 179: 0.19175, 180: 0.553534, 181: 0.10099, 182: 0.343072, 183: 0.111907, 184: 0.817863, 185: 0.784618, 186: 0.46153, 187: 0.98951, 188: 0.363677, 189: 0.060796, 190: 0.692848, 191: 0.239814];
discharge = [0: 0.976687, 1: 0.463977, 2: 0.158475, 3: 0.929292, 4: 0.701115, 5: 0.883289, 6: 0.237207, 7: 0.412384, 8: 0.436295, 9: 0.605179, 10: 0.663951, 11: 0.881149, 12: 0.042242, 13: 0.445672, 14: 0.469644, 15: 0.7511330000000001, 16: 0.619351, 17: 0.631709, 18: 0.065633, 19: 0.9056920000000001, 20: 0.07152500000000001, 21: 0.345349, 22: 0.6602749999999999, 23: 0.617628, 24: 0.698798, 25: 0.841557, 26: 0.170314, 27: 0.53184, 28: 0.298181, 29: 0.656592, 30: 0.654677, 31: 0.440053, 32: 0.393085, 33: 0.120994, 34: 0.301456, 35: 0.7388400000000001, 36: 0.813001, 37: 0.589383, 38: 0.8595699999999999, 39: 0.586286, 40: 0.311592, 41: 0.906932, 42: 0.325069, 43: 0.08310099999999999, 44: 0.9516, 45: 0.494788, 46: 0.918253, 47: 0.432215, 48: 0.13404, 49: 0.929656, 50: 0.998175, 51: 0.541674, 52: 0.030018, 53: 0.748102, 54: 0.02454, 55: 0.495552, 56: 0.274507, 57: 0.689354, 58: 0.039502, 59: 0.876563, 60: 0.799007, 61: 0.510599, 62: 0.531589, 63: 0.07241400000000001, 64: 0.093595, 65: 0.196074, 66: 0.083178, 67: 0.049718, 68: 0.491697, 69: 0.740696, 70: 0.784992, 71: 0.706121, 72: 0.89608, 73: 0.139534, 74: 0.656176, 75: 0.717805, 76: 0.933727, 77: 0.170719, 78: 0.120476, 79: 0.010712, 80: 0.405856, 81: 0.07578500000000001, 82: 0.723156, 83: 0.7495270000000001, 84: 0.416143, 85: 0.023142, 86: 0.263065, 87: 0.294564, 88: 0.590404, 89: 0.541938, 90: 0.792813, 91: 0.587284, 92: 0.797854, 93: 0.284597, 94: 0.089935, 95: 0.169629, 96: 0.489338, 97: 0.674067, 98: 0.205755, 99: 0.687893, 100: 0.370984, 101: 0.110853, 102: 0.277491, 103: 0.485407, 104: 0.734706, 105: 0.10418, 106: 0.115021, 107: 0.336607, 108: 0.656264, 109: 0.114135, 110: 0.346946, 111: 0.852971, 112: 0.09696399999999999, 113: 0.959862, 114: 0.932853, 115: 0.213528, 116: 0.003135, 117: 0.645452, 118: 0.50987, 119: 0.759207, 120: 0.320181, 121: 0.630223, 122: 0.304472, 123: 0.731255, 124: 0.705892, 125: 0.808704, 126: 0.932544, 127: 0.101407, 128: 0.154656, 129: 0.9324750000000001, 130: 0.236144, 131: 0.92228, 132: 0.151646, 133: 0.215767, 134: 0.5417960000000001, 135: 0.759122, 136: 0.466992, 137: 0.983186, 138: 0.0997, 139: 0.460684, 140: 0.666728, 141: 0.696594, 142: 0.351882, 143: 0.850982, 144: 0.310236, 145: 0.519863, 146: 0.012905, 147: 0.122979, 148: 0.270091, 149: 0.44173, 150: 0.812435, 151: 0.905576, 152: 0.885366, 153: 0.71773, 154: 0.537951, 155: 0.005742, 156: 0.025919, 157: 0.934413, 158: 0.250111, 159: 0.743295, 160: 0.93986, 161: 0.158609, 162: 0.22166, 163: 0.542065, 164: 0.103129, 165: 0.706757, 166: 0.30874, 167: 0.090642, 168: 0.141547, 169: 0.862208, 170: 0.937891, 171: 0.258624, 172: 0.830195, 173: 0.589341, 174: 0.942056, 175: 0.13031, 176: 0.738301, 177: 0.737191, 178: 0.245956, 179: 0.98848, 180: 0.965917, 181: 0.29966, 182: 0.057942, 183: 0.078586, 184: 0.7654530000000001, 185: 0.115661, 186: 0.829556, 187: 0.421502, 188: 0.628753, 189: 0.870575, 190: 0.08236400000000001, 191: 0.321559];
soc = [0: 10.651361, 1: 11.482428, 2: 11.387877, 3: 13.867742, 4: 6.311529, 5: 6.510778, 6: 10.588208, 7: 3.736702, 8: 13.058462, 9: 7.455122, 10: 9.676845999999999, 11: 6.078369, 12: 12.297613, 13: 4.210873, 14: 4.871457, 15: 7.519828, 16: 2.701342, 17: 5.859689, 18: 6.742937, 19: 6.37089, 20: 7.047344, 21: 12.85405, 22: 10.904942, 23: 13.197269, 24: 6.208762, 25: 14.6605, 26: 4.201609, 27: 15.009275, 28: 10.959511, 29: 6.10417, 30: 14.335958, 31: 10.826798, 32: 5.619288, 33: 15.111907, 34: 10.37355, 35: 4.506383, 36: 4.469179, 37: 8.536721, 38: 10.799711, 39: 9.05448, 40: 13.769798, 41: 11.003834, 42: 12.951187, 43: 4.395996, 44: 13.976734, 45: 11.445821, 46: 7.949379, 47: 4.762692, 48: 12.656482, 49: 7.795274, 50: 11.886353, 51: 11.601635, 52: 7.458593, 53: 13.086468, 54: 11.647806, 55: 11.521836, 56: 3.184426, 57: 8.923843, 58: 5.011182, 59: 7.622291, 60: 5.510501, 61: 11.933778, 62: 14.623864, 63: 13.760556, 64: 14.286811, 65: 10.282161, 66: 5.680744, 67: 6.431835, 68: 2.869045, 69: 8.684763999999999, 70: 4.683797, 71: 15.211155, 72: 12.612019, 73: 5.725964, 74: 13.392748, 75: 8.479659, 76: 10.977085, 77: 4.025172, 78: 9.512625, 79: 13.930862, 80: 8.069806, 81: 9.440606000000001, 82: 3.498081, 83: 6.046749, 84: 13.927889, 85: 4.69227, 86: 12.369007, 87: 5.803978, 88: 2.663942, 89: 12.408123, 90: 7.526396, 91: 4.304474, 92: 7.857784, 93: 4.715279, 94: 6.75737, 95: 6.449886, 96: 5.07485, 97: 5.055839, 98: 13.774676, 99: 3.626521, 100: 7.954575, 101: 4.345282, 102: 11.013466, 103: 13.343503, 104: 7.320945, 105: 15.423874, 106: 7.004382, 107: 14.985842, 108: 9.455263, 109: 13.33642, 110: 11.395643, 111: 11.300938, 112: 10.847196, 113: 11.062244, 114: 8.093553999999999, 115: 11.157597, 116: 5.290821, 117: 4.355085, 118: 7.173858, 119: 8.916631000000001, 120: 3.599778, 121: 5.602116, 122: 3.268067, 123: 10.449727, 124: 5.999782, 125: 7.524382, 126: 3.471506, 127: 13.285527, 128: 5.113124, 129: 14.11619, 130: 10.850108, 131: 5.220546, 132: 6.062737, 133: 14.714814, 134: 6.995305, 135: 7.784842, 136: 5.582159, 137: 14.931581, 138: 11.540452, 139: 12.709397, 140: 9.920518, 141: 3.89488, 142: 15.450863, 143: 5.006925, 144: 7.676039, 145: 3.088497, 146: 12.613949, 147: 11.703016, 148: 15.147465, 149: 9.472594000000001, 150: 15.152998, 151: 4.108893, 152: 4.067356, 153: 4.851455, 154: 4.987022, 155: 10.4979, 156: 10.964718, 157: 12.515531, 158: 12.036987, 159: 5.415237, 160: 9.034046, 161: 9.236637999999999, 162: 13.24411, 163: 11.80306, 164: 6.766108, 165: 15.409041, 166: 9.235879000000001, 167: 3.230125, 168: 13.236635, 169: 15.201432, 170: 9.749957, 171: 3.776911, 172: 11.936523, 173: 5.142144, 174: 10.473165, 175: 13.441202, 176: 6.720303, 177: 9.809305, 178: 11.789896, 179: 5.406164, 180: 7.335971, 181: 7.448977, 182: 10.033, 183: 11.491564, 184: 3.703121, 185: 9.180985, 186: 4.487961, 187: 10.183031, 188: 10.166803, 189: 12.145803, 190: 3.517784, 191: 13.421046];
cost = [0: 415.673498, 1: 380.571815, 2: 288.236216, 3: 433.121693, 4: 261.391202, 5: 189.26617, 6: 153.54487, 7: 317.524057, 8: 390.416696, 9: 156.925307, 10: 105.931077, 11: 583.859226, 12: 134.085214, 13: 486.372034, 14: 442.530313, 15: 463.582441, 16: 294.054816, 17: 281.747975, 18: 376.166991, 19: 77.15509299999999, 20: 568.503835, 21: 464.984096, 22: 115.552943, 23: 262.660711, 24: 566.030303, 25: 603.861864, 26: 119.36032, 27: 839.927484, 28: 26.794501, 29: 823.731888, 30: 94.337768, 31: 172.092015, 32: 416.944365, 33: 253.137464, 34: 582.280277, 35: 930.659215, 36: 818.285636, 37: 303.98725, 38: 192.225327, 39: 1187.384141, 40: 653.427823, 41: 586.555944, 42: 724.420363, 43: 241.117838, 44: 827.920587, 45: 184.348549, 46: 113.87706, 47: 864.103557, 48: 361.117493, 49: 3.11102, 50: 909.610554, 51: 1039.222384, 52: 102.663693, 53: 522.985443, 54: 589.676691, 55: 488.216177, 56: 474.661834, 57: 172.346639, 58: 120.480996, 59: 566.719938, 60: 559.040256, 61: 426.180807, 62: 131.989219, 63: 768.9447730000001, 64: 1114.338072, 65: 1001.968743, 66: 54.360047, 67: 816.586098, 68: 1090.049945, 69: 327.664004, 70: 340.893308, 71: 214.847964, 72: 409.677135, 73: 313.504824, 74: 523.829207, 75: 242.25499, 76: 142.645603, 77: 1049.090377, 78: 212.42561, 79: 358.794041, 80: 1168.032139, 81: 275.945086, 82: 623.57299, 83: 129.630312, 84: 528.907329, 85: 220.484864, 86: 837.439607, 87: 673.97627, 88: 8.278962999999999, 89: 222.377991, 90: 438.688048, 91: 302.039266, 92: 193.006007, 93: 324.660951, 94: 244.066404, 95: 186.987921, 96: 407.582557, 97: 592.6638380000001, 98: 134.23362, 99: 313.261204, 100: 217.414637, 101: 405.350035, 102: 154.226929, 103: 521.520068, 104: 375.469239, 105: 69.502016, 106: 42.665511, 107: 22.401034, 108: 366.38523, 109: 125.13436, 110: 477.937356, 111: 566.268652, 112: 566.880458, 113: 350.123296, 114: 396.043951, 115: 175.886436, 116: 564.784542, 117: 49.515056, 118: 153.75148, 119: 350.55999, 120: 663.811105, 121: 1085.574887, 122: 581.822568, 123: 612.506761, 124: 1102.7142, 125: 748.1189859999999, 126: 0.571322, 127: 344.486814, 128: 893.84525, 129: 630.077886, 130: 759.0400969999999, 131: 293.338239, 132: 1033.629439, 133: 1127.0599, 134: 839.82379, 135: 194.177768, 136: 909.633112, 137: 493.400223, 138: 65.10008000000001, 139: 354.462986, 140: 1027.621331, 141: 877.241397, 142: 395.289179, 143: 325.438938, 144: 934.598378, 145: 946.834207, 146: 414.962882, 147: 1004.571101, 148: 553.322288, 149: 340.708194, 150: 88.38559600000001, 151: 523.590835, 152: 485.502006, 153: 148.466334, 154: 515.928458, 155: 179.61787, 156: 237.081907, 157: 186.389517, 158: 789.5628809999999, 159: 86.383802, 160: 648.714064, 161: 785.099801, 162: 87.20913400000001, 163: 771.431908, 164: 523.314305, 165: 333.609339, 166: 50.092166, 167: 114.091307, 168: 295.864075, 169: 810.011899, 170: 534.002784, 171: 794.679898, 172: 404.887412, 173: 16.981463, 174: 905.090582, 175: 459.124667, 176: 983.30507, 177: 22.30337, 178: 223.620788, 179: 480.547105, 180: 1084.888784, 181: 561.709971, 182: 939.85621, 183: 870.675496, 184: 605.22036, 185: 65.637263, 186: 389.742436, 187: 373.018544, 188: 131.640765, 189: 235.153365, 190: 589.687648, 191: 87.110957];
earn = [0: 2.109158, 1: 1.114193, 2: 0.318525, 3: 1.178803, 4: 0.03124, 5: 1.023869, 6: 1.022181, 7: 1.785478, 8: 2.034307, 9: 0.385105, 10: 1.538228, 11: 0.340284, 12: 0.825612, 13: 1.192057, 14: 1.13767, 15: 1.149153, 16: 0.7305469999999999, 17: 1.864404, 18: 0.255285, 19: 1.056707, 20: 1.857082, 21: 0.232424, 22: 0.6708150000000001, 23: 0.769846, 24: 1.560095, 25: 0.541359, 26: 0.819698, 27: 0.483668, 28: 0.141426, 29: 0.109275, 30: 0.459993, 31: 1.551755, 32: 1.597007, 33: 1.616537, 34: 0.8906770000000001, 35: 0.225434, 36: 0.035634, 37: 0.792739, 38: 0.017271, 39: 0.415874, 40: 0.290848, 41: 0.162814, 42: 0.258612, 43: 0.174644, 44: 0.153391, 45: 0.133751, 46: 0.08415300000000001, 47: 0.004245, 48: 0.026426, 49: 0.100326, 50: 0.069977, 51: 0.013653, 52: 0.064041, 53: 0.091373, 54: 0.126123, 55: 0.026302, 56: 0.453637, 57: 0.332506, 58: 0.253532, 59: 0.509579, 60: 0.014913, 61: 0.871565, 62: 1.715578, 63: 0.505134, 64: 1.088368, 65: 2.165752, 66: 0.268861, 67: 0.7620209999999999, 68: 1.73548, 69: 2.222035, 70: 1.917515, 71: 0.478166, 72: 2.038765, 73: 0.228297, 74: 3.08046, 75: 2.800071, 76: 2.971412, 77: 3.227503, 78: 3.082999, 79: 0.972853, 80: 2.981334, 81: 1.441659, 82: 2.183486, 83: 1.308526, 84: 0.789584, 85: 1.581396, 86: 0.999827, 87: 2.208133, 88: 2.359419, 89: 0.185122, 90: 1.764062, 91: 2.498267, 92: 2.403857, 93: 0.535211, 94: 1.12588, 95: 1.722114, 96: 1.094489, 97: 1.112782, 98: 0.469152, 99: 0.603522, 100: 0.7941820000000001, 101: 1.6843, 102: 1.363019, 103: 1.835956, 104: 0.021843, 105: 1.254232, 106: 1.142715, 107: 1.811699, 108: 0.240146, 109: 1.884425, 110: 1.029774, 111: 1.434838, 112: 1.109808, 113: 0.215394, 114: 0.408635, 115: 0.036438, 116: 0.900034, 117: 1.26254, 118: 1.210643, 119: 1.085156, 120: 0.677352, 121: 1.001195, 122: 0.56693, 123: 0.7606039999999999, 124: 2.380535, 125: 1.424588, 126: 1.31763, 127: 1.694432, 128: 0.688236, 129: 0.635236, 130: 0.855881, 131: 0.441962, 132: 0.178328, 133: 1.627797, 134: 0.258495, 135: 1.257531, 136: 0.380333, 137: 0.564245, 138: 0.6206469999999999, 139: 0.821069, 140: 0.763729, 141: 0.685503, 142: 0.667463, 143: 0.724756, 144: 0.559991, 145: 0.071838, 146: 0.484019, 147: 0.397637, 148: 0.133904, 149: 0.427748, 150: 0.325997, 151: 0.167743, 152: 0.415511, 153: 0.187146, 154: 0.142948, 155: 0.227241, 156: 0.334676, 157: 0.207089, 158: 0.017596, 159: 0.120028, 160: 0.351818, 161: 0.21355, 162: 0.386171, 163: 1.264576, 164: 0.167601, 165: 1.266494, 166: 0.247524, 167: 0.438558, 168: 0.817991, 169: 1.307309, 170: 2.281458, 171: 0.185459, 172: 2.090397, 173: 2.72131, 174: 0.731599, 175: 1.578688, 176: 3.034469, 177: 2.068326, 178: 0.230881, 179: 0.426963, 180: 0.670065, 181: 2.565734, 182: 0.368444, 183: 1.516414, 184: 0.121678, 185: 2.569231, 186: 0.329599, 187: 1.469731, 188: 1.094413, 189: 0.345986, 190: 1.427192, 191: 1.667815];
total_cost = 87.99249619890281;
total_earn = 24.43360290344937;
