production = [0: 0.0, 1: 0.0, 2: 0.0, 3: 0.0, 4: 0.0, 5: 0.0, 6: 0.0, 7: 0.0, 8: 0.0, 9: 0.0, 10: 0.0, 11: 0.0, 12: 0.0, 13: 0.0, 14: 0.0, 15: 0.0, 16: 0.0, 17: 0.0, 18: 0.0, 19: 0.0, 20: 0.0, 21: 0.0, 22: 0.000852, 23: 0.012555, 24: 0.018808, 25: 0.036355, 26: 0.008165, 27: 0.074258, 28: 0.126926, 29: 0.048936, 30: 0.434922, 31: 0.04663, 32: 0.264398, 33: 0.669475, 34: 0.37309, 35: 0.994571, 36: 0.028898, 37: 1.031895, 38: 0.173117, 39: 0.337042, 40: 1.517082, 41: 1.473758, 42: 1.068971, 43: 1.454587, 44: 0.224477, 45: 0.71965, 46: 0.193744, 47: 0.430379, 48: 0.447897, 49: 1.193826, 50: 0.6802009999999999, 51: 0.016175, 52: 0.622248, 53: 1.693921, 54: 1.186243, 55: 1.236665, 56: 0.177104, 57: 0.444165, 58: 0.809768, 59: 0.543447, 60: 1.147515, 61: 0.6495, 62: 0.198486, 63: 0.338908, 64: 0.064945, 65: 0.228939, 66: 0.049289, 67: 0.048532, 68: 0.047876, 69: 0.0219, 70: 0.002397, 71: 0.002076, 72: 0.000679, 73: 0.00052, 74: 0.0, 75: 4.5e-05, 76: 0.0, 77: 0.0, 78: 0.0, 79: 0.0, 80: 0.0, 81: 0.0, 82: 0.0, 83: 0.0, 84: 0.0, 85: 0.0, 86: 0.0, 87: 0.0, 88: 0.0, 89: 0.0, 90: 0.0, 91: 0.0, 92: 0.0, 93: 0.0, 94: 0.0, 95: 0.0, 96: 0.0, 97: 0.0, 98: 0.0, 99: 0.0, 100: 0.0, 101: 0.0, 102: 0.0, 103: 0.0, 104: 0.0, 105: 0.0, 106: 0.0, 107: 0.0, 108: 0.0, 109: 0.0, 110: 0.0, 111: 0.0, 112: 0.0, 113: 0.0, 114: 0.0, 115: 0.0, 116: 0.0, 117: 0.0, 118: 0.0, 119: 0.0, 120: 0.000299, 121: 0.000241, 122: 0.000485, 123: 0.001162, 124: 0.001938, 125: 0.007256, 126: 0.006635, 127: 0.026358, 128: 0.011017, 129: 0.031099, 130: 0.228506, 131: 0.194522, 132: 0.139797, 133: 0.122324, 134: 0.004537, 135: 0.058576, 136: 0.134001, 137: 0.007092, 138: 0.110297, 139: 0.122556, 140: 0.059766, 141: 0.030835, 142: 0.182575, 143: 0.165483, 144: 0.120481, 145: 0.497665, 146: 0.25012, 147: 0.387028, 148: 0.008855999999999999, 149: 0.036227, 150: 0.384583, 151: 0.274582, 152: 0.343775, 153: 0.09805899999999999, 154: 0.402696, 155: 0.141672, 156: 0.015638, 157: 0.005861, 158: 0.06091, 159: 0.08746, 160: 0.08923200000000001, 161: 0.07713399999999999, 162: 0.04468, 163: 0.083798, 164: 0.025567, 165: 0.053, 166: 0.183857, 167: 0.035687, 168: 0.053509, 169: 0.038149, 170: 0.022402, 171: 0.001485, 172: 0.01131, 173: 0.000643, 174: 0.000826, 175: 0.0, 176: 0.0, 177: 0.0, 178: 0.0, 179: 0.0, 180: 0.0, 181: 0.0, 182: 0.0, 183: 0.0, 184: 0.0, 185: 0.0, 186: 0.0, 187: 0.0, 188: 0.0, 189: 0.0, 190: 0.0, 191: 0.0];
buy = [0: 996.223921, 1: 447.491293, 2: 735.529661, 3: 525.506486, 4: 771.525521, 5: 635.596587, 6: 496.174054, 7: 848.086404, 8: 444.42342, 9: 32.586704, 10: 844.086152, 11: 925.206328, 12: 959.894548, 13: 631.409299, 14: 405.685739, 15: 509.252021, 16: 137.219022, 17: 49.009608, 18: 721.589986, 19: 580.846019, 20: 675.738761, 21: 932.078774, 22: 109.268347, 23: 875.769716, 24: 784.209132, 25: 731.099016, 26: 427.107969, 27: 645.75595, 28: 846.6576219999999, 29: 631.189676, 30: 825.5232, 31: 410.267171, 32: 650.290966, 33: 236.016844, 34: 290.874751, 35: 231.922952, 36: 616.319298, 37: 390.91131, 38: 261.47057, 39: 547.214033, 40: 342.860409, 41: 676.748528, 42: 567.00746, 43: 65.015355, 44: 453.192333, 45: 851.623981, 46: 431.409429, 47: 38.932955, 48: 988.4681419999999, 49: 387.412279, 50: 849.471283, 51: 886.917311, 52: 104.368123, 53: 833.3510199999999, 54: 805.4567929999999, 55: 405.179157, 56: 768.7313, 57: 772.60416, 58: 272.567483, 59: 435.337736, 60: 957.635776, 61: 144.833831, 62: 616.161252, 63: 302.437984, 64: 189.05165, 65: 11.632563, 66: 239.21247, 67: 481.607909, 68: 584.999539, 69: 798.489642, 70: 797.005116, 71: 52.842479, 72: 971.665228, 73: 879.381941, 74: 939.9967370000001, 75: 625.29916, 76: 316.668844, 77: 501.759278, 78: 506.979323, 79: 661.335997, 80: 176.017932, 81: 374.195437, 82: 714.683213, 83: 762.984429, 84: 782.8575980000001, 85: 315.500617, 86: 807.011802, 87: 890.729902, 88: 213.431517, 89: 914.971272, 90: 91.527693, 91: 418.073352, 92: 286.704639, 93: 969.196855, 94: 915.898225, 95: 814.879149, 96: 258.079087, 97: 851.669102, 98: 800.9100539999999, 99: 410.369683, 100: 481.738215, 101: 185.459203, 102: 105.066642, 103: 319.260581, 104: 200.784149, 105: 3.598903, 106: 79.45704600000001, 107: 593.806906, 108: 282.327742, 109: 866.167581, 110: 836.69334, 111: 848.9715189999999, 112: 647.476782, 113: 571.929047, 114: 913.892102, 115: 646.6531199999999, 116: 732.456199, 117: 177.183467, 118: 83.590644, 119: 557.5014169999999, 120: 821.4400429999999, 121: 688.40648, 122: 534.192504, 123: 263.909633, 124: 928.66713, 125: 979.566701, 126: 982.504457, 127: 228.741204, 128: 679.179285, 129: 218.142928, 130: 707.918103, 131: 70.78766, 132: 486.103851, 133: 952.5265910000001, 134: 742.848554, 135: 690.604255, 136: 201.915213, 137: 537.528994, 138: 166.523139, 139: 289.574812, 140: 706.792129, 141: 268.893802, 142: 66.729916, 143: 143.378065, 144: 860.143229, 145: 688.590272, 146: 526.1420869999999, 147: 959.228736, 148: 995.184049, 149: 16.67506, 150: 349.499223, 151: 605.470474, 152: 176.950543, 153: 636.632177, 154: 275.539535, 155: 742.032327, 156: 795.2559220000001, 157: 528.084171, 158: 761.834757, 159: 686.916512, 160: 51.31364, 161: 507.036686, 162: 98.813163, 163: 115.713086, 164: 835.703177, 165: 888.244338, 166: 527.531837, 167: 635.653229, 168: 292.769046, 169: 464.099779, 170: 352.584784, 171: 384.88641, 172: 312.08602, 173: 826.644058, 174: 52.54747, 175: 11.816987, 176: 451.582039, 177: 161.850564, 178: 85.857699, 179: 669.697101, 180: 58.307676, 181: 140.822157, 182: 249.50913, 183: 650.240165, 184: 955.938464, 185: 461.27718, 186: 333.225728, 187: 58.177265, 188: 569.550718, 189: 930.883779, 190: 10.36741, 191: 473.626996];
sell = [0: 2.527344, 1: 0.525655, 2: 2.084929, 3: 0.935366, 4: 1.637362, 5: 0.232399, 6: 3.538427, 7: 2.944148, 8: 1.855485, 9: 2.904776, 10: 0.829931, 11: 0.693588, 12: 0.397001, 13: 1.474248, 14: 1.19258, 15: 3.4674, 16: 2.646414, 17: 1.47108, 18: 0.240028, 19: 2.27866, 20: 1.226161, 21: 0.177294, 22: 0.467914, 23: 0.225416, 24: 3.901283, 25: 2.347095, 26: 0.900736, 27: 1.83476, 28: 2.941712, 29: 2.656344, 30: 3.024844, 31: 1.968232, 32: 0.945007, 33: 1.39991, 34: 0.23927, 35: 3.917641, 36: 0.77613, 37: 3.627859, 38: 3.067578, 39: 0.571004, 40: 1.109162, 41: 3.660212, 42: 1.975558, 43: 1.908874, 44: 2.250339, 45: 1.240585, 46: 0.739686, 47: 1.439667, 48: 3.51543, 49: 3.445381, 50: 3.882868, 51: 1.930703, 52: 3.805856, 53: 2.931141, 54: 3.929791, 55: 3.25545, 56: 2.505055, 57: 1.030564, 58: 1.889079, 59: 0.7162500000000001, 60: 3.453883, 61: 3.479867, 62: 3.040796, 63: 0.82859, 64: 3.283612, 65: 3.990858, 66: 3.304758, 67: 3.052157, 68: 2.441756, 69: 2.736416, 70: 3.098821, 71: 0.154421, 72: 3.21815, 73: 1.179701, 74: 3.066652, 75: 1.305605, 76: 1.626883, 77: 1.352998, 78: 2.754162, 79: 3.669995, 80: 2.591679, 81: 2.462463, 82: 3.239426, 83: 3.517042, 84: 2.265489, 85: 2.713729, 86: 3.352445, 87: 0.702763, 88: 3.771924, 89: 2.913233, 90: 0.237872, 91: 2.178963, 92: 1.972702, 93: 2.182468, 94: 2.37891, 95: 0.919683, 96: 1.699553, 97: 1.584088, 98: 2.137322, 99: 2.819186, 100: 0.395621, 101: 3.847071, 102: 0.6256890000000001, 103: 2.154144, 104: 1.944654, 105: 0.966813, 106: 3.649742, 107: 1.261534, 108: 0.902931, 109: 1.126538, 110: 1.014223, 111: 3.498927, 112: 2.676932, 113: 1.997873, 114: 2.906234, 115: 0.189877, 116: 1.889633, 117: 3.035683, 118: 0.692895, 119: 0.636345, 120: 3.916474, 121: 3.561664, 122: 3.287116, 123: 1.861133, 124: 0.522383, 125: 0.172614, 126: 2.754985, 127: 1.816734, 128: 1.546878, 129: 1.593749, 130: 2.514732, 131: 1.414798, 132: 0.704091, 133: 2.697811, 134: 3.089901, 135: 1.806812, 136: 2.968865, 137: 1.608348, 138: 0.157287, 139: 3.224443, 140: 1.938583, 141: 2.298636, 142: 0.5280359999999999, 143: 3.055453, 144: 2.638815, 145: 0.365789, 146: 3.560016, 147: 2.3841, 148: 3.622738, 149: 1.861263, 150: 2.073073, 151: 2.406871, 152: 0.335097, 153: 0.5903040000000001, 154: 2.031107, 155: 0.6853050000000001, 156: 2.529305, 157: 3.777858, 158: 2.050334, 159: 2.20202, 160: 3.596514, 161: 1.067947, 162: 0.115726, 163: 3.514584, 164: 2.913865, 165: 0.255752, 166: 2.123945, 167: 2.589353, 168: 1.260568, 169: 2.275583, 170: 1.501957, 171: 3.2543, 172: 3.473119, 173: 1.752685, 174: 1.089199, 175: 2.0878, 176: 0.506118, 177: 3.831862, 178: 0.153774, 179: 1.921063, 180: 1.596011, 181: 0.985027, 182: 3.370956, 183: 2.072842, 184: 1.506705, 185: 2.976713, 186: 1.770134, 187: 0.315467, 188: 3.140655, 189: 1.516065, 190: 3.396431, 191: 1.009186];
charge = [0: 0.228119, 1: 0.715513, 2: 0.358855, 3: 0.657973, 4: 0.836828, 5: 0.135647, 6: 0.236372, 7: 0.936967, 8: 0.659304, 9: 0.870495, 10: 0.219256, 11: 0.6479240000000001, 12: 0.943661, 13: 0.913838, 14: 0.938375, 15: 0.639664, 16: 0.762971, 17: 0.013462, 18: 0.288935, 19: 0.836571, 20: 0.506606, 21: 0.725917, 22: 0.045427, 23: 0.158906, 24: 0.6285500000000001, 25: 0.449262, 26: 0.102641, 27: 0.299272, 28: 0.102276, 29: 0.46005, 30: 0.967284, 31: 0.418748, 32: 0.820268, 33: 0.582869, 34: 0.816493, 35: 0.773608, 36: 0.69618, 37: 0.832521, 38: 0.72699, 39: 0.916754, 40: 0.960465, 41: 0.481739, 42: 0.900276, 43: 0.006994, 44: 0.665455, 45: 0.066289, 46: 0.956502, 47: 0.453144, 48: 0.143539, 49: 0.597942, 50: 0.07932400000000001, 51: 0.082131, 52: 0.583028, 53: 0.74849, 54: 0.312057, 55: 0.816705, 56: 0.282339, 57: 0.562032, 58: 0.925443, 59: 0.681734, 60: 0.9396139999999999, 61: 0.015576, 62: 0.501517, 63: 0.552775, 64: 0.550744, 65: 0.910293, 66: 0.647274, 67: 0.466402, 68: 0.704153, 69: 0.595123, 70: 0.658636, 71: 0.971238, 72: 0.706447, 73: 0.625882, 74: 0.783429, 75: 0.162645, 76: 0.318694, 77: 0.913378, 78: 0.459524, 79: 0.772443, 80: 0.761718, 81: 0.654693, 82: 0.61172, 83: 0.603028, 84: 0.580944, 85: 0.696715, 86: 0.470242, 87: 0.525606, 88: 0.08006099999999999, 89: 0.611608, 90: 0.190826, 91: 0.995516, 92: 0.88398, 93: 0.476279, 94: 0.789879, 95: 0.007676, 96: 0.949807, 97: 0.059363, 98: 0.894386, 99: 0.260532, 100: 0.14867, 101: 0.79278, 102: 0.5565870000000001, 103: 0.341388, 104: 0.80867, 105: 0.262213, 106: 0.526007, 107: 0.417974, 108: 0.133651, 109: 0.538651, 110: 0.826386, 111: 0.685354, 112: 0.677938, 113: 0.137649, 114: 0.09235500000000001, 115: 0.793367, 116: 0.75218, 117: 0.640255, 118: 0.802941, 119: 0.833534, 120: 0.250931, 121: 0.160267, 122: 0.110019, 123: 0.536332, 124: 0.634195, 125: 0.975922, 126: 0.629239, 127: 0.29475, 128: 0.660761, 129: 0.862354, 130: 0.376802, 131: 0.184391, 132: 0.008904, 133: 0.146084, 134: 0.44207, 135: 0.567894, 136: 0.39056, 137: 0.617062, 138: 0.52664, 139: 0.776414, 140: 0.073764, 141: 0.716041, 142: 0.980861, 143: 0.300881, 144: 0.683947, 145: 0.439818, 146: 0.937563, 147: 0.600801, 148: 0.11248, 149: 0.687904, 150: 0.498458, 151: 0.6135930000000001, 152: 0.011531, 153: 0.975146, 154: 0.495332, 155: 0.007984, 156: 0.854152, 157: 0.763414, 158: 0.011116, 159: 0.277133, 160: 0.9779679999999999, 161: 0.806401, 162: 0.288462, 163: 0.231386, 164: 0.410577, 165: 0.304078, 166: 0.898, 167: 0.846712, 168: 0.5337190000000001, 169: 0.151937, 170: 0.299863, 171: 0.780913, 172: 0.376788, 173: 0.933729, 174: 0.479486, 175: 0.988385, 176: 0.237713, 177: 0.41553, 178: 0.484644, 179: 0.819026, 180: 0.495662, 181: 0.662395, 182: 0.671826, 183: 0.368845, 184: 0.012799, 185: 0.987638, 186: 0.411395, 187: 0.811148, 188: 0.820819, 189: 0.611943, 190: 0.667364, 191: 0.784861];
discharge = [0: 0.086893, 1: 0.87127, 2: 0.398078, 3: 0.52713, 4: 0.100803, 5: 0.270273, 6: 0.990187, 7: 0.591342, 8: 0.730365, 9: 0.817953, 10: 0.426304, 11: 0.942953, 12: 0.161422, 13: 0.307076, 14: 0.18024, 15: 0.168407, 16: 0.081868, 17: 0.5756289999999999, 18: 0.923728, 19: 0.492852, 20: 0.482256, 21: 0.790965, 22: 0.135456, 23: 0.327862, 24: 0.44932, 25: 0.068982, 26: 0.029573, 27: 0.553655, 28: 0.33709, 29: 0.251028, 30: 0.033471, 31: 0.643103, 32: 0.016179, 33: 0.959044, 34: 0.301161, 35: 0.512487, 36: 0.116358, 37: 0.71479, 38: 0.368817, 39: 0.95094, 40: 0.375614, 41: 0.908585, 42: 0.030668, 43: 0.678268, 44: 0.671973, 45: 0.6423680000000001, 46: 0.200769, 47: 0.130991, 48: 0.677867, 49: 0.684264, 50: 0.723355, 51: 0.530599, 52: 0.817744, 53: 0.966901, 54: 0.697038, 55: 0.053642, 56: 0.713109, 57: 0.957405, 58: 0.568459, 59: 0.08420999999999999, 60: 0.796573, 61: 0.033879, 62: 0.803804, 63: 0.312602, 64: 0.713055, 65: 0.90959, 66: 0.22641, 67: 0.237611, 68: 0.528552, 69: 0.829437, 70: 0.914663, 71: 0.133139, 72: 0.120185, 73: 0.057237, 74: 0.199707, 75: 0.7481680000000001, 76: 0.641249, 77: 0.469672, 78: 0.052869, 79: 0.304548, 80: 0.420913, 81: 0.954157, 82: 0.289384, 83: 0.046415, 84: 0.025324, 85: 0.236104, 86: 0.68237, 87: 0.268233, 88: 0.807731, 89: 0.179926, 90: 0.347466, 91: 0.208726, 92: 0.37643, 93: 0.203259, 94: 0.978453, 95: 0.584335, 96: 0.310622, 97: 0.584182, 98: 0.5243139999999999, 99: 0.436977, 100: 0.508209, 101: 0.337447, 102: 0.397545, 103: 0.481235, 104: 0.735171, 105: 0.941432, 106: 0.044079, 107: 0.935534, 108: 0.323843, 109: 0.32226, 110: 0.218896, 111: 0.779999, 112: 0.011543, 113: 0.717139, 114: 0.109555, 115: 0.790394, 116: 0.9691689999999999, 117: 0.282604, 118: 0.468831, 119: 0.592894, 120: 0.430614, 121: 0.674023, 122: 0.130318, 123: 0.459211, 124: 0.387881, 125: 0.013598, 126: 0.586086, 127: 0.811916, 128: 0.688991, 129: 0.922454, 130: 0.5299739999999999, 131: 0.420795, 132: 0.47016, 133: 0.00233, 134: 0.161404, 135: 0.676695, 136: 0.652245, 137: 0.695927, 138: 0.452428, 139: 0.09013599999999999, 140: 0.497688, 141: 0.461967, 142: 0.277846, 143: 0.494338, 144: 0.711876, 145: 0.707296, 146: 0.390746, 147: 0.642213, 148: 0.863142, 149: 0.046421, 150: 0.7864409999999999, 151: 0.279031, 152: 0.146565, 153: 0.509609, 154: 0.244623, 155: 0.816847, 156: 0.62637, 157: 0.233251, 158: 0.641155, 159: 0.121531, 160: 0.76528, 161: 0.804986, 162: 0.6553060000000001, 163: 0.182321, 164: 0.558597, 165: 0.067374, 166: 0.141631, 167: 0.327234, 168: 0.093892, 169: 0.538166, 170: 0.352303, 171: 0.580937, 172: 0.71394, 173: 0.318847, 174: 0.365063, 175: 0.523139, 176: 0.837242, 177: 0.775945, 178: 0.24989, 179: 0.107115, 180: 0.425135, 181: 0.007511, 182: 0.769889, 183: 0.398095, 184: 0.741347, 185: 0.691013, 186: 0.540466, 187: 0.315107, 188: 0.847519, 189: 0.455635, 190: 0.995072, 191: 0.35068];
soc = [0: 11.321057, 1: 10.868296, 2: 13.034605, 3: 7.374433, 4: 14.155709, 5: 9.885505999999999, 6: 13.886983, 7: 5.223597, 8: 10.469516, 9: 12.274822, 10: 14.553609, 11: 9.842157, 12: 10.166727, 13: 5.443253, 14: 8.761308, 15: 4.365801, 16: 15.140826, 17: 11.463958, 18: 12.778702, 19: 8.119351999999999, 20: 2.848623, 21: 8.029470999999999, 22: 14.622799, 23: 15.308611, 24: 6.436424, 25: 4.435985, 26: 6.25195, 27: 6.021603, 28: 9.228263999999999, 29: 5.030423, 30: 10.035115, 31: 12.122284, 32: 15.068681, 33: 5.445167, 34: 8.389703000000001, 35: 10.215312, 36: 2.726403, 37: 2.663553, 38: 6.721547, 39: 10.184743, 40: 4.064234, 41: 5.836572, 42: 14.666256, 43: 7.716074, 44: 13.338407, 45: 14.246516, 46: 15.371391, 47: 4.295712, 48: 13.000963, 49: 4.350895, 50: 4.422087, 51: 8.491218, 52: 9.200869000000001, 53: 11.976153, 54: 8.416734999999999, 55: 8.684362, 56: 3.886177, 57: 14.557774, 58: 13.322318, 59: 14.156555, 60: 2.87342, 61: 13.395919, 62: 14.95156, 63: 7.317919, 64: 8.084871, 65: 8.401724, 66: 5.060812, 67: 5.90181, 68: 12.115843, 69: 4.959813, 70: 5.473529, 71: 8.809925, 72: 7.756281, 73: 11.708636, 74: 9.85596, 75: 14.629197, 76: 5.799843, 77: 13.961769, 78: 11.799438, 79: 5.746689, 80: 12.884466, 81: 3.075539, 82: 11.146784, 83: 10.444245, 84: 6.303372, 85: 13.337881, 86: 4.61232, 87: 3.033763, 88: 15.306535, 89: 15.226145, 90: 10.817149, 91: 2.910367, 92: 8.869783999999999, 93: 6.847243, 94: 10.903494, 95: 9.829910999999999, 96: 14.236139, 97: 6.562468, 98: 5.630053, 99: 8.067798, 100: 6.821085, 101: 3.55493, 102: 8.680567999999999, 103: 5.421762, 104: 6.572401, 105: 7.558505, 106: 9.455909, 107: 7.389061, 108: 7.767079, 109: 13.944528, 110: 10.881517, 111: 7.113446, 112: 5.66356, 113: 13.960441, 114: 10.934356, 115: 13.175371, 116: 13.357213, 117: 8.793342000000001, 118: 6.616838, 119: 6.97558, 120: 11.33233, 121: 5.943335, 122: 11.056096, 123: 11.083707, 124: 10.261844, 125: 9.961555000000001, 126: 5.050444, 127: 13.494533, 128: 14.739882, 129: 3.635713, 130: 6.117187, 131: 7.277896, 132: 14.02581, 133: 5.074898, 134: 15.375732, 135: 14.772963, 136: 5.138716, 137: 5.962751, 138: 9.59661, 139: 13.823663, 140: 11.082086, 141: 7.802309, 142: 10.85837, 143: 15.329831, 144: 11.100682, 145: 11.749976, 146: 6.123281, 147: 14.213276, 148: 5.180803, 149: 8.871221, 150: 5.536942, 151: 3.95524, 152: 5.664916, 153: 13.403332, 154: 6.340142, 155: 9.747616000000001, 156: 8.994384, 157: 14.07862, 158: 9.137442, 159: 11.216357, 160: 10.470604, 161: 8.70224, 162: 4.835439, 163: 7.024808, 164: 13.560363, 165: 13.674818, 166: 4.394865, 167: 13.514836, 168: 9.86565, 169: 12.210276, 170: 13.484258, 171: 13.813819, 172: 11.71916, 173: 12.122606, 174: 5.557696, 175: 6.428532, 176: 14.335584, 177: 8.164814, 178: 5.057752, 179: 7.049893, 180: 9.47941, 181: 8.225417999999999, 182: 6.521746, 183: 15.623727, 184: 15.658396, 185: 9.071332999999999, 186: 10.908595, 187: 3.822487, 188: 3.291502, 189: 4.64344, 190: 8.24339, 191: 12.370152];
cost = [0: 284.67318, 1: 399.686504, 2: 281.607342, 3: 99.382707, 4: 255.35421, 5: 114.329709, 6: 569.909356, 7: 166.225943, 8: 497.04462, 9: 428.080364, 10: 26.980767, 11: 241.072058, 12: 506.434747, 13: 593.129046, 14: 435.611179, 15: 414.414319, 16: 557.560401, 17: 94.22207299999999, 18: 275.172693, 19: 31.911864, 20: 31.021932, 21: 305.257398, 22: 147.521527, 23: 496.431279, 24: 1126.308898, 25: 535.425515, 26: 1027.021136, 27: 1082.734432, 28: 988.686652, 29: 320.033284, 30: 646.44348, 31: 98.853056, 32: 60.888704, 33: 1134.32229, 34: 1166.395369, 35: 1053.344358, 36: 1128.087046, 37: 106.886666, 38: 159.083202, 39: 681.144638, 40: 279.521046, 41: 87.77010799999999, 42: 294.013631, 43: 662.830747, 44: 453.403321, 45: 974.870494, 46: 770.249697, 47: 746.417153, 48: 385.29437, 49: 857.843394, 50: 1170.866321, 51: 1117.662906, 52: 491.069966, 53: 262.272284, 54: 4.288774, 55: 4.925447, 56: 69.17559199999999, 57: 140.14418, 58: 55.518213, 59: 112.594523, 60: 527.503763, 61: 268.807669, 62: 781.4031220000001, 63: 1096.4834, 64: 822.239914, 65: 413.817052, 66: 641.8016730000001, 67: 79.827595, 68: 262.591892, 69: 852.034228, 70: 161.861809, 71: 434.80601, 72: 182.368316, 73: 1167.506757, 74: 179.758115, 75: 490.43412, 76: 906.645454, 77: 23.08643, 78: 839.240417, 79: 53.536766, 80: 771.885642, 81: 99.07475100000001, 82: 906.142578, 83: 573.7269240000001, 84: 928.3653399999999, 85: 840.8140090000001, 86: 439.509824, 87: 214.294023, 88: 92.97921700000001, 89: 371.881528, 90: 94.38173999999999, 91: 143.958835, 92: 306.388327, 93: 475.14432, 94: 356.625699, 95: 191.586881, 96: 285.629327, 97: 411.349111, 98: 36.152162, 99: 247.34167, 100: 254.575826, 101: 223.946948, 102: 109.929978, 103: 198.19376, 104: 34.73071, 105: 213.251511, 106: 67.803794, 107: 374.004424, 108: 108.091293, 109: 30.39644, 110: 317.965956, 111: 335.104858, 112: 609.085914, 113: 603.006954, 114: 151.086945, 115: 369.902292, 116: 283.647053, 117: 457.398858, 118: 470.994843, 119: 22.682134, 120: 499.656245, 121: 241.638854, 122: 523.958667, 123: 33.306533, 124: 337.300055, 125: 937.742019, 126: 955.680758, 127: 755.812998, 128: 631.2834800000001, 129: 1040.516574, 130: 901.433483, 131: 634.8093699999999, 132: 704.88514, 133: 834.188567, 134: 510.681783, 135: 55.805873, 136: 1091.017504, 137: 953.745642, 138: 313.255926, 139: 976.104571, 140: 356.660851, 141: 602.0476159999999, 142: 616.948609, 143: 514.991035, 144: 1098.779142, 145: 218.43564, 146: 645.496673, 147: 129.278975, 148: 471.745832, 149: 168.467117, 150: 241.918394, 151: 239.14762, 152: 57.967671, 153: 597.252958, 154: 520.703803, 155: 420.367079, 156: 630.60209, 157: 935.150351, 158: 1044.811242, 159: 921.230338, 160: 130.509441, 161: 851.325783, 162: 525.2668660000001, 163: 764.576208, 164: 1047.317154, 165: 715.166101, 166: 51.508853, 167: 549.595222, 168: 600.098629, 169: 213.503292, 170: 712.555608, 171: 423.584883, 172: 317.438042, 173: 381.460778, 174: 23.663836, 175: 359.659943, 176: 550.929612, 177: 676.491955, 178: 752.428275, 179: 297.79468, 180: 193.033457, 181: 312.489801, 182: 284.62895, 183: 912.0243369999999, 184: 430.970942, 185: 289.936602, 186: 84.84213699999999, 187: 554.508961, 188: 423.543667, 189: 531.699981, 190: 333.382357, 191: 311.866511];
earn = [0: 0.209975, 1: 2.156076, 2: 0.07070899999999999, 3: 1.171738, 4: 1.232432, 5: 1.256103, 6: 0.358253, 7: 0.723839, 8: 0.81009, 9: 1.042384, 10: 0.723949, 11: 0.862019, 12: 2.138594, 13: 1.423903, 14: 1.65574, 15: 1.014057, 16: 1.390035, 17: 1.043779, 18: 0.767159, 19: 0.218084, 20: 1.198841, 21: 1.85128, 22: 0.141813, 23: 1.982193, 24: 0.356395, 25: 1.642148, 26: 1.701436, 27: 1.979264, 28: 0.286217, 29: 0.864415, 30: 1.179863, 31: 1.771444, 32: 1.20572, 33: 0.446992, 34: 1.136959, 35: 0.367977, 36: 0.8905960000000001, 37: 0.767597, 38: 0.566893, 39: 0.292824, 40: 0.223834, 41: 0.02713, 42: 0.102424, 43: 0.257152, 44: 0.082469, 45: 0.004193, 46: 0.046751, 47: 0.084492, 48: 0.116032, 49: 0.016251, 50: 0.067624, 51: 0.125753, 52: 0.183855, 53: 0.126493, 54: 0.142631, 55: 0.180209, 56: 0.316036, 57: 0.443309, 58: 0.461608, 59: 0.030388, 60: 0.391523, 61: 0.347273, 62: 0.816981, 63: 0.471406, 64: 0.178274, 65: 2.231496, 66: 1.903695, 67: 0.608771, 68: 0.769222, 69: 1.301936, 70: 2.653729, 71: 2.255303, 72: 1.266221, 73: 0.5505, 74: 1.770797, 75: 0.373394, 76: 3.207013, 77: 0.684898, 78: 2.993642, 79: 2.366961, 80: 0.46831, 81: 0.529973, 82: 1.056282, 83: 1.675792, 84: 0.97236, 85: 0.8713689999999999, 86: 0.099341, 87: 1.496138, 88: 1.140764, 89: 2.472959, 90: 1.167125, 91: 1.727082, 92: 1.937921, 93: 2.288376, 94: 0.416689, 95: 1.126102, 96: 0.867811, 97: 0.568028, 98: 2.104103, 99: 1.804971, 100: 1.818328, 101: 0.215818, 102: 0.299134, 103: 0.5772890000000001, 104: 1.751013, 105: 0.32555, 106: 2.100099, 107: 2.230528, 108: 1.604515, 109: 2.164089, 110: 2.217696, 111: 2.186595, 112: 1.632671, 113: 1.041204, 114: 1.832761, 115: 1.609338, 116: 2.068709, 117: 2.258781, 118: 0.741924, 119: 0.43477, 120: 1.32524, 121: 0.134928, 122: 0.165268, 123: 0.10487, 124: 0.385874, 125: 0.697986, 126: 0.201564, 127: 2.117643, 128: 1.515126, 129: 2.286502, 130: 1.241751, 131: 0.001097, 132: 2.199547, 133: 0.505017, 134: 1.258382, 135: 1.702211, 136: 1.379717, 137: 0.972003, 138: 0.417832, 139: 1.172883, 140: 0.492589, 141: 0.010613, 142: 0.05379, 143: 0.557592, 144: 0.114853, 145: 0.12952, 146: 0.265323, 147: 0.105387, 148: 0.167247, 149: 0.109667, 150: 0.341979, 151: 0.32296, 152: 0.420262, 153: 0.106765, 154: 0.099551, 155: 0.0678, 156: 0.218516, 157: 0.154146, 158: 0.014022, 159: 0.163093, 160: 0.413008, 161: 0.8362000000000001, 162: 1.615075, 163: 1.154889, 164: 0.21804, 165: 0.451819, 166: 1.311042, 167: 0.957758, 168: 0.264526, 169: 1.089802, 170: 0.330791, 171: 1.89152, 172: 0.5748799999999999, 173: 2.479589, 174: 0.160493, 175: 1.165909, 176: 0.07220500000000001, 177: 2.540512, 178: 2.329823, 179: 0.39899, 180: 2.852953, 181: 1.552259, 182: 0.215759, 183: 0.709107, 184: 1.240576, 185: 1.25716, 186: 2.365799, 187: 1.079129, 188: 2.142414, 189: 1.234659, 190: 0.855594, 191: 0.169696];
total_cost = 89.59388376867199;
total_earn = 28.73896437918411;
