production = [0: 0.0, 1: 0.0, 2: 0.0, 3: 0.0, 4: 0.0, 5: 0.0, 6: 0.0, 7: 0.0, 8: 0.0, 9: 0.0, 10: 0.0, 11: 0.0, 12: 0.0, 13: 0.0, 14: 0.0, 15: 0.0, 16: 0.0, 17: 0.0, 18: 0.0, 19: 0.0, 20: 0.0, 21: 0.000258, 22: 0.000281, 23: 0.00079, 24: 0.009050000000000001, 25: 0.031904, 26: 0.081624, 27: 0.049806, 28: 0.13469, 29: 0.243973, 30: 0.050716, 31: 0.205807, 32: 0.141707, 33: 0.009253000000000001, 34: 0.71011, 35: 0.26616, 36: 0.664438, 37: 0.15988, 38: 0.314318, 39: 0.398792, 40: 0.457125, 41: 0.157901, 42: 0.51331, 43: 0.21024, 44: 0.73833, 45: 0.679185, 46: 0.670744, 47: 0.400434, 48: 0.261127, 49: 0.145042, 50: 0.252821, 51: 0.492284, 52: 0.5119359999999999, 53: 0.174354, 54: 0.765481, 55: 0.178258, 56: 0.22664, 57: 0.913087, 58: 0.474064, 59: 0.445977, 60: 0.349733, 61: 0.170141, 62: 0.504325, 63: 0.166571, 64: 0.174912, 65: 0.11121, 66: 0.05976, 67: 0.124692, 68: 0.152996, 69: 0.130434, 70: 0.063246, 71: 0.000109, 72: 0.002903, 73: 0.00028, 74: 0.000227, 75: 0.0, 76: 0.0, 77: 0.0, 78: 0.0, 79: 0.0, 80: 0.0, 81: 0.0, 82: 0.0, 83: 0.0, 84: 0.0, 85: 0.0, 86: 0.0, 87: 0.0, 88: 0.0, 89: 0.0, 90: 0.0, 91: 0.0, 92: 0.0, 93: 0.0, 94: 0.0, 95: 0.0];
buy = [0: 449.343759, 1: 200.162354, 2: 795.120484, 3: 802.711983, 4: 175.271969, 5: 59.069521, 6: 313.429439, 7: 279.582084, 8: 124.257166, 9: 669.496841, 10: 871.996966, 11: 233.826363, 12: 703.759623, 13: 772.209054, 14: 662.793892, 15: 518.2762739999999, 16: 752.687993, 17: 868.020081, 18: 569.181408, 19: 409.307247, 20: 547.4803020000001, 21: 603.533564, 22: 754.375511, 23: 863.873349, 24: 410.686481, 25: 717.187108, 26: 567.955278, 27: 884.870629, 28: 677.750305, 29: 67.094651, 30: 407.994992, 31: 900.157236, 32: 410.245289, 33: 60.796673, 34: 740.618464, 35: 432.138699, 36: 909.214278, 37: 932.87478, 38: 325.293456, 39: 484.236257, 40: 709.0112360000001, 41: 979.371514, 42: 828.222459, 43: 367.993572, 44: 600.363517, 45: 731.454818, 46: 397.097281, 47: 550.057354, 48: 443.17659, 49: 354.180754, 50: 609.175026, 51: 395.633558, 52: 493.605232, 53: 334.714009, 54: 290.194877, 55: 678.395237, 56: 36.624336, 57: 242.424562, 58: 682.0464459999999, 59: 148.588688, 60: 1.471313, 61: 990.592145, 62: 208.025188, 63: 118.095319, 64: 81.482001, 65: 297.522378, 66: 96.50901, 67: 284.341091, 68: 787.498277, 69: 178.696587, 70: 126.597504, 71: 587.369211, 72: 93.73126499999999, 73: 740.333457, 74: 299.615718, 75: 621.242372, 76: 586.14576, 77: 711.39237, 78: 148.091053, 79: 12.654932, 80: 761.923598, 81: 160.313461, 82: 83.685811, 83: 768.849998, 84: 543.083167, 85: 805.684798, 86: 123.699269, 87: 474.669635, 88: 859.605011, 89: 616.255422, 90: 506.303395, 91: 637.7469180000001, 92: 74.994615, 93: 652.947736, 94: 90.027253, 95: 502.87446];
sell = [0: 2.634518, 1: 2.074349, 2: 3.459138, 3: 0.955848, 4: 0.006667, 5: 0.519118, 6: 1.316662, 7: 1.218852, 8: 2.781102, 9: 3.410999, 10: 3.983882, 11: 2.070814, 12: 1.967915, 13: 0.374344, 14: 2.633463, 15: 2.337558, 16: 1.292247, 17: 0.215331, 18: 3.680926, 19: 1.26585, 20: 1.052081, 21: 0.604752, 22: 1.180332, 23: 0.7420099999999999, 24: 1.801507, 25: 0.82536, 26: 1.165162, 27: 2.237983, 28: 1.941127, 29: 2.110794, 30: 0.949834, 31: 3.047547, 32: 1.202453, 33: 1.209561, 34: 1.795945, 35: 1.933473, 36: 1.090879, 37: 1.629335, 38: 3.80938, 39: 1.656766, 40: 2.354499, 41: 3.620791, 42: 3.151266, 43: 2.746916, 44: 2.463053, 45: 0.77315, 46: 0.317679, 47: 3.496862, 48: 2.199665, 49: 3.935504, 50: 1.047876, 51: 1.566686, 52: 0.726916, 53: 1.940951, 54: 1.580893, 55: 0.638011, 56: 1.870328, 57: 1.729717, 58: 1.852147, 59: 2.412174, 60: 0.252163, 61: 0.578882, 62: 3.373347, 63: 1.346553, 64: 0.7729240000000001, 65: 1.790972, 66: 2.318106, 67: 1.515767, 68: 0.500961, 69: 0.214344, 70: 2.72636, 71: 2.690085, 72: 1.962007, 73: 1.708659, 74: 3.548139, 75: 0.9171, 76: 2.7126, 77: 2.647907, 78: 0.200497, 79: 3.564078, 80: 0.262384, 81: 3.625057, 82: 1.268758, 83: 3.266002, 84: 0.7603529999999999, 85: 1.125534, 86: 0.546298, 87: 3.157736, 88: 3.32329, 89: 2.694431, 90: 1.201275, 91: 1.658472, 92: 3.188344, 93: 0.015465, 94: 3.384506, 95: 1.982082];
charge = [0: 0.407692, 1: 0.705786, 2: 0.8055600000000001, 3: 0.462699, 4: 0.602804, 5: 0.223096, 6: 0.407593, 7: 0.860711, 8: 0.285041, 9: 0.103567, 10: 0.455262, 11: 0.902691, 12: 0.616491, 13: 0.720868, 14: 0.877614, 15: 0.783635, 16: 0.589865, 17: 0.477133, 18: 0.949672, 19: 0.37126, 20: 0.392057, 21: 0.896817, 22: 0.34571, 23: 0.954151, 24: 0.393688, 25: 0.954278, 26: 0.509757, 27: 0.908733, 28: 0.464428, 29: 0.090283, 30: 0.890282, 31: 0.814737, 32: 0.88762, 33: 0.308803, 34: 0.860016, 35: 0.356766, 36: 0.9285060000000001, 37: 0.258972, 38: 0.331812, 39: 0.7312110000000001, 40: 0.032384, 41: 0.560231, 42: 0.812098, 43: 0.733648, 44: 0.6660779999999999, 45: 0.288835, 46: 0.141692, 47: 0.520074, 48: 0.495487, 49: 0.5590039999999999, 50: 0.35877, 51: 0.414204, 52: 0.727544, 53: 0.595664, 54: 0.031944, 55: 0.938147, 56: 0.414335, 57: 0.194806, 58: 0.5481510000000001, 59: 0.70703, 60: 0.634176, 61: 0.871779, 62: 0.925272, 63: 0.032212, 64: 0.7481719999999999, 65: 0.583838, 66: 0.121109, 67: 0.671085, 68: 0.938447, 69: 0.738717, 70: 0.316722, 71: 0.775745, 72: 0.710239, 73: 0.884228, 74: 0.266596, 75: 0.467525, 76: 0.592688, 77: 0.382873, 78: 0.605995, 79: 0.238785, 80: 0.549639, 81: 0.37812, 82: 0.027854, 83: 0.894166, 84: 0.784927, 85: 0.55769, 86: 0.141114, 87: 0.129828, 88: 0.337362, 89: 0.380958, 90: 0.13142, 91: 0.09145, 92: 0.7264429999999999, 93: 0.147138, 94: 0.234876, 95: 0.521687];
discharge = [0: 0.971479, 1: 0.860236, 2: 0.588444, 3: 0.222832, 4: 0.798297, 5: 0.688474, 6: 0.100262, 7: 0.040048, 8: 0.847616, 9: 0.875328, 10: 0.849041, 11: 0.937763, 12: 0.271327, 13: 0.257126, 14: 0.559411, 15: 0.739899, 16: 0.553463, 17: 0.018342, 18: 0.895037, 19: 0.781026, 20: 0.625325, 21: 0.345829, 22: 0.748897, 23: 0.9512350000000001, 24: 0.133063, 25: 0.788306, 26: 0.756945, 27: 0.210246, 28: 0.4558, 29: 0.429799, 30: 0.125114, 31: 0.85164, 32: 0.206493, 33: 0.116983, 34: 0.264284, 35: 0.664923, 36: 0.008914999999999999, 37: 0.869597, 38: 0.61414, 39: 0.102374, 40: 0.10093, 41: 0.656693, 42: 0.339499, 43: 0.277044, 44: 0.422489, 45: 0.289835, 46: 0.735744, 47: 0.057673, 48: 0.220995, 49: 0.717186, 50: 0.840701, 51: 0.592795, 52: 0.108268, 53: 0.850792, 54: 0.116493, 55: 0.964278, 56: 0.321705, 57: 0.478635, 58: 0.134595, 59: 0.013916, 60: 0.7213889999999999, 61: 0.592099, 62: 0.811632, 63: 0.670001, 64: 0.543981, 65: 0.289624, 66: 0.809966, 67: 0.869137, 68: 0.040854, 69: 0.456898, 70: 0.307372, 71: 0.578218, 72: 0.828337, 73: 0.454605, 74: 0.843759, 75: 0.325729, 76: 0.946252, 77: 0.349166, 78: 0.130748, 79: 0.042537, 80: 0.321204, 81: 0.029969, 82: 0.01158, 83: 0.640455, 84: 0.587906, 85: 0.428627, 86: 0.880696, 87: 0.819997, 88: 0.261731, 89: 0.835307, 90: 0.583771, 91: 0.759827, 92: 0.756516, 93: 0.54826, 94: 0.550623, 95: 0.194819];
soc = [0: 3.041259, 1: 4.53458, 2: 5.22997, 3: 2.769447, 4: 3.207828, 5: 6.142715, 6: 4.354455, 7: 4.069677, 8: 9.063757000000001, 9: 2.821254, 10: 4.809003, 11: 9.365417000000001, 12: 5.895528, 13: 5.367775, 14: 14.417949, 15: 4.726572, 16: 5.151466, 17: 8.166245999999999, 18: 5.878281, 19: 14.797284, 20: 14.421322, 21: 3.774602, 22: 15.551307, 23: 14.446897, 24: 9.942834, 25: 15.162347, 26: 13.389404, 27: 14.266514, 28: 10.91803, 29: 10.734024, 30: 15.012454, 31: 4.42065, 32: 13.842094, 33: 9.598934, 34: 3.946159, 35: 10.708438, 36: 7.349502, 37: 14.581837, 38: 7.660532, 39: 7.342589, 40: 10.137975, 41: 4.630568, 42: 3.92952, 43: 9.215868, 44: 5.670941, 45: 3.281185, 46: 9.134188999999999, 47: 10.955979, 48: 12.939872, 49: 2.986827, 50: 8.426617, 51: 13.489128, 52: 8.268067, 53: 13.5657, 54: 7.062835, 55: 8.601156, 56: 7.163418, 57: 14.124979, 58: 3.202499, 59: 15.667411, 60: 10.771614, 61: 4.902218, 62: 4.295215, 63: 5.558514, 64: 8.47889, 65: 9.227764000000001, 66: 13.291317, 67: 8.209039000000001, 68: 13.243769, 69: 7.705028, 70: 4.944677, 71: 10.694569, 72: 4.536812, 73: 6.532752, 74: 8.934189, 75: 12.394312, 76: 12.538609, 77: 13.647091, 78: 12.6815, 79: 13.134041, 80: 7.929582, 81: 3.157647, 82: 12.900112, 83: 5.391136, 84: 6.22179, 85: 9.809763999999999, 86: 12.843327, 87: 7.052345, 88: 8.396307999999999, 89: 9.609584999999999, 90: 6.41421, 91: 12.35361, 92: 9.388782000000001, 93: 10.996638, 94: 3.102889, 95: 14.885139];
cost = [0: 34.770844, 1: 476.649655, 2: 387.073533, 3: 517.39157, 4: 24.09108, 5: 142.965054, 6: 459.597475, 7: 428.825471, 8: 215.448244, 9: 90.80318200000001, 10: 147.665686, 11: 543.835897, 12: 351.533411, 13: 279.642366, 14: 514.395086, 15: 369.010702, 16: 471.879857, 17: 275.523147, 18: 373.418877, 19: 543.601996, 20: 519.150332, 21: 199.042455, 22: 123.916945, 23: 367.874575, 24: 399.700546, 25: 281.008403, 26: 101.522542, 27: 802.756006, 28: 606.956199, 29: 390.17456, 30: 245.517079, 31: 323.804083, 32: 830.504222, 33: 69.471879, 34: 735.648314, 35: 445.562006, 36: 750.279568, 37: 858.7701980000001, 38: 206.305682, 39: 892.298514, 40: 426.196442, 41: 647.687199, 42: 20.335089, 43: 1074.870434, 44: 452.367993, 45: 165.37751, 46: 120.965581, 47: 1073.934764, 48: 1061.467719, 49: 852.5276, 50: 402.897783, 51: 1176.620039, 52: 483.661288, 53: 361.987444, 54: 424.824479, 55: 431.398162, 56: 332.869425, 57: 407.978976, 58: 166.719842, 59: 118.670569, 60: 781.4920100000001, 61: 647.90243, 62: 26.0955, 63: 323.591871, 64: 373.192735, 65: 226.608389, 66: 292.175702, 67: 627.080506, 68: 720.321907, 69: 570.297149, 70: 439.276717, 71: 751.236717, 72: 746.81726, 73: 1180.863549, 74: 485.315643, 75: 929.623166, 76: 1179.723013, 77: 672.952568, 78: 1059.513069, 79: 381.183313, 80: 840.57248, 81: 732.947647, 82: 785.321228, 83: 311.934106, 84: 260.625662, 85: 461.515867, 86: 655.6299279999999, 87: 850.249038, 88: 60.650564, 89: 444.582968, 90: 294.455315, 91: 439.047334, 92: 259.218333, 93: 591.11838, 94: 391.750913, 95: 130.530843];
earn = [0: 0.74339, 1: 2.226886, 2: 2.27416, 3: 0.213444, 4: 0.613228, 5: 2.400736, 6: 1.332642, 7: 2.286923, 8: 1.630141, 9: 0.9461270000000001, 10: 1.016473, 11: 1.260687, 12: 0.5293099999999999, 13: 0.926125, 14: 1.125246, 15: 0.421647, 16: 2.072407, 17: 0.8345320000000001, 18: 2.059684, 19: 1.870119, 20: 2.353213, 21: 0.202087, 22: 2.018186, 23: 2.399471, 24: 2.407941, 25: 2.70835, 26: 0.380932, 27: 1.599372, 28: 0.617954, 29: 1.915469, 30: 1.977005, 31: 2.015996, 32: 0.682701, 33: 0.050052, 34: 0.527581, 35: 0.44855, 36: 1.204585, 37: 0.040289, 38: 0.159313, 39: 0.925482, 40: 0.069121, 41: 0.229747, 42: 0.109619, 43: 0.030079, 44: -0.0, 45: -0.027303, 46: -0.196217, 47: -0.155233, 48: -0.011503, 49: -0.003487, 50: -0.0, 51: 0.017833, 52: 0.015983, 53: 0.057468, 54: 0.027939, 55: 0.072814, 56: 0.51836, 57: 0.056386, 58: 0.775798, 59: 0.203972, 60: 1.420602, 61: 0.644716, 62: 0.296386, 63: 0.986357, 64: 1.253304, 65: 2.075329, 66: 0.300285, 67: 0.339387, 68: 0.227237, 69: 1.201832, 70: 1.126285, 71: 0.71438, 72: 1.48239, 73: 0.82396, 74: 2.236929, 75: 0.380698, 76: 0.827772, 77: 0.11261, 78: 2.044897, 79: 0.007894999999999999, 80: 0.603643, 81: 2.139586, 82: 1.966319, 83: 2.417676, 84: 2.033536, 85: 0.806541, 86: 0.635301, 87: 1.035355, 88: 0.601175, 89: 0.467455, 90: 0.826468, 91: 0.40676, 92: 1.050885, 93: 0.735665, 94: 0.108566, 95: 0.315506];
total_cost = 48.55151188444788;
total_earn = 11.70709244089087;
