production = [0: 0.0, 1: 0.0, 2: 0.0, 3: 0.0, 4: 0.0, 5: 0.0, 6: 0.0, 7: 0.0, 8: 0.0, 9: 0.0, 10: 0.0, 11: 0.0, 12: 0.0, 13: 0.0, 14: 0.0, 15: 0.0, 16: 0.0, 17: 0.0, 18: 0.0, 19: 0.0, 20: 0.0, 21: 0.000208, 22: 0.000266, 23: 0.000455, 24: 0.008413, 25: 0.002748, 26: 0.08065899999999999, 27: 0.060661, 28: 0.036264, 29: 0.101657, 30: 0.109675, 31: 0.06322, 32: 0.618317, 33: 0.385593, 34: 0.283602, 35: 0.58944, 36: 0.605672, 37: 0.420402, 38: 0.26927, 39: 0.6515, 40: 0.542248, 41: 0.30326, 42: 0.231913, 43: 0.02914, 44: 0.014068, 45: 0.691357, 46: 0.72532, 47: 0.337869, 48: 0.008473, 49: 0.668401, 50: 0.777671, 51: 0.700786, 52: 0.386512, 53: 0.652854, 54: 0.112761, 55: 0.046398, 56: 0.305277, 57: 0.308446, 58: 0.658215, 59: 0.363751, 60: 0.351558, 61: 0.528595, 62: 0.357745, 63: 0.033786, 64: 0.477752, 65: 0.25125, 66: 0.179921, 67: 0.150604, 68: 0.126824, 69: 0.074244, 70: 0.015636, 71: 0.016244, 72: 0.002014, 73: 0.000243, 74: 0.000123, 75: 0.0, 76: 0.0, 77: 0.0, 78: 0.0, 79: 0.0, 80: 0.0, 81: 0.0, 82: 0.0, 83: 0.0, 84: 0.0, 85: 0.0, 86: 0.0, 87: 0.0, 88: 0.0, 89: 0.0, 90: 0.0, 91: 0.0, 92: 0.0, 93: 0.0, 94: 0.0, 95: 0.0];
buy = [0: 372.325866, 1: 564.449757, 2: 592.160124, 3: 979.344202, 4: 324.516386, 5: 284.220387, 6: 667.8818209999999, 7: 958.87533, 8: 728.705327, 9: 793.06873, 10: 254.462446, 11: 436.835623, 12: 159.338467, 13: 321.710913, 14: 516.857906, 15: 931.106541, 16: 777.654984, 17: 83.46794800000001, 18: 861.174371, 19: 227.144014, 20: 988.336415, 21: 32.982413, 22: 927.481543, 23: 652.553828, 24: 321.921179, 25: 891.568661, 26: 330.892357, 27: 633.375238, 28: 303.531979, 29: 343.546518, 30: 830.379695, 31: 365.72229, 32: 659.770163, 33: 665.504727, 34: 29.474142, 35: 298.721873, 36: 737.418364, 37: 371.097534, 38: 794.366657, 39: 21.001657, 40: 46.954082, 41: 280.96036, 42: 454.955741, 43: 548.486594, 44: 226.011428, 45: 179.695637, 46: 651.5672970000001, 47: 311.875644, 48: 382.655964, 49: 253.553854, 50: 995.6706840000001, 51: 835.956551, 52: 828.161057, 53: 363.58066, 54: 854.575965, 55: 63.929308, 56: 969.638994, 57: 499.655318, 58: 958.147214, 59: 494.093109, 60: 329.60716, 61: 930.434465, 62: 517.952857, 63: 664.684268, 64: 328.153257, 65: 104.002806, 66: 569.187347, 67: 910.088805, 68: 630.748979, 69: 905.9297769999999, 70: 396.645997, 71: 481.301758, 72: 737.488787, 73: 998.0863859999999, 74: 802.488959, 75: 849.908994, 76: 95.757648, 77: 68.234127, 78: 118.048841, 79: 611.9631000000001, 80: 583.200344, 81: 501.325431, 82: 669.502437, 83: 940.008491, 84: 350.960026, 85: 552.1790099999999, 86: 699.579741, 87: 211.85523, 88: 835.139621, 89: 529.368096, 90: 995.171745, 91: 1.02328, 92: 817.339329, 93: 109.578329, 94: 204.350711, 95: 647.197982];
sell = [0: 3.992307, 1: 3.890732, 2: 0.363551, 3: 3.465673, 4: 3.34229, 5: 3.206373, 6: 3.828689, 7: 1.804248, 8: 0.743872, 9: 1.455073, 10: 3.232282, 11: 1.595729, 12: 3.642322, 13: 2.357654, 14: 2.23816, 15: 2.968252, 16: 3.516896, 17: 3.271004, 18: 1.205479, 19: 3.812891, 20: 2.097963, 21: 1.855436, 22: 0.208109, 23: 3.433709, 24: 0.061891, 25: 2.476845, 26: 3.799561, 27: 2.624838, 28: 2.181657, 29: 1.977878, 30: 1.866499, 31: 2.132754, 32: 2.52939, 33: 2.733164, 34: 1.622108, 35: 1.099518, 36: 2.689718, 37: 1.46894, 38: 2.422772, 39: 1.44375, 40: 1.903699, 41: 1.501938, 42: 1.738057, 43: 3.691619, 44: 0.024796, 45: 2.291423, 46: 1.788396, 47: 3.21372, 48: 1.202946, 49: 3.047613, 50: 2.513416, 51: 1.481357, 52: 3.663174, 53: 0.6188940000000001, 54: 3.093871, 55: 3.319861, 56: 0.134059, 57: 0.904917, 58: 1.310936, 59: 0.81992, 60: 3.639044, 61: 1.918656, 62: 1.05774, 63: 0.545524, 64: 3.728411, 65: 2.61397, 66: 0.41011, 67: 0.803002, 68: 1.655436, 69: 3.610206, 70: 1.701887, 71: 2.596212, 72: 0.014359, 73: 2.544464, 74: 0.997495, 75: 1.212679, 76: 1.368759, 77: 2.362756, 78: 2.947796, 79: 0.895662, 80: 1.608995, 81: 2.288181, 82: 3.611963, 83: 2.861737, 84: 1.238544, 85: 3.471503, 86: 3.587055, 87: 1.892601, 88: 0.521177, 89: 2.01605, 90: 3.378406, 91: 0.109288, 92: 1.731389, 93: 3.902253, 94: 0.6060410000000001, 95: 3.727718];
charge = [0: 0.887898, 1: 0.998956, 2: 0.104842, 3: 0.407953, 4: 0.643609, 5: 0.8072, 6: 0.547383, 7: 0.305703, 8: 0.940109, 9: 0.061142, 10: 0.317277, 11: 0.873153, 12: 0.68793, 13: 0.865665, 14: 0.073209, 15: 0.282731, 16: 0.686815, 17: 0.15836, 18: 0.188595, 19: 0.480335, 20: 0.298642, 21: 0.777003, 22: 0.613948, 23: 0.661927, 24: 0.549, 25: 0.957874, 26: 0.9154409999999999, 27: 0.032825, 28: 0.543233, 29: 0.567635, 30: 0.42383, 31: 0.930283, 32: 0.724342, 33: 0.567118, 34: 0.736116, 35: 0.675915, 36: 0.003828, 37: 0.505826, 38: 0.742901, 39: 0.552329, 40: 0.387807, 41: 0.261161, 42: 0.513474, 43: 0.95373, 44: 0.981193, 45: 0.150634, 46: 0.12561, 47: 0.9784389999999999, 48: 0.026424, 49: 0.301954, 50: 0.981386, 51: 0.816674, 52: 0.190216, 53: 0.301168, 54: 0.315963, 55: 0.8727510000000001, 56: 0.348752, 57: 0.682884, 58: 0.266856, 59: 0.320287, 60: 0.64833, 61: 0.014501, 62: 0.57539, 63: 0.808746, 64: 0.116876, 65: 0.124761, 66: 0.314576, 67: 0.410273, 68: 0.302446, 69: 0.9261, 70: 0.269475, 71: 0.723603, 72: 0.04537, 73: 0.758327, 74: 0.771826, 75: 0.781354, 76: 0.790951, 77: 0.643887, 78: 0.73897, 79: 0.517276, 80: 0.486347, 81: 0.624356, 82: 0.48428, 83: 0.949514, 84: 0.541952, 85: 0.510175, 86: 0.172484, 87: 0.069746, 88: 0.007422, 89: 0.962443, 90: 0.354398, 91: 0.291131, 92: 0.41888, 93: 0.641369, 94: 0.587995, 95: 0.015741];
discharge = [0: 0.793834, 1: 0.528725, 2: 0.504479, 3: 0.057279, 4: 0.970456, 5: 0.430671, 6: 0.690534, 7: 0.730264, 8: 0.535925, 9: 0.505675, 10: 0.6157589999999999, 11: 0.279982, 12: 0.486265, 13: 0.538419, 14: 0.016004, 15: 0.726456, 16: 0.796617, 17: 0.108698, 18: 0.310958, 19: 0.808653, 20: 0.201388, 21: 0.284314, 22: 0.885691, 23: 0.012426, 24: 0.408184, 25: 0.344337, 26: 0.084095, 27: 0.957927, 28: 0.835689, 29: 0.016048, 30: 0.424668, 31: 0.8983719999999999, 32: 0.537075, 33: 0.271039, 34: 0.235058, 35: 0.703515, 36: 0.609059, 37: 0.533581, 38: 0.834116, 39: 0.215437, 40: 0.6444879999999999, 41: 0.864544, 42: 0.780265, 43: 0.863694, 44: 0.504471, 45: 0.466522, 46: 0.712307, 47: 0.638055, 48: 0.186878, 49: 0.68925, 50: 0.704942, 51: 0.393241, 52: 0.175822, 53: 0.6853399999999999, 54: 0.142924, 55: 0.905689, 56: 0.838116, 57: 0.390708, 58: 0.314792, 59: 0.776614, 60: 0.593022, 61: 0.708876, 62: 0.917764, 63: 0.038514, 64: 0.264075, 65: 0.245591, 66: 0.203833, 67: 0.652332, 68: 0.144826, 69: 0.873106, 70: 0.017065, 71: 0.863492, 72: 0.319626, 73: 0.896788, 74: 0.342808, 75: 0.225255, 76: 0.8606780000000001, 77: 0.9860719999999999, 78: 0.011131, 79: 0.535683, 80: 0.690595, 81: 0.825413, 82: 0.168448, 83: 0.001741, 84: 0.103, 85: 0.894041, 86: 0.597337, 87: 0.123353, 88: 0.313864, 89: 0.698816, 90: 0.425271, 91: 0.981832, 92: 0.3869, 93: 0.570172, 94: 0.473934, 95: 0.759036];
soc = [0: 3.572375, 1: 2.681497, 2: 4.477085, 3: 5.542805, 4: 4.055881, 5: 5.205108, 6: 7.710182, 7: 3.865898, 8: 8.075863999999999, 9: 2.830267, 10: 11.989946, 11: 3.518473, 12: 6.608127, 13: 14.209149, 14: 7.125617, 15: 11.680659, 16: 7.621688, 17: 5.930626, 18: 10.784183, 19: 10.669155, 20: 11.485653, 21: 9.986086, 22: 12.570314, 23: 13.556132, 24: 8.492203, 25: 12.156114, 26: 8.776524, 27: 11.35618, 28: 9.150744, 29: 2.874421, 30: 8.463723, 31: 5.151388, 32: 15.600801, 33: 7.364281, 34: 12.766989, 35: 3.783501, 36: 14.301666, 37: 5.667128, 38: 3.840457, 39: 10.782666, 40: 14.137416, 41: 10.066627, 42: 3.739691, 43: 9.309367999999999, 44: 14.722771, 45: 6.205035, 46: 9.377503000000001, 47: 8.543892, 48: 12.046297, 49: 10.460103, 50: 6.36736, 51: 12.905561, 52: 10.740698, 53: 12.148282, 54: 13.655707, 55: 15.051977, 56: 14.403748, 57: 7.18205, 58: 7.055325, 59: 5.116225, 60: 7.494147, 61: 10.32785, 62: 9.269470999999999, 63: 3.136108, 64: 2.864753, 65: 7.231236, 66: 15.528831, 67: 14.382899, 68: 8.559558000000001, 69: 5.823866, 70: 5.508351, 71: 15.312429, 72: 7.89711, 73: 10.830072, 74: 14.455054, 75: 3.005589, 76: 11.714873, 77: 12.850012, 78: 9.964399999999999, 79: 13.333858, 80: 11.750995, 81: 8.143724000000001, 82: 5.250393, 83: 14.637414, 84: 11.470208, 85: 11.448992, 86: 6.246373, 87: 13.199303, 88: 13.695998, 89: 3.659118, 90: 12.738711, 91: 14.128232, 92: 12.396207, 93: 4.342679, 94: 2.979537, 95: 13.902581];
cost = [0: 598.389992, 1: 315.949519, 2: 42.595157, 3: 321.433285, 4: 96.803061, 5: 226.460438, 6: 56.501606, 7: 425.165094, 8: 472.937477, 9: 397.208632, 10: 129.223619, 11: 279.33377, 12: 297.94954, 13: 436.573228, 14: 80.959765, 15: 517.991629, 16: 184.535123, 17: 335.365206, 18: 227.852334, 19: 370.100918, 20: 512.205448, 21: 103.008429, 22: 113.114904, 23: 410.924321, 24: 907.081015, 25: 1184.118613, 26: 807.864028, 27: 320.807892, 28: 95.580761, 29: 447.185091, 30: 137.758337, 31: 1150.607722, 32: 211.069003, 33: 799.889516, 34: 372.754136, 35: 1112.404689, 36: 1040.130256, 37: 174.605548, 38: 187.131738, 39: 201.680784, 40: 511.47484, 41: 619.56817, 42: 1017.614948, 43: 789.762441, 44: 89.583223, 45: 355.869653, 46: 219.881798, 47: 1.451335, 48: 898.127701, 49: 113.604911, 50: 446.017495, 51: 1003.842852, 52: 247.287286, 53: 406.19572, 54: 602.041927, 55: 83.03576700000001, 56: 13.544472, 57: 395.25235, 58: 30.972769, 59: 474.586942, 60: 3.356592, 61: 921.5943150000001, 62: 873.136756, 63: 235.50669, 64: 1002.935554, 65: 1071.447545, 66: 65.12618999999999, 67: 1127.876131, 68: 1157.287926, 69: 254.910275, 70: 97.362212, 71: 368.935657, 72: 173.397678, 73: 1172.051335, 74: 1091.041014, 75: 227.770339, 76: 568.830566, 77: 267.542048, 78: 1161.208376, 79: 1173.885078, 80: 344.597195, 81: 639.151435, 82: 384.776757, 83: 581.993951, 84: 2.310065, 85: 729.003185, 86: 479.124698, 87: 898.666566, 88: 57.643203, 89: 156.584777, 90: 286.110831, 91: 352.494659, 92: 562.358356, 93: 200.772013, 94: 373.025616, 95: 27.288373];
earn = [0: 1.056314, 1: 1.278853, 2: 0.728217, 3: 0.925957, 4: 0.607071, 5: 1.989599, 6: 0.444417, 7: 0.562177, 8: 0.799271, 9: 1.907481, 10: 1.039913, 11: 1.228094, 12: 0.474793, 13: 0.096237, 14: 0.6472329999999999, 15: 1.948813, 16: 0.254904, 17: 2.147886, 18: 1.424716, 19: 2.202055, 20: 1.920968, 21: 2.343492, 22: 1.774931, 23: 1.843654, 24: 2.029169, 25: 0.09876799999999999, 26: 0.165911, 27: 0.794955, 28: 1.353998, 29: 2.147816, 30: 1.445637, 31: 2.23397, 32: 2.03716, 33: 1.771976, 34: 1.276769, 35: 0.230965, 36: 0.781849, 37: 0.53805, 38: 0.274267, 39: 0.770598, 40: 0.222082, 41: 0.079887, 42: 0.02268, 43: 0.07062499999999999, 44: -0.0, 45: -0.065524, 46: -0.150769, 47: -0.175529, 48: -0.025562, 49: -0.00184, 50: -0.0, 51: 0.025139, 52: 0.014972, 53: 0.047061, 54: 0.034487, 55: 0.03173, 56: 0.641313, 57: 0.108668, 58: 0.693192, 59: 0.395371, 60: 0.511732, 61: 0.302727, 62: 0.137914, 63: 0.692383, 64: 1.86195, 65: 1.688163, 66: 1.915758, 67: 1.869524, 68: 1.067567, 69: 2.364543, 70: 1.954635, 71: 0.461408, 72: 0.851583, 73: 0.201069, 74: 0.7665650000000001, 75: 2.258126, 76: 1.29969, 77: 2.204763, 78: 2.817727, 79: 2.558488, 80: 0.642137, 81: 1.593516, 82: 1.050101, 83: 1.307175, 84: 2.016383, 85: 1.122101, 86: 1.381684, 87: 0.456648, 88: 1.656937, 89: 1.04828, 90: 1.500099, 91: 1.393512, 92: 0.702564, 93: 0.79732, 94: 0.872559, 95: 0.75674];
total_cost = 47.99298474866474;
total_earn = 12.38524007259149;
