production = [0: 0.0, 1: 0.0, 2: 0.0, 3: 0.0, 4: 0.0, 5: 0.0, 6: 0.0, 7: 0.0, 8: 0.0, 9: 0.0, 10: 0.0, 11: 0.0, 12: 0.0, 13: 0.0, 14: 0.0, 15: 0.0, 16: 0.0, 17: 0.0, 18: 0.0, 19: 0.0, 20: 0.0, 21: 0.000191, 22: 3.4e-05, 23: 0.000494, 24: 0.007115, 25: 0.014241, 26: 0.051646, 27: 0.019347, 28: 0.1926, 29: 0.234978, 30: 0.186153, 31: 0.590951, 32: 0.301756, 33: 0.255031, 34: 0.410928, 35: 0.651239, 36: 0.30052, 37: 0.033539, 38: 0.222419, 39: 0.508455, 40: 0.191407, 41: 0.5948909999999999, 42: 0.68288, 43: 0.536902, 44: 0.406453, 45: 0.5669380000000001, 46: 0.743934, 47: 0.113287, 48: 0.786819, 49: 0.62858, 50: 0.82651, 51: 0.042435, 52: 0.166923, 53: 0.07145899999999999, 54: 0.7319099999999999, 55: 0.092889, 56: 0.761653, 57: 0.584052, 58: 0.03633, 59: 0.483294, 60: 0.465073, 61: 0.075165, 62: 0.483581, 63: 0.362387, 64: 0.277184, 65: 0.023609, 66: 0.095343, 67: 0.091477, 68: 0.115245, 69: 0.028139, 70: 0.033578, 71: 0.026379, 72: 0.00083, 73: 0.000144, 74: 0.00011, 75: 0.0, 76: 0.0, 77: 0.0, 78: 0.0, 79: 0.0, 80: 0.0, 81: 0.0, 82: 0.0, 83: 0.0, 84: 0.0, 85: 0.0, 86: 0.0, 87: 0.0, 88: 0.0, 89: 0.0, 90: 0.0, 91: 0.0, 92: 0.0, 93: 0.0, 94: 0.0, 95: 0.0];
buy = [0: 428.367455, 1: 929.402438, 2: 730.481511, 3: 323.278485, 4: 767.556421, 5: 5.954837, 6: 116.892323, 7: 863.505361, 8: 937.276165, 9: 71.689898, 10: 907.045971, 11: 968.470003, 12: 594.28006, 13: 460.775998, 14: 873.342047, 15: 19.014698, 16: 85.32286999999999, 17: 349.373533, 18: 82.878486, 19: 692.3609709999999, 20: 969.982983, 21: 532.159279, 22: 211.001699, 23: 745.6139460000001, 24: 829.49733, 25: 66.159392, 26: 648.306616, 27: 251.047113, 28: 898.830575, 29: 343.450373, 30: 111.763858, 31: 335.477128, 32: 112.791853, 33: 12.059796, 34: 698.139579, 35: 888.618984, 36: 515.895166, 37: 419.562507, 38: 792.358301, 39: 175.336588, 40: 718.652751, 41: 746.780027, 42: 534.635252, 43: 234.084503, 44: 205.530157, 45: 629.021332, 46: 598.079786, 47: 85.022192, 48: 169.342989, 49: 322.387225, 50: 756.367301, 51: 204.298988, 52: 458.826217, 53: 177.339002, 54: 697.208095, 55: 107.699593, 56: 563.827019, 57: 116.463476, 58: 330.519199, 59: 378.479796, 60: 493.561369, 61: 729.544697, 62: 50.791852, 63: 45.019258, 64: 482.627754, 65: 646.7260219999999, 66: 883.190659, 67: 775.878752, 68: 508.598464, 69: 449.056476, 70: 445.252985, 71: 987.082826, 72: 358.691209, 73: 456.711578, 74: 876.417578, 75: 493.537117, 76: 613.473099, 77: 421.017995, 78: 237.019663, 79: 495.901442, 80: 398.847781, 81: 822.53427, 82: 103.389219, 83: 746.20589, 84: 348.661807, 85: 147.18704, 86: 456.118626, 87: 555.500176, 88: 743.5870619999999, 89: 369.229869, 90: 617.026037, 91: 616.186729, 92: 697.229297, 93: 678.348024, 94: 821.000132, 95: 85.249945];
sell = [0: 1.863737, 1: 2.160246, 2: 0.860036, 3: 2.878552, 4: 1.336994, 5: 3.77315, 6: 2.114571, 7: 3.260345, 8: 3.802947, 9: 2.423898, 10: 0.277765, 11: 1.304831, 12: 1.26958, 13: 3.435534, 14: 1.486081, 15: 3.736978, 16: 3.361149, 17: 3.534749, 18: 0.916162, 19: 1.953929, 20: 1.047338, 21: 1.752102, 22: 3.854063, 23: 3.182909, 24: 3.181784, 25: 1.012589, 26: 2.523843, 27: 3.595053, 28: 2.315325, 29: 1.735932, 30: 3.285032, 31: 0.395185, 32: 0.334896, 33: 2.159816, 34: 2.239397, 35: 2.057223, 36: 0.530787, 37: 2.395689, 38: 2.030577, 39: 2.488595, 40: 2.490542, 41: 3.387933, 42: 3.177969, 43: 3.432975, 44: 3.806404, 45: 3.885931, 46: 2.260771, 47: 3.681362, 48: 1.08369, 49: 0.872541, 50: 0.20704, 51: 2.794181, 52: 0.689127, 53: 3.528176, 54: 1.686689, 55: 1.189562, 56: 3.646676, 57: 2.180267, 58: 3.829102, 59: 0.5306149999999999, 60: 2.629466, 61: 3.31266, 62: 3.607219, 63: 1.333438, 64: 1.250723, 65: 2.257684, 66: 2.408823, 67: 0.871485, 68: 3.992024, 69: 3.507108, 70: 1.475158, 71: 2.528717, 72: 2.332626, 73: 3.815573, 74: 1.008781, 75: 3.506131, 76: 2.129149, 77: 0.76086, 78: 2.53411, 79: 1.30739, 80: 3.833938, 81: 0.992424, 82: 1.233627, 83: 0.882424, 84: 0.837873, 85: 3.818148, 86: 0.580987, 87: 2.451008, 88: 3.953251, 89: 1.978985, 90: 3.574743, 91: 3.327842, 92: 0.754812, 93: 3.14532, 94: 2.649347, 95: 1.117337];
charge = [0: 0.657775, 1: 0.22235, 2: 0.850325, 3: 0.793955, 4: 0.15426, 5: 0.952358, 6: 0.432322, 7: 0.6346810000000001, 8: 0.7703759999999999, 9: 0.161148, 10: 0.405803, 11: 0.204151, 12: 0.8354549999999999, 13: 0.188188, 14: 0.82919, 15: 0.442936, 16: 0.604932, 17: 0.355942, 18: 0.427273, 19: 0.019778, 20: 0.835791, 21: 0.478775, 22: 0.437485, 23: 0.362837, 24: 0.903794, 25: 0.821546, 26: 0.274445, 27: 0.438924, 28: 0.24133, 29: 0.897501, 30: 0.865184, 31: 0.798523, 32: 0.110866, 33: 0.4069, 34: 0.292241, 35: 0.394637, 36: 0.109492, 37: 0.442037, 38: 0.6757069999999999, 39: 0.016608, 40: 0.954504, 41: 0.482957, 42: 0.9576519999999999, 43: 0.538177, 44: 0.035394, 45: 0.730619, 46: 0.790378, 47: 0.531861, 48: 0.36089, 49: 0.954654, 50: 0.035926, 51: 0.032554, 52: 0.900451, 53: 0.211313, 54: 0.865168, 55: 0.06532499999999999, 56: 0.801822, 57: 0.351423, 58: 0.033238, 59: 0.285658, 60: 0.956888, 61: 0.918156, 62: 0.202315, 63: 0.730561, 64: 0.327479, 65: 0.270595, 66: 0.075507, 67: 0.319613, 68: 0.534806, 69: 0.890084, 70: 0.40036, 71: 0.43812, 72: 0.677857, 73: 0.124917, 74: 0.6895210000000001, 75: 0.49998, 76: 0.863966, 77: 0.888763, 78: 0.114544, 79: 0.210636, 80: 0.664236, 81: 0.256435, 82: 0.365155, 83: 0.903998, 84: 0.351696, 85: 0.168759, 86: 0.89547, 87: 0.202766, 88: 0.051559, 89: 0.080092, 90: 0.537394, 91: 0.876562, 92: 0.643066, 93: 0.345892, 94: 0.954974, 95: 0.9088079999999999];
discharge = [0: 0.061075, 1: 0.107828, 2: 0.984465, 3: 0.731487, 4: 0.607724, 5: 0.7078989999999999, 6: 0.385621, 7: 0.014773, 8: 0.662366, 9: 0.017375, 10: 0.742673, 11: 0.569652, 12: 0.864334, 13: 0.131614, 14: 0.901632, 15: 0.316491, 16: 0.070855, 17: 0.010652, 18: 0.213621, 19: 0.401216, 20: 0.98529, 21: 0.323472, 22: 0.069636, 23: 0.005751, 24: 0.661011, 25: 0.054874, 26: 0.31619, 27: 0.894667, 28: 0.08949699999999999, 29: 0.447899, 30: 0.426952, 31: 0.100613, 32: 0.109651, 33: 0.184244, 34: 0.72137, 35: 0.702183, 36: 0.5698839999999999, 37: 0.687589, 38: 0.245244, 39: 0.804177, 40: 0.8569020000000001, 41: 0.572974, 42: 0.956661, 43: 0.775018, 44: 0.624265, 45: 0.281286, 46: 0.352466, 47: 0.772752, 48: 0.035066, 49: 0.220571, 50: 0.353424, 51: 0.461407, 52: 0.599173, 53: 0.252598, 54: 0.82605, 55: 0.681542, 56: 0.942318, 57: 0.01144, 58: 0.466328, 59: 0.251127, 60: 0.310218, 61: 0.09533, 62: 0.758804, 63: 0.758317, 64: 0.53223, 65: 0.740665, 66: 0.881852, 67: 0.036563, 68: 0.567107, 69: 0.103554, 70: 0.227769, 71: 0.906697, 72: 0.134299, 73: 0.024534, 74: 0.803685, 75: 0.311989, 76: 0.716345, 77: 0.908937, 78: 0.66432, 79: 0.430151, 80: 0.536602, 81: 0.579224, 82: 0.31718, 83: 0.592023, 84: 0.542975, 85: 0.444199, 86: 0.910685, 87: 0.815398, 88: 0.104263, 89: 0.174184, 90: 0.928801, 91: 0.844127, 92: 0.848083, 93: 0.08365599999999999, 94: 0.682138, 95: 0.385007];
soc = [0: 3.312557, 1: 3.915395, 2: 4.277381, 3: 4.520454, 4: 3.204493, 5: 2.904467, 6: 5.161494, 7: 8.046087, 8: 7.949616, 9: 3.253443, 10: 7.905179, 11: 8.507236000000001, 12: 10.767097, 13: 7.758348, 14: 9.552621, 15: 11.10547, 16: 15.377298, 17: 10.688797, 18: 5.691577, 19: 3.848716, 20: 11.258123, 21: 5.389078, 22: 6.536569, 23: 9.502157, 24: 9.844035, 25: 4.623046, 26: 3.227024, 27: 12.064102, 28: 12.570202, 29: 8.541862999999999, 30: 10.264302, 31: 4.859352, 32: 5.702532, 33: 7.472262, 34: 10.79396, 35: 12.135891, 36: 13.154585, 37: 6.264422, 38: 8.271265, 39: 4.394568, 40: 3.643253, 41: 9.622916, 42: 15.416921, 43: 8.120348, 44: 9.67789, 45: 14.322592, 46: 5.519953, 47: 7.184306, 48: 11.782977, 49: 6.395434, 50: 12.703181, 51: 3.309363, 52: 11.585862, 53: 3.798796, 54: 14.507786, 55: 5.335791, 56: 6.718557, 57: 8.064876, 58: 10.091026, 59: 2.802251, 60: 13.619631, 61: 6.352612, 62: 12.025417, 63: 13.743719, 64: 14.415927, 65: 11.367262, 66: 14.446318, 67: 12.813201, 68: 7.735979, 69: 11.728991, 70: 4.831922, 71: 3.103768, 72: 10.30296, 73: 5.024583, 74: 9.64578, 75: 13.514617, 76: 3.091838, 77: 14.588968, 78: 5.516155, 79: 13.479554, 80: 12.129047, 81: 14.736217, 82: 12.109031, 83: 7.267508, 84: 5.572046, 85: 14.513611, 86: 5.98125, 87: 13.635106, 88: 8.321664999999999, 89: 9.522962, 90: 13.324161, 91: 9.870794, 92: 8.699775000000001, 93: 11.342427, 94: 3.838677, 95: 14.533109];
cost = [0: 221.805817, 1: 518.773459, 2: 11.758807, 3: 348.117222, 4: 216.8415, 5: 72.239423, 6: 4.173532, 7: 389.236186, 8: 404.701659, 9: 240.061873, 10: 131.470173, 11: 579.307463, 12: 349.912698, 13: 194.448601, 14: 131.394582, 15: 449.808866, 16: 234.59239, 17: 390.338919, 18: 23.216537, 19: 203.147279, 20: 448.754435, 21: 528.014578, 22: 105.038605, 23: 26.496934, 24: 939.269359, 25: 662.152296, 26: 194.124073, 27: 970.616922, 28: 929.025954, 29: 551.686835, 30: 542.888264, 31: 836.703998, 32: 23.594091, 33: 1006.474878, 34: 1.692366, 35: 50.691976, 36: 200.317458, 37: 1076.302132, 38: 1133.208509, 39: 636.120457, 40: 789.865403, 41: 12.128095, 42: 797.389046, 43: 619.347743, 44: 388.71411, 45: 117.388198, 46: 224.620322, 47: 462.566403, 48: 290.241866, 49: 137.159989, 50: 17.64361, 51: 152.167107, 52: 341.89385, 53: 388.388565, 54: 242.069163, 55: 462.288524, 56: 515.9470250000001, 57: 522.464566, 58: 462.307782, 59: 574.097035, 60: 220.594385, 61: 1020.996918, 62: 72.587681, 63: 988.881842, 64: 704.726098, 65: 961.137772, 66: 954.309901, 67: 690.880526, 68: 568.649751, 69: 727.41367, 70: 951.563792, 71: 187.857704, 72: 843.2925279999999, 73: 1127.228438, 74: 555.445321, 75: 411.845193, 76: 711.16568, 77: 1145.88908, 78: 876.565801, 79: 711.7276440000001, 80: 385.444982, 81: 804.1534810000001, 82: 353.923737, 83: 437.583807, 84: 1029.446914, 85: 523.054521, 86: 1144.311904, 87: 728.40358, 88: 289.418756, 89: 202.377811, 90: 3.519831, 91: 145.849426, 92: 58.979895, 93: 179.624012, 94: 179.242283, 95: 580.305688];
earn = [0: 0.791116, 1: 0.222655, 2: 0.444231, 3: 1.283555, 4: 0.077346, 5: 2.322438, 6: 0.345249, 7: 0.343753, 8: 1.648909, 9: 1.596969, 10: 1.839238, 11: 0.082372, 12: 0.345208, 13: 0.375165, 14: 0.900258, 15: 0.034335, 16: 0.290946, 17: 1.701296, 18: 2.184048, 19: 2.123879, 20: 0.464364, 21: 1.8984, 22: 1.889591, 23: 2.237894, 24: 0.224279, 25: 1.696995, 26: 1.081672, 27: 1.29083, 28: 0.926522, 29: 2.125696, 30: 1.079068, 31: 0.377748, 32: 0.099839, 33: 1.606172, 34: 1.046592, 35: 1.312772, 36: 1.36337, 37: 0.7359599999999999, 38: 0.313351, 39: 1.021173, 40: 0.041377, 41: 0.084132, 42: 0.038741, 43: 0.008724000000000001, 44: -0.0, 45: -0.043678, 46: -0.177601, 47: -0.012913, 48: -0.006577, 49: -0.002774, 50: -0.0, 51: 0.013976, 52: 0.004178, 53: 0.00139, 54: 0.093958, 55: 0.152434, 56: 0.604915, 57: 0.648604, 58: 0.407958, 59: 0.033529, 60: 0.398728, 61: 1.784784, 62: 1.885127, 63: 0.281352, 64: 1.545478, 65: 0.465395, 66: 1.087887, 67: 0.810144, 68: 0.634427, 69: 1.929318, 70: 2.571532, 71: 2.686033, 72: 0.503337, 73: 0.232172, 74: 1.477662, 75: 1.606087, 76: 0.563554, 77: 0.03965, 78: 0.500153, 79: 2.777333, 80: 1.425801, 81: 0.83345, 82: 0.412848, 83: 1.314679, 84: 0.9402, 85: 0.323058, 86: 0.351155, 87: 0.754606, 88: 1.004723, 89: 1.410884, 90: 0.714568, 91: 1.089343, 92: 1.159901, 93: 0.214078, 94: 0.5320240000000001, 95: 0.80126];
total_cost = 47.93391285101431;
total_earn = 12.58472584487899;
