production = [0: 0.0, 1: 0.0, 2: 0.0, 3: 0.0, 4: 0.0, 5: 0.0, 6: 0.0, 7: 0.0, 8: 0.0, 9: 0.0, 10: 0.0, 11: 0.0, 12: 0.0, 13: 0.0, 14: 0.0, 15: 0.0, 16: 0.0, 17: 0.0, 18: 0.0, 19: 0.0, 20: 0.0, 21: 7.9e-05, 22: 0.00027, 23: 0.0008720000000000001, 24: 0.012207, 25: 0.024843, 26: 0.002014, 27: 0.060982, 28: 0.178771, 29: 0.025284, 30: 0.047756, 31: 0.181774, 32: 0.411115, 33: 0.037967, 34: 0.705085, 35: 0.548506, 36: 0.222218, 37: 0.562508, 38: 0.087279, 39: 0.5422979999999999, 40: 0.168672, 41: 0.149071, 42: 0.434351, 43: 0.282611, 44: 0.210137, 45: 0.752665, 46: 0.635588, 47: 0.410007, 48: 0.553848, 49: 0.244883, 50: 0.07781100000000001, 51: 0.09105199999999999, 52: 0.446362, 53: 0.805697, 54: 0.478359, 55: 0.046286, 56: 0.178112, 57: 0.342227, 58: 0.141666, 59: 0.67316, 60: 0.001875, 61: 0.656728, 62: 0.144828, 63: 0.211222, 64: 0.153217, 65: 0.207817, 66: 0.048423, 67: 0.029817, 68: 0.057268, 69: 0.057945, 70: 0.001461, 71: 0.001743, 72: 0.002408, 73: 0.000191, 74: 0.00025, 75: 0.0, 76: 0.0, 77: 0.0, 78: 0.0, 79: 0.0, 80: 0.0, 81: 0.0, 82: 0.0, 83: 0.0, 84: 0.0, 85: 0.0, 86: 0.0, 87: 0.0, 88: 0.0, 89: 0.0, 90: 0.0, 91: 0.0, 92: 0.0, 93: 0.0, 94: 0.0, 95: 0.0];
buy = [0: 431.745812, 1: 816.921242, 2: 652.318654, 3: 407.773027, 4: 200.72316, 5: 653.816257, 6: 466.773476, 7: 957.625875, 8: 264.113308, 9: 898.041653, 10: 523.081782, 11: 29.022296, 12: 484.772276, 13: 236.540625, 14: 489.989514, 15: 778.440461, 16: 223.827516, 17: 227.813043, 18: 572.796342, 19: 891.171261, 20: 5.838121, 21: 579.032295, 22: 187.072784, 23: 690.525522, 24: 184.263544, 25: 713.542898, 26: 646.081135, 27: 44.795653, 28: 353.259196, 29: 664.814338, 30: 148.163073, 31: 169.216161, 32: 617.413047, 33: 30.695062, 34: 256.174496, 35: 174.417874, 36: 137.345751, 37: 554.450299, 38: 420.497153, 39: 622.29956, 40: 313.659534, 41: 945.376743, 42: 233.385466, 43: 815.155679, 44: 733.207551, 45: 632.520077, 46: 40.035793, 47: 472.112386, 48: 454.809078, 49: 714.342675, 50: 708.3531390000001, 51: 448.967315, 52: 452.960241, 53: 363.289747, 54: 769.257977, 55: 478.128615, 56: 972.872528, 57: 228.599119, 58: 43.799182, 59: 922.76349, 60: 884.882693, 61: 346.685286, 62: 511.649966, 63: 976.413012, 64: 986.257561, 65: 926.686857, 66: 9.477454, 67: 223.017578, 68: 151.346619, 69: 582.576313, 70: 708.286301, 71: 195.798286, 72: 261.732815, 73: 544.292865, 74: 475.246874, 75: 181.534924, 76: 317.51372, 77: 763.6455130000001, 78: 998.905129, 79: 751.198052, 80: 767.212913, 81: 327.184837, 82: 554.360018, 83: 540.0917009999999, 84: 676.098247, 85: 861.473577, 86: 332.076191, 87: 485.155214, 88: 120.609896, 89: 511.538996, 90: 652.327108, 91: 635.800237, 92: 845.623544, 93: 150.85666, 94: 698.988866, 95: 64.76342099999999];
sell = [0: 3.344328, 1: 2.175495, 2: 2.985888, 3: 2.843615, 4: 2.492666, 5: 3.26846, 6: 1.799885, 7: 3.69925, 8: 1.310511, 9: 3.721109, 10: 2.302764, 11: 1.13555, 12: 1.06631, 13: 0.154503, 14: 2.981288, 15: 1.510602, 16: 3.301062, 17: 3.261361, 18: 3.382073, 19: 1.013772, 20: 0.940392, 21: 3.969451, 22: 2.414648, 23: 1.534368, 24: 3.318624, 25: 2.066358, 26: 2.180364, 27: 1.971591, 28: 2.760649, 29: 2.23254, 30: 1.769562, 31: 2.48912, 32: 2.821718, 33: 1.679453, 34: 1.727895, 35: 1.613481, 36: 1.380833, 37: 3.735235, 38: 2.425469, 39: 1.992274, 40: 0.365188, 41: 2.013837, 42: 2.745143, 43: 0.488808, 44: 2.088655, 45: 1.248917, 46: 2.139243, 47: 3.268326, 48: 2.611785, 49: 3.86025, 50: 2.255471, 51: 1.468083, 52: 1.496865, 53: 1.721288, 54: 1.87601, 55: 0.879013, 56: 2.748152, 57: 3.471048, 58: 2.939823, 59: 0.045287, 60: 1.155033, 61: 1.91907, 62: 3.178246, 63: 2.364979, 64: 1.071714, 65: 2.914112, 66: 2.482967, 67: 3.250475, 68: 2.346167, 69: 2.082377, 70: 0.463055, 71: 1.164376, 72: 0.1709, 73: 2.121109, 74: 1.683982, 75: 2.72075, 76: 1.50408, 77: 1.961556, 78: 1.042005, 79: 0.174009, 80: 1.031185, 81: 3.975287, 82: 1.217401, 83: 0.710599, 84: 0.414006, 85: 3.88166, 86: 0.255585, 87: 1.109524, 88: 1.527253, 89: 0.292058, 90: 1.222271, 91: 1.0767, 92: 2.449343, 93: 3.534213, 94: 2.841064, 95: 0.063793];
charge = [0: 0.07005699999999999, 1: 0.231558, 2: 0.873568, 3: 0.332744, 4: 0.343969, 5: 0.241792, 6: 0.065724, 7: 0.19598, 8: 0.955353, 9: 0.6440399999999999, 10: 0.4846, 11: 0.696414, 12: 0.274998, 13: 0.852378, 14: 0.384464, 15: 0.055914, 16: 0.930043, 17: 0.219437, 18: 0.449933, 19: 0.07918, 20: 0.519514, 21: 0.736614, 22: 0.675019, 23: 0.932101, 24: 0.79417, 25: 0.23639, 26: 0.38536, 27: 0.347249, 28: 0.945496, 29: 0.564144, 30: 0.140107, 31: 0.256542, 32: 0.299391, 33: 0.986845, 34: 0.260735, 35: 0.494765, 36: 0.287646, 37: 0.6205619999999999, 38: 0.264644, 39: 0.7743, 40: 0.695513, 41: 0.021636, 42: 0.097845, 43: 0.203414, 44: 0.296034, 45: 0.518226, 46: 0.435309, 47: 0.7629050000000001, 48: 0.193792, 49: 0.940613, 50: 0.144236, 51: 0.123768, 52: 0.100386, 53: 0.442777, 54: 0.690296, 55: 0.226643, 56: 0.431587, 57: 0.918637, 58: 0.6862009999999999, 59: 0.9095839999999999, 60: 0.570338, 61: 0.821035, 62: 0.354946, 63: 0.51356, 64: 0.968832, 65: 0.952319, 66: 0.822812, 67: 0.938652, 68: 0.713721, 69: 0.108603, 70: 0.24041, 71: 0.309047, 72: 0.531071, 73: 0.876413, 74: 0.537755, 75: 0.7289639999999999, 76: 0.60449, 77: 0.059997, 78: 0.16508, 79: 0.426437, 80: 0.98483, 81: 0.424503, 82: 0.396689, 83: 0.823541, 84: 0.429417, 85: 0.915444, 86: 0.482457, 87: 0.429346, 88: 0.746399, 89: 0.356242, 90: 0.221567, 91: 0.687324, 92: 0.545004, 93: 0.7649860000000001, 94: 0.775125, 95: 0.84861];
discharge = [0: 0.793996, 1: 0.565755, 2: 0.388069, 3: 0.211851, 4: 0.778491, 5: 0.679845, 6: 0.585592, 7: 0.09883699999999999, 8: 0.943051, 9: 0.636142, 10: 0.246698, 11: 0.78467, 12: 0.875016, 13: 0.884149, 14: 0.904554, 15: 0.993397, 16: 0.230039, 17: 0.380304, 18: 0.783322, 19: 0.230678, 20: 0.214158, 21: 0.363739, 22: 0.585941, 23: 0.499611, 24: 0.333241, 25: 0.826783, 26: 0.5913119999999999, 27: 0.455603, 28: 0.5535949999999999, 29: 0.728627, 30: 0.399083, 31: 0.493745, 32: 0.9426909999999999, 33: 0.614585, 34: 0.822487, 35: 0.226438, 36: 0.604768, 37: 0.462337, 38: 0.6913899999999999, 39: 0.673365, 40: 0.377786, 41: 0.992541, 42: 0.620702, 43: 0.339326, 44: 0.263707, 45: 0.853888, 46: 0.500544, 47: 0.487575, 48: 0.943371, 49: 0.99979, 50: 0.135649, 51: 0.546723, 52: 0.171347, 53: 0.377581, 54: 0.524167, 55: 0.188092, 56: 0.686708, 57: 0.495406, 58: 0.606833, 59: 0.326825, 60: 0.937949, 61: 0.756907, 62: 0.263886, 63: 0.745824, 64: 0.768359, 65: 0.248908, 66: 0.382745, 67: 0.055029, 68: 0.553848, 69: 0.283815, 70: 0.303395, 71: 0.862936, 72: 0.907443, 73: 0.8871599999999999, 74: 0.706801, 75: 0.289751, 76: 0.038689, 77: 0.642663, 78: 0.492347, 79: 0.398547, 80: 0.326529, 81: 0.344862, 82: 0.186379, 83: 0.664059, 84: 0.679185, 85: 0.020758, 86: 0.8243780000000001, 87: 0.367848, 88: 0.302036, 89: 0.468213, 90: 0.312331, 91: 0.397571, 92: 0.088715, 93: 0.412304, 94: 0.021116, 95: 0.473583];
soc = [0: 2.681618, 1: 3.839849, 2: 4.894515, 3: 3.569536, 4: 2.751795, 5: 3.505353, 6: 8.673334000000001, 7: 5.121871, 8: 3.804758, 9: 9.720654, 10: 8.247965000000001, 11: 9.993812999999999, 12: 10.000443, 13: 12.394339, 14: 8.806905, 15: 8.340703, 16: 3.389691, 17: 14.914117, 18: 8.708342, 19: 3.40401, 20: 5.362193, 21: 3.866813, 22: 6.906004, 23: 3.792652, 24: 12.239449, 25: 11.258082, 26: 7.392664, 27: 10.00522, 28: 6.96417, 29: 4.755033, 30: 4.159109, 31: 5.654618, 32: 15.365287, 33: 5.833898, 34: 15.171444, 35: 14.541329, 36: 12.683027, 37: 4.540842, 38: 11.334365, 39: 5.70561, 40: 9.89992, 41: 14.604216, 42: 5.862905, 43: 12.873638, 44: 12.746042, 45: 4.415311, 46: 13.469135, 47: 3.629336, 48: 3.488807, 49: 3.911805, 50: 12.542454, 51: 9.870229, 52: 13.454731, 53: 15.246781, 54: 4.339518, 55: 14.300635, 56: 13.435683, 57: 15.504217, 58: 5.53992, 59: 6.354481, 60: 4.015574, 61: 10.78993, 62: 6.798495, 63: 10.78708, 64: 9.061406, 65: 11.093849, 66: 4.718056, 67: 11.748147, 68: 14.937561, 69: 10.780822, 70: 7.306479, 71: 12.782765, 72: 7.971833, 73: 12.064053, 74: 8.737727, 75: 9.823176, 76: 15.176752, 77: 11.369098, 78: 15.408319, 79: 9.294717, 80: 5.950086, 81: 7.429716, 82: 5.941968, 83: 7.031024, 84: 13.828002, 85: 11.183674, 86: 9.740102, 87: 8.377525, 88: 9.517329, 89: 12.337458, 90: 12.237992, 91: 11.280742, 92: 11.811966, 93: 12.931201, 94: 8.799272, 95: 15.460075];
cost = [0: 497.495393, 1: 486.261476, 2: 164.955485, 3: 488.79373, 4: 64.225635, 5: 409.117968, 6: 77.88308600000001, 7: 413.435939, 8: 305.567111, 9: 308.866848, 10: 547.895764, 11: 153.321049, 12: 518.5233940000001, 13: 395.167378, 14: 139.179383, 15: 370.925201, 16: 553.008272, 17: 481.077964, 18: 591.00344, 19: 53.494924, 20: 465.527227, 21: 22.848105, 22: 545.297036, 23: 503.556506, 24: 308.023202, 25: 125.225537, 26: 1158.36584, 27: 1102.889221, 28: 1186.778811, 29: 43.308707, 30: 947.366545, 31: 874.773816, 32: 559.784891, 33: 201.875003, 34: 283.324023, 35: 955.910524, 36: 521.400314, 37: 1073.929142, 38: 514.378102, 39: 495.146637, 40: 1161.918471, 41: 346.392603, 42: 237.783618, 43: 1054.747937, 44: 219.786808, 45: 243.40825, 46: 1182.250993, 47: 596.830473, 48: 225.363671, 49: 1099.595033, 50: 329.838862, 51: 752.1544740000001, 52: 591.0495979999999, 53: 150.769595, 54: 71.937338, 55: 412.199689, 56: 589.1066520000001, 57: 86.66352500000001, 58: 428.649018, 59: 96.972007, 60: 597.708034, 61: 902.9616580000001, 62: 385.480147, 63: 248.866412, 64: 623.086899, 65: 1153.387041, 66: 483.281472, 67: 851.6709049999999, 68: 507.140468, 69: 387.775658, 70: 480.499894, 71: 94.06132599999999, 72: 398.569998, 73: 495.495503, 74: 1045.938153, 75: 173.182029, 76: 668.941638, 77: 582.403954, 78: 1019.937147, 79: 37.841771, 80: 368.683896, 81: 198.235173, 82: 581.768782, 83: 1080.006789, 84: 548.215907, 85: 631.409489, 86: 343.955374, 87: 63.066713, 88: 266.659246, 89: 266.467676, 90: 436.370691, 91: 406.215949, 92: 384.723837, 93: 118.388622, 94: 95.438396, 95: 263.015359];
earn = [0: 2.650433, 1: 2.363141, 2: 2.414468, 3: 1.077327, 4: 0.131635, 5: 1.608311, 6: 2.308235, 7: 2.229969, 8: 1.349091, 9: 0.816504, 10: 2.170698, 11: 1.910362, 12: 0.722417, 13: 0.672336, 14: 0.209388, 15: 1.288907, 16: 0.743349, 17: 2.015021, 18: 0.048365, 19: 0.741393, 20: 1.083111, 21: 1.587509, 22: 0.535365, 23: 1.565032, 24: 2.199973, 25: 0.94719, 26: 0.111752, 27: 1.087319, 28: 0.341873, 29: 2.072629, 30: 2.287422, 31: 1.61846, 32: 0.6521130000000001, 33: 0.765839, 34: 1.29957, 35: 0.055047, 36: 0.883184, 37: 1.413722, 38: 0.666089, 39: 0.077252, 40: 0.225818, 41: 0.310513, 42: 0.121588, 43: 0.025571, 44: -0.0, 45: -0.08230800000000001, 46: -0.191184, 47: -0.2143, 48: -0.00949, 49: -0.004151, 50: -0.0, 51: 0.019636, 52: 0.032168, 53: 0.056727, 54: 0.082135, 55: 0.090998, 56: 0.6725, 57: 0.046922, 58: 0.207609, 59: 0.675494, 60: 0.68974, 61: 1.466652, 62: 0.781018, 63: 0.964358, 64: 0.004031, 65: 0.005702, 66: 1.241178, 67: 2.365058, 68: 0.985922, 69: 0.50118, 70: 1.294354, 71: 2.980153, 72: 1.124848, 73: 0.154719, 74: 0.479299, 75: 1.750281, 76: 1.877827, 77: 2.494699, 78: 0.860747, 79: 1.969434, 80: 1.860699, 81: 1.473335, 82: 1.267175, 83: 1.882432, 84: 0.839191, 85: 1.379696, 86: 1.750237, 87: 0.666133, 88: 1.893769, 89: 1.12027, 90: 0.424294, 91: 0.327504, 92: 1.116559, 93: 0.714364, 94: 1.022495, 95: 0.431406];
total_cost = 48.07442833590836;
total_earn = 11.52574055243375;
