production = [0: 0.0, 1: 0.0, 2: 0.0, 3: 0.0, 4: 0.0, 5: 0.0, 6: 0.0, 7: 0.0, 8: 0.0, 9: 0.0, 10: 0.0, 11: 0.0, 12: 0.0, 13: 0.0, 14: 0.0, 15: 0.0, 16: 0.0, 17: 0.0, 18: 0.0, 19: 0.0, 20: 0.0, 21: 3.2e-05, 22: 3.4e-05, 23: 0.001324, 24: 0.002025, 25: 0.016784, 26: 0.009825, 27: 0.069895, 28: 0.03221, 29: 0.160221, 30: 0.08837399999999999, 31: 0.380103, 32: 0.389476, 33: 0.240375, 34: 0.5955780000000001, 35: 0.530213, 36: 0.484773, 37: 0.23198, 38: 0.165469, 39: 0.59754, 40: 0.051378, 41: 0.59759, 42: 0.093144, 43: 0.267974, 44: 0.420813, 45: 0.164954, 46: 0.212649, 47: 0.558539, 48: 0.417658, 49: 0.578842, 50: 0.559354, 51: 0.358873, 52: 0.242449, 53: 0.05739, 54: 0.458034, 55: 0.734248, 56: 1.065904, 57: 0.6047709999999999, 58: 0.197266, 59: 0.74482, 60: 0.071256, 61: 0.071419, 62: 0.696403, 63: 0.039484, 64: 0.020939, 65: 0.09789200000000001, 66: 0.241353, 67: 0.004177, 68: 0.120286, 69: 0.12868, 70: 0.015567, 71: 0.033082, 72: 0.000177, 73: 3.6e-05, 74: 0.000149, 75: 0.0, 76: 0.0, 77: 0.0, 78: 0.0, 79: 0.0, 80: 0.0, 81: 0.0, 82: 0.0, 83: 0.0, 84: 0.0, 85: 0.0, 86: 0.0, 87: 0.0, 88: 0.0, 89: 0.0, 90: 0.0, 91: 0.0, 92: 0.0, 93: 0.0, 94: 0.0, 95: 0.0];
buy = [0: 64.800254, 1: 656.831262, 2: 208.743535, 3: 646.0139390000001, 4: 988.203474, 5: 73.402295, 6: 181.263809, 7: 13.271759, 8: 218.436148, 9: 833.936899, 10: 956.168236, 11: 23.085495, 12: 342.528883, 13: 268.08486, 14: 240.233303, 15: 879.9064980000001, 16: 327.908204, 17: 17.897995, 18: 230.06882, 19: 736.879759, 20: 902.400948, 21: 563.069443, 22: 294.284711, 23: 765.505114, 24: 367.15264, 25: 172.671799, 26: 531.828496, 27: 312.872578, 28: 201.230327, 29: 788.100644, 30: 96.513931, 31: 628.310352, 32: 682.157879, 33: 723.861456, 34: 424.552837, 35: 959.614634, 36: 287.281217, 37: 907.47346, 38: 945.594109, 39: 265.537713, 40: 491.963747, 41: 211.349771, 42: 700.3764609999999, 43: 777.053668, 44: 623.84047, 45: 772.858086, 46: 61.316361, 47: 287.941728, 48: 34.759511, 49: 192.781042, 50: 62.359599, 51: 673.608215, 52: 203.745389, 53: 924.9806589999999, 54: 483.238709, 55: 310.868709, 56: 84.673939, 57: 894.022945, 58: 951.786729, 59: 327.178443, 60: 553.6115569999999, 61: 673.88924, 62: 659.854944, 63: 773.630958, 64: 623.748418, 65: 690.558705, 66: 602.009529, 67: 973.502291, 68: 858.437977, 69: 773.6916, 70: 940.6070120000001, 71: 563.0166850000001, 72: 197.451197, 73: 433.529409, 74: 914.021438, 75: 5.832398, 76: 151.372874, 77: 983.538689, 78: 424.860629, 79: 302.865631, 80: 1.424829, 81: 577.945837, 82: 529.987294, 83: 519.426037, 84: 700.535556, 85: 324.241476, 86: 166.11756, 87: 281.877908, 88: 55.743398, 89: 243.481308, 90: 425.089776, 91: 74.365816, 92: 242.753375, 93: 982.16927, 94: 299.937674, 95: 770.436062];
sell = [0: 0.8186369999999999, 1: 3.815963, 2: 1.337154, 3: 2.213883, 4: 0.202275, 5: 1.873221, 6: 1.611205, 7: 2.775473, 8: 2.836363, 9: 1.960945, 10: 2.258673, 11: 3.883591, 12: 1.879371, 13: 2.448234, 14: 3.096102, 15: 1.481866, 16: 2.35239, 17: 3.645896, 18: 0.275696, 19: 3.89063, 20: 3.096351, 21: 2.627765, 22: 0.437904, 23: 2.783927, 24: 2.619262, 25: 3.703826, 26: 0.458349, 27: 2.249355, 28: 2.11021, 29: 1.554186, 30: 0.723186, 31: 1.276841, 32: 2.791531, 33: 2.325257, 34: 3.385786, 35: 0.754816, 36: 0.815376, 37: 2.398009, 38: 0.330429, 39: 1.172087, 40: 1.572599, 41: 1.495692, 42: 1.527067, 43: 1.999527, 44: 0.587839, 45: 2.543212, 46: 2.140678, 47: 3.117035, 48: 2.310362, 49: 0.354805, 50: 2.225003, 51: 0.669652, 52: 0.447457, 53: 2.329723, 54: 1.350244, 55: 3.168153, 56: 2.264964, 57: 1.827691, 58: 0.388706, 59: 2.43075, 60: 2.272878, 61: 3.822335, 62: 3.781289, 63: 3.809467, 64: 0.875133, 65: 0.957129, 66: 1.686531, 67: 2.828432, 68: 1.696644, 69: 3.29257, 70: 0.004291, 71: 2.425741, 72: 2.092831, 73: 3.309276, 74: 2.512429, 75: 0.593175, 76: 3.623526, 77: 2.055809, 78: 0.147138, 79: 1.291312, 80: 2.284222, 81: 0.569236, 82: 2.450298, 83: 1.509853, 84: 3.526813, 85: 1.201737, 86: 0.187686, 87: 0.456052, 88: 2.69609, 89: 0.381157, 90: 0.5231980000000001, 91: 2.353925, 92: 0.605176, 93: 3.41998, 94: 2.715604, 95: 1.468013];
charge = [0: 0.028788, 1: 0.550961, 2: 0.422565, 3: 0.934012, 4: 0.19212, 5: 0.666907, 6: 0.675399, 7: 0.739407, 8: 0.723646, 9: 0.729224, 10: 0.381551, 11: 0.586152, 12: 0.132154, 13: 0.275626, 14: 0.329794, 15: 0.774803, 16: 0.410356, 17: 0.360746, 18: 0.506937, 19: 0.768079, 20: 0.936557, 21: 0.907979, 22: 0.354414, 23: 0.875606, 24: 0.356288, 25: 0.154922, 26: 0.520486, 27: 0.952885, 28: 0.249966, 29: 0.003249, 30: 0.292449, 31: 0.602519, 32: 0.628876, 33: 0.653982, 34: 0.603282, 35: 0.935113, 36: 0.643893, 37: 0.489589, 38: 0.543718, 39: 0.364465, 40: 0.203456, 41: 0.295108, 42: 0.005785, 43: 0.857239, 44: 0.351112, 45: 0.373097, 46: 0.380317, 47: 0.937249, 48: 0.199681, 49: 0.463764, 50: 0.330386, 51: 0.617408, 52: 0.971758, 53: 0.661685, 54: 0.650378, 55: 0.846222, 56: 0.638352, 57: 0.171598, 58: 0.359453, 59: 0.439748, 60: 0.549999, 61: 0.9206260000000001, 62: 0.649326, 63: 0.896281, 64: 0.472868, 65: 0.969168, 66: 0.87975, 67: 0.030087, 68: 0.292609, 69: 0.703039, 70: 0.62837, 71: 0.880059, 72: 0.641354, 73: 0.272226, 74: 0.229603, 75: 0.9187380000000001, 76: 0.535264, 77: 0.526143, 78: 0.227201, 79: 0.292723, 80: 0.581207, 81: 0.770326, 82: 0.134418, 83: 0.909216, 84: 0.5518999999999999, 85: 0.606084, 86: 0.389191, 87: 0.760186, 88: 0.38358, 89: 0.544227, 90: 0.916901, 91: 0.274021, 92: 0.243517, 93: 0.378293, 94: 0.9745549999999999, 95: 0.049935];
discharge = [0: 0.400262, 1: 0.210962, 2: 0.030225, 3: 0.018307, 4: 0.166022, 5: 0.879684, 6: 0.9294289999999999, 7: 0.143316, 8: 0.559422, 9: 0.891563, 10: 0.33704, 11: 0.966627, 12: 0.040813, 13: 0.299205, 14: 0.328153, 15: 0.298787, 16: 0.992276, 17: 0.880039, 18: 0.842772, 19: 0.012636, 20: 0.81451, 21: 0.378317, 22: 0.248105, 23: 0.613568, 24: 0.808132, 25: 0.05899, 26: 0.90572, 27: 0.986532, 28: 0.091609, 29: 0.970966, 30: 0.956299, 31: 0.757793, 32: 0.023894, 33: 0.726619, 34: 0.217188, 35: 0.053051, 36: 0.648515, 37: 0.738548, 38: 0.30631, 39: 0.531892, 40: 0.728261, 41: 0.111619, 42: 0.156594, 43: 0.12119, 44: 0.424902, 45: 0.963979, 46: 0.767051, 47: 0.912991, 48: 0.685806, 49: 0.242499, 50: 0.642778, 51: 0.902012, 52: 0.5621429999999999, 53: 0.957441, 54: 0.149763, 55: 0.998378, 56: 0.805665, 57: 0.924349, 58: 0.5339, 59: 0.782715, 60: 0.144077, 61: 0.227901, 62: 0.9351969999999999, 63: 0.669477, 64: 0.543195, 65: 0.641993, 66: 0.680805, 67: 0.20287, 68: 0.5064340000000001, 69: 0.2036, 70: 0.296634, 71: 0.032887, 72: 0.624061, 73: 0.516962, 74: 0.541558, 75: 0.010458, 76: 0.072147, 77: 0.896039, 78: 0.350989, 79: 0.582203, 80: 0.461742, 81: 0.428364, 82: 0.875151, 83: 0.978976, 84: 0.511285, 85: 0.969146, 86: 0.26158, 87: 0.080202, 88: 0.179284, 89: 0.676494, 90: 0.586417, 91: 0.307624, 92: 0.041848, 93: 0.848561, 94: 0.15216, 95: 0.65747];
soc = [0: 3.683289, 1: 3.934823, 2: 4.973331, 3: 5.519684, 4: 3.038061, 5: 2.698109, 6: 5.599528, 7: 6.742779, 8: 2.942112, 9: 5.276568, 10: 12.374373, 11: 8.21923, 12: 9.388997, 13: 8.198233, 14: 11.14314, 15: 8.558472, 16: 11.785904, 17: 2.709895, 18: 8.301176999999999, 19: 2.998412, 20: 6.749213, 21: 5.954296, 22: 8.968862, 23: 7.138913, 24: 14.685858, 25: 9.890779, 26: 8.365697000000001, 27: 9.938772, 28: 7.217105, 29: 7.428756, 30: 6.654862, 31: 7.524331, 32: 14.8632, 33: 10.284654, 34: 4.533578, 35: 15.640293, 36: 9.921042999999999, 37: 11.632355, 38: 9.001162000000001, 39: 5.745271, 40: 10.50808, 41: 14.810746, 42: 11.393024, 43: 7.115572, 44: 10.239364, 45: 12.633827, 46: 11.839121, 47: 13.373159, 48: 11.497402, 49: 7.271827, 50: 3.237791, 51: 3.779397, 52: 9.049103000000001, 53: 11.600505, 54: 4.483956, 55: 3.897227, 56: 2.873027, 57: 10.211908, 58: 8.574001000000001, 59: 6.435361, 60: 6.123776, 61: 7.501151, 62: 3.16823, 63: 9.821716, 64: 15.043141, 65: 5.685717, 66: 10.574632, 67: 10.29772, 68: 10.093205, 69: 14.662458, 70: 4.169475, 71: 6.244967, 72: 12.220492, 73: 10.917584, 74: 4.233978, 75: 12.19594, 76: 5.366716, 77: 12.320531, 78: 9.607797, 79: 11.04867, 80: 5.364606, 81: 6.306617, 82: 8.775942000000001, 83: 12.800856, 84: 11.340973, 85: 2.772916, 86: 12.896526, 87: 9.768884, 88: 4.982696, 89: 6.853777, 90: 13.013785, 91: 14.768092, 92: 8.140231999999999, 93: 9.122555999999999, 94: 8.921652, 95: 14.184972];
cost = [0: 389.627496, 1: 529.093732, 2: 182.477354, 3: 512.530548, 4: 470.298188, 5: 139.573086, 6: 257.277541, 7: 195.573389, 8: 223.276524, 9: 461.296335, 10: 480.955378, 11: 109.309057, 12: 510.975568, 13: 354.127552, 14: 504.825736, 15: 411.585851, 16: 251.861284, 17: 256.506491, 18: 586.18592, 19: 561.48617, 20: 393.12234, 21: 277.937636, 22: 110.703073, 23: 463.605969, 24: 418.357773, 25: 365.652791, 26: 1143.874548, 27: 462.491457, 28: 162.171805, 29: 807.820722, 30: 200.963188, 31: 303.011823, 32: 1129.95042, 33: 593.3624139999999, 34: 326.795719, 35: 532.5721559999999, 36: 352.709563, 37: 350.608133, 38: 254.251379, 39: 612.642028, 40: 486.796943, 41: 321.09778, 42: 1069.470546, 43: 995.125803, 44: 1089.977045, 45: 663.102564, 46: 188.775208, 47: 1014.261502, 48: 285.103683, 49: 4.273485, 50: 64.160009, 51: 995.616258, 52: 217.422034, 53: 518.019984, 54: 194.883451, 55: 291.712132, 56: 507.365347, 57: 95.109298, 58: 537.430187, 59: 477.335192, 60: 643.758614, 61: 990.224375, 62: 698.778535, 63: 757.028236, 64: 572.25148, 65: 1143.729109, 66: 193.827561, 67: 453.080586, 68: 1.256592, 69: 71.512709, 70: 704.358986, 71: 408.853043, 72: 173.913262, 73: 119.224078, 74: 80.771522, 75: 197.797616, 76: 486.165843, 77: 1061.71047, 78: 1014.34892, 79: 794.1485280000001, 80: 1140.090978, 81: 654.7190440000001, 82: 413.132263, 83: 407.414416, 84: 264.659461, 85: 460.831432, 86: 282.089298, 87: 475.08706, 88: 591.80648, 89: 526.28855, 90: 281.180772, 91: 387.622889, 92: 180.544902, 93: 248.93803, 94: 84.334896, 95: 79.8883];
earn = [0: 0.496302, 1: 2.364688, 2: 1.232045, 3: 0.465358, 4: 1.326042, 5: 2.083916, 6: 1.570824, 7: 0.11429, 8: 0.691188, 9: 0.611269, 10: 1.037257, 11: 0.400118, 12: 2.165782, 13: 0.453961, 14: 0.490843, 15: 1.647812, 16: 0.837159, 17: 1.391294, 18: 0.192656, 19: 0.006289, 20: 1.418919, 21: 0.400237, 22: 0.196926, 23: 1.978569, 24: 2.397855, 25: 1.147401, 26: 2.605839, 27: 0.33555, 28: 1.456299, 29: 0.585908, 30: 0.293751, 31: 2.246785, 32: 0.643712, 33: 0.6470399999999999, 34: 0.69558, 35: 1.571181, 36: 1.059251, 37: 1.273925, 38: 0.402344, 39: 0.708236, 40: 0.253918, 41: 0.105713, 42: 0.00222, 43: 0.06908400000000001, 44: -0.0, 45: -0.019855, 46: -0.075946, 47: -0.051676, 48: -0.012285, 49: -0.004012, 50: -0.0, 51: 0.011621, 52: 0.001991, 53: 0.048796, 54: 0.032226, 55: 0.113965, 56: 0.06920999999999999, 57: 0.508444, 58: 0.712588, 59: 0.429869, 60: 1.685395, 61: 0.755213, 62: 1.416656, 63: 1.261579, 64: 2.14971, 65: 2.207657, 66: 0.767741, 67: 1.479625, 68: 1.028182, 69: 2.015428, 70: 1.916452, 71: 1.768601, 72: 0.350443, 73: 2.85371, 74: 2.59337, 75: 2.114372, 76: 1.584535, 77: 1.821026, 78: 2.822094, 79: 1.069563, 80: 2.018106, 81: 1.918728, 82: 0.83022, 83: 1.499243, 84: 2.030125, 85: 1.797807, 86: 1.081488, 87: 0.061028, 88: 0.095372, 89: 0.304895, 90: 0.037987, 91: 0.454655, 92: 1.441018, 93: 0.113679, 94: 0.673917, 95: 0.583576];
total_cost = 44.33063040250495;
total_earn = 11.29884040316676;
