production = [0: 0.0, 1: 0.0, 2: 0.0, 3: 0.0, 4: 0.0, 5: 0.0, 6: 0.0, 7: 0.0, 8: 0.0, 9: 0.0, 10: 0.0, 11: 0.0, 12: 0.0, 13: 0.0, 14: 0.0, 15: 0.0, 16: 0.0, 17: 0.0, 18: 0.0, 19: 0.0, 20: 0.0, 21: 0.0, 22: 0.0, 23: 0.0, 24: 0.0, 25: 0.0005, 26: 0.0, 27: 0.0073, 28: 0.0, 29: 0.0, 30: 0.0, 31: 0.0, 32: 0.0, 33: 0.0, 34: 0.0, 35: 0.3957, 36: 0.385, 37: 0.6048, 38: 0.0, 39: 0.0, 40: 0.0, 41: 0.0, 42: 1.1715, 43: 0.0, 44: 1.0043, 45: 0.0, 46: 1.9252, 47: 2.3258, 48: 0.852, 49: 0.0, 50: 1.0237, 51: 0.7392, 52: 0.638, 53: 0.0, 54: 0.0, 55: 0.4655, 56: 0.3765, 57: 0.0, 58: 0.0, 59: 0.596, 60: 0.0, 61: 0.0, 62: 0.8708, 63: 0.826, 64: 0.0, 65: 0.0, 66: 0.0, 67: 1.21, 68: 0.0, 69: 0.5135, 70: 0.2338, 71: 0.285, 72: 0.0, 73: 0.0, 74: 0.0, 75: 0.0592, 76: 0.0, 77: 0.006, 78: 0.0, 79: 0.0005, 80: 0.0003, 81: 0.0, 82: 0.0, 83: 0.0, 84: 0.0, 85: 0.0, 86: 0.0, 87: 0.0, 88: 0.0, 89: 0.0, 90: 0.0, 91: 0.0, 92: 0.0, 93: 0.0, 94: 0.0, 95: 0.0, 96: 0.0, 97: 0.0, 98: 0.0, 99: 0.0, 100: 0.0, 101: 0.0, 102: 0.0, 103: 0.0, 104: 0.0, 105: 0.0, 106: 0.0, 107: 0.0, 108: 0.0, 109: 0.0, 110: 0.0, 111: 0.0, 112: 0.0, 113: 0.0, 114: 0.0, 115: 0.0, 116: 0.0003, 117: 0.0005, 118: 0.0, 119: 0.0011, 120: 0.0, 121: 0.0, 122: 0.0, 123: 0.0364, 124: 0.0789, 125: 0.1011, 126: 0.148, 127: 0.2343, 128: 0.3048, 129: 0.0, 130: 0.4644, 131: 0.0, 132: 0.0, 133: 0.0, 134: 0.0, 135: 1.3358, 136: 0.0, 137: 1.116272917, 138: 1.6076, 139: 0.0, 140: 0.0, 141: 1.8992, 142: 1.9631, 143: 0.0, 144: 2.0546, 145: 1.131772917, 146: 0.156072917, 147: 2.1483, 148: 0.0, 149: 1.6298, 150: 0.0, 151: 2.0929, 152: 0.0, 153: 0.0, 154: 1.9098, 155: 0.0, 156: 0.0, 157: 0.0, 158: 0.0, 159: 1.3524, 160: 0.0, 161: 1.1073, 162: 1.1252, 163: 0.8975, 164: 0.5787, 165: 0.6837, 166: 0.0, 167: 0.4185, 168: 0.1969, 169: 0.0, 170: 0.08309999999999999, 171: 0.0, 172: 0.0464, 173: 0.0219, 174: 0.0, 175: 0.0, 176: 0.0, 177: 0.0, 178: 0.0, 179: 0.0, 180: 0.0, 181: 0.0, 182: 0.0, 183: 0.0, 184: 0.0, 185: 0.0, 186: 0.0, 187: 0.0, 188: 0.0, 189: 0.0, 190: 0.0, 191: 0.0];
buy = [0: 0.395772917, 1: 1.399072917, 2: 1.376572917, 3: 0.0, 4: 0.0, 5: 0.319272917, 6: 1.276072917, 7: 0.0, 8: 0.283772917, 9: 0.0, 10: 0.0, 11: 0.0, 12: 0.250772917, 13: 0.0, 14: 1.250772917, 15: 0.242772917, 16: 0.0, 17: 0.0, 18: 1.252572917, 19: 0.0, 20: 0.0, 21: 1.243272917, 22: 1.252272917, 23: 1.252072917, 24: 1.249072917, 25: 0.0, 26: 0.0, 27: 0.0, 28: 0.108072917, 29: 1.102272917, 30: 0.102072917, 31: 1.101272917, 32: 0.109272917, 33: 0.108372917, 34: 0.0, 35: 0.715872917, 36: 0.0, 37: 0.5147729170000001, 38: 1.120072917, 39: 1.118572917, 40: 1.112072917, 41: 0.0, 42: 0.0, 43: 1.123572917, 44: 0.107472917, 45: 1.114872917, 46: 0.0, 47: 0.0, 48: 0.267572917, 49: 0.0, 50: 0.0, 51: 0.0, 52: 0.0, 53: 0.119772917, 54: 1.113072917, 55: 0.0, 56: 0.0, 57: 0.0, 58: 0.0, 59: 1.231372917, 60: 0.0, 61: 1.468772917, 62: 0.0, 63: 0.0, 64: 1.115572917, 65: 0.0, 66: 1.123372917, 67: 0.0, 68: 0.833447348, 69: 0.600872917, 70: 0.877772917, 71: 0.833772917, 72: 0.0, 73: 0.0, 74: 0.113872917, 75: 1.053872917, 76: 0.0, 77: 0.0, 78: 1.109072917, 79: 0.0, 80: 1.101772917, 81: 0.108572917, 82: 1.110272917, 83: 0.110572917, 84: 1.117072917, 85: 0.0, 86: 0.0, 87: 0.0, 88: 0.0, 89: 0.119772917, 90: 0.120572917, 91: 0.0, 92: 1.131072917, 93: 0.0, 94: 1.435072917, 95: 0.442272917, 96: 0.0, 97: 1.478072917, 98: 2.002072917, 99: 0.0, 100: 0.462472917, 101: 1.464872917, 102: 1.462172917, 103: 0.448172917, 104: 1.406772917, 105: 0.0, 106: 0.0, 107: 0.474872917, 108: 1.388572917, 109: 0.0, 110: 1.175772917, 111: 0.405172917, 112: 0.0, 113: 1.364872917, 114: 0.356672917, 115: 0.062272917, 116: 0.863672917, 117: 0.0, 118: 1.667272917, 119: 0.567772917, 120: 1.470572917, 121: 1.372172917, 122: 0.033472917, 123: 1.358472917, 124: 1.033872917, 125: 0.011472917, 126: 0.963972917, 127: 0.0, 128: 0.0, 129: 2.107372917, 130: 0.0, 131: 1.265072917, 132: 0.250572917, 133: 1.114672917, 134: 0.125772917, 135: 0.0, 136: 0.123672917, 137: 0.0, 138: 0.0, 139: 0.0, 140: 0.0, 141: 0.0, 142: 0.0, 143: 1.185072917, 144: 0.0, 145: 0.0, 146: 0.0, 147: 0.0, 148: 0.140772917, 149: 0.0, 150: 1.676172917, 151: 0.0, 152: 1.426572917, 153: 0.288372917, 154: 0.0, 155: 1.939572917, 156: 0.932972917, 157: 0.0, 158: 0.0, 159: 0.012972917, 160: 0.0, 161: 0.0, 162: 0.0, 163: 0.0, 164: 0.0, 165: 0.444172917, 166: 1.127072917, 167: 0.0, 168: 0.919072917, 169: 1.117272917, 170: 0.037872917, 171: 0.0, 172: 0.066372917, 173: 0.09117291700000001, 174: 0.0, 175: 0.0, 176: 1.113072917, 177: 0.114172917, 178: 0.112772917, 179: 1.104672917, 180: 0.123072917, 181: 0.129472917, 182: 1.131272917, 183: 0.0, 184: 0.121472917, 185: 1.122072917, 186: 0.121772917, 187: 0.0, 188: 1.129672917, 189: 0.313072917, 190: 0.338972917, 191: 0.0];
sell = [0: 0.0, 1: 0.0, 2: 0.0, 3: 0.566727083, 4: 0.572227083, 5: 0.0, 6: 0.0, 7: 0.616427083, 8: 0.0, 9: 0.5248508200000001, 10: 0.659427083, 11: 0.658927083, 12: 0.0, 13: 0.649727083, 14: 0.0, 15: 0.0, 16: 0.656927083, 17: 0.647427083, 18: 0.0, 19: 0.649227083, 20: 0.0, 21: 0.0, 22: 0.0, 23: 0.0, 24: 0.0, 25: 0.660427083, 26: 0.659927083, 27: 0.798227083, 28: 0.0, 29: 0.0, 30: 0.0, 31: 0.0, 32: 0.0, 33: 0.0, 34: 0.791227083, 35: 0.0, 36: 0.273927083, 37: 0.0, 38: 0.0, 39: 0.0, 40: 0.0, 41: 0.7877270830000001, 42: 0.048127083, 43: 0.0, 44: 0.0, 45: 0.0, 46: 1.809627083, 47: 2.204727083, 48: 0.0, 49: 0.787927083, 50: 1.811627083, 51: 0.619627083, 52: 1.419227083, 53: 0.0, 54: 0.0, 55: 0.352627083, 56: 0.265427083, 57: 0.079427083, 58: 0.055927083, 59: 0.0, 60: 0.451227083, 61: 0.0, 62: 0.0, 63: 0.352427083, 64: 0.0, 65: 0.784927083, 66: 0.0, 67: 1.989627083, 68: 0.0, 69: 0.0, 70: 0.0, 71: 0.0, 72: 0.778427083, 73: 0.779127083, 74: 0.0, 75: 0.0, 76: 0.789927083, 77: 0.0, 78: 0.0, 79: 0.798427083, 80: 0.0, 81: 0.0, 82: 0.0, 83: 0.0, 84: 0.0, 85: 0.782427083, 86: 0.773727083, 87: 0.772227083, 88: 0.769427083, 89: 0.0, 90: 0.0, 91: 0.772727083, 92: 0.0, 93: 0.610927083, 94: 0.0, 95: 0.0, 96: 0.424827083, 97: 0.0, 98: 0.0, 99: 0.396927083, 100: 0.0, 101: 0.0, 102: 0.0, 103: 0.0, 104: 0.0, 105: 0.485527083, 106: 0.483427083, 107: 0.0, 108: 0.0, 109: 0.0, 110: 0.0, 111: 0.0, 112: 0.534126984, 113: 0.0, 114: 0.0, 115: 0.0, 116: 0.0, 117: 0.134927083, 118: 0.0, 119: 0.0, 120: 0.0, 121: 0.0, 122: 0.0, 123: 0.0, 124: 0.0, 125: 0.0, 126: 0.0, 127: 1.030427083, 128: 1.102027083, 129: 0.0, 130: 0.0, 131: 0.0, 132: 0.0, 133: 0.0, 134: 0.0, 135: 0.210627083, 136: 0.0, 137: 0.0, 138: 0.507727083, 139: 0.753627083, 140: 0.755827083, 141: 2.633127083, 142: 0.795627083, 143: 0.0, 144: 0.910127083, 145: 0.0, 146: 0.0, 147: 1.993527083, 148: 0.0, 149: 2.404027083, 150: 0.0, 151: 2.851327083, 152: 0.0, 153: 0.0, 154: 0.7173956339999999, 155: 0.0, 156: 0.0, 157: 0.475227083, 158: 0.475827083, 159: 0.0, 160: 0.776327083, 161: 0.0, 162: 1.891527083, 163: 1.072584581, 164: 0.453227083, 165: 0.0, 166: 0.0, 167: 1.195927083, 168: 0.0, 169: 0.0, 170: 0.0, 171: 0.787427083, 172: 0.0, 173: 0.0, 174: 0.794827083, 175: 0.795927083, 176: 0.0, 177: 0.0, 178: 0.0, 179: 0.0, 180: 0.0, 181: 0.0, 182: 0.0, 183: 0.768227083, 184: 0.0, 185: 0.0, 186: 0.0, 187: 0.771927083, 188: 0.0, 189: 0.0, 190: 0.0, 191: 0.561527083];
charge = [0: 0.0, 1: 1.0, 2: 1.0, 3: 0.0, 4: 0.0, 5: 0.0, 6: 1.0, 7: 0.0, 8: 0.0, 9: 0.0, 10: 0.0, 11: 0.0, 12: 0.0, 13: 0.0, 14: 1.0, 15: 0.0, 16: 0.0, 17: 0.0, 18: 1.0, 19: 0.0, 20: 0.0, 21: 1.0, 22: 1.0, 23: 1.0, 24: 1.0, 25: 0.0, 26: 0.0, 27: 0.0, 28: 0.0, 29: 1.0, 30: 0.0, 31: 1.0, 32: 0.0, 33: 0.0, 34: 0.0, 35: 1.0, 36: 0.0, 37: 1.0, 38: 1.0, 39: 1.0, 40: 1.0, 41: 0.0, 42: 1.0, 43: 1.0, 44: 1.0, 45: 1.0, 46: 0.0, 47: 0.0, 48: 1.0, 49: 0.0, 50: 0.0, 51: 0.0, 52: 0.0, 53: 0.0, 54: 1.0, 55: 0.0, 56: 0.0, 57: 0.0, 58: 0.0, 59: 1.0, 60: 0.0, 61: 1.0, 62: 0.398727083, 63: 0.0, 64: 1.0, 65: 0.0, 66: 1.0, 67: 0.0, 68: 0.712374431, 69: 1.0, 70: 1.0, 71: 1.0, 72: 0.0, 73: 0.0, 74: 0.0, 75: 1.0, 76: 0.0, 77: 0.0, 78: 1.0, 79: 0.0, 80: 1.0, 81: 0.0, 82: 1.0, 83: 0.0, 84: 1.0, 85: 0.0, 86: 0.0, 87: 0.0, 88: 0.0, 89: 0.0, 90: 0.0, 91: 0.0, 92: 1.0, 93: 0.0, 94: 1.0, 95: 0.0, 96: 0.0, 97: 1.0, 98: 1.0, 99: 0.0, 100: 0.0, 101: 1.0, 102: 1.0, 103: 0.0, 104: 1.0, 105: 0.0, 106: 0.0, 107: 0.0, 108: 1.0, 109: 0.0, 110: 0.0, 111: 0.0, 112: 0.0, 113: 1.0, 114: 0.0, 115: 0.0, 116: 0.0, 117: 0.0, 118: 1.0, 119: 0.0, 120: 1.0, 121: 1.0, 122: 0.0, 123: 1.0, 124: 1.0, 125: 0.0, 126: 1.0, 127: 0.0, 128: 0.0, 129: 1.0, 130: 0.215127083, 131: 1.0, 132: 0.0, 133: 1.0, 134: 0.0, 135: 1.0, 136: 0.0, 137: 1.0, 138: 1.0, 139: 0.0, 140: 0.0, 141: 0.0, 142: 1.0, 143: 1.0, 144: 1.0, 145: 1.0, 146: 0.0, 147: 0.0, 148: 0.0, 149: 0.0, 150: 1.0, 151: 0.0, 152: 1.0, 153: 0.0, 154: 0.36713145, 155: 1.0, 156: 0.0, 157: 0.0, 158: 0.0, 159: 1.0, 160: 0.0, 161: 0.9731270829999999, 162: 0.0, 163: 0.0, 164: 0.0, 165: 1.0, 166: 1.0, 167: 0.0, 168: 1.0, 169: 1.0, 170: 0.0, 171: 0.0, 172: 0.0, 173: 0.0, 174: 0.0, 175: 0.0, 176: 1.0, 177: 0.0, 178: 0.0, 179: 1.0, 180: 0.0, 181: 0.0, 182: 1.0, 183: 0.0, 184: 0.0, 185: 1.0, 186: 0.0, 187: 0.0, 188: 1.0, 189: 0.0, 190: 0.0, 191: 0.0];
discharge = [0: 0.0, 1: 0.0, 2: 0.0, 3: 1.0, 4: 1.0, 5: 0.0, 6: 0.0, 7: 1.0, 8: 0.0, 9: 0.862359707, 10: 1.0, 11: 1.0, 12: 0.0, 13: 1.0, 14: 0.0, 15: 0.0, 16: 1.0, 17: 1.0, 18: 0.0, 19: 1.0, 20: 0.270081019, 21: 0.0, 22: 0.0, 23: 0.0, 24: 0.0, 25: 1.0, 26: 1.0, 27: 1.0, 28: 0.0, 29: 0.0, 30: 0.0, 31: 0.0, 32: 0.0, 33: 0.0, 34: 1.0, 35: 0.0, 36: 0.0, 37: 0.0, 38: 0.0, 39: 0.0, 40: 0.0, 41: 1.0, 42: 0.0, 43: 0.0, 44: 0.0, 45: 0.0, 46: 0.0, 47: 0.0, 48: 0.0, 49: 1.0, 50: 1.0, 51: 0.0, 52: 1.0, 53: 0.0, 54: 0.0, 55: 0.0, 56: 0.0, 57: 1.0, 58: 1.0, 59: 0.0, 60: 1.0, 61: 0.0, 62: 0.0, 63: 0.0, 64: 0.0, 65: 1.0, 66: 0.0, 67: 1.0, 68: 0.0, 69: 0.0, 70: 0.0, 71: 0.0, 72: 1.0, 73: 1.0, 74: 0.0, 75: 0.0, 76: 1.0, 77: 0.116969907, 78: 0.0, 79: 1.0, 80: 0.0, 81: 0.0, 82: 0.0, 83: 0.0, 84: 0.0, 85: 1.0, 86: 1.0, 87: 1.0, 88: 1.0, 89: 0.0, 90: 0.0, 91: 1.0, 92: 0.0, 93: 1.0, 94: 0.0, 95: 0.0, 96: 1.0, 97: 0.0, 98: 0.0, 99: 1.0, 100: 0.0, 101: 0.0, 102: 0.0, 103: 0.0, 104: 0.0, 105: 1.0, 106: 1.0, 107: 0.0, 108: 0.0, 109: 0.426747685, 110: 0.0, 111: 0.0, 112: 1.0, 113: 0.0, 114: 0.0, 115: 1.0, 116: 0.0, 117: 1.0, 118: 0.0, 119: 0.0, 120: 0.0, 121: 0.0, 122: 1.0, 123: 0.0, 124: 0.0, 125: 0.0, 126: 0.0, 127: 1.0, 128: 1.0, 129: 0.0, 130: 0.0, 131: 0.0, 132: 0.0, 133: 0.0, 134: 0.0, 135: 0.0, 136: 0.0, 137: 0.0, 138: 0.0, 139: 1.0, 140: 1.0, 141: 1.0, 142: 0.0, 143: 0.0, 144: 0.0, 145: 0.0, 146: 0.0, 147: 0.0, 148: 0.0, 149: 1.0, 150: 0.0, 151: 1.0, 152: 0.0, 153: 1.0, 154: 0.0, 155: 0.0, 156: 0.0, 157: 1.0, 158: 1.0, 159: 0.0, 160: 1.0, 161: 0.0, 162: 1.0, 163: 0.335952775, 164: 0.0, 165: 0.0, 166: 0.0, 167: 1.0, 168: 0.0, 169: 0.0, 170: 0.0, 171: 1.0, 172: 0.0, 173: 0.0, 174: 1.0, 175: 1.0, 176: 0.0, 177: 0.0, 178: 0.0, 179: 0.0, 180: 0.0, 181: 0.0, 182: 0.0, 183: 1.0, 184: 0.0, 185: 0.0, 186: 0.0, 187: 1.0, 188: 0.0, 189: 0.0, 190: 0.0, 191: 1.0];
soc = [0: 8.308337999999999, 1: 9.206676332000001, 2: 10.104834997, 3: 9.102814029999999, 4: 8.100993467, 5: 8.099373269000001, 6: 8.997753394, 7: 7.995953843, 8: 7.994354653, 9: 7.130396075, 10: 6.128969995, 11: 5.127744201, 12: 5.126718653, 13: 4.125693309, 14: 5.02486817, 15: 5.023863197, 16: 4.022858424, 17: 3.022053852, 18: 3.921449441, 19: 2.920665152, 20: 2.65, 21: 3.54947, 22: 4.448760106, 23: 5.347870354, 24: 6.24680078, 25: 5.24555142, 26: 4.244502309, 27: 3.243653409, 28: 3.243004678, 29: 4.142356077, 30: 4.141527606, 31: 5.040699301, 32: 5.039691161, 33: 5.038683223, 34: 4.037675486, 35: 4.936867951, 36: 4.935880577, 37: 5.834893401, 38: 6.733726422, 39: 7.632379677, 40: 8.530853200999999, 41: 7.529147031, 42: 8.427641201, 43: 9.325955672999999, 44: 10.224090482, 45: 11.122045664, 46: 11.119821255, 47: 11.11759729, 48: 12.015373771, 49: 11.012970696, 50: 10.010768102, 51: 10.008765948, 52: 9.006764195000001, 53: 9.004962841999999, 54: 9.90316185, 55: 9.901181217, 56: 9.899200981, 57: 8.897221140999999, 58: 7.895441697, 59: 8.793862608, 60: 7.792103836, 61: 8.690545415000001, 62: 9.047661680999999, 63: 9.045852149, 64: 9.944042978000001, 65: 8.94205417, 66: 9.840265758999999, 67: 8.838297706000001, 68: 9.477667034, 69: 10.375771501, 70: 11.273696346, 71: 12.171441607, 72: 11.169007319, 73: 10.166773517, 74: 10.164740163, 75: 11.062707214, 76: 10.060494673, 77: 9.941512667, 78: 10.839524364, 79: 9.837356459, 80: 10.735388988, 81: 10.73324191, 82: 11.631095262, 83: 11.628769043, 84: 12.526443289, 85: 11.523938, 86: 10.521633213, 87: 9.519528886, 88: 8.517624980000001, 89: 8.515921455000001, 90: 8.514218271000001, 91: 7.512515427, 92: 8.411012924, 93: 7.409330722, 94: 8.307848856, 95: 8.306187286, 96: 7.304526048, 97: 8.203065143, 98: 9.101424529999999, 99: 8.099604245, 100: 8.097984324, 101: 8.996364727, 102: 9.894565455, 103: 9.892586541, 104: 10.790608024, 105: 9.788449902, 106: 8.786492213000001, 107: 8.784734914, 108: 9.682977966999999, 109: 9.254293686, 110: 9.252442828, 111: 9.250592339000001, 112: 8.248742221000001, 113: 9.147092472000001, 114: 9.145263054000001, 115: 8.143434000999999, 116: 8.141805314000001, 117: 7.140176953, 118: 8.038748918, 119: 8.037141168, 120: 8.93553374, 121: 9.833746633000001, 122: 8.831779883999999, 123: 9.730013528000001, 124: 10.628067525, 125: 10.625941911, 126: 11.523816723, 127: 10.52151196, 128: 9.519407657, 129: 10.417503776, 130: 10.60903465, 131: 11.506912843, 132: 11.504611461, 133: 12.402310538, 134: 12.399830076, 135: 13.29735011, 136: 13.29469064, 137: 14.192031702, 138: 15.089193296, 139: 14.086175457, 140: 13.083358222, 141: 12.08074155, 142: 12.978325402, 143: 13.875729737, 144: 14.772954591, 145: 15.67, 146: 15.666866, 147: 15.663732627, 148: 15.66059988, 149: 14.65746776, 150: 15.554536267, 151: 14.551425359, 152: 15.448515074, 153: 14.445425371, 154: 14.772954591, 155: 15.67, 156: 15.666866, 157: 14.663732627, 158: 13.66079988, 159: 14.55806772, 160: 13.555156107, 161: 14.428259451, 162: 13.425373799, 163: 13.086735949, 164: 13.084118602, 165: 13.981501778, 166: 14.878705478, 167: 13.875729737, 168: 14.772954591, 169: 15.67, 170: 15.666866, 171: 14.663732627, 172: 14.66079988, 173: 14.65786772, 174: 13.654936147, 175: 12.65220516, 176: 13.549674718, 177: 13.546964784, 178: 13.544255391, 179: 14.44154654, 180: 14.43865823, 181: 14.435770499, 182: 15.332883344, 183: 14.329816768, 184: 14.326950804, 185: 15.224085414, 186: 15.221040597, 187: 14.217996389, 188: 15.11515279, 189: 15.112129759, 190: 15.109107333, 191: 14.106085512];
cost = [0: 0.241777675, 1: 0.97287181, 2: 0.95912656, 3: 0.0, 4: 0.0, 5: 0.195043825, 6: 0.8977311100000001, 7: 0.0, 8: 0.173356875, 9: 0.0, 10: 0.0, 11: 0.0, 12: 0.153197175, 13: 0.0, 14: 0.88227534, 15: 0.148309975, 16: 0.0, 17: 0.0, 18: 0.88337496, 19: 0.0, 20: 0.0, 21: 0.87769359, 22: 0.88319169, 23: 0.88306951, 24: 1.604075307, 25: 0.0, 26: 0.0, 27: 0.0, 28: 0.128563542, 29: 1.429442027, 30: 0.121425942, 31: 1.428252427, 32: 0.129991062, 33: 0.128920422, 34: 0.0, 35: 0.969780587, 36: 0.0, 37: 0.730552027, 38: 1.450616907, 39: 1.448832507, 40: 1.441100107, 41: 0.0, 42: 0.118178165, 43: 1.454780507, 44: 0.246027947, 45: 1.444430987, 46: 0.0, 47: 0.0, 48: 0.436482907, 49: 0.0, 50: 0.0, 51: 0.0, 52: 0.0, 53: 0.07316927500000001, 54: 0.79815441, 55: 0.0, 56: 0.0, 57: 0.0, 58: 0.0, 59: 0.87042388, 60: 0.0, 61: 1.865430427, 62: 0.047120835, 63: 0.0, 64: 1.445263707, 65: 0.0, 66: 1.454542587, 67: 0.0, 68: 1.075656068, 69: 0.832976587, 70: 1.162376827, 71: 1.110034427, 72: 0.0, 73: 0.0, 74: 0.135463222, 75: 1.371865387, 76: 0.0, 77: 0.0, 78: 1.437531307, 79: 0.0, 80: 1.428847227, 81: 0.129158342, 82: 1.438958827, 83: 0.131537542, 84: 1.447048107, 85: 0.0, 86: 0.0, 87: 0.0, 88: 0.0, 89: 0.07316927500000001, 90: 0.073657995, 91: 0.0, 92: 0.80915061, 93: 0.0, 94: 0.99486421, 95: 0.270184525, 96: 0.0, 97: 1.02113291, 98: 1.34124451, 99: 0.0, 100: 0.282524705, 101: 1.01306903, 102: 1.0114196, 103: 0.273788835, 104: 0.97757574, 105: 0.0, 106: 0.0, 107: 0.290099865, 108: 0.96645736, 109: 0.0, 110: 0.718279675, 111: 0.247520135, 112: 0.0, 113: 0.9519790299999999, 114: 0.217891485, 115: 0.038042525, 116: 0.527617785, 117: 0.0, 118: 1.13671519, 119: 0.346852475, 120: 1.867571707, 121: 1.750515067, 122: 0.039819382, 123: 1.734217547, 124: 1.348073387, 125: 0.013648182, 126: 1.264920347, 127: 0.0, 128: 0.0, 129: 2.625108987, 130: 0.025423324, 131: 1.623108907, 132: 0.298081542, 133: 1.444193067, 134: 0.149619462, 135: 0.118178165, 136: 0.147121302, 137: 0.118178165, 138: 0.118178165, 139: 0.0, 140: 0.0, 141: 0.0, 142: 0.118178165, 143: 1.527940907, 144: 0.118178165, 145: 0.118178165, 146: 0.0, 147: 0.0, 148: 0.085998175, 149: 0.0, 150: 1.1421522, 151: 0.0, 152: 0.98967156, 153: 0.176167015, 154: 0.043386921, 155: 1.30306326, 156: 1.109864582, 157: 0.0, 158: 0.0, 159: 0.133610747, 160: 0.0, 161: 0.115002373, 162: 0.0, 163: 0.0, 164: 0.0, 165: 0.646566267, 166: 1.458944107, 167: 0.0, 168: 1.211507307, 169: 1.447286027, 170: 0.045053622, 171: 0.0, 172: 0.07895722199999999, 173: 0.108459302, 174: 0.0, 175: 0.0, 176: 1.442289707, 177: 0.135820102, 178: 0.134154662, 179: 1.432297067, 180: 0.146407542, 181: 0.154020982, 182: 1.463940427, 183: 0.0, 184: 0.074207805, 185: 0.80365251, 186: 0.074391075, 187: 0.0, 188: 0.80829535, 189: 0.191256245, 190: 0.207078555, 191: 0.0];
earn = [0: 0.0, 1: 0.0, 2: 0.0, 3: 0.31952073, 4: 0.314324337, 5: 0.0, 6: 0.0, 7: 0.341130748, 8: 0.0, 9: 0.285676301, 10: 0.361234156, 11: 0.360499007, 12: 0.0, 13: 0.354296179, 14: 0.0, 15: 0.0, 16: 0.362886521, 17: 0.359969458, 18: 0.0, 19: 0.362398558, 20: 0.0, 21: 0.0, 22: 0.0, 23: 0.0, 24: 0.0, 25: 0.501792498, 26: 0.548861355, 27: 0.720000829, 28: 0.0, 29: 0.0, 30: 0.0, 31: 0.0, 32: 0.0, 33: 0.0, 34: 0.65877567, 35: 0.0, 36: 0.22149744, 37: 0.0, 38: 0.0, 39: 0.0, 40: 0.0, 41: 0.515567376, 42: 0.030541447, 43: 0.0, 44: 0.0, 45: 0.0, 46: 1.057184142, 47: 1.263749564, 48: 0.0, 49: 0.438560215, 50: 0.997844198, 51: 0.335775916, 52: 0.817900568, 53: 0.0, 54: 0.0, 55: 0.166898399, 56: 0.131598748, 57: 0.039578516, 58: 0.028718557, 59: 0.0, 60: 0.225162315, 61: 0.0, 62: 0.0, 63: 0.195561789, 64: 0.0, 65: 0.435399053, 66: 0.0, 67: 1.204122311, 68: 0.0, 69: 0.0, 70: 0.0, 71: 0.0, 72: 0.571209794, 73: 0.602421061, 74: 0.0, 75: 0.0, 76: 0.727443851, 77: 0.0, 78: 0.0, 79: 0.800822365, 80: 0.0, 81: 0.0, 82: 0.0, 83: 0.0, 84: 0.0, 85: 0.670696496, 86: 0.648770159, 87: 0.633380654, 88: 0.628314156, 89: 0.0, 90: 0.0, 91: 0.5978589439999999, 92: 0.0, 93: 0.452147134, 94: 0.0, 95: 0.0, 96: 0.330600436, 97: 0.0, 98: 0.0, 99: 0.27538801, 100: 0.0, 101: 0.0, 102: 0.0, 103: 0.0, 104: 0.0, 105: 0.322050114, 106: 0.322397522, 107: 0.0, 108: 0.0, 109: 0.0, 110: 0.0, 111: 0.0, 112: 0.364167845, 113: 0.0, 114: 0.0, 115: 0.0, 116: 0.0, 117: 0.101262776, 118: 0.0, 119: 0.0, 120: 0.0, 121: 0.0, 122: 0.0, 123: 0.0, 124: 0.0, 125: 0.0, 126: 0.0, 127: 1.035579219, 128: 0.875891126, 129: 0.0, 130: 0.0, 131: 0.0, 132: 0.0, 133: 0.0, 134: 0.0, 135: 0.143752984, 136: 0.0, 137: 0.0, 138: 0.265592037, 139: 0.389625202, 140: 0.368163372, 141: 1.222297592, 142: 0.381184936, 143: 0.0, 144: 0.375063371, 145: 0.0, 146: 0.0, 147: 0.830503383, 148: 0.0, 149: 0.800781421, 150: 0.0, 151: 0.8374347640000001, 152: 0.0, 153: 0.0, 154: 0.230212259, 155: 0.0, 156: 0.0, 157: 0.193132287, 158: 0.18956951, 159: 0.0, 160: 0.375198879, 161: 0.0, 162: 0.990025275, 163: 0.621240989, 164: 0.296591803, 165: 0.0, 166: 0.0, 167: 0.860708722, 168: 0.0, 169: 0.0, 170: 0.0, 171: 0.707975691, 172: 0.0, 173: 0.0, 174: 0.863182213, 175: 0.876315719, 176: 0.0, 177: 0.0, 178: 0.0, 179: 0.0, 180: 0.0, 181: 0.0, 182: 0.0, 183: 0.643774296, 184: 0.0, 185: 0.0, 186: 0.0, 187: 0.589443521, 188: 0.0, 189: 0.0, 190: 0.0, 191: 0.382175333];
total_cost = 88.43320475599999;
total_earn = 37.351374121;
