production = [0: 0.0, 1: 0.0, 2: 0.0, 3: 0.0, 4: 0.0, 5: 0.0, 6: 0.0, 7: 0.0, 8: 0.0, 9: 0.0, 10: 0.0, 11: 0.0, 12: 0.0, 13: 0.0, 14: 0.0, 15: 0.0, 16: 0.0, 17: 0.0, 18: 0.0, 19: 0.0, 20: 0.0, 21: 0.0, 22: 0.0, 23: 0.0, 24: 0.0, 25: 0.0, 26: 0.0022, 27: 0.0, 28: 0.0, 29: 0.0, 30: 0.082, 31: 0.1062, 32: 0.0, 33: 0.14, 34: 0.0, 35: 0.3957, 36: 0.385, 37: 0.0, 38: 0.0, 39: 0.7502, 40: 0.6655, 41: 0.0, 42: 0.0, 43: 0.0, 44: 0.0, 45: 0.0, 46: 1.115572917, 47: 2.3258, 48: 0.0, 49: 0.0, 50: 1.0237, 51: 0.0, 52: 0.0, 53: 0.3043, 54: 0.0, 55: 0.4655, 56: 0.0, 57: 0.0, 58: 0.6162, 59: 0.596, 60: 0.0, 61: 0.5643, 62: 0.8708, 63: 0.0, 64: 0.5985, 65: 0.0, 66: 0.0, 67: 1.21, 68: 0.447, 69: 0.5135, 70: 0.2338, 71: 0.285, 72: 0.0, 73: 0.0, 74: 0.118, 75: 0.0, 76: 0.0, 77: 0.0, 78: 0.0, 79: 0.0, 80: 0.0003, 81: 0.0, 82: 0.0, 83: 0.0, 84: 0.0, 85: 0.0, 86: 0.0, 87: 0.0, 88: 0.0, 89: 0.0, 90: 0.0, 91: 0.0, 92: 0.0, 93: 0.0, 94: 0.0, 95: 0.0, 96: 0.0, 97: 0.0, 98: 0.0, 99: 0.0, 100: 0.0, 101: 0.0, 102: 0.0, 103: 0.0, 104: 0.0, 105: 0.0, 106: 0.0, 107: 0.0, 108: 0.0, 109: 0.0, 110: 0.0, 111: 0.0, 112: 0.0, 113: 0.0, 114: 0.0, 115: 0.0, 116: 0.0003, 117: 0.0005, 118: 0.0008, 119: 0.0, 120: 0.0013, 121: 0.0016, 122: 0.0, 123: 0.0364, 124: 0.0789, 125: 0.0, 126: 0.0, 127: 0.2343, 128: 0.3048, 129: 0.3948, 130: 0.4644, 131: 0.0, 132: 0.0, 133: 0.0, 134: 1.2313, 135: 1.3358, 136: 1.4659, 137: 0.0, 138: 1.6076, 139: 1.7736, 140: 0.0, 141: 0.0, 142: 1.9631, 143: 2.0124, 144: 0.0, 145: 0.0, 146: 2.2048, 147: 0.0, 148: 2.2576, 149: 1.6298, 150: 0.0, 151: 0.0, 152: 2.0053, 153: 0.0, 154: 0.0, 155: 1.2184, 156: 1.7733, 157: 0.0, 158: 0.0, 159: 0.0, 160: 0.0, 161: 0.0, 162: 1.1252, 163: 0.0, 164: 0.5787, 165: 0.0, 166: 0.5309, 167: 0.0, 168: 0.1969, 169: 0.0, 170: 0.08309999999999999, 171: 0.0, 172: 0.0, 173: 0.0, 174: 0.0, 175: 0.0016, 176: 0.0, 177: 0.0, 178: 0.0, 179: 0.0, 180: 0.0, 181: 0.0, 182: 0.0, 183: 0.0, 184: 0.0, 185: 0.0, 186: 0.0, 187: 0.0, 188: 0.0, 189: 0.0, 190: 0.0, 191: 0.0];
buy = [0: 1.395772917, 1: 0.0, 2: 0.0, 3: 0.0, 4: 0.327772917, 5: 1.319272917, 6: 0.276072917, 7: 0.0, 8: 1.283772917, 9: 0.0, 10: 1.240572917, 11: 0.241072917, 12: 0.250772917, 13: 0.0, 14: 1.250772917, 15: 0.0, 16: 1.243072917, 17: 0.0, 18: 1.252572917, 19: 0.250772917, 20: 0.0, 21: 0.243272917, 22: 0.0, 23: 1.252072917, 24: 1.249072917, 25: 1.240072917, 26: 0.0, 27: 1.109072917, 28: 0.0, 29: 1.102272917, 30: 0.020072917, 31: 0.995072917, 32: 1.109272917, 33: 0.0, 34: 1.108772917, 35: 0.0, 36: 0.726072917, 37: 0.0, 38: 0.120072917, 39: 0.368372917, 40: 0.0, 41: 0.0, 42: 0.0, 43: 0.0, 44: 1.111772917, 45: 0.0, 46: 0.0, 47: 0.0, 48: 0.0, 49: 0.0, 50: 0.088372917, 51: 0.0, 52: 0.0, 53: 0.0, 54: 1.113072917, 55: 0.647372917, 56: 0.0, 57: 1.820572917, 58: 1.227872917, 59: 1.231372917, 60: 1.448772917, 61: 0.904472917, 62: 0.0, 63: 0.473572917, 64: 0.517072917, 65: 1.115072917, 66: 0.123372917, 67: 0.0, 68: 0.0, 69: 0.0, 70: 0.877772917, 71: 0.833772917, 72: 0.0, 73: 1.120872917, 74: 0.0, 75: 1.113072917, 76: 0.0, 77: 0.111272917, 78: 1.109072917, 79: 0.102072917, 80: 0.0, 81: 1.108572917, 82: 0.110272917, 83: 0.0, 84: 0.0, 85: 1.117572917, 86: 1.126272917, 87: 0.0, 88: 1.130572917, 89: 0.119772917, 90: 1.120572917, 91: 0.0, 92: 0.0, 93: 1.289072917, 94: 0.435072917, 95: 1.442272917, 96: 0.0, 97: 0.0, 98: 2.002072917, 99: 1.503072917, 100: 1.462472917, 101: 0.464872917, 102: 1.462172917, 103: 0.448172917, 104: 1.406772917, 105: 0.414472917, 106: 0.416572917, 107: 0.474872917, 108: 0.388572917, 109: 0.0, 110: 1.175772917, 111: 0.0, 112: 1.365872917, 113: 0.0, 114: 0.0, 115: 0.9622729169999999, 116: 0.174728539, 117: 0.0, 118: 0.0, 119: 0.0, 120: 0.0, 121: 0.0, 122: 0.033472917, 123: 1.358472917, 124: 1.033872917, 125: 0.0, 126: 0.111972917, 127: 0.8695729169999999, 128: 0.7979729169999999, 129: 0.0, 130: 0.0, 131: 1.265072917, 132: 0.250572917, 133: 1.114672917, 134: 0.0, 135: 0.0, 136: 0.0, 137: 1.116272917, 138: 0.0, 139: 0.0, 140: 0.0, 141: 0.0, 142: 0.0, 143: 0.0, 144: 1.144472917, 145: 0.0, 146: 0.0, 147: 1.154772917, 148: 0.0, 149: 0.0, 150: 1.676172917, 151: 1.141572917, 152: 0.0, 153: 1.188372917, 154: 0.8252729170000001, 155: 0.0, 156: 0.0, 157: 0.0, 158: 1.424172917, 159: 0.365372917, 160: 0.123672917, 161: 0.134172917, 162: 0.0, 163: 1.127272917, 164: 0.0, 165: 0.0, 166: 0.0, 167: 1.122572917, 168: 0.0, 169: 1.117272917, 170: 0.037872917, 171: 0.0, 172: 1.112772917, 173: 0.0, 174: 0.0, 175: 0.0, 176: 0.113072917, 177: 0.0, 178: 1.112772917, 179: 0.0, 180: 0.0, 181: 1.129472917, 182: 0.0, 183: 0.131772917, 184: 0.121472917, 185: 1.122072917, 186: 0.121772917, 187: 0.0, 188: 1.129672917, 189: 0.313072917, 190: 1.338972917, 191: 1.338472917];
sell = [0: 0.0, 1: 0.500927083, 2: 0.523427083, 3: 0.566727083, 4: 0.0, 5: 0.0, 6: 0.0, 7: 0.616427083, 8: 0.0, 9: 0.648727083, 10: 0.0, 11: 0.0, 12: 0.0, 13: 0.649727083, 14: 0.0, 15: 0.657227083, 16: 0.0, 17: 0.647427083, 18: 0.0, 19: 0.0, 20: 0.656927083, 21: 0.0, 22: 0.647727083, 23: 0.0, 24: 0.0, 25: 0.0, 26: 0.662127083, 27: 0.0, 28: 0.791927083, 29: 0.0, 30: 0.0, 31: 0.0, 32: 0.0, 33: 0.931627083, 34: 0.0, 35: 1.184126984, 36: 0.0, 37: 0.780427083, 38: 0.0, 39: 0.0, 40: 0.553427083, 41: 0.7877270830000001, 42: 0.7766270830000001, 43: 0.776427083, 44: 0.0, 45: 0.785127083, 46: 0.0, 47: 1.204727083, 48: 0.780427083, 49: 0.787927083, 50: 0.0, 51: 0.780427083, 52: 0.781227083, 53: 0.184527083, 54: 0.0, 55: 0.0, 56: 0.788927083, 57: 0.0, 58: 0.0, 59: 0.0, 60: 0.0, 61: 0.0, 62: 1.298727083, 63: 0.0, 64: 0.0, 65: 0.0, 66: 0.0, 67: 1.089627083, 68: 0.325927083, 69: 0.399127083, 70: 0.0, 71: 0.0, 72: 0.0, 73: 0.0, 74: 0.904127083, 75: 0.0, 76: 0.789927083, 77: 0.0, 78: 0.0, 79: 0.0, 80: 0.798227083, 81: 0.0, 82: 0.0, 83: 0.789427083, 84: 0.782927083, 85: 0.0, 86: 0.0, 87: 0.772227083, 88: 0.0, 89: 0.0, 90: 0.0, 91: 0.772727083, 92: 0.768927083, 93: 0.0, 94: 0.0, 95: 0.0, 96: 0.424827083, 97: 0.081145433, 98: 0.0, 99: 0.0, 100: 0.0, 101: 0.0, 102: 0.0, 103: 0.0, 104: 0.0, 105: 0.0, 106: 0.0, 107: 0.0, 108: 0.0, 109: 0.515927083, 110: 0.0, 111: 0.494827083, 112: 0.0, 113: 0.535127083, 114: 0.543327083, 115: 0.0, 116: 0.0, 117: 0.134927083, 118: 0.233527083, 119: 0.331127083, 120: 0.430727083, 121: 0.529427083, 122: 0.0, 123: 0.0, 124: 0.0, 125: 0.787427083, 126: 0.0, 127: 0.0, 128: 0.0, 129: 0.187427083, 130: 1.115127083, 131: 0.0, 132: 0.0, 133: 0.0, 134: 0.105527083, 135: 1.210627083, 136: 1.342227083, 137: 0.0, 138: 0.507727083, 139: 0.627227083, 140: 0.755827083, 141: 0.733927083, 142: 0.795627083, 143: 2.727327083, 144: 0.0, 145: 0.768227083, 146: 2.948727083, 147: 0.0, 148: 3.016827083, 149: 0.504027083, 150: 0.0, 151: 0.0, 152: 1.578727083, 153: 0.0, 154: 0.0, 155: 0.278827083, 156: 1.740327083, 157: 0.475227083, 158: 0.0, 159: 0.0, 160: 0.0, 161: 0.0, 162: 1.891527083, 163: 0.0, 164: 1.353227083, 165: 0.772127083, 166: 0.403827083, 167: 0.0, 168: 0.980927083, 169: 0.0, 170: 0.0, 171: 0.787427083, 172: 0.0, 173: 0.786927083, 174: 0.794827083, 175: 0.797527083, 176: 0.0, 177: 0.785827083, 178: 0.0, 179: 0.795327083, 180: 0.776927083, 181: 0.0, 182: 0.768727083, 183: 0.0, 184: 0.0, 185: 0.0, 186: 0.0, 187: 0.771927083, 188: 0.0, 189: 0.0, 190: 0.0, 191: 0.0];
charge = [0: 1.0, 1: 0.0, 2: 0.0, 3: 0.0, 4: 0.0, 5: 1.0, 6: 0.0, 7: 0.0, 8: 1.0, 9: 0.0, 10: 1.0, 11: 0.0, 12: 0.0, 13: 0.0, 14: 1.0, 15: 0.0, 16: 1.0, 17: 0.0, 18: 1.0, 19: 0.0, 20: 0.0, 21: 0.0, 22: 0.0, 23: 1.0, 24: 1.0, 25: 1.0, 26: 0.0, 27: 1.0, 28: 0.0, 29: 1.0, 30: 0.0, 31: 1.0, 32: 1.0, 33: 0.0, 34: 1.0, 35: 0.0, 36: 1.0, 37: 0.0, 38: 0.0, 39: 1.0, 40: 0.0, 41: 0.0, 42: 0.0, 43: 0.0, 44: 1.0, 45: 0.0, 46: 1.0, 47: 1.0, 48: 0.0, 49: 0.0, 50: 1.0, 51: 0.0, 52: 0.0, 53: 0.0, 54: 1.0, 55: 1.0, 56: 0.0, 57: 1.0, 58: 1.0, 59: 1.0, 60: 1.0, 61: 1.0, 62: 0.0, 63: 0.0, 64: 1.0, 65: 1.0, 66: 0.0, 67: 0.0, 68: 0.0, 69: 0.0, 70: 1.0, 71: 1.0, 72: 0.0, 73: 1.0, 74: 0.0, 75: 1.0, 76: 0.0, 77: 0.0, 78: 1.0, 79: 0.0, 80: 0.0, 81: 1.0, 82: 0.0, 83: 0.0, 84: 0.0, 85: 1.0, 86: 1.0, 87: 0.0, 88: 1.0, 89: 0.0, 90: 1.0, 91: 0.0, 92: 0.0, 93: 1.0, 94: 0.0, 95: 1.0, 96: 0.0, 97: 0.0, 98: 1.0, 99: 1.0, 100: 1.0, 101: 0.0, 102: 1.0, 103: 0.0, 104: 1.0, 105: 0.0, 106: 0.0, 107: 0.0, 108: 0.0, 109: 0.0, 110: 0.0, 111: 0.0, 112: 1.0, 113: 0.0, 114: 0.0, 115: 0.0, 116: 0.0, 117: 0.0, 118: 0.0, 119: 0.0, 120: 0.0, 121: 0.0, 122: 0.0, 123: 1.0, 124: 1.0, 125: 0.0, 126: 0.0, 127: 1.0, 128: 1.0, 129: 0.0, 130: 0.0, 131: 1.0, 132: 0.0, 133: 1.0, 134: 1.0, 135: 0.0, 136: 0.0, 137: 1.0, 138: 1.0, 139: 1.0, 140: 0.0, 141: 0.0, 142: 1.0, 143: 0.0, 144: 1.0, 145: 0.0, 146: 0.0, 147: 1.0, 148: 0.0, 149: 1.0, 150: 1.0, 151: 1.0, 152: 0.0, 153: 0.0, 154: 0.0, 155: 0.0, 156: 0.0, 157: 0.0, 158: 1.0, 159: 0.0, 160: 0.0, 161: 0.0, 162: 0.0, 163: 1.0, 164: 0.0, 165: 0.0, 166: 0.0, 167: 1.0, 168: 0.0, 169: 1.0, 170: 0.0, 171: 0.0, 172: 1.0, 173: 0.0, 174: 0.0, 175: 0.0, 176: 0.0, 177: 0.0, 178: 1.0, 179: 0.0, 180: 0.0, 181: 1.0, 182: 0.0, 183: 0.0, 184: 0.0, 185: 1.0, 186: 0.0, 187: 0.0, 188: 1.0, 189: 0.0, 190: 1.0, 191: 1.0];
discharge = [0: 0.0, 1: 1.0, 2: 1.0, 3: 1.0, 4: 0.0, 5: 0.0, 6: 0.0, 7: 1.0, 8: 0.0, 9: 1.0, 10: 0.0, 11: 0.0, 12: 0.0, 13: 1.0, 14: 0.0, 15: 1.0, 16: 0.0, 17: 1.0, 18: 0.0, 19: 0.0, 20: 1.0, 21: 0.0, 22: 1.0, 23: 0.0, 24: 0.0, 25: 0.0, 26: 1.0, 27: 0.0, 28: 1.0, 29: 0.0, 30: 0.0, 31: 0.0, 32: 0.0, 33: 1.0, 34: 0.0, 35: 1.0, 36: 0.0, 37: 1.0, 38: 0.0, 39: 0.0, 40: 0.0, 41: 1.0, 42: 1.0, 43: 1.0, 44: 0.0, 45: 1.0, 46: 0.0, 47: 0.0, 48: 1.0, 49: 1.0, 50: 0.0, 51: 1.0, 52: 1.0, 53: 0.0, 54: 0.0, 55: 0.0, 56: 1.0, 57: 0.0, 58: 0.0, 59: 0.0, 60: 0.0, 61: 0.0, 62: 1.0, 63: 0.0, 64: 0.0, 65: 0.0, 66: 0.0, 67: 0.0, 68: 0.0, 69: 0.0, 70: 0.0, 71: 0.0, 72: 0.135081019, 73: 0.0, 74: 1.0, 75: 0.0, 76: 1.0, 77: 0.0, 78: 0.0, 79: 0.0, 80: 1.0, 81: 0.0, 82: 0.0, 83: 1.0, 84: 1.0, 85: 0.0, 86: 0.0, 87: 1.0, 88: 0.0, 89: 0.0, 90: 0.0, 91: 1.0, 92: 1.0, 93: 0.0, 94: 0.0, 95: 0.0, 96: 1.0, 97: 0.6213537220000001, 98: 0.0, 99: 0.0, 100: 0.0, 101: 0.0, 102: 0.0, 103: 0.0, 104: 0.0, 105: 0.0, 106: 0.0, 107: 0.0, 108: 0.0, 109: 1.0, 110: 0.0, 111: 1.0, 112: 0.0, 113: 1.0, 114: 1.0, 115: 0.0, 116: 0.765493753, 117: 1.0, 118: 1.0, 119: 1.0, 120: 1.0, 121: 1.0, 122: 1.0, 123: 0.0, 124: 0.0, 125: 1.0, 126: 0.0, 127: 0.0, 128: 0.0, 129: 1.0, 130: 1.0, 131: 0.0, 132: 0.0, 133: 0.0, 134: 0.0, 135: 0.0, 136: 0.0, 137: 0.0, 138: 0.0, 139: 0.0, 140: 1.0, 141: 1.0, 142: 0.0, 143: 1.0, 144: 0.0, 145: 1.0, 146: 1.0, 147: 0.0, 148: 1.0, 149: 0.0, 150: 0.0, 151: 0.0, 152: 0.0, 153: 0.0, 154: 0.0, 155: 0.0, 156: 1.0, 157: 1.0, 158: 0.0, 159: 0.0, 160: 0.0, 161: 0.0, 162: 1.0, 163: 0.0, 164: 1.0, 165: 1.0, 166: 0.0, 167: 0.0, 168: 1.0, 169: 0.0, 170: 0.0, 171: 1.0, 172: 0.0, 173: 1.0, 174: 1.0, 175: 1.0, 176: 0.0, 177: 1.0, 178: 0.0, 179: 1.0, 180: 1.0, 181: 0.0, 182: 1.0, 183: 0.0, 184: 0.0, 185: 0.0, 186: 0.0, 187: 1.0, 188: 0.0, 189: 0.0, 190: 0.0, 191: 0.0];
soc = [0: 9.208337999999999, 1: 8.206496332, 2: 7.204855033, 3: 6.203414062, 4: 6.202173379, 5: 7.100932945, 6: 7.099512758, 7: 6.098092855, 8: 6.996873237, 9: 5.995473862, 10: 6.894274768, 11: 6.892895913, 12: 6.891517333, 13: 5.89013903, 14: 6.788961002, 15: 5.78760321, 16: 6.686445689, 17: 5.6851084, 18: 6.583971378, 19: 6.582654584, 20: 5.581338053, 21: 5.580221786, 22: 4.579105741, 23: 5.47818992, 24: 6.377094282, 25: 7.275818863, 26: 6.2743637, 27: 7.173108827, 28: 6.171674205, 29: 7.07043987, 30: 7.069025782, 31: 7.967611977, 32: 8.866018455000001, 33: 7.864245251, 34: 8.762672402, 35: 7.760919867, 36: 8.659367682999999, 37: 7.65763581, 38: 7.656104283, 39: 8.554573061999999, 40: 8.552862147000001, 41: 7.551151575, 42: 6.549641345, 43: 5.548331416, 44: 6.44722175, 45: 5.445932306, 46: 6.344843119, 47: 7.243574151, 48: 6.242125436, 49: 5.240877011, 50: 6.139828835, 51: 5.138600869, 52: 4.137573149, 53: 4.136745635, 54: 5.035918286, 55: 5.934911102, 56: 4.93372412, 57: 5.832737375, 58: 6.731570827, 59: 7.630224513, 60: 8.528698468, 61: 9.426992729, 62: 8.425107329999999, 63: 8.423422308999999, 64: 9.321737624000001, 65: 10.219873277, 66: 10.217829302, 67: 10.215785736, 68: 10.213742579, 69: 10.21169983, 70: 11.10965749, 71: 12.007435559, 72: 11.869953053, 73: 12.767579063, 74: 11.765025547, 75: 12.662672542, 76: 11.660140007, 77: 11.657807979, 78: 12.555476418, 79: 12.552965322, 80: 11.550454729, 81: 12.448144638, 82: 12.445655009, 83: 11.443165878, 84: 10.440877245, 85: 11.33878907, 86: 12.236521312, 87: 11.234074008, 88: 12.131827193, 89: 12.129400828, 90: 13.026974947, 91: 12.024369552, 92: 11.021964678, 93: 11.919760286, 94: 11.917376333, 95: 12.814992858, 96: 11.81242986, 97: 11.188713652, 98: 12.086475909, 99: 12.984058614, 100: 13.881461802, 101: 13.87868551, 102: 14.775909773, 103: 14.772954591, 104: 15.67, 105: 15.666866, 106: 15.663732627, 107: 15.66059988, 108: 15.65746776, 109: 14.654336267, 110: 14.651405399, 111: 13.648475118, 112: 14.545745423, 113: 13.542836274, 114: 12.540127707, 115: 12.537619682, 116: 11.769618405, 117: 10.767264481, 118: 9.765111028, 119: 8.763158005999999, 120: 7.761405375, 121: 6.759853094, 122: 5.758501123, 123: 6.657349423, 124: 7.556017953, 125: 6.554506749, 126: 6.553195848, 127: 7.451885209, 128: 8.350394831999999, 129: 7.348724753, 130: 6.347255008, 131: 7.245985557, 132: 7.24453636, 133: 8.143087452, 134: 9.041458835, 135: 9.039650543, 136: 9.037842613, 137: 9.936035044, 138: 10.834047837, 139: 11.731881028, 140: 10.729534652, 141: 9.727388745000001, 142: 10.625443267, 143: 9.623318178, 144: 10.521393515, 145: 9.519289236000001, 146: 8.517385378, 147: 9.415681900999999, 148: 8.413798764999999, 149: 9.312116005, 150: 10.210253582, 151: 11.108211531, 152: 11.105989889, 153: 11.103768691, 154: 11.101547937, 155: 11.099327627, 156: 10.097107762, 157: 9.09508834, 158: 9.993269323, 159: 9.991269840999999, 160: 9.989272415, 161: 9.987274559999999, 162: 8.985277105, 163: 9.883480049999999, 164: 8.881503353999999, 165: 7.879727053, 166: 7.878151108, 167: 8.776575478, 168: 7.774820162, 169: 8.673265197999999, 170: 8.671530545, 171: 7.669796239, 172: 8.568262280000001, 173: 7.566548628, 174: 6.565035318, 175: 5.563722311, 176: 5.562609566, 177: 4.561497044, 178: 5.460584745, 179: 4.459492628, 180: 3.45860073, 181: 4.357909009, 182: 3.357037428, 183: 3.35636602, 184: 3.355694747, 185: 4.255023608, 186: 4.254172603, 187: 3.253321769, 188: 4.152671104, 189: 4.15184057, 190: 5.051010202, 191: 5.95];
cost = [0: 0.97085584, 1: 0.0, 2: 0.0, 3: 0.0, 4: 0.200236475, 5: 0.9241219899999999, 6: 0.168652945, 7: 0.0, 8: 0.90243504, 9: 0.0, 10: 0.87604416, 11: 0.147271445, 12: 0.153197175, 13: 0.0, 14: 0.88227534, 15: 0.0, 16: 0.8775714100000001, 17: 0.0, 18: 0.88337496, 19: 0.153197175, 20: 0.0, 21: 0.148615425, 22: 0.0, 23: 0.88306951, 24: 1.604075307, 25: 1.593368907, 26: 0.0, 27: 1.437531307, 28: 0.0, 29: 1.429442027, 30: 0.023878742, 31: 1.301916907, 32: 1.437769227, 33: 0.0, 34: 1.437174427, 35: 0.0, 36: 0.981914507, 37: 0.0, 38: 0.142838742, 39: 0.556394587, 40: 0.0, 41: 0.0, 42: 0.0, 43: 0.0, 44: 1.440743227, 45: 0.0, 46: 0.118178165, 47: 0.118178165, 48: 0.0, 49: 0.0, 50: 0.223306587, 51: 0.0, 52: 0.0, 53: 0.0, 54: 0.79815441, 55: 0.51365828, 56: 0.0, 57: 1.23036616, 58: 0.86828573, 59: 0.87042388, 60: 1.841638427, 61: 1.194139147, 62: 0.0, 63: 0.563362342, 64: 0.733288107, 65: 1.444668907, 66: 0.146764422, 67: 0.0, 68: 0.0, 69: 0.0, 70: 1.162376827, 71: 1.110034427, 72: 0.0, 73: 1.451568587, 74: 0.0, 75: 1.442289707, 76: 0.0, 77: 0.132370262, 78: 1.437531307, 79: 0.121425942, 80: 0.0, 81: 1.436936507, 82: 0.131180662, 83: 0.0, 84: 0.0, 85: 1.447642907, 86: 1.457992427, 87: 0.0, 88: 0.80884516, 89: 0.07316927500000001, 90: 0.80273616, 91: 0.0, 92: 0.0, 93: 0.90567281, 94: 0.265786045, 95: 0.99926269, 96: 0.0, 97: 0.0, 98: 1.34124451, 99: 1.03640541, 100: 1.01160287, 101: 0.283990865, 102: 1.0114196, 103: 0.273788835, 104: 0.97757574, 105: 0.253201505, 106: 0.254484395, 107: 0.290099865, 108: 0.237379195, 109: 0.0, 110: 0.718279675, 111: 0.0, 112: 0.95258993, 113: 0.0, 114: 0.0, 115: 0.587852525, 116: 0.106741665, 117: 0.0, 118: 0.0, 119: 0.0, 120: 0.0, 121: 0.0, 122: 0.039819382, 123: 1.734217547, 124: 1.348073387, 125: 0.0, 126: 0.133202982, 127: 1.152622107, 128: 1.067446747, 129: 0.0, 130: 0.0, 131: 1.623108907, 132: 0.298081542, 133: 1.444193067, 134: 0.118178165, 135: 0.0, 136: 0.0, 137: 1.446096427, 138: 0.118178165, 139: 0.118178165, 140: 0.0, 141: 0.0, 142: 0.118178165, 143: 0.0, 144: 1.479643147, 145: 0.0, 146: 0.0, 147: 1.491896027, 148: 0.0, 149: 0.118178165, 150: 1.1421522, 151: 0.81556506, 152: 0.0, 153: 0.725977015, 154: 0.504159225, 155: 0.0, 156: 0.0, 157: 0.0, 158: 1.812374267, 159: 0.434647622, 160: 0.147121302, 161: 0.159612102, 162: 0.0, 163: 1.459182027, 164: 0.0, 165: 0.0, 166: 0.0, 167: 1.453590907, 168: 0.0, 169: 1.447286027, 170: 0.045053622, 171: 0.0, 172: 1.441932827, 173: 0.0, 174: 0.0, 175: 0.0, 176: 0.134511542, 177: 0.0, 178: 1.441932827, 179: 0.0, 180: 0.0, 181: 1.461799147, 182: 0.0, 183: 0.156757062, 184: 0.074207805, 185: 0.80365251, 186: 0.074391075, 187: 0.0, 188: 0.80829535, 189: 0.191256245, 190: 0.9361567200000001, 191: 0.93585127];
earn = [0: 0.0, 1: 0.288233444, 2: 0.298144067, 3: 0.31952073, 4: 0.0, 5: 0.0, 6: 0.0, 7: 0.341130748, 8: 0.0, 9: 0.353102151, 10: 0.0, 11: 0.0, 12: 0.0, 13: 0.354296179, 14: 0.0, 15: 0.360489055, 16: 0.0, 17: 0.359969458, 18: 0.0, 19: 0.0, 20: 0.366039771, 21: 0.0, 22: 0.384944206, 23: 0.0, 24: 0.0, 25: 0.0, 26: 0.550691095, 27: 0.0, 28: 0.7270682550000001, 29: 0.0, 30: 0.0, 31: 0.0, 32: 0.0, 33: 0.837532748, 34: 0.0, 35: 0.929421348, 36: 0.0, 37: 0.579623195, 38: 0.0, 39: 0.0, 40: 0.380370434, 41: 0.515567376, 42: 0.492847547, 43: 0.478900225, 44: 0.0, 45: 0.43920009, 46: 0.0, 47: 0.690549564, 48: 0.437663508, 49: 0.438560215, 50: 0.0, 51: 0.422913436, 52: 0.450221168, 53: 0.101545254, 54: 0.0, 55: 0.0, 56: 0.391150048, 57: 0.0, 58: 0.0, 59: 0.0, 60: 0.0, 61: 0.0, 62: 0.678584901, 63: 0.0, 64: 0.0, 65: 0.0, 66: 0.0, 67: 0.6594423109999999, 68: 0.196436253, 69: 0.244664902, 70: 0.0, 71: 0.0, 72: 0.0, 73: 0.0, 74: 0.741565034, 75: 0.0, 76: 0.727443851, 77: 0.0, 78: 0.0, 79: 0.0, 80: 0.772763639, 81: 0.0, 82: 0.0, 83: 0.724851948, 84: 0.643096306, 85: 0.0, 86: 0.0, 87: 0.633380654, 88: 0.0, 89: 0.0, 90: 0.0, 91: 0.5978589439999999, 92: 0.574465424, 93: 0.0, 94: 0.0, 95: 0.0, 96: 0.330600436, 97: 0.060656211, 98: 0.0, 99: 0.0, 100: 0.0, 101: 0.0, 102: 0.0, 103: 0.0, 104: 0.0, 105: 0.0, 106: 0.0, 107: 0.0, 108: 0.0, 109: 0.345722739, 110: 0.0, 111: 0.339500862, 112: 0.0, 113: 0.370093891, 114: 0.387066214, 115: 0.0, 116: 0.0, 117: 0.101262776, 118: 0.180609846, 119: 0.272352026, 120: 0.371975909, 121: 0.485325807, 122: 0.0, 123: 0.0, 124: 0.0, 125: 0.836247563, 126: 0.0, 127: 0.0, 128: 0.0, 129: 0.154627344, 130: 0.937264314, 131: 0.0, 132: 0.0, 133: 0.0, 134: 0.079029233, 135: 0.826252984, 136: 0.879561408, 137: 0.0, 138: 0.265592037, 139: 0.324276402, 140: 0.368163372, 141: 0.340688952, 142: 0.381184936, 143: 1.098294616, 144: 0.0, 145: 0.320043403, 146: 1.231683303, 147: 0.0, 148: 1.09269477, 149: 0.167891421, 150: 0.0, 151: 0.0, 152: 0.503298194, 153: 0.0, 154: 0.0, 155: 0.091650462, 156: 0.721539609, 157: 0.193132287, 158: 0.0, 159: 0.0, 160: 0.0, 161: 0.0, 162: 0.990025275, 163: 0.0, 164: 0.885551803, 165: 0.5048939, 166: 0.270241084, 167: 0.0, 168: 0.757373801, 169: 0.0, 170: 0.0, 171: 0.707975691, 172: 0.0, 173: 0.83650349, 174: 0.863182213, 175: 0.878077319, 176: 0.0, 177: 0.804686933, 178: 0.0, 179: 0.769876617, 180: 0.675305021, 181: 0.0, 182: 0.661874019, 183: 0.0, 184: 0.0, 185: 0.0, 186: 0.0, 187: 0.589443521, 188: 0.0, 189: 0.0, 190: 0.0, 191: 0.0];
total_cost = 89.202615671;
total_earn = 43.737543495;
