production = [0: 0.0, 1: 0.0, 2: 0.0, 3: 0.0, 4: 0.0, 5: 0.0, 6: 0.0, 7: 0.0, 8: 0.0, 9: 0.0, 10: 0.0, 11: 0.0, 12: 0.0, 13: 0.0, 14: 0.0, 15: 0.0, 16: 0.0, 17: 0.0, 18: 0.0, 19: 0.0, 20: 0.0, 21: 0.0, 22: 0.0, 23: 0.0, 24: 0.0, 25: 0.0005, 26: 0.0022, 27: 0.0073, 28: 0.0, 29: 0.0, 30: 0.0, 31: 0.1062, 32: 0.208, 33: 0.14, 34: 0.379, 35: 0.3957, 36: 0.0, 37: 0.0, 38: 0.0, 39: 0.0, 40: 0.6655, 41: 0.0, 42: 1.1715, 43: 2.0145, 44: 1.0043, 45: 1.9385, 46: 1.9252, 47: 2.3258, 48: 0.0, 49: 0.0, 50: 0.0, 51: 0.0, 52: 0.638, 53: 0.0, 54: 0.4532, 55: 0.4655, 56: 0.3765, 57: 0.0, 58: 0.0, 59: 0.596, 60: 0.0, 61: 0.0, 62: 0.8708, 63: 0.0, 64: 0.0, 65: 0.585, 66: 0.6248, 67: 0.0, 68: 0.447, 69: 0.0, 70: 0.0, 71: 0.0, 72: 0.0, 73: 0.1608, 74: 0.0, 75: 0.0, 76: 0.0318, 77: 0.0, 78: 0.0, 79: 0.0005, 80: 0.0003, 81: 0.0, 82: 0.0, 83: 0.0, 84: 0.0, 85: 0.0, 86: 0.0, 87: 0.0, 88: 0.0, 89: 0.0, 90: 0.0, 91: 0.0, 92: 0.0, 93: 0.0, 94: 0.0, 95: 0.0, 96: 0.0, 97: 0.0, 98: 0.0, 99: 0.0, 100: 0.0, 101: 0.0, 102: 0.0, 103: 0.0, 104: 0.0, 105: 0.0, 106: 0.0, 107: 0.0, 108: 0.0, 109: 0.0, 110: 0.0, 111: 0.0, 112: 0.0, 113: 0.0, 114: 0.0, 115: 0.0, 116: 0.0, 117: 0.0, 118: 0.0008, 119: 0.0011, 120: 0.0013, 121: 0.0016, 122: 0.0, 123: 0.0364, 124: 0.0, 125: 0.1011, 126: 0.148, 127: 0.2343, 128: 0.3048, 129: 0.3948, 130: 0.0, 131: 0.4043, 132: 1.0088, 133: 0.0, 134: 0.0, 135: 0.0, 136: 1.4659, 137: 0.0, 138: 1.6076, 139: 0.0, 140: 1.7834, 141: 0.166072917, 142: 1.9631, 143: 0.0, 144: 2.0546, 145: 0.0, 146: 0.0, 147: 0.0, 148: 0.0, 149: 1.6298, 150: 0.0, 151: 0.0, 152: 2.0053, 153: 0.0, 154: 0.0, 155: 0.0, 156: 0.0, 157: 0.0, 158: 0.0, 159: 0.0, 160: 0.0, 161: 0.0, 162: 0.0, 163: 0.8975, 164: 0.5787, 165: 0.0, 166: 0.0, 167: 0.4185, 168: 0.1969, 169: 0.1494, 170: 0.08309999999999999, 171: 0.0, 172: 0.0, 173: 0.0219, 174: 0.0037, 175: 0.0016, 176: 0.0, 177: 0.0, 178: 0.0, 179: 0.0, 180: 0.0, 181: 0.0, 182: 0.0, 183: 0.0, 184: 0.0, 185: 0.0, 186: 0.0, 187: 0.0, 188: 0.0, 189: 0.0, 190: 0.0, 191: 0.0];
buy = [0: 0.924385734, 1: 0.0, 2: 0.0, 3: 0.333272917, 4: 0.0, 5: 1.319272917, 6: 1.276072917, 7: 0.283572917, 8: 0.0, 9: 0.251272917, 10: 0.0, 11: 0.0, 12: 1.250772917, 13: 1.250272917, 14: 0.0, 15: 0.242772917, 16: 0.0, 17: 0.0, 18: 1.252572917, 19: 0.0, 20: 1.243072917, 21: 1.243272917, 22: 0.0, 23: 0.0, 24: 1.249072917, 25: 1.239572917, 26: 0.0, 27: 0.101772917, 28: 0.108072917, 29: 0.0, 30: 1.102072917, 31: 0.995072917, 32: 0.0, 33: 0.0, 34: 0.0, 35: 0.715872917, 36: 0.0, 37: 1.119572917, 38: 0.0, 39: 1.118572917, 40: 0.446572917, 41: 1.112272917, 42: 0.0, 43: 0.0, 44: 0.107472917, 45: 0.0, 46: 0.0, 47: 0.0, 48: 1.119572917, 49: 1.112072917, 50: 1.112072917, 51: 0.0, 52: 0.0, 53: 0.119772917, 54: 0.0, 55: 0.0, 56: 0.734572917, 57: 0.820572917, 58: 0.844072917, 59: 0.0, 60: 1.448772917, 61: 0.0, 62: 0.601272917, 63: 0.0, 64: 0.0, 65: 0.530072917, 66: 0.498572917, 67: 0.0, 68: 0.0, 69: 0.114372917, 70: 1.111572917, 71: 0.0, 72: 1.121572917, 73: 0.0, 74: 0.0, 75: 1.113072917, 76: 0.0, 77: 0.111861806, 78: 1.109072917, 79: 1.101572917, 80: 0.0, 81: 1.108572917, 82: 0.110272917, 83: 1.110572917, 84: 1.117072917, 85: 1.117572917, 86: 0.126272917, 87: 0.0, 88: 0.0, 89: 0.0, 90: 0.120572917, 91: 0.0, 92: 1.131072917, 93: 0.289072917, 94: 1.435072917, 95: 0.0, 96: 1.475172917, 97: 1.478072917, 98: 2.002072917, 99: 0.0, 100: 0.0, 101: 1.464872917, 102: 0.462172917, 103: 0.0, 104: 1.406772917, 105: 1.414472917, 106: 0.0, 107: 0.0, 108: 1.388572917, 109: 1.384072917, 110: 1.175772917, 111: 0.0, 112: 0.365872917, 113: 0.0, 114: 1.356672917, 115: 0.9622729169999999, 116: 1.863972917, 117: 0.765572917, 118: 0.0, 119: 0.0, 120: 0.0, 121: 1.370572917, 122: 1.933472917, 123: 1.358472917, 124: 0.0, 125: 0.011472917, 126: 0.963972917, 127: 0.0, 128: 0.0, 129: 1.712572917, 130: 0.0, 131: 0.860772917, 132: 0.241772917, 133: 1.114672917, 134: 0.125772917, 135: 0.0, 136: 0.0, 137: 1.116272917, 138: 0.0, 139: 0.146372917, 140: 0.0, 141: 0.0, 142: 0.0, 143: 0.0, 144: 0.0, 145: 0.92591122, 146: 0.156072917, 147: 0.154772917, 148: 1.140772917, 149: 0.0, 150: 0.676172917, 151: 1.141572917, 152: 0.0, 153: 0.288372917, 154: 1.825272917, 155: 1.939572917, 156: 1.932972917, 157: 1.424772917, 158: 1.424172917, 159: 1.365372917, 160: 1.123672917, 161: 1.134172917, 162: 1.133672917, 163: 0.0, 164: 0.546772917, 165: 0.0, 166: 0.127072917, 167: 0.0, 168: 0.0, 169: 0.967872917, 170: 0.037872917, 171: 1.112572917, 172: 1.112772917, 173: 0.0, 174: 1.101472917, 175: 0.0, 176: 0.113072917, 177: 0.114172917, 178: 0.112772917, 179: 0.0, 180: 1.123072917, 181: 0.495449628, 182: 1.131272917, 183: 0.131772917, 184: 0.0, 185: 0.0, 186: 0.0, 187: 0.0, 188: 0.0, 189: 1.313072917, 190: 0.338972917, 191: 1.338472917];
sell = [0: 0.0, 1: 0.500927083, 2: 0.523427083, 3: 0.0, 4: 0.572227083, 5: 0.0, 6: 0.0, 7: 0.0, 8: 0.616227083, 9: 0.0, 10: 0.659427083, 11: 0.658927083, 12: 0.0, 13: 0.0, 14: 0.649227083, 15: 0.0, 16: 0.656927083, 17: 0.647427083, 18: 0.0, 19: 0.649227083, 20: 0.0, 21: 0.0, 22: 0.647727083, 23: 0.647927083, 24: 0.0, 25: 0.0, 26: 0.662127083, 27: 0.0, 28: 0.0, 29: 0.7977270829999999, 30: 0.0, 31: 0.0, 32: 0.998727083, 33: 0.931627083, 34: 0.269638194, 35: 0.0, 36: 0.606658817, 37: 0.0, 38: 0.779927083, 39: 0.0, 40: 0.0, 41: 0.0, 42: 1.948127083, 43: 1.890927083, 44: 0.0, 45: 0.823627083, 46: 2.709627083, 47: 3.104727083, 48: 0.0, 49: 0.0, 50: 0.0, 51: 0.780427083, 52: 1.419227083, 53: 0.0, 54: 0.340127083, 55: 1.10824341, 56: 0.0, 57: 0.0, 58: 0.0, 59: 0.668627083, 60: 0.0, 61: 0.431227083, 62: 0.0, 63: 0.0, 64: 0.784427083, 65: 0.0, 66: 0.0, 67: 0.7796270830000001, 68: 0.325927083, 69: 0.0, 70: 0.0, 71: 0.781227083, 72: 0.0, 73: 0.9399270830000001, 74: 0.786127083, 75: 0.0, 76: 0.821727083, 77: 0.0, 78: 0.0, 79: 0.0, 80: 0.0, 81: 0.0, 82: 0.0, 83: 0.0, 84: 0.0, 85: 0.0, 86: 0.0, 87: 0.772227083, 88: 0.769427083, 89: 0.780227083, 90: 0.0, 91: 0.772727083, 92: 0.0, 93: 0.0, 94: 0.0, 95: 0.457727083, 96: 0.0, 97: 0.0, 98: 0.0, 99: 0.0, 100: 0.437527083, 101: 0.0, 102: 0.0, 103: 0.451827083, 104: 0.0, 105: 0.0, 106: 0.483427083, 107: 0.425127083, 108: 0.0, 109: 0.0, 110: 0.0, 111: 0.494827083, 112: 0.0, 113: 0.535127083, 114: 0.0, 115: 0.0, 116: 0.0, 117: 0.0, 118: 0.233527083, 119: 0.332227083, 120: 0.430727083, 121: 0.0, 122: 0.0, 123: 0.0, 124: 0.787227083, 125: 0.0, 126: 0.0, 127: 0.130427083, 128: 0.202027083, 129: 0.0, 130: 0.650727083, 131: 0.0, 132: 0.0, 133: 0.0, 134: 0.0, 135: 0.774827083, 136: 1.342227083, 137: 0.0, 138: 1.507727083, 139: 0.0, 140: 2.539227083, 141: 0.0, 142: 2.695627083, 143: 0.714927083, 144: 2.810127083, 145: 0.0, 146: 0.0, 147: 0.0, 148: 0.0, 149: 1.504027083, 150: 0.0, 151: 0.0, 152: 1.578727083, 153: 0.0, 154: 0.0, 155: 0.0, 156: 0.0, 157: 0.0, 158: 0.0, 159: 0.0, 160: 0.0, 161: 0.0, 162: 0.0, 163: 0.770227083, 164: 0.0, 165: 0.772127083, 166: 0.0, 167: 0.905318345, 168: 0.980927083, 169: 0.0, 170: 0.0, 171: 0.0, 172: 0.0, 173: 0.8088270829999999, 174: 0.0, 175: 0.797527083, 176: 0.0, 177: 0.0, 178: 0.0, 179: 0.795327083, 180: 0.0, 181: 0.0, 182: 0.0, 183: 0.0, 184: 0.778527083, 185: 0.777927083, 186: 0.778227083, 187: 0.771927083, 188: 0.770327083, 189: 0.0, 190: 0.0, 191: 0.0];
charge = [0: 0.528612817, 1: 0.0, 2: 0.0, 3: 0.0, 4: 0.0, 5: 1.0, 6: 1.0, 7: 0.0, 8: 0.0, 9: 0.0, 10: 0.0, 11: 0.0, 12: 1.0, 13: 1.0, 14: 0.0, 15: 0.0, 16: 0.0, 17: 0.0, 18: 1.0, 19: 0.0, 20: 1.0, 21: 1.0, 22: 0.0, 23: 0.0, 24: 1.0, 25: 1.0, 26: 0.0, 27: 0.0, 28: 0.0, 29: 0.0, 30: 1.0, 31: 1.0, 32: 0.0, 33: 0.0, 34: 0.000588889, 35: 1.0, 36: 0.0, 37: 1.0, 38: 0.0, 39: 1.0, 40: 1.0, 41: 1.0, 42: 0.0, 43: 0.0, 44: 1.0, 45: 1.0, 46: 0.0, 47: 0.0, 48: 1.0, 49: 1.0, 50: 1.0, 51: 0.0, 52: 0.0, 53: 0.0, 54: 0.0, 55: 0.0, 56: 1.0, 57: 0.0, 58: 0.0, 59: 0.0, 60: 1.0, 61: 0.0, 62: 1.0, 63: 0.0, 64: 0.0, 65: 1.0, 66: 1.0, 67: 0.0, 68: 0.0, 69: 0.0, 70: 1.0, 71: 0.0, 72: 1.0, 73: 0.0, 74: 0.0, 75: 1.0, 76: 0.0, 77: 0.000588889, 78: 1.0, 79: 1.0, 80: 0.0, 81: 1.0, 82: 0.0, 83: 1.0, 84: 1.0, 85: 1.0, 86: 0.0, 87: 0.0, 88: 0.0, 89: 0.0, 90: 0.0, 91: 0.0, 92: 1.0, 93: 0.0, 94: 1.0, 95: 0.0, 96: 1.0, 97: 1.0, 98: 1.0, 99: 0.0, 100: 0.0, 101: 1.0, 102: 0.0, 103: 0.0, 104: 1.0, 105: 1.0, 106: 0.0, 107: 0.0, 108: 1.0, 109: 1.0, 110: 0.0, 111: 0.0, 112: 0.0, 113: 0.0, 114: 1.0, 115: 0.0, 116: 1.0, 117: 0.0, 118: 0.0, 119: 0.0, 120: 0.0, 121: 1.0, 122: 1.0, 123: 1.0, 124: 0.0, 125: 0.0, 126: 1.0, 127: 0.0, 128: 0.0, 129: 1.0, 130: 0.0, 131: 1.0, 132: 1.0, 133: 1.0, 134: 0.0, 135: 0.0, 136: 0.0, 137: 1.0, 138: 0.0, 139: 0.0, 140: 0.0, 141: 0.0, 142: 0.0, 143: 0.0, 144: 0.0, 145: 0.794138303, 146: 0.0, 147: 0.0, 148: 1.0, 149: 0.0, 150: 0.0, 151: 1.0, 152: 0.0, 153: 0.0, 154: 1.0, 155: 1.0, 156: 1.0, 157: 1.0, 158: 1.0, 159: 1.0, 160: 1.0, 161: 1.0, 162: 1.0, 163: 0.0, 164: 1.0, 165: 0.0, 166: 0.0, 167: 0.0, 168: 0.0, 169: 1.0, 170: 0.0, 171: 1.0, 172: 1.0, 173: 0.0, 174: 1.0, 175: 0.0, 176: 0.0, 177: 0.0, 178: 0.0, 179: 0.0, 180: 1.0, 181: 0.365976711, 182: 1.0, 183: 0.0, 184: 0.0, 185: 0.0, 186: 0.0, 187: 0.0, 188: 0.0, 189: 1.0, 190: 0.0, 191: 1.0];
discharge = [0: 0.0, 1: 1.0, 2: 1.0, 3: 0.0, 4: 1.0, 5: 0.0, 6: 0.0, 7: 0.0, 8: 1.0, 9: 0.0, 10: 1.0, 11: 1.0, 12: 0.0, 13: 0.0, 14: 1.0, 15: 0.0, 16: 1.0, 17: 1.0, 18: 0.0, 19: 1.0, 20: 0.0, 21: 0.0, 22: 1.0, 23: 1.0, 24: 0.0, 25: 0.0, 26: 1.0, 27: 0.0, 28: 0.0, 29: 1.0, 30: 0.0, 31: 0.0, 32: 1.0, 33: 1.0, 34: 0.0, 35: 0.0, 36: 0.797479704, 37: 0.0, 38: 1.0, 39: 0.0, 40: 0.0, 41: 0.0, 42: 1.0, 43: 0.0, 44: 0.0, 45: 0.0, 46: 1.0, 47: 1.0, 48: 0.0, 49: 0.0, 50: 0.0, 51: 1.0, 52: 1.0, 53: 0.0, 54: 0.0, 55: 0.839573696, 56: 0.0, 57: 0.0, 58: 0.0, 59: 1.0, 60: 0.0, 61: 1.0, 62: 0.0, 63: 0.52619213, 64: 1.0, 65: 0.0, 66: 0.0, 67: 1.0, 68: 0.0, 69: 0.0, 70: 0.0, 71: 1.0, 72: 0.0, 73: 1.0, 74: 1.0, 75: 0.0, 76: 1.0, 77: 0.0, 78: 0.0, 79: 0.0, 80: 0.113081019, 81: 0.0, 82: 0.0, 83: 0.0, 84: 0.0, 85: 0.0, 86: 0.0, 87: 1.0, 88: 1.0, 89: 1.0, 90: 0.0, 91: 1.0, 92: 0.0, 93: 0.0, 94: 0.0, 95: 1.0, 96: 0.0, 97: 0.0, 98: 0.0, 99: 0.558969907, 100: 1.0, 101: 0.0, 102: 0.0, 103: 1.0, 104: 0.0, 105: 0.0, 106: 1.0, 107: 1.0, 108: 0.0, 109: 0.0, 110: 0.0, 111: 1.0, 112: 0.0, 113: 1.0, 114: 0.0, 115: 0.0, 116: 0.0, 117: 0.0, 118: 1.0, 119: 1.0, 120: 1.0, 121: 0.0, 122: 0.0, 123: 0.0, 124: 1.0, 125: 0.0, 126: 0.0, 127: 0.0, 128: 0.0, 129: 0.0, 130: 1.0, 131: 0.0, 132: 0.0, 133: 0.0, 134: 0.0, 135: 1.0, 136: 0.0, 137: 0.0, 138: 0.0, 139: 0.0, 140: 1.0, 141: 0.0, 142: 1.0, 143: 1.0, 144: 1.0, 145: 0.0, 146: 0.0, 147: 0.0, 148: 0.0, 149: 0.0, 150: 0.0, 151: 0.0, 152: 0.0, 153: 1.0, 154: 0.0, 155: 0.0, 156: 0.0, 157: 0.0, 158: 0.0, 159: 0.0, 160: 0.0, 161: 0.0, 162: 0.0, 163: 0.0, 164: 0.0, 165: 1.0, 166: 0.0, 167: 0.677101402, 168: 1.0, 169: 0.0, 170: 0.0, 171: 0.0, 172: 0.0, 173: 1.0, 174: 0.0, 175: 1.0, 176: 0.0, 177: 0.0, 178: 0.0, 179: 1.0, 180: 0.0, 181: 0.0, 182: 0.0, 183: 0.0, 184: 1.0, 185: 1.0, 186: 1.0, 187: 1.0, 188: 1.0, 189: 0.0, 190: 0.0, 191: 0.0];
soc = [0: 8.784089535, 1: 7.782332717, 2: 6.780776251, 3: 6.779420096, 4: 5.778064212, 5: 6.676908599, 6: 7.575573217, 7: 7.574058102, 8: 6.572543291, 9: 6.571228782, 10: 5.569914536, 11: 4.568800553, 12: 5.467886793, 13: 6.366793216, 14: 5.365519857, 15: 5.364446753, 16: 4.363373864, 17: 3.362501189, 18: 4.261828689, 19: 3.260976323, 20: 4.160324128, 21: 5.059492063, 22: 4.058480165, 23: 3.057668469, 24: 3.957056935, 25: 4.856265524, 26: 3.855294271, 27: 3.854523212, 28: 3.853752307, 29: 2.852981557, 30: 3.75241096, 31: 4.651660478, 32: 3.650730146, 33: 2.65, 34: 2.65, 35: 3.54947, 36: 2.751280402, 37: 3.650730146, 38: 2.65, 39: 3.54947, 40: 4.448760106, 41: 5.347870354, 42: 4.34680078, 43: 4.34593142, 44: 5.245062233, 45: 6.144013221, 46: 5.142784418, 47: 4.141755861, 48: 5.04092751, 49: 5.939919325, 50: 6.838731341, 51: 5.837363595, 52: 4.836196122, 53: 4.835228883, 54: 4.834261837, 55: 3.993721289, 56: 4.892922544, 57: 4.89194396, 58: 4.890965571, 59: 3.889987378, 60: 4.789209381, 61: 3.788251539, 62: 4.687493888, 63: 4.16036426, 64: 3.159532187, 65: 4.058900281, 66: 4.958088501, 67: 3.957096883, 68: 3.956305464, 69: 3.955514202, 70: 4.8547231, 71: 3.853752155, 72: 4.752981405, 73: 3.752030808, 74: 2.751280402, 75: 3.650730146, 76: 2.65, 77: 2.65, 78: 3.54947, 79: 4.448760106, 80: 4.334789335, 81: 5.233922378, 82: 5.232875593, 83: 6.131829018, 84: 7.030602652, 85: 7.929196532, 86: 7.927610692, 87: 6.92602517, 88: 5.924639965, 89: 4.923455037, 90: 4.922470346, 91: 3.921485852, 92: 4.820701555, 93: 4.819737415, 94: 5.718773467, 95: 4.717629712, 96: 5.616686187, 97: 6.515562849, 98: 7.414259737, 99: 6.853806977, 100: 5.852436216, 101: 6.751265729, 102: 6.749915476, 103: 5.748565492, 104: 6.647415779, 105: 7.546086296, 106: 6.544577079, 107: 5.543268164, 108: 6.44215951, 109: 7.340871078, 110: 7.339402904, 111: 6.337935023, 112: 6.336667436, 113: 5.335400103, 114: 6.234333023, 115: 6.233086156, 116: 7.131839539, 117: 7.130413171, 118: 6.128987088, 119: 5.127761291, 120: 4.126735739, 121: 5.025910392, 122: 5.924905209, 123: 6.823720228, 124: 5.822355484, 125: 5.821191013, 126: 6.720026775, 127: 6.71868277, 128: 6.717339033, 129: 7.615995565, 130: 6.614472366, 131: 7.513149472, 132: 8.411646842, 133: 9.309964512000001, 134: 9.30810252, 135: 8.306240899000001, 136: 8.304579650999999, 137: 9.202918735000001, 138: 9.201078151000001, 139: 9.199237935999999, 140: 8.197398088, 141: 8.195758608, 142: 7.194119457, 143: 6.192680633, 144: 5.191442097, 145: 5.905128281, 146: 5.903947256, 147: 5.902766466, 148: 6.801585913, 149: 6.800225596, 150: 6.798865551, 151: 7.697505777, 152: 7.695966276, 153: 6.694427083, 154: 7.593088198, 155: 8.49156958, 156: 9.389871266, 157: 10.287993292, 158: 11.185935693, 159: 12.083698506, 160: 12.981281766, 161: 13.87868551, 162: 14.775909773, 163: 14.772954591, 164: 15.67, 165: 14.666866, 166: 14.663932627, 167: 13.983898438, 168: 12.981101658, 169: 13.878505438, 170: 13.875729737, 171: 14.772954591, 172: 15.67, 173: 14.666866, 174: 15.563932627, 175: 14.56081984, 176: 14.557907676, 177: 14.554996095, 178: 14.552085096, 179: 13.549174679, 180: 14.446464844, 181: 14.772954591, 182: 15.67, 183: 15.666866, 184: 14.663732627, 185: 13.66079988, 186: 12.65806772, 187: 11.655536107, 188: 10.653205, 189: 11.551074359, 190: 11.548764144, 191: 12.446454391];
cost = [0: 0.627177738, 1: 0.0, 2: 0.0, 3: 0.203596425, 4: 0.0, 5: 0.9241219899999999, 6: 0.8977311100000001, 7: 0.173234695, 8: 0.0, 9: 0.153502625, 10: 0.0, 11: 0.0, 12: 0.88227534, 13: 0.88196989, 14: 0.0, 15: 0.148309975, 16: 0.0, 17: 0.0, 18: 0.88337496, 19: 0.0, 20: 0.8775714100000001, 21: 0.87769359, 22: 0.0, 23: 0.0, 24: 1.604075307, 25: 1.592774107, 26: 0.0, 27: 0.121069062, 28: 0.128563542, 29: 0.0, 30: 1.429204107, 31: 1.301916907, 32: 0.0, 33: 0.0, 34: 6.9594e-05, 35: 0.969780587, 36: 0.0, 37: 1.450022107, 38: 0.0, 39: 1.448832507, 40: 0.649421307, 41: 1.441338027, 42: 0.0, 43: 0.0, 44: 0.246027947, 45: 0.118178165, 46: 0.0, 47: 0.0, 48: 1.450022107, 49: 1.441100107, 50: 1.441100107, 51: 0.0, 52: 0.0, 53: 0.07316927500000001, 54: 0.0, 55: 0.0, 56: 0.56692876, 57: 0.501287995, 58: 0.515644145, 59: 0.0, 60: 1.841638427, 61: 0.0, 62: 0.833452427, 63: 0.0, 64: 0.0, 65: 0.748752907, 66: 0.711280507, 67: 0.0, 68: 0.0, 69: 0.136058022, 70: 1.440505307, 71: 0.0, 72: 1.452401307, 73: 0.0, 74: 0.0, 75: 1.442289707, 76: 0.0, 77: 0.133140398, 78: 1.437531307, 79: 1.428609307, 80: 0.0, 81: 1.436936507, 82: 0.131180662, 83: 1.439315707, 84: 1.447048107, 85: 1.447642907, 86: 0.150214262, 87: 0.0, 88: 0.0, 89: 0.0, 90: 0.073657995, 91: 0.0, 92: 0.80915061, 93: 0.176594645, 94: 0.99486421, 95: 0.0, 96: 1.0193613, 97: 1.02113291, 98: 1.34124451, 99: 0.0, 100: 0.0, 101: 1.01306903, 102: 0.282341435, 103: 0.0, 104: 0.97757574, 105: 0.98227967, 106: 0.0, 107: 0.0, 108: 0.96645736, 109: 0.96370831, 110: 0.718279675, 111: 0.0, 112: 0.223511765, 113: 0.0, 114: 0.94696965, 115: 0.587852525, 116: 1.25687922, 117: 0.467688495, 118: 0.0, 119: 0.0, 120: 0.0, 121: 1.748611707, 122: 2.418237547, 123: 1.734217547, 124: 0.0, 125: 0.013648182, 126: 1.264920347, 127: 0.0, 128: 0.0, 129: 2.155454907, 130: 0.0, 131: 1.142153627, 132: 0.405791227, 133: 1.444193067, 134: 0.149619462, 135: 0.0, 136: 0.0, 137: 1.446096427, 138: 0.0, 139: 0.174125222, 140: 0.0, 141: 0.0, 142: 0.0, 143: 0.0, 144: 0.0, 145: 1.195313795, 146: 0.185664342, 147: 0.184117862, 148: 0.81507634, 149: 0.0, 150: 0.413074035, 151: 0.81556506, 152: 0.0, 153: 0.176167015, 154: 1.23323739, 155: 1.30306326, 156: 2.417642747, 157: 1.813088027, 158: 1.812374267, 159: 1.742425787, 160: 1.454899467, 161: 1.467390267, 162: 1.466795467, 163: 0.0, 164: 0.768619227, 165: 0.0, 166: 0.151165942, 167: 0.0, 168: 0.0, 169: 1.269559787, 170: 0.045053622, 171: 1.441694907, 172: 1.441932827, 173: 0.0, 174: 1.428490347, 175: 0.0, 176: 0.134511542, 177: 0.135820102, 178: 0.134154662, 179: 0.0, 180: 1.454185707, 181: 0.632637334, 182: 1.463940427, 183: 0.156757062, 184: 0.0, 185: 0.0, 186: 0.0, 187: 0.0, 188: 0.0, 189: 0.92033441, 190: 0.207078555, 191: 0.93585127];
earn = [0: 0.0, 1: 0.288233444, 2: 0.298144067, 3: 0.0, 4: 0.314324337, 5: 0.0, 6: 0.0, 7: 0.0, 8: 0.337137837, 9: 0.0, 10: 0.361234156, 11: 0.360499007, 12: 0.0, 13: 0.0, 14: 0.355906287, 15: 0.0, 16: 0.362886521, 17: 0.359969458, 18: 0.0, 19: 0.362398558, 20: 0.0, 21: 0.0, 22: 0.384944206, 23: 0.421023019, 24: 0.0, 25: 0.0, 26: 0.550691095, 27: 0.0, 28: 0.0, 29: 0.751219594, 30: 0.0, 31: 0.0, 32: 0.935008295, 33: 0.837532748, 34: 0.224500761, 35: 0.0, 36: 0.490544319, 37: 0.0, 38: 0.555464069, 39: 0.0, 40: 0.0, 41: 0.0, 42: 1.236281447, 43: 1.166323825, 44: 0.0, 45: 0.46073699, 46: 1.582964142, 47: 1.779629564, 48: 0.0, 49: 0.0, 50: 0.0, 51: 0.422913436, 52: 0.817900568, 53: 0.0, 54: 0.166254118, 55: 0.524531606, 56: 0.0, 57: 0.0, 58: 0.0, 59: 0.341735302, 60: 0.0, 61: 0.220615776, 62: 0.0, 63: 0.0, 64: 0.412373318, 65: 0.0, 66: 0.0, 67: 0.471830311, 68: 0.196436253, 69: 0.0, 70: 0.0, 71: 0.525218968, 72: 0.0, 73: 0.726751621, 74: 0.644781434, 75: 0.0, 76: 0.756728471, 77: 0.0, 78: 0.0, 79: 0.0, 80: 0.0, 81: 0.0, 82: 0.0, 83: 0.0, 84: 0.0, 85: 0.0, 86: 0.0, 87: 0.633380654, 88: 0.628314156, 89: 0.62254319, 90: 0.0, 91: 0.5978589439999999, 92: 0.0, 93: 0.0, 94: 0.0, 95: 0.328510728, 96: 0.0, 97: 0.0, 98: 0.0, 99: 0.0, 100: 0.302243709, 101: 0.0, 102: 0.0, 103: 0.295314182, 104: 0.0, 105: 0.0, 106: 0.322397522, 107: 0.283517252, 108: 0.0, 109: 0.0, 110: 0.0, 111: 0.339500862, 112: 0.0, 113: 0.370093891, 114: 0.0, 115: 0.0, 116: 0.0, 117: 0.0, 118: 0.180609846, 119: 0.273256776, 120: 0.371975909, 121: 0.0, 122: 0.0, 123: 0.0, 124: 0.846269115, 125: 0.0, 126: 0.0, 127: 0.131079219, 128: 0.160571126, 129: 0.0, 130: 0.546936114, 131: 0.0, 132: 0.0, 133: 0.0, 134: 0.0, 135: 0.528819484, 136: 0.879561408, 137: 0.0, 138: 0.788692037, 139: 0.0, 140: 1.236857512, 141: 0.0, 142: 1.291474936, 143: 0.287901136, 144: 1.158053371, 145: 0.0, 146: 0.0, 147: 0.0, 148: 0.0, 149: 0.500991421, 150: 0.0, 151: 0.0, 152: 0.503298194, 153: 0.0, 154: 0.0, 155: 0.0, 156: 0.0, 157: 0.0, 158: 0.0, 159: 0.0, 160: 0.0, 161: 0.0, 162: 0.0, 163: 0.446115527, 164: 0.0, 165: 0.5048939, 166: 0.0, 167: 0.651557613, 168: 0.757373801, 169: 0.0, 170: 0.0, 171: 0.0, 172: 0.0, 173: 0.85978319, 174: 0.0, 175: 0.878077319, 176: 0.0, 177: 0.0, 178: 0.0, 179: 0.769876617, 180: 0.0, 181: 0.0, 182: 0.0, 183: 0.0, 184: 0.64477613, 185: 0.622030496, 186: 0.616744964, 187: 0.589443521, 188: 0.574124775, 189: 0.0, 190: 0.0, 191: 0.0];
total_cost = 103.816454473;
total_earn = 43.330489475;
