production = [0: 0.0, 1: 0.0, 2: 0.0, 3: 0.0, 4: 0.0, 5: 0.0, 6: 0.0, 7: 0.0, 8: 0.0, 9: 0.0, 10: 0.0, 11: 0.0, 12: 0.0, 13: 0.0, 14: 0.0, 15: 0.0, 16: 0.0, 17: 0.0, 18: 0.0, 19: 0.0, 20: 0.0, 21: 0.0, 22: 0.0, 23: 0.0, 24: 0.0, 25: 0.0, 26: 0.0022, 27: 0.0, 28: 0.0, 29: 0.0, 30: 0.082, 31: 0.1062, 32: 0.0, 33: 0.0, 34: 0.379, 35: 0.0, 36: 0.385, 37: 0.6048, 38: 0.5155, 39: 0.0, 40: 0.0, 41: 0.724, 42: 0.0, 43: 0.0, 44: 0.0, 45: 0.0, 46: 1.9252, 47: 2.3258, 48: 0.0, 49: 0.8393, 50: 1.0237, 51: 0.0, 52: 0.638, 53: 0.0, 54: 0.4532, 55: 0.4655, 56: 0.3765, 57: 0.0, 58: 0.6162, 59: 0.596, 60: 0.0, 61: 0.5643, 62: 0.0, 63: 0.0, 64: 0.0, 65: 0.585, 66: 0.6248, 67: 0.0, 68: 0.447, 69: 0.0, 70: 0.2338, 71: 0.0, 72: 0.1562, 73: 0.0, 74: 0.0, 75: 0.0592, 76: 0.0318, 77: 0.0, 78: 0.0018, 79: 0.0005, 80: 0.0003, 81: 0.0, 82: 0.0, 83: 0.0, 84: 0.0, 85: 0.0, 86: 0.0, 87: 0.0, 88: 0.0, 89: 0.0, 90: 0.0, 91: 0.0, 92: 0.0, 93: 0.0, 94: 0.0, 95: 0.0, 96: 0.0, 97: 0.0, 98: 0.0, 99: 0.0, 100: 0.0, 101: 0.0, 102: 0.0, 103: 0.0, 104: 0.0, 105: 0.0, 106: 0.0, 107: 0.0, 108: 0.0, 109: 0.0, 110: 0.0, 111: 0.0, 112: 0.0, 113: 0.0, 114: 0.0, 115: 0.0, 116: 0.0003, 117: 0.0005, 118: 0.0, 119: 0.0, 120: 0.0013, 121: 0.0016, 122: 0.0, 123: 0.0364, 124: 0.0, 125: 0.0, 126: 0.0, 127: 0.0, 128: 0.3048, 129: 0.0, 130: 0.4644, 131: 0.4043, 132: 0.0, 133: 0.0, 134: 1.2313, 135: 1.3358, 136: 1.4659, 137: 1.5614, 138: 0.0, 139: 1.7736, 140: 0.0, 141: 0.0, 142: 0.0, 143: 0.0, 144: 2.0546, 145: 1.7649, 146: 0.0, 147: 1.154772917, 148: 0.167781452, 149: 0.0, 150: 1.9538, 151: 2.0929, 152: 2.0053, 153: 0.0, 154: 0.0, 155: 1.2184, 156: 0.0, 157: 0.0, 158: 1.497, 159: 1.3524, 160: 1.2347, 161: 0.0, 162: 0.0, 163: 0.8975, 164: 0.0, 165: 0.6837, 166: 0.5309, 167: 0.4185, 168: 0.1969, 169: 0.1494, 170: 0.0, 171: 0.0, 172: 0.0, 173: 0.0, 174: 0.0, 175: 0.0016, 176: 0.0, 177: 0.0, 178: 0.0, 179: 0.0, 180: 0.0, 181: 0.0, 182: 0.0, 183: 0.0, 184: 0.0, 185: 0.0, 186: 0.0, 187: 0.0, 188: 0.0, 189: 0.0, 190: 0.0, 191: 0.0];
buy = [0: 0.0, 1: 1.399072917, 2: 0.376572917, 3: 0.0, 4: 1.327772917, 5: 1.319272917, 6: 1.276072917, 7: 0.0, 8: 1.283772917, 9: 0.0, 10: 0.0, 11: 0.5495663160000001, 12: 0.0, 13: 0.0, 14: 0.0, 15: 0.0, 16: 1.243072917, 17: 0.0, 18: 0.0, 19: 0.250772917, 20: 0.243072917, 21: 1.243272917, 22: 0.252272917, 23: 0.252072917, 24: 1.249072917, 25: 1.240072917, 26: 0.237872917, 27: 0.0, 28: 0.0, 29: 0.0, 30: 0.020072917, 31: 0.995072917, 32: 0.109272917, 33: 1.108372917, 34: 0.0, 35: 0.0, 36: 0.726072917, 37: 0.5147729170000001, 38: 0.604572917, 39: 1.118572917, 40: 0.0, 41: 0.0, 42: 0.123372917, 43: 1.012474516, 44: 0.0, 45: 0.0, 46: 0.0, 47: 0.0, 48: 0.119572917, 49: 0.0, 50: 0.088372917, 51: 1.119572917, 52: 0.0, 53: 1.119772917, 54: 0.0, 55: 0.647372917, 56: 0.0, 57: 1.820572917, 58: 0.0, 59: 0.231372917, 60: 0.0, 61: 0.904472917, 62: 0.0, 63: 1.473572917, 64: 0.115572917, 65: 0.530072917, 66: 0.0, 67: 1.120372917, 68: 0.0, 69: 0.0, 70: 0.0, 71: 1.118772917, 72: 0.9653729170000001, 73: 0.0, 74: 1.113872917, 75: 0.053872917, 76: 1.078272917, 77: 0.0, 78: 1.107272917, 79: 1.101572917, 80: 0.0, 81: 0.108572917, 82: 1.110272917, 83: 1.110572917, 84: 0.117072917, 85: 1.117572917, 86: 1.126272917, 87: 0.0, 88: 0.0, 89: 0.0, 90: 0.0, 91: 0.127272917, 92: 1.131072917, 93: 0.0, 94: 0.435072917, 95: 1.442272917, 96: 1.475172917, 97: 0.478072917, 98: 2.002072917, 99: 0.0, 100: 1.462472917, 101: 0.0, 102: 0.462172917, 103: 1.448172917, 104: 0.0, 105: 0.414472917, 106: 0.416572917, 107: 0.474872917, 108: 0.0, 109: 0.0, 110: 1.175772917, 111: 0.0, 112: 1.365872917, 113: 0.0, 114: 0.356672917, 115: 1.962272917, 116: 0.0, 117: 1.765072917, 118: 1.667272917, 119: 0.0, 120: 1.469272917, 121: 1.370572917, 122: 0.033472917, 123: 0.0, 124: 0.112772917, 125: 0.0, 126: 1.111972917, 127: 1.103872917, 128: 0.7979729169999999, 129: 0.207372917, 130: 0.7848729169999999, 131: 0.0, 132: 1.250572917, 133: 1.114672917, 134: 0.0, 135: 0.0, 136: 0.0, 137: 0.0, 138: 1.099872917, 139: 0.0, 140: 0.144172917, 141: 1.166072917, 142: 0.09462382, 143: 0.0, 144: 0.0, 145: 0.0, 146: 1.156072917, 147: 0.0, 148: 0.0, 149: 0.0, 150: 0.0, 151: 0.0, 152: 0.0, 153: 2.188372917, 154: 0.8252729170000001, 155: 0.721172917, 156: 0.032972917, 157: 1.424772917, 158: 0.0, 159: 0.0, 160: 0.0, 161: 1.134172917, 162: 0.0, 163: 0.0, 164: 0.0, 165: 0.0, 166: 0.0, 167: 0.704072917, 168: 0.0, 169: 0.0, 170: 1.120972917, 171: 0.112572917, 172: 1.112772917, 173: 0.0, 174: 1.105172917, 175: 1.102472917, 176: 0.0, 177: 0.0, 178: 0.112772917, 179: 1.104672917, 180: 1.123072917, 181: 0.129472917, 182: 1.131272917, 183: 1.131772917, 184: 1.121472917, 185: 0.122072917, 186: 0.0, 187: 0.128072917, 188: 0.0, 189: 1.313072917, 190: 1.338972917, 191: 1.338472917];
sell = [0: 0.504227083, 1: 0.0, 2: 0.0, 3: 0.566727083, 4: 0.0, 5: 0.0, 6: 0.0, 7: 0.616427083, 8: 0.0, 9: 0.648727083, 10: 0.659427083, 11: 0.0, 12: 0.649227083, 13: 0.649727083, 14: 0.649227083, 15: 0.657227083, 16: 0.0, 17: 0.647427083, 18: 0.647427083, 19: 0.0, 20: 0.0, 21: 0.0, 22: 0.0, 23: 0.0, 24: 0.0, 25: 0.0, 26: 0.0, 27: 0.790927083, 28: 0.791927083, 29: 0.7977270829999999, 30: 0.0, 31: 0.0, 32: 0.0, 33: 0.0, 34: 0.270227083, 35: 0.788427083, 36: 0.0, 37: 0.0, 38: 0.0, 39: 0.0, 40: 0.787927083, 41: 0.611727083, 42: 0.0, 43: 0.0, 44: 0.788227083, 45: 0.785127083, 46: 1.809627083, 47: 2.204727083, 48: 0.0, 49: 1.627227083, 50: 0.0, 51: 0.0, 52: 0.519227083, 53: 0.0, 54: 1.240127083, 55: 0.0, 56: 1.165427083, 57: 0.0, 58: 0.672127083, 59: 0.0, 60: 0.451227083, 61: 0.0, 62: 0.427927083, 63: 0.0, 64: 0.0, 65: 0.0, 66: 1.401427083, 67: 0.0, 68: 1.225927083, 69: 0.7856270829999999, 70: 1.022227083, 71: 0.0, 72: 0.0, 73: 0.779127083, 74: 0.0, 75: 0.0, 76: 0.0, 77: 0.7887270830000001, 78: 0.0, 79: 0.0, 80: 0.798227083, 81: 0.0, 82: 0.0, 83: 0.0, 84: 0.0, 85: 0.0, 86: 0.0, 87: 0.772227083, 88: 0.769427083, 89: 0.780227083, 90: 0.779427083, 91: 0.0, 92: 0.0, 93: 0.610927083, 94: 0.0, 95: 0.0, 96: 0.0, 97: 0.0, 98: 0.0, 99: 0.396927083, 100: 0.0, 101: 0.435127083, 102: 0.0, 103: 0.0, 104: 0.493227083, 105: 0.0, 106: 0.0, 107: 0.0, 108: 0.5114270829999999, 109: 0.515927083, 110: 0.0, 111: 0.494827083, 112: 0.0, 113: 0.535127083, 114: 0.0, 115: 0.0, 116: 0.036327083, 117: 0.0, 118: 0.0, 119: 0.331127083, 120: 0.0, 121: 0.0, 122: 0.0, 123: 0.541527083, 124: 0.0, 125: 0.787427083, 126: 0.0, 127: 0.0, 128: 0.0, 129: 0.0, 130: 0.0, 131: 1.039227083, 132: 0.0, 133: 0.0, 134: 2.005527083, 135: 1.210627083, 136: 2.242227083, 137: 0.445127083, 138: 0.0, 139: 2.527227083, 140: 0.0, 141: 0.0, 142: 0.0, 143: 0.714927083, 144: 2.810127083, 145: 2.533127083, 146: 0.0, 147: 0.0, 148: 0.0, 149: 0.774227083, 150: 1.277627083, 151: 0.951327083, 152: 0.578727083, 153: 0.0, 154: 0.0, 155: 0.0, 156: 0.0, 157: 0.0, 158: 0.072827083, 159: 1.887027083, 160: 2.011027083, 161: 0.0, 162: 0.766327083, 163: 1.670227083, 164: 0.7745270829999999, 165: 0.5558270830000001, 166: 0.403827083, 167: 0.0, 168: 0.980927083, 169: 0.932127083, 170: 0.0, 171: 0.0, 172: 0.0, 173: 0.786927083, 174: 0.0, 175: 0.0, 176: 0.786927083, 177: 0.785827083, 178: 0.0, 179: 0.0, 180: 0.0, 181: 0.0, 182: 0.0, 183: 0.0, 184: 0.0, 185: 0.0, 186: 0.778227083, 187: 0.0, 188: 0.0, 189: 0.0, 190: 0.0, 191: 0.0];
charge = [0: 0.0, 1: 1.0, 2: 0.0, 3: 0.0, 4: 1.0, 5: 1.0, 6: 1.0, 7: 0.0, 8: 1.0, 9: 0.0, 10: 0.0, 11: 0.3084934, 12: 0.0, 13: 0.0, 14: 0.0, 15: 0.0, 16: 1.0, 17: 0.0, 18: 0.0, 19: 0.0, 20: 0.0, 21: 1.0, 22: 0.0, 23: 0.0, 24: 1.0, 25: 1.0, 26: 0.0, 27: 0.0, 28: 0.0, 29: 0.0, 30: 0.0, 31: 1.0, 32: 0.0, 33: 1.0, 34: 0.0, 35: 0.0, 36: 1.0, 37: 1.0, 38: 1.0, 39: 1.0, 40: 0.0, 41: 0.0, 42: 0.0, 43: 0.888901599, 44: 0.0, 45: 0.0, 46: 0.0, 47: 0.0, 48: 0.0, 49: 0.0, 50: 1.0, 51: 1.0, 52: 0.0, 53: 1.0, 54: 0.0, 55: 1.0, 56: 0.0, 57: 1.0, 58: 0.0, 59: 0.0, 60: 0.0, 61: 1.0, 62: 0.0, 63: 1.0, 64: 0.0, 65: 1.0, 66: 0.0, 67: 1.0, 68: 0.0, 69: 0.0, 70: 0.0, 71: 1.0, 72: 1.0, 73: 0.0, 74: 1.0, 75: 0.0, 76: 1.0, 77: 0.0, 78: 1.0, 79: 1.0, 80: 0.0, 81: 0.0, 82: 1.0, 83: 1.0, 84: 0.0, 85: 1.0, 86: 1.0, 87: 0.0, 88: 0.0, 89: 0.0, 90: 0.0, 91: 0.0, 92: 1.0, 93: 0.0, 94: 0.0, 95: 1.0, 96: 1.0, 97: 0.0, 98: 1.0, 99: 0.0, 100: 1.0, 101: 0.0, 102: 0.0, 103: 1.0, 104: 0.0, 105: 0.0, 106: 0.0, 107: 0.0, 108: 0.0, 109: 0.0, 110: 0.0, 111: 0.0, 112: 1.0, 113: 0.0, 114: 0.0, 115: 1.0, 116: 0.0, 117: 1.0, 118: 1.0, 119: 0.0, 120: 1.0, 121: 1.0, 122: 0.0, 123: 0.0, 124: 0.0, 125: 0.0, 126: 1.0, 127: 1.0, 128: 1.0, 129: 0.0, 130: 1.0, 131: 0.0, 132: 1.0, 133: 1.0, 134: 0.0, 135: 0.0, 136: 0.0, 137: 1.0, 138: 1.0, 139: 0.0, 140: 0.0, 141: 1.0, 142: 0.0, 143: 0.0, 144: 0.0, 145: 0.0, 146: 1.0, 147: 1.0, 148: 0.027008536, 149: 0.0, 150: 0.0, 151: 1.0, 152: 1.0, 153: 1.0, 154: 0.0, 155: 1.0, 156: 0.0, 157: 1.0, 158: 1.0, 159: 0.0, 160: 0.0, 161: 1.0, 162: 0.0, 163: 0.0, 164: 0.0, 165: 0.0, 166: 0.0, 167: 1.0, 168: 0.0, 169: 0.0, 170: 1.0, 171: 0.0, 172: 1.0, 173: 0.0, 174: 1.0, 175: 1.0, 176: 0.0, 177: 0.0, 178: 0.0, 179: 1.0, 180: 1.0, 181: 0.0, 182: 1.0, 183: 1.0, 184: 1.0, 185: 0.0, 186: 0.0, 187: 0.0, 188: 0.0, 189: 1.0, 190: 1.0, 191: 1.0];
discharge = [0: 1.0, 1: 0.0, 2: 0.0, 3: 1.0, 4: 0.0, 5: 0.0, 6: 0.0, 7: 1.0, 8: 0.0, 9: 1.0, 10: 1.0, 11: 0.0, 12: 1.0, 13: 1.0, 14: 1.0, 15: 1.0, 16: 0.0, 17: 1.0, 18: 1.0, 19: 0.0, 20: 0.0, 21: 0.0, 22: 0.0, 23: 0.0, 24: 0.0, 25: 0.0, 26: 0.0, 27: 1.0, 28: 1.0, 29: 1.0, 30: 0.0, 31: 0.0, 32: 0.0, 33: 0.0, 34: 0.0, 35: 1.0, 36: 0.0, 37: 0.0, 38: 0.0, 39: 0.0, 40: 1.0, 41: 0.0, 42: 0.0, 43: 0.0, 44: 1.0, 45: 1.0, 46: 0.0, 47: 0.0, 48: 0.0, 49: 1.0, 50: 0.0, 51: 0.0, 52: 0.0, 53: 0.0, 54: 1.0, 55: 0.0, 56: 1.0, 57: 0.0, 58: 1.0, 59: 0.0, 60: 1.0, 61: 0.0, 62: 1.0, 63: 0.0, 64: 0.0, 65: 0.0, 66: 1.0, 67: 0.0, 68: 1.0, 69: 1.0, 70: 1.0, 71: 0.0, 72: 0.0, 73: 1.0, 74: 0.0, 75: 0.0, 76: 0.0, 77: 1.0, 78: 0.0, 79: 0.0, 80: 1.0, 81: 0.0, 82: 0.0, 83: 0.0, 84: 0.0, 85: 0.0, 86: 0.0, 87: 1.0, 88: 1.0, 89: 1.0, 90: 1.0, 91: 0.0, 92: 0.0, 93: 1.0, 94: 0.0, 95: 0.0, 96: 0.0, 97: 0.0, 98: 0.0, 99: 1.0, 100: 0.0, 101: 1.0, 102: 0.0, 103: 0.0, 104: 1.0, 105: 0.0, 106: 0.0, 107: 0.0, 108: 1.0, 109: 1.0, 110: 0.0, 111: 1.0, 112: 0.0, 113: 1.0, 114: 0.0, 115: 0.0, 116: 1.0, 117: 0.0, 118: 0.0, 119: 1.0, 120: 0.0, 121: 0.0, 122: 1.0, 123: 1.0, 124: 0.0, 125: 1.0, 126: 0.0, 127: 0.0, 128: 0.0, 129: 1.0, 130: 0.0, 131: 1.0, 132: 0.0, 133: 0.0, 134: 1.0, 135: 0.0, 136: 1.0, 137: 0.0, 138: 0.0, 139: 1.0, 140: 0.0, 141: 0.0, 142: 0.08094344000000001, 143: 1.0, 144: 1.0, 145: 1.0, 146: 0.0, 147: 0.0, 148: 0.0, 149: 1.0, 150: 0.0, 151: 0.0, 152: 0.0, 153: 0.0, 154: 0.0, 155: 0.0, 156: 1.0, 157: 0.0, 158: 0.0, 159: 1.0, 160: 1.0, 161: 0.0, 162: 1.0, 163: 1.0, 164: 1.0, 165: 0.0, 166: 0.0, 167: 0.0, 168: 1.0, 169: 1.0, 170: 0.0, 171: 0.0, 172: 0.0, 173: 1.0, 174: 0.0, 175: 0.0, 176: 1.0, 177: 1.0, 178: 0.0, 179: 0.0, 180: 0.0, 181: 0.0, 182: 0.0, 183: 0.0, 184: 0.0, 185: 0.0, 186: 1.0, 187: 0.0, 188: 0.144081019, 189: 0.0, 190: 0.0, 191: 0.0];
soc = [0: 7.308338, 1: 8.206876332, 2: 8.205234957, 3: 7.20359391, 4: 8.102153190999999, 5: 9.000532761000001, 6: 9.898732654, 7: 8.896752908, 8: 9.794973557, 9: 8.793014562, 10: 7.791255959, 11: 8.067341768, 12: 7.0657283, 13: 6.064315154, 14: 5.063102291, 15: 4.06208967, 16: 4.961277252, 17: 3.960284997, 18: 2.95949294, 19: 2.958901041, 20: 2.958309261, 21: 3.857717599, 22: 3.856946056, 23: 3.856174667, 24: 4.755403432, 25: 5.654452351, 26: 5.653321461, 27: 4.652190796, 28: 3.651260358, 29: 2.650530106, 30: 2.65, 31: 3.54947, 32: 3.548760106, 33: 4.448050354, 34: 4.447160744, 35: 3.446271312, 36: 4.345582057, 37: 5.244712941, 38: 6.143663998, 39: 7.042435266, 40: 6.041026779, 41: 6.039818573, 42: 6.03861061, 43: 6.837414326, 44: 5.836046844, 45: 4.834879634, 46: 4.833912658, 47: 4.832945876, 48: 4.831979287, 49: 3.831012891, 50: 4.730246688, 51: 5.629300639, 52: 5.628174779, 53: 6.527049144, 54: 5.525743734, 55: 6.424638585, 56: 5.423353657, 57: 6.322268987, 58: 5.321004533, 59: 5.319940332, 60: 4.318876344, 61: 5.218012569, 62: 4.216968966, 63: 5.116125572, 64: 5.115102347, 65: 6.014079327, 66: 5.012876511, 67: 5.911873936, 68: 4.910691561, 69: 3.909709423, 70: 2.908927481, 71: 3.808345695, 72: 4.707584026, 73: 3.706642509, 74: 4.605901181, 75: 4.60498, 76: 5.504059004, 77: 4.502958193, 78: 5.402057601, 79: 6.300977189, 80: 5.299716994, 81: 5.298657051, 82: 6.197597319, 83: 7.0963578, 84: 7.094938528, 85: 7.993519541, 86: 8.891920837000001, 87: 7.890142452, 88: 6.888564424, 89: 5.887186711, 90: 4.886009274, 91: 4.885032072, 92: 5.784055065, 93: 4.782898254, 94: 4.781941675, 95: 5.680985286, 96: 6.579849089, 97: 6.57853312, 98: 7.477217413, 99: 6.475721969, 100: 7.374426825, 101: 6.37295194, 102: 6.371677349, 103: 7.270403014, 104: 6.268948933, 105: 6.267695143, 106: 6.266441604, 107: 6.265188316, 108: 5.263935278, 109: 4.262882491, 110: 4.262029915, 111: 3.261177509, 112: 4.160525273, 113: 3.159693168, 114: 3.15906123, 115: 4.058429417, 116: 3.057617732, 117: 3.957006208, 118: 4.856214807, 119: 3.855243564, 120: 4.754472515, 121: 5.653521621, 122: 4.652390916, 123: 3.651460438, 124: 3.650730146, 125: 2.65, 126: 3.54947, 127: 4.448760106, 128: 5.347870354, 129: 4.34680078, 130: 5.24593142, 131: 4.244882233, 132: 5.144033257, 133: 6.04300445, 134: 5.041795849, 135: 5.04078749, 136: 4.039779333, 137: 4.938971377, 138: 5.837983583, 139: 4.836815986, 140: 4.835848623, 141: 5.734881453, 142: 5.652791036, 143: 4.651660478, 144: 3.650730146, 145: 2.65, 146: 3.54947, 147: 4.448760106, 148: 4.472178036, 149: 3.4712836, 150: 3.470589344, 151: 4.369895226, 152: 5.269021247, 153: 6.167967443, 154: 6.166733849, 155: 7.065500502, 156: 6.064087402, 157: 6.962874585, 158: 7.86148201, 159: 6.859909713, 160: 5.858537731, 161: 6.757366024, 162: 5.756014551, 163: 4.754863348, 164: 3.753912375, 165: 3.753161593, 166: 3.75241096, 167: 4.651660478, 168: 3.650730146, 169: 2.65, 170: 3.54947, 171: 3.548760106, 172: 4.448050354, 173: 3.447160744, 174: 4.346471312, 175: 5.245602017, 176: 4.244552897, 177: 3.243703987, 178: 3.243055246, 179: 4.142406635, 180: 5.041578153, 181: 5.040569838, 182: 5.939561724, 183: 6.838373811, 184: 7.737006137, 185: 7.735458735, 186: 6.733911644, 187: 6.732564861, 188: 6.58713733, 189: 7.485819902, 190: 8.384322738, 191: 9.282645874];
cost = [0: 0.0, 1: 0.97287181, 2: 0.230048395, 3: 0.0, 4: 0.92931464, 5: 0.9241219899999999, 6: 0.8977311100000001, 7: 0.0, 8: 0.90243504, 9: 0.0, 10: 0.0, 11: 0.372187247, 12: 0.0, 13: 0.0, 14: 0.0, 15: 0.0, 16: 0.8775714100000001, 17: 0.0, 18: 0.0, 19: 0.153197175, 20: 0.148493245, 21: 0.87769359, 22: 0.154113525, 23: 0.153991345, 24: 1.604075307, 25: 1.593368907, 26: 0.282973622, 27: 0.0, 28: 0.0, 29: 0.0, 30: 0.023878742, 31: 1.301916907, 32: 0.129991062, 33: 1.436698587, 34: 0.0, 35: 0.0, 36: 0.981914507, 37: 0.730552027, 38: 0.837378107, 39: 1.448832507, 40: 0.0, 41: 0.0, 42: 0.146764422, 43: 1.309488444, 44: 0.0, 45: 0.0, 46: 0.0, 47: 0.0, 48: 0.142243942, 49: 0.0, 50: 0.223306587, 51: 1.450022107, 52: 0.0, 53: 0.80224744, 54: 0.0, 55: 0.51365828, 56: 0.0, 57: 1.23036616, 58: 0.0, 59: 0.141345715, 60: 0.0, 61: 1.194139147, 62: 0.0, 63: 1.871140507, 64: 0.137485542, 65: 0.748752907, 66: 0.0, 67: 1.450973787, 68: 0.0, 69: 0.0, 70: 0.0, 71: 1.449070427, 72: 1.266585787, 73: 0.0, 74: 1.443241387, 75: 0.064087222, 76: 1.400891627, 77: 0.0, 78: 1.435390027, 79: 1.428609307, 80: 0.0, 81: 0.129158342, 82: 1.438958827, 83: 1.439315707, 84: 0.139269942, 85: 1.447642907, 86: 1.457992427, 87: 0.0, 88: 0.0, 89: 0.0, 90: 0.0, 91: 0.077751025, 92: 0.80915061, 93: 0.0, 94: 0.265786045, 95: 0.99926269, 96: 1.0193613, 97: 0.292054745, 98: 1.34124451, 99: 0.0, 100: 1.01160287, 101: 0.0, 102: 0.282341435, 103: 1.002867, 104: 0.0, 105: 0.253201505, 106: 0.254484395, 107: 0.290099865, 108: 0.0, 109: 0.0, 110: 0.718279675, 111: 0.0, 112: 0.95258993, 113: 0.0, 114: 0.217891485, 115: 1.31693069, 116: 0.0, 117: 1.19646121, 118: 1.13671519, 119: 0.0, 120: 1.866025227, 121: 1.748611707, 122: 0.039819382, 123: 0.0, 124: 0.134154662, 125: 0.0, 126: 1.440981147, 127: 1.431345387, 128: 1.067446747, 129: 0.246690822, 130: 1.051862987, 131: 0.0, 132: 1.605859707, 133: 1.444193067, 134: 0.0, 135: 0.0, 136: 0.0, 137: 0.118178165, 138: 1.426586987, 139: 0.0, 140: 0.171508102, 141: 1.505338507, 142: 0.112564497, 143: 0.0, 144: 0.0, 145: 0.0, 146: 1.493442507, 147: 0.118178165, 148: 0.003191819, 149: 0.0, 150: 0.0, 151: 0.118178165, 152: 0.118178165, 153: 1.45505518, 154: 0.504159225, 155: 0.5587427, 156: 0.039224582, 157: 1.813088027, 158: 0.118178165, 159: 0.0, 160: 0.0, 161: 1.467390267, 162: 0.0, 163: 0.0, 164: 0.0, 165: 0.0, 166: 0.0, 167: 0.955743307, 168: 0.0, 169: 0.0, 170: 1.451687547, 171: 0.133916742, 172: 1.441932827, 173: 0.0, 174: 1.432891867, 175: 1.429679947, 176: 0.0, 177: 0.0, 178: 0.134154662, 179: 1.432297067, 180: 1.454185707, 181: 0.154020982, 182: 1.463940427, 183: 1.464535227, 184: 0.80328597, 185: 0.074574345, 186: 0.0, 187: 0.078239745, 188: 0.0, 189: 0.92033441, 190: 0.9361567200000001, 191: 0.93585127];
earn = [0: 0.306368376, 1: 0.0, 2: 0.0, 3: 0.31952073, 4: 0.0, 5: 0.0, 6: 0.0, 7: 0.341130748, 8: 0.0, 9: 0.353102151, 10: 0.361234156, 11: 0.0, 12: 0.35382876, 13: 0.354296179, 14: 0.355906287, 15: 0.360489055, 16: 0.0, 17: 0.359969458, 18: 0.357573978, 19: 0.0, 20: 0.0, 21: 0.0, 22: 0.0, 23: 0.0, 24: 0.0, 25: 0.0, 26: 0.0, 27: 0.713416229, 28: 0.7270682550000001, 29: 0.751219594, 30: 0.0, 31: 0.0, 32: 0.0, 33: 0.0, 34: 0.22499107, 35: 0.618836418, 36: 0.0, 37: 0.0, 38: 0.0, 39: 0.0, 40: 0.541542284, 41: 0.400375376, 42: 0.0, 43: 0.0, 44: 0.45985168, 45: 0.43920009, 46: 1.057184142, 47: 1.263749564, 48: 0.0, 49: 0.905714595, 50: 0.0, 51: 0.0, 52: 0.299230568, 53: 0.0, 54: 0.606174118, 55: 0.0, 56: 0.577818748, 57: 0.0, 58: 0.345137257, 59: 0.0, 60: 0.225162315, 61: 0.0, 62: 0.223591901, 63: 0.0, 64: 0.0, 65: 0.0, 66: 0.818713702, 67: 0.0, 68: 0.738866253, 69: 0.481589402, 70: 0.635416355, 71: 0.0, 72: 0.0, 73: 0.602421061, 74: 0.0, 75: 0.0, 76: 0.0, 77: 0.76766807, 78: 0.0, 79: 0.0, 80: 0.772763639, 81: 0.0, 82: 0.0, 83: 0.0, 84: 0.0, 85: 0.0, 86: 0.0, 87: 0.633380654, 88: 0.628314156, 89: 0.62254319, 90: 0.6081090099999999, 91: 0.0, 92: 0.0, 93: 0.452147134, 94: 0.0, 95: 0.0, 96: 0.0, 97: 0.0, 98: 0.0, 99: 0.27538801, 100: 0.0, 101: 0.295146701, 102: 0.0, 103: 0.0, 104: 0.328094656, 105: 0.0, 106: 0.0, 107: 0.0, 108: 0.336723592, 109: 0.345722739, 110: 0.0, 111: 0.339500862, 112: 0.0, 113: 0.370093891, 114: 0.0, 115: 0.0, 116: 0.026446117, 117: 0.0, 118: 0.0, 119: 0.272352026, 120: 0.0, 121: 0.0, 122: 0.0, 123: 0.486128863, 124: 0.0, 125: 0.836247563, 126: 0.0, 127: 0.0, 128: 0.0, 129: 0.0, 130: 0.0, 131: 0.899866731, 132: 0.0, 133: 0.0, 134: 1.501939233, 135: 0.826252984, 136: 1.469331408, 137: 0.253989514, 138: 0.0, 139: 1.306576402, 140: 0.0, 141: 0.0, 142: 0.0, 143: 0.287901136, 144: 1.158053371, 145: 1.055300743, 146: 0.0, 147: 0.0, 148: 0.0, 149: 0.257895041, 150: 0.402324769, 151: 0.279404764, 152: 0.184498194, 153: 0.0, 154: 0.0, 155: 0.0, 156: 0.0, 157: 0.0, 158: 0.02901431, 159: 0.793306186, 160: 0.971929389, 161: 0.0, 162: 0.401095595, 163: 0.967395527, 164: 0.506850523, 165: 0.36345533, 166: 0.270241084, 167: 0.0, 168: 0.757373801, 169: 0.772733352, 170: 0.0, 171: 0.0, 172: 0.0, 173: 0.83650349, 174: 0.0, 175: 0.0, 176: 0.816043385, 177: 0.804686933, 178: 0.0, 179: 0.0, 180: 0.0, 181: 0.0, 182: 0.0, 183: 0.0, 184: 0.0, 185: 0.0, 186: 0.616744964, 187: 0.0, 188: 0.0, 189: 0.0, 190: 0.0, 191: 0.0];
total_cost = 97.22117873800001;
total_earn = 44.66816989;
% _objective = 52.553008848;