production = [0: 0.0, 1: 0.0, 2: 0.0, 3: 0.0, 4: 0.0, 5: 0.0, 6: 0.0, 7: 0.0, 8: 0.0, 9: 0.0, 10: 0.0, 11: 0.0, 12: 0.0, 13: 0.0, 14: 0.0, 15: 0.0, 16: 0.0, 17: 0.0, 18: 0.0, 19: 0.0, 20: 0.0, 21: 0.0, 22: 0.0, 23: 0.0, 24: 0.006, 25: 0.0415, 26: 0.0625, 27: 0.103, 28: 0.0, 29: 0.0, 30: 0.2152, 31: 0.0, 32: 0.4485, 33: 0.7514999999999999, 34: 0.8025, 35: 0.0, 36: 0.0, 37: 0.0, 38: 1.3702, 39: 0.0, 40: 0.0, 41: 1.3017, 42: 1.486, 43: 0.0, 44: 1.7457, 45: 0.0, 46: 0.0, 47: 0.0, 48: 0.0, 49: 1.8308, 50: 0.0, 51: 0.0, 52: 0.0, 53: 0.0, 54: 0.0, 55: 0.0, 56: 1.437, 57: 0.0, 58: 1.2428, 59: 0.0, 60: 0.0, 61: 0.9038, 62: 0.6735, 63: 0.0, 64: 0.5669999999999999, 65: 0.0, 66: 0.0, 67: 0.2193, 68: 0.0, 69: 0.0, 70: 0.0, 71: 0.0, 72: 0.0047, 73: 0.0003, 74: 0.0, 75: 0.0, 76: 0.0, 77: 0.0, 78: 0.0, 79: 0.0, 80: 0.0, 81: 0.0, 82: 0.0, 83: 0.0, 84: 0.0, 85: 0.0, 86: 0.0, 87: 0.0, 88: 0.0, 89: 0.0, 90: 0.0, 91: 0.0, 92: 0.0, 93: 0.0, 94: 0.0, 95: 0.0, 96: 0.0, 97: 0.0, 98: 0.0, 99: 0.0, 100: 0.0, 101: 0.0, 102: 0.0, 103: 0.0, 104: 0.0, 105: 0.0, 106: 0.0, 107: 0.0, 108: 0.0, 109: 0.0, 110: 0.0, 111: 0.0, 112: 0.0, 113: 0.0, 114: 0.0, 115: 0.0, 116: 0.0, 117: 0.0, 118: 0.0, 119: 0.0003, 120: 0.0, 121: 0.038, 122: 0.0838, 123: 0.0, 124: 0.0, 125: 0.0, 126: 0.1355, 127: 0.144, 128: 0.0, 129: 0.0, 130: 0.0, 131: 0.286, 132: 0.0, 133: 0.3555, 134: 0.5278, 135: 0.0, 136: 0.0, 137: 0.0, 138: 0.752, 139: 0.0, 140: 0.3915, 141: 0.0, 142: 0.393, 143: 0.3777, 144: 0.0, 145: 0.0, 146: 0.3675, 147: 0.2878, 148: 0.3177, 149: 0.2562, 150: 0.2248, 151: 0.0, 152: 0.0, 153: 0.0, 154: 0.0, 155: 0.2062, 156: 0.2305, 157: 0.2025, 158: 0.0, 159: 0.0, 160: 0.0, 161: 0.0, 162: 0.0, 163: 0.1365, 164: 0.0, 165: 0.0505, 166: 0.0, 167: 0.003, 168: 0.0, 169: 0.0, 170: 0.0, 171: 0.0, 172: 0.0, 173: 0.0, 174: 0.0, 175: 0.0, 176: 0.0, 177: 0.0, 178: 0.0, 179: 0.0, 180: 0.0, 181: 0.0, 182: 0.0, 183: 0.0, 184: 0.0, 185: 0.0, 186: 0.0, 187: 0.0, 188: 0.0, 189: 0.0, 190: 0.0, 191: 0.0];
buy = [0: 0.0, 1: 0.0, 2: 0.0, 3: 1.218135417, 4: 0.233935417, 5: 0.0, 6: 0.0, 7: 0.227635417, 8: 0.211635417, 9: 0.0, 10: 0.0, 11: 0.211135417, 12: 0.212635417, 13: 1.213635417, 14: 0.0, 15: 1.213935417, 16: 1.502335417, 17: 1.533635417, 18: 1.569335417, 19: 1.092935417, 20: 1.091635417, 21: 0.0, 22: 1.087135417, 23: 0.0, 24: 0.0, 25: 0.0, 26: 0.0, 27: 0.0, 28: 1.072835417, 29: 1.072135417, 30: 0.0, 31: 0.085335417, 32: 0.0, 33: 0.332135417, 34: 0.0, 35: 1.084635417, 36: 0.0, 37: 0.088335417, 38: 0.0, 39: 0.081635417, 40: 0.0, 41: 0.0, 42: 0.0, 43: 0.0, 44: 0.0, 45: 0.0, 46: 1.084435417, 47: 0.077835417, 48: 1.077635417, 49: 0.0, 50: 1.078135417, 51: 0.07933541700000001, 52: 0.07933541700000001, 53: 1.285335417, 54: 0.0, 55: 1.384835417, 56: 0.0, 57: 1.360635417, 58: 0.0, 59: 0.0, 60: 1.086635417, 61: 0.181835417, 62: 0.0, 63: 0.0, 64: 0.0, 65: 0.0, 66: 1.081435417, 67: 0.0, 68: 1.084135417, 69: 0.0, 70: 1.082935417, 71: 0.0, 72: 1.067935417, 73: 1.073335417, 74: 0.0, 75: 1.073335417, 76: 1.072835417, 77: 0.074435417, 78: 1.072835417, 79: 1.073135417, 80: 0.021664116, 81: 0.0, 82: 1.076635417, 83: 0.0, 84: 0.0, 85: 0.089435417, 86: 1.092435417, 87: 1.091635417, 88: 1.089935417, 89: 0.0, 90: 0.0, 91: 1.319135417, 92: 0.317335417, 93: 0.320135417, 94: 1.279335417, 95: 0.0, 96: 0.0, 97: 0.0, 98: 1.238135417, 99: 1.240635417, 100: 0.0, 101: 0.0, 102: 1.226835417, 103: 0.0, 104: 0.0, 105: 1.229635417, 106: 1.227635417, 107: 1.213935417, 108: 0.0, 109: 0.0, 110: 0.0, 111: 0.0, 112: 0.09293541700000001, 113: 1.090935417, 114: 1.089135417, 115: 0.090935417, 116: 1.089435417, 117: 0.0, 118: 0.0, 119: 1.076135417, 120: 1.107635417, 121: 0.036135417, 122: 0.0, 123: 1.073935417, 124: 0.07313541699999999, 125: 0.0, 126: 0.9368354169999999, 127: 0.0, 128: 0.0, 129: 1.073335417, 130: 0.0, 131: 0.787135417, 132: 1.086835417, 133: 0.0, 134: 0.570135417, 135: 0.0, 136: 0.0, 137: 0.106435417, 138: 0.0, 139: 0.0, 140: 0.7141354170000001, 141: 1.102835417, 142: 0.0, 143: 0.0, 144: 1.095335417, 145: 0.596635417, 146: 0.0, 147: 0.0, 148: 0.0, 149: 0.662435417, 150: 1.236635417, 151: 0.0, 152: 1.470435417, 153: 0.216258308, 154: 0.0, 155: 1.263235417, 156: 0.885135417, 157: 0.0, 158: 1.095835417, 159: 0.0, 160: 0.098435417, 161: 1.098435417, 162: 0.105635417, 163: 0.967835417, 164: 1.113835417, 165: 1.057935417, 166: 1.145635417, 167: 1.218835417, 168: 1.080635417, 169: 0.0, 170: 1.079135417, 171: 1.078135417, 172: 0.08033541700000001, 173: 1.075435417, 174: 0.0, 175: 0.0, 176: 1.075635417, 177: 0.0, 178: 0.0, 179: 1.072135417, 180: 1.072835417, 181: 0.091135417, 182: 0.0, 183: 0.0, 184: 0.093835417, 185: 1.253835417, 186: 1.308335417, 187: 0.309835417, 188: 0.0, 189: 0.310835417, 190: 1.277135417, 191: 1.246835417];
sell = [0: 0.638864583, 1: 0.677864583, 2: 0.681664583, 3: 0.0, 4: 0.0, 5: 0.341511922, 6: 0.689364583, 7: 0.0, 8: 0.0, 9: 0.688064583, 10: 0.689564583, 11: 0.0, 12: 0.0, 13: 0.0, 14: 0.687064583, 15: 0.0, 16: 0.0, 17: 0.0, 18: 0.0, 19: 0.0, 20: 0.0, 21: 0.0, 22: 0.0, 23: 0.808564583, 24: 0.816864583, 25: 0.853164583, 26: 0.889364583, 27: 0.931164583, 28: 0.0, 29: 0.0, 30: 0.130064583, 31: 0.0, 32: 1.264364583, 33: 0.0, 34: 1.619064583, 35: 0.0, 36: 0.816364583, 37: 0.0, 38: 0.288564583, 39: 0.0, 40: 0.817064583, 41: 0.220264583, 42: 2.304364583, 43: 0.817064583, 44: 1.659564583, 45: 0.8141645830000001, 46: 0.0, 47: 0.0, 48: 0.0, 49: 2.653664583, 50: 0.0, 51: 0.0, 52: 0.0, 53: 0.0, 54: 0.420652493, 55: 0.0, 56: 1.047364583, 57: 0.0, 58: 1.781164583, 59: 0.566364583, 60: 0.0, 61: 0.0, 62: 1.486164583, 63: 0.813364583, 64: 1.382064583, 65: 0.0, 66: 0.0, 67: 1.036164583, 68: 0.0, 69: 0.815064583, 70: 0.0, 71: 0.724448679, 72: 0.0, 73: 0.0, 74: 0.825864583, 75: 0.0, 76: 0.0, 77: 0.0, 78: 0.0, 79: 0.0, 80: 0.0, 81: 0.827664583, 82: 0.0, 83: 0.824364583, 84: 0.808364583, 85: 0.0, 86: 0.0, 87: 0.0, 88: 0.0, 89: 0.649664583, 90: 0.580664583, 91: 0.0, 92: 0.0, 93: 0.0, 94: 0.0, 95: 0.622864583, 96: 0.663364583, 97: 0.662864583, 98: 0.0, 99: 0.0, 100: 0.670664583, 101: 0.672664583, 102: 0.0, 103: 0.672364583, 104: 0.671164583, 105: 0.0, 106: 0.0, 107: 0.0, 108: 0.808364583, 109: 0.808864583, 110: 0.0, 111: 0.8111645830000001, 112: 0.0, 113: 0.0, 114: 0.0, 115: 0.0, 116: 0.0, 117: 0.809564583, 118: 0.809364583, 119: 0.0, 120: 0.0, 121: 0.0, 122: 0.009864583, 123: 0.0, 124: 0.0, 125: 0.826664583, 126: 0.0, 127: 0.071364583, 128: 0.0, 129: 0.0, 130: 0.827664583, 131: 0.0, 132: 0.0, 133: 1.183164583, 134: 0.0, 135: 0.802864583, 136: 0.800864583, 137: 0.0, 138: 1.548664583, 139: 0.5338645829999999, 140: 0.0, 141: 0.0, 142: 0.250364583, 143: 0.282364583, 144: 0.0, 145: 0.0, 146: 1.111864583, 147: 1.070464583, 148: 1.096264583, 149: 0.0, 150: 0.0, 151: 0.431364583, 152: 0.0, 153: 0.0, 154: 0.430364583, 155: 0.0, 156: 0.0, 157: 0.092864583, 158: 0.0, 159: 0.805664583, 160: 0.0, 161: 0.0, 162: 0.0, 163: 0.0, 164: 0.0, 165: 0.0, 166: 0.0, 167: 0.0, 168: 0.0, 169: 0.819864583, 170: 0.0, 171: 0.0, 172: 0.0, 173: 0.0, 174: 0.825064583, 175: 0.825564583, 176: 0.0, 177: 0.825564583, 178: 0.827164583, 179: 0.0, 180: 0.0, 181: 0.0, 182: 0.827164583, 183: 0.806664583, 184: 0.0, 185: 0.0, 186: 0.0, 187: 0.0, 188: 0.5883645830000001, 189: 0.0, 190: 0.0, 191: 0.0];
charge = [0: 0.0, 1: 0.0, 2: 0.0, 3: 1.0, 4: 0.0, 5: 0.0, 6: 0.0, 7: 0.0, 8: 0.0, 9: 0.0, 10: 0.0, 11: 0.0, 12: 0.0, 13: 1.0, 14: 0.0, 15: 1.0, 16: 1.0, 17: 1.0, 18: 1.0, 19: 1.0, 20: 1.0, 21: 0.0, 22: 1.0, 23: 0.0, 24: 0.0, 25: 0.0, 26: 0.0, 27: 0.0, 28: 1.0, 29: 1.0, 30: 0.0, 31: 0.0, 32: 0.0, 33: 1.0, 34: 0.0, 35: 1.0, 36: 0.0, 37: 0.0, 38: 1.0, 39: 0.0, 40: 0.0, 41: 1.0, 42: 0.0, 43: 0.0, 44: 0.0, 45: 0.0, 46: 1.0, 47: 0.0, 48: 1.0, 49: 0.0, 50: 1.0, 51: 0.0, 52: 0.0, 53: 1.0, 54: 0.0, 55: 1.0, 56: 0.0, 57: 1.0, 58: 0.0, 59: 0.0, 60: 1.0, 61: 1.0, 62: 0.0, 63: 0.0, 64: 0.0, 65: 0.0, 66: 1.0, 67: 0.0, 68: 1.0, 69: 0.0, 70: 1.0, 71: 0.0, 72: 1.0, 73: 1.0, 74: 0.0, 75: 1.0, 76: 1.0, 77: 0.0, 78: 1.0, 79: 1.0, 80: 0.0, 81: 0.0, 82: 1.0, 83: 0.0, 84: 0.0, 85: 0.0, 86: 1.0, 87: 1.0, 88: 1.0, 89: 0.0, 90: 0.0, 91: 1.0, 92: 0.0, 93: 0.0, 94: 1.0, 95: 0.0, 96: 0.0, 97: 0.0, 98: 1.0, 99: 1.0, 100: 0.0, 101: 0.0, 102: 1.0, 103: 0.0, 104: 0.0, 105: 1.0, 106: 1.0, 107: 1.0, 108: 0.0, 109: 0.0, 110: 0.0, 111: 0.0, 112: 0.0, 113: 1.0, 114: 1.0, 115: 0.0, 116: 1.0, 117: 0.0, 118: 0.0, 119: 1.0, 120: 1.0, 121: 0.0, 122: 0.0, 123: 1.0, 124: 0.0, 125: 0.0, 126: 1.0, 127: 0.0, 128: 0.0, 129: 1.0, 130: 0.0, 131: 1.0, 132: 1.0, 133: 0.0, 134: 1.0, 135: 0.0, 136: 0.0, 137: 0.0, 138: 0.0, 139: 0.0, 140: 1.0, 141: 1.0, 142: 0.0, 143: 0.0, 144: 1.0, 145: 0.0, 146: 0.0, 147: 0.0, 148: 0.0, 149: 0.0, 150: 1.0, 151: 0.0, 152: 1.0, 153: 0.0, 154: 0.0, 155: 1.0, 156: 1.0, 157: 0.0, 158: 1.0, 159: 0.0, 160: 0.0, 161: 1.0, 162: 0.0, 163: 1.0, 164: 1.0, 165: 1.0, 166: 1.0, 167: 1.0, 168: 1.0, 169: 0.0, 170: 1.0, 171: 1.0, 172: 0.0, 173: 1.0, 174: 0.0, 175: 0.0, 176: 1.0, 177: 0.0, 178: 0.0, 179: 1.0, 180: 1.0, 181: 0.0, 182: 0.0, 183: 0.0, 184: 0.0, 185: 1.0, 186: 1.0, 187: 0.0, 188: 0.0, 189: 0.0, 190: 1.0, 191: 1.0];
discharge = [0: 1.0, 1: 1.0, 2: 1.0, 3: 0.0, 4: 0.0, 5: 0.630719265, 6: 1.0, 7: 0.0, 8: 0.0, 9: 1.0, 10: 1.0, 11: 0.0, 12: 0.0, 13: 0.0, 14: 1.0, 15: 0.0, 16: 0.0, 17: 0.0, 18: 0.0, 19: 0.0, 20: 0.0, 21: 0.097039352, 22: 0.0, 23: 1.0, 24: 1.0, 25: 1.0, 26: 1.0, 27: 1.0, 28: 0.0, 29: 0.0, 30: 0.0, 31: 0.0, 32: 1.0, 33: 0.0, 34: 1.0, 35: 0.0, 36: 1.0, 37: 0.0, 38: 0.0, 39: 0.0, 40: 1.0, 41: 0.0, 42: 1.0, 43: 1.0, 44: 0.0, 45: 1.0, 46: 0.0, 47: 0.0, 48: 0.0, 49: 1.0, 50: 0.0, 51: 0.0, 52: 0.0, 53: 0.0, 54: 0.886653233, 55: 0.0, 56: 0.0, 57: 0.0, 58: 1.0, 59: 1.0, 60: 0.0, 61: 0.0, 62: 1.0, 63: 1.0, 64: 1.0, 65: 0.09292824099999999, 66: 0.0, 67: 1.0, 68: 0.0, 69: 1.0, 70: 0.0, 71: 0.898760106, 72: 0.0, 73: 0.0, 74: 1.0, 75: 0.0, 76: 0.0, 77: 0.0, 78: 0.0, 79: 0.0, 80: 0.056301445, 81: 1.0, 82: 0.0, 83: 1.0, 84: 1.0, 85: 0.0, 86: 0.0, 87: 0.0, 88: 0.0, 89: 1.0, 90: 1.0, 91: 0.0, 92: 0.0, 93: 0.0, 94: 0.0, 95: 1.0, 96: 1.0, 97: 1.0, 98: 0.0, 99: 0.0, 100: 1.0, 101: 1.0, 102: 0.0, 103: 1.0, 104: 1.0, 105: 0.0, 106: 0.0, 107: 0.0, 108: 1.0, 109: 1.0, 110: 0.100706019, 111: 1.0, 112: 0.0, 113: 0.0, 114: 0.0, 115: 0.0, 116: 0.0, 117: 1.0, 118: 1.0, 119: 0.0, 120: 0.0, 121: 0.0, 122: 0.0, 123: 0.0, 124: 0.0, 125: 1.0, 126: 0.0, 127: 0.0, 128: 0.080928241, 129: 0.0, 130: 1.0, 131: 0.0, 132: 0.0, 133: 1.0, 134: 0.0, 135: 1.0, 136: 1.0, 137: 0.0, 138: 1.0, 139: 1.0, 140: 0.0, 141: 0.0, 142: 0.0, 143: 0.0, 144: 0.0, 145: 0.0, 146: 1.0, 147: 1.0, 148: 1.0, 149: 0.0, 150: 0.0, 151: 1.0, 152: 0.0, 153: 0.276863454, 154: 1.0, 155: 0.0, 156: 0.0, 157: 0.0, 158: 0.0, 159: 1.0, 160: 0.0, 161: 0.0, 162: 0.0, 163: 0.0, 164: 0.0, 165: 0.0, 166: 0.0, 167: 0.0, 168: 0.0, 169: 1.0, 170: 0.0, 171: 0.0, 172: 0.0, 173: 0.0, 174: 1.0, 175: 1.0, 176: 0.0, 177: 1.0, 178: 1.0, 179: 0.0, 180: 0.0, 181: 0.0, 182: 1.0, 183: 1.0, 184: 0.0, 185: 0.0, 186: 0.0, 187: 0.0, 188: 1.0, 189: 0.0, 190: 0.0, 191: 0.0];
soc = [0: 7.928214, 1: 6.926628357, 2: 5.925243032, 3: 6.824057983, 4: 6.822693171, 5: 6.190609368, 6: 5.189371246, 7: 5.188333371, 8: 5.187295705, 9: 4.186258246, 10: 3.185420994, 11: 3.18478391, 12: 3.184146953, 13: 4.083510124, 14: 3.082693422, 15: 3.982076883, 16: 4.881280467, 17: 5.780304211, 18: 6.679148151, 19: 7.577812321, 20: 8.476296758, 21: 8.377562147000001, 22: 9.275886635000001, 23: 8.274031457, 24: 7.272376651, 25: 6.270922176, 26: 5.269667991, 27: 4.268614058, 28: 5.167760335, 29: 6.066726783, 30: 6.065513438, 31: 6.064300335, 32: 5.063087475, 33: 5.962074857, 34: 4.960882442, 35: 5.859890266, 36: 4.858718288, 37: 4.857746544, 38: 5.756774995, 39: 5.75562364, 40: 4.754472515, 41: 5.653521621, 42: 4.652390916, 43: 3.651460438, 44: 3.650730146, 45: 2.65, 46: 3.54947, 47: 3.548760106, 48: 4.448050354, 49: 3.447160744, 50: 4.346471312, 51: 4.345602017, 52: 4.344732897, 53: 5.243863951, 54: 4.356161945, 55: 5.255290712, 56: 5.254239654, 57: 6.153188806, 58: 5.151958168, 59: 4.150927777, 60: 5.050097591, 61: 5.949087572, 62: 4.947897754, 63: 3.946908175, 64: 2.946118793, 65: 2.852601329, 66: 3.752030808, 67: 2.751280402, 68: 3.650730146, 69: 2.65, 70: 3.54947, 71: 2.65, 72: 3.54947, 73: 4.448760106, 74: 3.447870354, 75: 4.34718078, 76: 5.246311344, 77: 5.245262081, 78: 6.144213029, 79: 7.042984186, 80: 6.985274145, 81: 5.98387709, 82: 6.882680314, 83: 5.881303778, 84: 4.880127517, 85: 4.879151492, 86: 5.778175662, 87: 6.677020027, 88: 7.575684623, 89: 6.574169486, 90: 5.572854652, 91: 6.471740081, 92: 6.470445733, 93: 6.469151644, 94: 7.367857813, 95: 6.366384242, 96: 5.365110965, 97: 4.364037943, 98: 5.263165135, 99: 6.162112502, 100: 5.16088008, 101: 4.159847904, 102: 5.059015934, 103: 4.058004131, 104: 3.05719253, 105: 3.956581091, 106: 4.855789775, 107: 5.754818617, 108: 4.753667654, 109: 3.75271692, 110: 3.651260358, 111: 2.650530106, 112: 2.65, 113: 3.54947, 114: 4.448760106, 115: 4.447870354, 116: 5.34698078, 117: 4.345911384, 118: 3.345042201, 119: 4.244373193, 120: 5.143524318, 121: 5.142495614, 122: 5.141467114, 123: 6.040438821, 124: 6.039230733, 125: 5.038022887, 126: 5.937015282, 127: 5.935827879, 128: 5.853712473, 129: 6.752541731, 130: 5.751191222, 131: 6.650040984, 132: 7.548710976, 133: 6.547201234, 134: 7.445891793, 135: 6.444402615, 136: 5.443113735, 137: 5.442025112, 138: 4.440936707, 139: 3.440048519, 140: 4.33936051, 141: 5.238492638, 142: 5.237444939, 143: 5.23639745, 144: 6.135350171, 145: 6.134123101, 146: 5.132896276, 147: 4.131869697, 148: 3.131043323, 149: 3.130417114, 150: 4.029791031, 151: 3.028985072, 152: 3.928379275, 153: 3.650730146, 154: 2.65, 155: 3.54947, 156: 4.448760106, 157: 4.447870354, 158: 5.34698078, 159: 4.345911384, 160: 4.345042201, 161: 5.244173193, 162: 5.243124358, 163: 6.142075734, 164: 7.040847318, 165: 7.939439149, 166: 8.837851261000001, 167: 9.736083690999999, 168: 10.634136474, 169: 9.632009647, 170: 10.530083245, 171: 11.427977228, 172: 11.425691633, 173: 12.323406494, 174: 11.320941813, 175: 10.318677625, 176: 11.216613889, 177: 10.214370566, 178: 9.212327692000001, 179: 10.110485227, 180: 11.00846313, 181: 11.006261437, 182: 10.004060185, 183: 9.002059373, 184: 9.000258961, 185: 9.898458909, 186: 10.796479217, 187: 10.794319922, 188: 9.792161058, 189: 9.790202624999999, 190: 10.688244585, 191: 11.586106936];
cost = [0: 0.0, 1: 0.0, 2: 0.0, 3: 0.862337091, 4: 0.142911146, 5: 0.0, 6: 0.0, 7: 0.139062476, 8: 0.129288076, 9: 0.0, 10: 0.0, 11: 0.128982626, 12: 0.129898976, 13: 0.859588041, 14: 0.0, 15: 0.859771311, 16: 1.035954871, 17: 1.055076041, 18: 1.076885171, 19: 0.785852411, 20: 0.785058241, 21: 0.0, 22: 0.782309191, 23: 0.0, 24: 0.0, 25: 0.0, 26: 0.0, 27: 0.0, 28: 1.394423177, 29: 1.393590457, 30: 0.0, 31: 0.101515012, 32: 0.0, 33: 0.513286457, 34: 0.0, 35: 1.408460457, 36: 0.0, 37: 0.105083812, 38: 0.118178165, 39: 0.097113492, 40: 0.0, 41: 0.118178165, 42: 0.0, 43: 0.0, 44: 0.0, 45: 0.0, 46: 1.408222537, 47: 0.092593012, 48: 1.400133257, 49: 0.0, 50: 1.400728057, 51: 0.09437741199999999, 52: 0.048466006, 53: 0.9033895709999999, 54: 0.0, 55: 0.964174121, 56: 0.0, 57: 0.949390341, 58: 0.0, 59: 0.0, 60: 1.410839657, 61: 0.334489577, 62: 0.0, 63: 0.0, 64: 0.0, 65: 0.0, 66: 1.404653737, 67: 0.0, 68: 1.407865657, 69: 0.0, 70: 1.406438137, 71: 0.0, 72: 1.388594137, 73: 1.395017977, 74: 0.0, 75: 1.395017977, 76: 1.394423177, 77: 0.088548372, 78: 1.394423177, 79: 1.394780057, 80: 0.025771632, 81: 0.0, 82: 1.398943657, 83: 0.0, 84: 0.0, 85: 0.106392372, 86: 1.417739337, 87: 1.416787657, 88: 0.784019711, 89: 0.0, 90: 0.0, 91: 0.9240379909999999, 92: 0.193860206, 93: 0.195570726, 94: 0.899724171, 95: 0.0, 96: 0.0, 97: 0.0, 98: 0.874555091, 99: 0.876082341, 100: 0.0, 101: 0.0, 102: 0.867651921, 103: 0.0, 104: 0.0, 105: 0.869362441, 106: 0.868140641, 107: 0.859771311, 108: 0.0, 109: 0.0, 110: 0.0, 111: 0.0, 112: 0.056774246, 113: 0.784630611, 114: 0.783530991, 115: 0.055552446, 116: 0.783714261, 117: 0.0, 118: 0.0, 119: 0.775589291, 120: 1.435821257, 121: 0.042986692, 122: 0.0, 123: 1.395731737, 124: 0.087001892, 125: 0.0, 126: 1.232637577, 127: 0.0, 128: 0.0, 129: 1.395017977, 130: 0.0, 131: 1.054554457, 132: 1.411077577, 133: 0.0, 134: 0.796411257, 135: 0.0, 136: 0.0, 137: 0.126615572, 138: 0.0, 139: 0.0, 140: 0.967713657, 141: 1.430111177, 142: 0.0, 143: 0.0, 144: 1.421189177, 145: 0.709757492, 146: 0.0, 147: 0.0, 148: 0.0, 149: 0.404681796, 150: 0.8736387410000001, 151: 0.0, 152: 1.016467161, 153: 0.132112201, 154: 0.0, 155: 0.889888681, 156: 1.171135257, 157: 0.0, 158: 1.421783977, 159: 0.0, 160: 0.117098772, 161: 1.424876937, 162: 0.125663892, 163: 1.269515177, 164: 1.443196777, 165: 1.376698137, 166: 1.481026057, 167: 1.568104777, 168: 1.403702057, 169: 0.0, 170: 1.401917657, 171: 1.400728057, 172: 0.09556701200000001, 173: 1.397516137, 174: 0.0, 175: 0.0, 176: 1.397754057, 177: 0.0, 178: 0.0, 179: 1.393590457, 180: 1.394423177, 181: 0.108414692, 182: 0.0, 183: 0.0, 184: 0.057324056, 185: 0.884146221, 186: 0.917440271, 187: 0.189278456, 188: 0.0, 189: 0.189889356, 190: 0.898380191, 191: 0.8798699210000001];
earn = [0: 0.383063204, 1: 0.398652161, 2: 0.400273443, 3: 0.0, 4: 0.0, 5: 0.201935999, 6: 0.409551499, 7: 0.0, 8: 0.0, 9: 0.406714975, 10: 0.409808232, 11: 0.0, 12: 0.0, 13: 0.0, 14: 0.42000258, 15: 0.0, 16: 0.0, 17: 0.0, 18: 0.0, 19: 0.0, 20: 0.0, 21: 0.0, 22: 0.0, 23: 0.590575572, 24: 0.661088507, 25: 0.73303901, 26: 0.78851064, 27: 0.838886173, 28: 0.0, 29: 0.0, 30: 0.10635381, 31: 0.0, 32: 1.013641086, 33: 0.0, 34: 0.999286661, 35: 0.0, 36: 0.468919817, 37: 0.0, 38: 0.134009393, 39: 0.0, 40: 0.277393426, 41: 0.057929585, 42: 0.476542596, 43: 0.127543781, 44: 0.116833347, 45: 0.033462164, 46: 0.0, 47: 0.0, 48: 0.0, 49: 0.035559105, 50: 0.0, 51: 0.0, 52: 0.0, 53: 0.0, 54: 0.047617862, 55: 0.0, 56: 0.313685693, 57: 0.0, 58: 0.699285215, 59: 0.246765049, 60: 0.0, 61: 0.0, 62: 0.798664847, 63: 0.476794319, 64: 0.853701293, 65: 0.0, 66: 0.0, 67: 0.769041354, 68: 0.0, 69: 0.67153171, 70: 0.0, 71: 0.704453895, 72: 0.0, 73: 0.0, 74: 0.94231149, 75: 0.0, 76: 0.0, 77: 0.0, 78: 0.0, 79: 0.0, 80: 0.0, 81: 0.746636221, 82: 0.0, 83: 0.702441061, 84: 0.632787796, 85: 0.0, 86: 0.0, 87: 0.0, 88: 0.0, 89: 0.475749374, 90: 0.41151699, 91: 0.0, 92: 0.0, 93: 0.0, 94: 0.0, 95: 0.408163161, 96: 0.52651247, 97: 0.5045725210000001, 98: 0.0, 99: 0.0, 100: 0.485359959, 101: 0.480887911, 102: 0.0, 103: 0.475966889, 104: 0.479949794, 105: 0.0, 106: 0.0, 107: 0.0, 108: 0.577980677, 109: 0.577529313, 110: 0.0, 111: 0.588662138, 112: 0.0, 113: 0.0, 114: 0.0, 115: 0.0, 116: 0.0, 117: 0.63728924, 118: 0.678247521, 119: 0.0, 120: 0.0, 121: 0.0, 122: 0.009285532000000001, 123: 0.0, 124: 0.0, 125: 0.788968678, 126: 0.0, 127: 0.06561259799999999, 128: 0.0, 129: 0.0, 130: 0.694327819, 131: 0.0, 132: 0.0, 133: 0.906540704, 134: 0.0, 135: 0.563209505, 136: 0.49341267, 137: 0.0, 138: 0.8876945389999999, 139: 0.293892453, 140: 0.0, 141: 0.0, 142: 0.140028911, 143: 0.158293585, 144: 0.0, 145: 0.0, 146: 0.581282804, 147: 0.5606023020000001, 148: 0.64383619, 149: 0.0, 150: 0.0, 151: 0.26783427, 152: 0.0, 153: 0.0, 154: 0.281071109, 155: 0.0, 156: 0.0, 157: 0.06584099, 158: 0.0, 159: 0.607873928, 160: 0.0, 161: 0.0, 162: 0.0, 163: 0.0, 164: 0.0, 165: 0.0, 166: 0.0, 167: 0.0, 168: 0.0, 169: 0.973999125, 170: 0.0, 171: 0.0, 172: 0.0, 173: 0.0, 174: 0.942223754, 175: 0.915551123, 176: 0.0, 177: 0.741687222, 178: 0.718971456, 179: 0.0, 180: 0.0, 181: 0.0, 182: 0.69084786, 183: 0.657270303, 184: 0.0, 185: 0.0, 186: 0.0, 187: 0.0, 188: 0.470750503, 189: 0.0, 190: 0.0, 191: 0.0];
total_cost = 93.750031495;
total_earn = 40.524592463;
