production = [0: 0.0, 1: 0.0, 2: 0.0, 3: 0.0, 4: 0.0, 5: 0.0, 6: 0.0, 7: 0.0, 8: 0.0, 9: 0.0, 10: 0.0, 11: 0.0, 12: 0.0, 13: 0.0, 14: 0.0, 15: 0.0, 16: 0.0, 17: 0.0, 18: 0.0, 19: 0.0, 20: 0.0, 21: 0.0, 22: 0.0, 23: 0.0008, 24: 0.006, 25: 0.0, 26: 0.0625, 27: 0.103, 28: 0.1525, 29: 0.0, 30: 0.0, 31: 0.0, 32: 0.0, 33: 0.0, 34: 0.0, 35: 1.093, 36: 0.0, 37: 0.0, 38: 1.3702, 39: 1.3702, 40: 0.0, 41: 0.0, 42: 1.486, 43: 1.5023, 44: 1.7457, 45: 0.0, 46: 1.8002, 47: 0.0, 48: 0.0, 49: 1.8308, 50: 1.8587, 51: 0.0, 52: 0.0, 53: 0.0, 54: 0.0, 55: 1.489, 56: 0.0, 57: 1.3275, 58: 0.0, 59: 1.0728, 60: 0.0, 61: 0.9038, 62: 0.0, 63: 0.0, 64: 0.5669999999999999, 65: 0.5158, 66: 0.0, 67: 0.2193, 68: 0.0, 69: 0.0877, 70: 0.0, 71: 0.0, 72: 0.0047, 73: 0.0, 74: 0.0, 75: 0.0, 76: 0.0, 77: 0.0, 78: 0.0, 79: 0.0, 80: 0.0, 81: 0.0, 82: 0.0, 83: 0.0, 84: 0.0, 85: 0.0, 86: 0.0, 87: 0.0, 88: 0.0, 89: 0.0, 90: 0.0, 91: 0.0, 92: 0.0, 93: 0.0, 94: 0.0, 95: 0.0, 96: 0.0, 97: 0.0, 98: 0.0, 99: 0.0, 100: 0.0, 101: 0.0, 102: 0.0, 103: 0.0, 104: 0.0, 105: 0.0, 106: 0.0, 107: 0.0, 108: 0.0, 109: 0.0, 110: 0.0, 111: 0.0, 112: 0.0, 113: 0.0, 114: 0.0, 115: 0.0, 116: 0.0, 117: 0.0, 118: 0.0, 119: 0.0, 120: 0.0005, 121: 0.038, 122: 0.0, 123: 0.149, 124: 0.0, 125: 0.077, 126: 0.0, 127: 0.0, 128: 0.0, 129: 0.1573, 130: 0.0, 131: 0.286, 132: 0.2767, 133: 0.3555, 134: 0.0, 135: 0.5925, 136: 0.824, 137: 0.0, 138: 0.752, 139: 0.0, 140: 0.3915, 141: 0.0, 142: 0.0, 143: 0.3777, 144: 0.39, 145: 0.4455, 146: 0.3675, 147: 0.2878, 148: 0.3177, 149: 0.0, 150: 0.2248, 151: 0.0, 152: 0.0, 153: 0.0, 154: 0.1988, 155: 0.2062, 156: 0.2305, 157: 0.0, 158: 0.0, 159: 0.0, 160: 0.2213, 161: 0.0, 162: 0.0, 163: 0.1365, 164: 0.0892, 165: 0.0505, 166: 0.0, 167: 0.0, 168: 0.0, 169: 0.0, 170: 0.0, 171: 0.0, 172: 0.0, 173: 0.0, 174: 0.0, 175: 0.0, 176: 0.0, 177: 0.0, 178: 0.0, 179: 0.0, 180: 0.0, 181: 0.0, 182: 0.0, 183: 0.0, 184: 0.0, 185: 0.0, 186: 0.0, 187: 0.0, 188: 0.0, 189: 0.0, 190: 0.0, 191: 0.0];
buy = [0: 1.261135417, 1: 1.222135417, 2: 1.218335417, 3: 0.0, 4: 1.233935417, 5: 0.226135417, 6: 0.210635417, 7: 1.227635417, 8: 0.0, 9: 1.211935417, 10: 0.210435417, 11: 0.0, 12: 1.212635417, 13: 1.213635417, 14: 0.0, 15: 0.0, 16: 0.0, 17: 0.0, 18: 0.569335417, 19: 0.0, 20: 0.0, 21: 0.0, 22: 1.087135417, 23: 0.0, 24: 1.083135417, 25: 1.088335417, 26: 0.0, 27: 0.0, 28: 0.920335417, 29: 0.0, 30: 0.0, 31: 0.0, 32: 1.084135417, 33: 1.083635417, 34: 0.0, 35: 0.0, 36: 0.0, 37: 0.0, 38: 0.0, 39: 0.0, 40: 1.082935417, 41: 0.081435417, 42: 0.0, 43: 0.0, 44: 0.0, 45: 0.0, 46: 0.0, 47: 0.0, 48: 0.077635417, 49: 0.0, 50: 0.0, 51: 0.07933541700000001, 52: 0.07933541700000001, 53: 0.0, 54: 1.377335417, 55: 0.0, 56: 0.389635417, 57: 0.0, 58: 0.361635417, 59: 0.0, 60: 0.08663541700000001, 61: 0.0, 62: 0.087335417, 63: 0.0, 64: 0.517935417, 65: 0.0, 66: 0.081435417, 67: 0.0, 68: 1.084135417, 69: 0.997235417, 70: 1.082935417, 71: 0.084435417, 72: 0.0, 73: 0.0, 74: 0.0, 75: 0.0, 76: 0.0, 77: 0.0, 78: 1.058291956, 79: 1.073135417, 80: 1.072335417, 81: 0.0, 82: 0.0, 83: 1.075635417, 84: 1.091635417, 85: 1.089435417, 86: 1.092435417, 87: 0.0, 88: 1.089935417, 89: 0.250335417, 90: 0.319335417, 91: 0.319135417, 92: 1.317335417, 93: 0.320135417, 94: 1.279335417, 95: 1.277135417, 96: 1.236635417, 97: 1.237135417, 98: 0.0, 99: 1.240635417, 100: 0.0, 101: 1.227335417, 102: 0.0, 103: 0.227635417, 104: 0.0, 105: 0.0, 106: 1.227635417, 107: 1.213935417, 108: 0.0, 109: 1.091135417, 110: 1.090635417, 111: 1.088835417, 112: 0.0, 113: 1.090935417, 114: 0.08913541699999999, 115: 0.090935417, 116: 0.0, 117: 1.090435417, 118: 0.0, 119: 1.076435417, 120: 0.0, 121: 1.036135417, 122: 0.073935417, 123: 0.0, 124: 1.073135417, 125: 0.9963354169999999, 126: 0.072335417, 127: 0.07263541699999999, 128: 0.0, 129: 0.0, 130: 0.072335417, 131: 0.787135417, 132: 0.810135417, 133: 0.716835417, 134: 1.097935417, 135: 0.0, 136: 0.275135417, 137: 0.0, 138: 0.0, 139: 0.0, 140: 0.7141354170000001, 141: 0.102835417, 142: 0.142635417, 143: 0.0, 144: 0.705335417, 145: 1.151135417, 146: 0.0, 147: 0.0, 148: 0.0, 149: 1.918635417, 150: 0.236635417, 151: 1.468635417, 152: 0.470435417, 153: 1.465435417, 154: 0.0, 155: 1.263235417, 156: 0.0, 157: 1.109635417, 158: 1.095835417, 159: 0.0, 160: 0.877135417, 161: 0.098435417, 162: 0.0, 163: 0.0, 164: 0.024635417, 165: 0.057935417, 166: 0.0, 167: 0.0, 168: 0.0, 169: 1.080135417, 170: 0.0, 171: 1.078135417, 172: 1.080335417, 173: 1.075435417, 174: 0.0, 175: 1.074435417, 176: 1.075635417, 177: 0.074435417, 178: 0.0, 179: 0.07213541699999999, 180: 0.072835417, 181: 0.38233434, 182: 1.072835417, 183: 0.0, 184: 1.093835417, 185: 0.0, 186: 1.308335417, 187: 0.309835417, 188: 1.311635417, 189: 0.0, 190: 1.277135417, 191: 0.246835417];
sell = [0: 0.0, 1: 0.0, 2: 0.0, 3: 0.681864583, 4: 0.0, 5: 0.0, 6: 0.0, 7: 0.0, 8: 0.688364583, 9: 0.0, 10: 0.0, 11: 0.0, 12: 0.0, 13: 0.0, 14: 0.687064583, 15: 0.686064583, 16: 0.397664583, 17: 0.366364583, 18: 0.0, 19: 0.8070645829999999, 20: 0.808364583, 21: 0.812664583, 22: 0.0, 23: 0.809364583, 24: 0.0, 25: 0.0, 26: 0.889364583, 27: 0.931164583, 28: 0.0, 29: 0.827864583, 30: 0.814864583, 31: 0.814664583, 32: 0.0, 33: 0.0, 34: 0.816564583, 35: 0.008364583, 36: 0.816364583, 37: 0.811664583, 38: 1.288564583, 39: 0.288564583, 40: 0.0, 41: 0.0, 42: 2.304364583, 43: 0.419364583, 44: 0.659564583, 45: 0.8141645830000001, 46: 2.615764583, 47: 0.8221645829999999, 48: 0.0, 49: 0.7536645830000001, 50: 1.780564583, 51: 0.0, 52: 0.0, 53: 0.614664583, 54: 0.0, 55: 0.104164583, 56: 0.0, 57: 0.966864583, 58: 0.0, 59: 0.739164583, 60: 0.0, 61: 0.8181645829999999, 62: 0.0, 63: 0.813364583, 64: 0.0, 65: 0.432164583, 66: 0.0, 67: 0.136164583, 68: 0.0, 69: 0.0, 70: 0.0, 71: 0.0, 72: 0.832064583, 73: 0.826364583, 74: 0.825864583, 75: 0.826664583, 76: 0.827164583, 77: 0.0, 78: 0.0, 79: 0.0, 80: 0.0, 81: 0.827664583, 82: 0.823364583, 83: 0.0, 84: 0.0, 85: 0.0, 86: 0.0, 87: 0.0, 88: 0.0, 89: 0.0, 90: 0.0, 91: 0.0, 92: 0.0, 93: 0.0, 94: 0.0, 95: 0.0, 96: 0.0, 97: 0.0, 98: 0.661864583, 99: 0.0, 100: 0.670664583, 101: 0.0, 102: 0.673164583, 103: 0.0, 104: 0.671164583, 105: 0.670364583, 106: 0.0, 107: 0.0, 108: 0.808364583, 109: 0.0, 110: 0.0, 111: 0.0, 112: 0.8070645829999999, 113: 0.0, 114: 0.0, 115: 0.0, 116: 0.810564583, 117: 0.0, 118: 0.809364583, 119: 0.0, 120: 0.792864583, 121: 0.0, 122: 0.0, 123: 0.975064583, 124: 0.0, 125: 0.0, 126: 0.0, 127: 0.0, 128: 0.827164583, 129: 0.083964583, 130: 0.0, 131: 0.0, 132: 0.0, 133: 0.0, 134: 0.0, 135: 1.395364583, 136: 0.0, 137: 0.793564583, 138: 1.548664583, 139: 0.5338645829999999, 140: 0.0, 141: 0.0, 142: 0.0, 143: 0.282364583, 144: 0.0, 145: 0.0, 146: 1.051220581, 147: 1.070464583, 148: 1.096264583, 149: 0.0, 150: 0.0, 151: 0.0, 152: 0.0, 153: 0.0, 154: 0.629164583, 155: 0.0, 156: 1.014864583, 157: 0.0, 158: 0.0, 159: 0.805664583, 160: 0.0, 161: 0.0, 162: 0.794364583, 163: 0.932164583, 164: 0.0, 165: 0.0, 166: 0.754364583, 167: 0.678164583, 168: 0.819364583, 169: 0.0, 170: 0.820864583, 171: 0.0, 172: 0.0, 173: 0.0, 174: 0.825064583, 175: 0.0, 176: 0.0, 177: 0.0, 178: 0.0, 179: 0.0, 180: 0.0, 181: 0.0, 182: 0.0, 183: 0.806664583, 184: 0.0, 185: 0.646164583, 186: 0.0, 187: 0.0, 188: 0.0, 189: 0.589164583, 190: 0.0, 191: 0.0];
charge = [0: 1.0, 1: 1.0, 2: 1.0, 3: 0.0, 4: 1.0, 5: 0.0, 6: 0.0, 7: 1.0, 8: 0.0, 9: 1.0, 10: 0.0, 11: 0.0, 12: 1.0, 13: 1.0, 14: 0.0, 15: 0.0, 16: 0.0, 17: 0.0, 18: 0.0, 19: 0.0, 20: 0.0, 21: 0.0, 22: 1.0, 23: 0.0, 24: 1.0, 25: 1.0, 26: 0.0, 27: 0.0, 28: 1.0, 29: 0.0, 30: 0.0, 31: 0.0, 32: 1.0, 33: 1.0, 34: 0.0, 35: 1.0, 36: 0.0, 37: 0.0, 38: 0.0, 39: 1.0, 40: 1.0, 41: 0.0, 42: 0.0, 43: 1.0, 44: 1.0, 45: 0.0, 46: 0.0, 47: 0.0, 48: 0.0, 49: 1.0, 50: 0.0, 51: 0.0, 52: 0.0, 53: 0.0, 54: 1.0, 55: 1.0, 56: 0.0, 57: 0.0, 58: 0.0, 59: 0.0, 60: 0.0, 61: 0.0, 62: 0.0, 63: 0.0, 64: 1.0, 65: 0.0, 66: 0.0, 67: 0.0, 68: 1.0, 69: 1.0, 70: 1.0, 71: 0.0, 72: 0.0, 73: 0.0, 74: 0.0, 75: 0.0, 76: 0.0, 77: 0.0, 78: 0.985456539, 79: 1.0, 80: 1.0, 81: 0.0, 82: 0.0, 83: 1.0, 84: 1.0, 85: 1.0, 86: 1.0, 87: 0.0, 88: 1.0, 89: 0.0, 90: 0.0, 91: 0.0, 92: 1.0, 93: 0.0, 94: 1.0, 95: 1.0, 96: 1.0, 97: 1.0, 98: 0.0, 99: 1.0, 100: 0.0, 101: 1.0, 102: 0.0, 103: 0.0, 104: 0.0, 105: 0.0, 106: 1.0, 107: 1.0, 108: 0.0, 109: 1.0, 110: 1.0, 111: 1.0, 112: 0.0, 113: 1.0, 114: 0.0, 115: 0.0, 116: 0.0, 117: 1.0, 118: 0.0, 119: 1.0, 120: 0.0, 121: 1.0, 122: 0.0, 123: 0.0, 124: 1.0, 125: 1.0, 126: 0.0, 127: 0.0, 128: 0.0, 129: 0.0, 130: 0.0, 131: 1.0, 132: 1.0, 133: 1.0, 134: 1.0, 135: 0.0, 136: 1.0, 137: 0.0, 138: 0.0, 139: 0.0, 140: 1.0, 141: 0.0, 142: 0.0, 143: 0.0, 144: 1.0, 145: 1.0, 146: 0.0, 147: 0.0, 148: 0.0, 149: 1.0, 150: 0.0, 151: 1.0, 152: 0.0, 153: 1.0, 154: 0.0, 155: 1.0, 156: 0.0, 157: 1.0, 158: 1.0, 159: 0.0, 160: 1.0, 161: 0.0, 162: 0.0, 163: 0.0, 164: 0.0, 165: 0.0, 166: 0.0, 167: 0.0, 168: 0.0, 169: 1.0, 170: 0.0, 171: 1.0, 172: 1.0, 173: 1.0, 174: 0.0, 175: 1.0, 176: 1.0, 177: 0.0, 178: 0.0, 179: 0.0, 180: 0.0, 181: 0.291198924, 182: 1.0, 183: 0.0, 184: 1.0, 185: 0.0, 186: 1.0, 187: 0.0, 188: 1.0, 189: 0.0, 190: 1.0, 191: 0.0];
discharge = [0: 0.0, 1: 0.0, 2: 0.0, 3: 1.0, 4: 0.0, 5: 0.0, 6: 0.0, 7: 0.0, 8: 1.0, 9: 0.0, 10: 0.0, 11: 0.234594907, 12: 0.0, 13: 0.0, 14: 1.0, 15: 1.0, 16: 1.0, 17: 1.0, 18: 0.0, 19: 1.0, 20: 1.0, 21: 1.0, 22: 0.0, 23: 1.0, 24: 0.0, 25: 0.0, 26: 1.0, 27: 1.0, 28: 0.0, 29: 1.0, 30: 1.0, 31: 1.0, 32: 0.0, 33: 0.0, 34: 1.0, 35: 0.0, 36: 1.0, 37: 1.0, 38: 0.0, 39: 0.0, 40: 0.0, 41: 0.0, 42: 1.0, 43: 0.0, 44: 0.0, 45: 1.0, 46: 1.0, 47: 1.0, 48: 0.0, 49: 0.0, 50: 0.0, 51: 0.0, 52: 0.0, 53: 1.0, 54: 0.0, 55: 0.0, 56: 0.0, 57: 0.0, 58: 0.0, 59: 0.0, 60: 0.0, 61: 0.0, 62: 0.0, 63: 1.0, 64: 0.0, 65: 0.0, 66: 0.0, 67: 0.0, 68: 0.0, 69: 0.0, 70: 0.0, 71: 0.0, 72: 1.0, 73: 1.0, 74: 1.0, 75: 1.0, 76: 1.0, 77: 0.08270601900000001, 78: 0.0, 79: 0.0, 80: 0.0, 81: 1.0, 82: 1.0, 83: 0.0, 84: 0.0, 85: 0.0, 86: 0.0, 87: 0.10181713, 88: 0.0, 89: 0.0, 90: 0.0, 91: 0.0, 92: 0.0, 93: 0.0, 94: 0.0, 95: 0.0, 96: 0.0, 97: 0.0, 98: 1.0, 99: 0.0, 100: 1.0, 101: 0.0, 102: 1.0, 103: 0.0, 104: 1.0, 105: 1.0, 106: 0.0, 107: 0.0, 108: 1.0, 109: 0.0, 110: 0.0, 111: 0.0, 112: 1.0, 113: 0.0, 114: 0.0, 115: 0.0, 116: 1.0, 117: 0.0, 118: 1.0, 119: 0.0, 120: 1.0, 121: 0.0, 122: 0.0, 123: 1.0, 124: 0.0, 125: 0.0, 126: 0.0, 127: 0.0, 128: 1.0, 129: 0.0, 130: 0.0, 131: 0.0, 132: 0.0, 133: 0.0, 134: 0.0, 135: 1.0, 136: 0.0, 137: 1.0, 138: 1.0, 139: 1.0, 140: 0.0, 141: 0.0, 142: 0.0, 143: 0.0, 144: 0.0, 145: 0.0, 146: 0.932617775, 147: 1.0, 148: 1.0, 149: 0.0, 150: 0.0, 151: 0.0, 152: 0.0, 153: 0.0, 154: 1.0, 155: 0.0, 156: 1.0, 157: 0.0, 158: 0.0, 159: 1.0, 160: 0.0, 161: 0.0, 162: 1.0, 163: 1.0, 164: 0.0, 165: 0.0, 166: 1.0, 167: 1.0, 168: 1.0, 169: 0.0, 170: 1.0, 171: 0.0, 172: 0.0, 173: 0.0, 174: 1.0, 175: 0.0, 176: 0.0, 177: 0.0, 178: 0.080928241, 179: 0.0, 180: 0.0, 181: 0.0, 182: 0.0, 183: 1.0, 184: 0.0, 185: 1.0, 186: 0.0, 187: 0.0, 188: 0.0, 189: 1.0, 190: 0.0, 191: 0.0];
soc = [0: 9.828213999999999, 1: 10.726248357, 2: 11.624103108, 3: 10.621778287, 4: 11.519653931, 5: 11.51735, 6: 11.51504653, 7: 12.412743521, 8: 11.410260972, 9: 12.30797892, 10: 12.305517324, 11: 12.068461314, 12: 12.966047621, 13: 13.863454412, 14: 12.860681721, 15: 11.858109585, 16: 10.855737963, 17: 9.853566815000001, 18: 9.851596102, 19: 8.849625782, 20: 7.847855857, 21: 6.846286286, 22: 7.744917029, 23: 6.743368046, 24: 7.642019372, 25: 8.540490968, 26: 7.53878287, 27: 6.537275113, 28: 7.435967658, 29: 6.434480465, 30: 5.433193569, 31: 4.43210693, 32: 5.331220509, 33: 6.230154264, 34: 5.228908234, 35: 6.127862452, 36: 5.126636879, 37: 4.125611552, 38: 4.12478643, 39: 5.023961472, 40: 5.92295668, 41: 5.921772089, 42: 4.920587734, 43: 5.819603617, 44: 6.718439696, 45: 5.717096008, 46: 4.715952589, 47: 3.715009398, 48: 3.714266397, 49: 4.613523543, 50: 4.612600839, 51: 4.611678318, 52: 4.610755983, 53: 3.609833832, 54: 4.509111865, 55: 5.408210042, 56: 5.4071284, 57: 5.406046975, 58: 5.404965765, 59: 5.403884772, 60: 5.402803995, 61: 5.401723434, 62: 5.40064309, 63: 4.399562961, 64: 5.298683049, 65: 5.297623312, 66: 5.296563787, 67: 5.295504475, 68: 6.194445374, 69: 7.093206485, 70: 7.991787843, 71: 7.990189486, 72: 6.988591448, 73: 5.987193729, 74: 4.985996291, 75: 3.984999091, 76: 2.984202092, 77: 2.900899233, 78: 3.787229938, 79: 4.686472492, 80: 5.585535197, 81: 4.58441809, 82: 3.583501207, 83: 4.482784507, 84: 5.38188795, 85: 6.280811572, 86: 7.17955541, 87: 7.076302369, 88: 7.974887109, 89: 7.973292131, 90: 7.971697473, 91: 7.970103133, 92: 8.868509113, 93: 8.866735411000001, 94: 9.764962064000001, 95: 10.663009071, 96: 11.560876469, 97: 12.458564294, 98: 11.456072581, 99: 12.353781367, 100: 11.351310611, 101: 12.249040348, 102: 11.24659054, 103: 11.244341222, 104: 10.242092354, 105: 9.240043934999999, 106: 10.138195927, 107: 11.036168288, 108: 10.033961054, 109: 10.931954262, 110: 11.829767871, 111: 12.727401917, 112: 11.724856437, 113: 12.622511466, 114: 12.619986963, 115: 12.617462966, 116: 11.614939473, 117: 12.512616485, 118: 11.510113962, 119: 12.407811939, 120: 11.405330377, 121: 12.303049311, 122: 12.300588701, 123: 11.298128583, 124: 12.195868958, 125: 13.093429784, 126: 13.090811098, 127: 13.088192936, 128: 12.085575297, 129: 12.083158182, 130: 12.08074155, 131: 12.978325402, 132: 13.875729737, 133: 14.772954591, 134: 15.67, 135: 14.666866, 136: 15.563932627, 137: 14.56081984, 138: 13.557907676, 139: 12.555196095, 140: 13.452685056, 141: 13.449994519, 142: 13.44730452, 143: 13.444615059, 144: 14.341926136, 145: 15.23905775, 146: 14.303392164, 147: 13.300531486, 148: 12.297871379, 149: 13.195411805, 150: 13.192772723, 151: 14.090134168, 152: 14.087316141, 153: 14.984498678, 154: 13.981501778, 155: 14.878705478, 156: 13.875729737, 157: 14.772954591, 158: 15.67, 159: 14.666866, 160: 15.563932627, 161: 15.56081984, 162: 14.557707676, 163: 13.554796135, 164: 13.552085176, 165: 13.549374759, 166: 12.546664884, 167: 11.544155551, 168: 10.541846719, 169: 11.43973835, 170: 10.437450402, 171: 11.335362912, 172: 12.23309584, 173: 13.130649221, 174: 12.128023091, 175: 13.025597486, 176: 13.922992367, 177: 13.920207768, 178: 13.836495486, 179: 13.833728187, 180: 13.830961441, 181: 14.09027428, 182: 14.987456225, 183: 13.984458734, 184: 14.881661842, 185: 13.87868551, 186: 14.775909773, 187: 14.772954591, 188: 15.67, 189: 14.666866, 190: 15.563932627, 191: 15.56081984];
cost = [0: 0.888605791, 1: 0.864780691, 2: 0.862459271, 3: 0.0, 4: 0.871989311, 5: 0.138146126, 6: 0.128677176, 7: 0.868140641, 8: 0.0, 9: 0.858549511, 10: 0.128554996, 11: 0.0, 12: 0.858977141, 13: 0.859588041, 14: 0.0, 15: 0.0, 16: 0.0, 17: 0.0, 18: 0.347807006, 19: 0.0, 20: 0.0, 21: 0.0, 22: 0.782309191, 23: 0.0, 24: 1.406676057, 25: 1.412861977, 26: 0.0, 27: 0.0, 28: 1.213009177, 29: 0.0, 30: 0.0, 31: 0.0, 32: 1.407865657, 33: 1.407270857, 34: 0.0, 35: 0.118178165, 36: 0.0, 37: 0.0, 38: 0.0, 39: 0.118178165, 40: 1.406438137, 41: 0.09687557199999999, 42: 0.0, 43: 0.118178165, 44: 0.118178165, 45: 0.0, 46: 0.0, 47: 0.0, 48: 0.092355092, 49: 0.118178165, 50: 0.0, 51: 0.09437741199999999, 52: 0.048466006, 53: 0.0, 54: 0.9595923710000001, 55: 0.118178165, 56: 0.238028276, 57: 0.0, 58: 0.220923076, 59: 0.0, 60: 0.103061492, 61: 0.0, 62: 0.103894212, 63: 0.0, 64: 0.734314137, 65: 0.0, 66: 0.09687557199999999, 67: 0.0, 68: 1.407865657, 69: 1.304489417, 70: 1.406438137, 71: 0.100444372, 72: 0.0, 73: 0.0, 74: 0.0, 75: 0.0, 76: 0.0, 77: 0.0, 78: 1.375403556, 79: 1.394780057, 80: 1.393828377, 81: 0.0, 82: 0.0, 83: 1.397754057, 84: 1.416787657, 85: 1.414170537, 86: 1.417739337, 87: 0.0, 88: 0.784019711, 89: 0.152929906, 90: 0.195082006, 91: 0.194959826, 92: 0.922938371, 93: 0.195570726, 94: 0.899724171, 95: 0.898380191, 96: 0.8736387410000001, 97: 0.873944191, 98: 0.0, 99: 0.876082341, 100: 0.0, 101: 0.867957371, 102: 0.0, 103: 0.139062476, 104: 0.0, 105: 0.0, 106: 0.868140641, 107: 0.859771311, 108: 0.0, 109: 0.7847527909999999, 110: 0.784447341, 111: 0.7833477210000001, 112: 0.0, 113: 0.784630611, 114: 0.054452826, 115: 0.055552446, 116: 0.0, 117: 0.784325161, 118: 0.0, 119: 0.775772561, 120: 0.0, 121: 1.350764857, 122: 0.08795357199999999, 123: 0.0, 124: 1.394780057, 125: 1.303418777, 126: 0.086050212, 127: 0.086407092, 128: 0.0, 129: 0.0, 130: 0.086050212, 131: 1.054554457, 132: 1.081915257, 133: 0.970925577, 134: 1.424282137, 135: 0.0, 136: 0.445479257, 137: 0.0, 138: 0.0, 139: 0.0, 140: 0.967713657, 141: 0.122333012, 142: 0.169679092, 143: 0.0, 144: 0.957245177, 145: 1.487568857, 146: 0.0, 147: 0.0, 148: 0.0, 149: 1.290272541, 150: 0.144560576, 151: 1.015367541, 152: 0.287388996, 153: 1.013412661, 154: 0.0, 155: 0.889888681, 156: 0.0, 157: 1.438200457, 158: 1.421783977, 159: 0.0, 160: 1.161618457, 161: 0.117098772, 162: 0.0, 163: 0.0, 164: 0.029306292, 165: 0.068919972, 166: 0.0, 167: 0.0, 168: 0.0, 169: 1.403107257, 170: 0.0, 171: 1.400728057, 172: 1.403345177, 173: 1.397516137, 174: 0.0, 175: 1.396326537, 176: 1.397754057, 177: 0.088548372, 178: 0.0, 179: 0.085812292, 180: 0.08664501199999999, 181: 0.489238286, 182: 1.394423177, 183: 0.0, 184: 0.786402221, 185: 0.0, 186: 0.917440271, 187: 0.189278456, 188: 0.919456241, 189: 0.0, 190: 0.898380191, 191: 0.150791756];
earn = [0: 0.0, 1: 0.0, 2: 0.0, 3: 0.398208917, 4: 0.0, 5: 0.0, 6: 0.0, 7: 0.0, 8: 0.407787179, 9: 0.0, 10: 0.0, 11: 0.0, 12: 0.0, 13: 0.0, 14: 0.42000258, 15: 0.425634468, 16: 0.251005885, 17: 0.232934602, 18: 0.0, 19: 0.523865621, 20: 0.5425743079999999, 21: 0.557244105, 22: 0.0, 23: 0.591159892, 24: 0.0, 25: 0.0, 26: 0.78851064, 27: 0.838886173, 28: 0.0, 29: 0.728769193, 30: 0.6663147699999999, 31: 0.593075817, 32: 0.0, 33: 0.0, 34: 0.503983661, 35: 0.00452273, 36: 0.468919817, 37: 0.418818925, 38: 0.598409393, 39: 0.111097365, 40: 0.0, 41: 0.0, 42: 0.476542596, 43: 0.065462811, 44: 0.046433347, 45: 0.033462164, 46: 0.044206421, 47: 0.010359274, 48: 0.0, 49: 0.010099105, 50: 0.026708469, 51: 0.0, 52: 0.0, 53: 0.032269891, 54: 0.0, 55: 0.014270548, 56: 0.0, 57: 0.338209231, 58: 0.0, 59: 0.322054009, 60: 0.0, 61: 0.416936672, 62: 0.0, 63: 0.476794319, 64: 0.0, 65: 0.279221537, 66: 0.0, 67: 0.101061354, 68: 0.0, 69: 0.0, 70: 0.0, 71: 0.0, 72: 0.885316717, 73: 0.9172646880000001, 74: 0.94231149, 75: 0.958930917, 76: 0.955375094, 77: 0.0, 78: 0.0, 79: 0.0, 80: 0.0, 81: 0.746636221, 82: 0.721267375, 83: 0.0, 84: 0.0, 85: 0.0, 86: 0.0, 87: 0.0, 88: 0.0, 89: 0.0, 90: 0.0, 91: 0.0, 92: 0.0, 93: 0.0, 94: 0.0, 95: 0.0, 96: 0.0, 97: 0.0, 98: 0.490507843, 99: 0.0, 100: 0.485359959, 101: 0.0, 102: 0.478081487, 103: 0.0, 104: 0.479949794, 105: 0.478104021, 106: 0.0, 107: 0.0, 108: 0.577980677, 109: 0.0, 110: 0.0, 111: 0.0, 112: 0.573580799, 113: 0.0, 114: 0.0, 115: 0.0, 116: 0.618703946, 117: 0.0, 118: 0.678247521, 119: 0.0, 120: 0.736016193, 121: 0.0, 122: 0.0, 123: 0.898424507, 124: 0.0, 125: 0.0, 126: 0.0, 127: 0.0, 128: 0.717151694, 129: 0.073410235, 130: 0.0, 131: 0.0, 132: 0.0, 133: 0.0, 134: 0.0, 135: 0.9788482549999999, 136: 0.0, 137: 0.465504985, 138: 0.8876945389999999, 139: 0.293892453, 140: 0.0, 141: 0.0, 142: 0.0, 143: 0.158293585, 144: 0.0, 145: 0.0, 146: 0.5495781199999999, 147: 0.5606023020000001, 148: 0.64383619, 149: 0.0, 150: 0.0, 151: 0.0, 152: 0.0, 153: 0.0, 154: 0.410907389, 155: 0.0, 156: 0.796161266, 157: 0.0, 158: 0.0, 159: 0.607873928, 160: 0.0, 161: 0.0, 162: 0.653762052, 163: 0.803991953, 164: 0.0, 165: 0.0, 166: 0.724642619, 167: 0.720210788, 168: 0.917688333, 169: 0.0, 170: 1.009663438, 171: 0.0, 172: 0.0, 173: 0.0, 174: 0.942223754, 175: 0.0, 176: 0.0, 177: 0.0, 178: 0.0, 179: 0.0, 180: 0.0, 181: 0.0, 182: 0.0, 183: 0.657270303, 184: 0.0, 185: 0.535864289, 186: 0.0, 187: 0.0, 188: 0.0, 189: 0.460844537, 190: 0.0, 191: 0.0];
total_cost = 85.009857256;
total_earn = 39.957794038;
% _objective = 45.052063218;