production = [0: 0.0, 1: 0.0, 2: 0.0, 3: 0.0, 4: 0.0, 5: 0.0, 6: 0.0, 7: 0.0, 8: 0.0, 9: 0.0, 10: 0.0, 11: 0.0, 12: 0.0, 13: 0.0, 14: 0.0, 15: 0.0, 16: 0.0, 17: 0.0, 18: 0.0, 19: 0.0, 20: 0.0, 21: 0.0, 22: 0.0, 23: 0.0, 24: 0.006, 25: 0.0, 26: 0.0625, 27: 0.103, 28: 0.1525, 29: 0.0, 30: 0.2152, 31: 0.2188, 32: 0.0, 33: 0.0, 34: 0.8025, 35: 1.093, 36: 0.9507, 37: 1.0697, 38: 1.081635417, 39: 1.3702, 40: 0.0, 41: 0.0, 42: 0.0, 43: 0.0, 44: 1.7457, 45: 1.7532, 46: 0.0, 47: 1.8237, 48: 0.0, 49: 0.0, 50: 1.8587, 51: 0.0, 52: 1.694, 53: 1.6482, 54: 1.582, 55: 0.0, 56: 0.0, 57: 0.0, 58: 0.0, 59: 0.0, 60: 0.9683, 61: 0.9038, 62: 0.6735, 63: 0.7117, 64: 0.0, 65: 0.0, 66: 0.0, 67: 0.2193, 68: 0.1035, 69: 0.0, 70: 0.0, 71: 0.0, 72: 0.0, 73: 0.0003, 74: 0.0, 75: 0.0, 76: 0.0, 77: 0.0, 78: 0.0, 79: 0.0, 80: 0.0, 81: 0.0, 82: 0.0, 83: 0.0, 84: 0.0, 85: 0.0, 86: 0.0, 87: 0.0, 88: 0.0, 89: 0.0, 90: 0.0, 91: 0.0, 92: 0.0, 93: 0.0, 94: 0.0, 95: 0.0, 96: 0.0, 97: 0.0, 98: 0.0, 99: 0.0, 100: 0.0, 101: 0.0, 102: 0.0, 103: 0.0, 104: 0.0, 105: 0.0, 106: 0.0, 107: 0.0, 108: 0.0, 109: 0.0, 110: 0.0, 111: 0.0, 112: 0.0, 113: 0.0, 114: 0.0, 115: 0.0, 116: 0.0, 117: 0.0, 118: 0.0, 119: 0.0, 120: 0.0005, 121: 0.0, 122: 0.0838, 123: 0.149, 124: 0.0, 125: 0.077, 126: 0.1355, 127: 0.144, 128: 0.1055, 129: 0.1573, 130: 0.2082, 131: 0.286, 132: 0.2767, 133: 0.3555, 134: 0.5278, 135: 0.5925, 136: 0.0, 137: 0.0, 138: 0.0, 139: 0.0, 140: 0.0, 141: 0.4422, 142: 0.393, 143: 0.3777, 144: 0.0, 145: 0.4455, 146: 0.0, 147: 0.2878, 148: 0.0, 149: 0.2562, 150: 0.0, 151: 0.2045, 152: 0.2105, 153: 0.199, 154: 0.1988, 155: 0.0, 156: 0.2305, 157: 0.0, 158: 0.1722, 159: 0.1815, 160: 0.0, 161: 0.0, 162: 0.1727, 163: 0.0, 164: 0.0892, 165: 0.0505, 166: 0.0, 167: 0.003, 168: 0.0, 169: 0.0, 170: 0.0, 171: 0.0, 172: 0.0, 173: 0.0, 174: 0.0, 175: 0.0, 176: 0.0, 177: 0.0, 178: 0.0, 179: 0.0, 180: 0.0, 181: 0.0, 182: 0.0, 183: 0.0, 184: 0.0, 185: 0.0, 186: 0.0, 187: 0.0, 188: 0.0, 189: 0.0, 190: 0.0, 191: 0.0];
buy = [0: 0.0, 1: 0.0, 2: 0.218335417, 3: 1.218135417, 4: 0.0, 5: 0.0, 6: 0.0, 7: 1.227635417, 8: 1.211635417, 9: 0.0, 10: 1.210435417, 11: 0.211135417, 12: 1.212635417, 13: 1.213635417, 14: 0.0, 15: 0.0, 16: 1.502335417, 17: 0.0, 18: 0.0, 19: 1.092935417, 20: 1.091635417, 21: 0.0, 22: 1.087135417, 23: 0.0, 24: 1.083135417, 25: 0.0, 26: 1.010635417, 27: 0.0, 28: 0.920335417, 29: 0.07213541699999999, 30: 0.0, 31: 0.0, 32: 0.0, 33: 0.0, 34: 0.280935417, 35: 0.0, 36: 0.0, 37: 0.0, 38: 0.0, 39: 0.0, 40: 0.0, 41: 0.081435417, 42: 1.081635417, 43: 1.082935417, 44: 0.0, 45: 0.0, 46: 1.084435417, 47: 0.0, 48: 1.077635417, 49: 1.077135417, 50: 0.0, 51: 0.07933541700000001, 52: 0.0, 53: 0.0, 54: 0.0, 55: 0.0, 56: 1.389635417, 57: 1.360635417, 58: 1.361635417, 59: 1.333635417, 60: 0.0, 61: 0.181835417, 62: 0.413835417, 63: 0.374935417, 64: 1.084935417, 65: 1.083635417, 66: 0.0, 67: 0.863835417, 68: 0.980635417, 69: 0.0, 70: 0.0, 71: 1.084435417, 72: 0.07263541699999999, 73: 0.0, 74: 0.0, 75: 1.073335417, 76: 1.072835417, 77: 1.074435417, 78: 1.072835417, 79: 0.617981937, 80: 0.0, 81: 1.072335417, 82: 0.0, 83: 0.0, 84: 0.091635417, 85: 0.0, 86: 0.09243541700000001, 87: 1.091635417, 88: 0.0, 89: 0.250335417, 90: 1.319335417, 91: 1.319135417, 92: 1.317335417, 93: 0.0, 94: 0.0, 95: 0.277135417, 96: 0.0, 97: 0.237135417, 98: 0.0, 99: 1.240635417, 100: 1.229335417, 101: 0.0, 102: 1.226835417, 103: 1.227635417, 104: 0.228835417, 105: 0.229635417, 106: 0.0, 107: 0.213935417, 108: 0.0, 109: 0.091135417, 110: 1.090635417, 111: 0.0, 112: 0.09293541700000001, 113: 0.090935417, 114: 0.0, 115: 1.090935417, 116: 0.0, 117: 0.0, 118: 1.090635417, 119: 0.07643541700000001, 120: 0.107135417, 121: 1.074135417, 122: 0.0, 123: 0.0, 124: 1.073135417, 125: 0.9963354169999999, 126: 0.0, 127: 0.0, 128: 0.967335417, 129: 0.916035417, 130: 0.0, 131: 0.0, 132: 0.0, 133: 0.0, 134: 0.0, 135: 0.504635417, 136: 1.099135417, 137: 0.106435417, 138: 1.103335417, 139: 0.0, 140: 0.105635417, 141: 0.0, 142: 0.749635417, 143: 0.0, 144: 0.0, 145: 0.151135417, 146: 0.0, 147: 0.0, 148: 1.121435417, 149: 0.662435417, 150: 0.0, 151: 0.0, 152: 1.259935417, 153: 0.266435417, 154: 1.270835417, 155: 0.0, 156: 0.885135417, 157: 0.0, 158: 0.0, 159: 0.0, 160: 1.098435417, 161: 0.0, 162: 0.932935417, 163: 0.104335417, 164: 1.024635417, 165: 1.057935417, 166: 0.0, 167: 1.218835417, 168: 1.080635417, 169: 0.0, 170: 0.0, 171: 0.0, 172: 0.0, 173: 0.0, 174: 1.074935417, 175: 1.074435417, 176: 0.075635417, 177: 0.0, 178: 1.072835417, 179: 1.072135417, 180: 0.0, 181: 1.091135417, 182: 0.072835417, 183: 1.093335417, 184: 1.093835417, 185: 1.253835417, 186: 0.0, 187: 0.0, 188: 1.311635417, 189: 1.310835417, 190: 1.277135417, 191: 1.246835417];
sell = [0: 0.638864583, 1: 0.677864583, 2: 0.0, 3: 0.0, 4: 0.666064583, 5: 0.673864583, 6: 0.689364583, 7: 0.0, 8: 0.0, 9: 0.688064583, 10: 0.0, 11: 0.0, 12: 0.0, 13: 0.0, 14: 0.687064583, 15: 0.686064583, 16: 0.0, 17: 0.366364583, 18: 0.330664583, 19: 0.0, 20: 0.0, 21: 0.812664583, 22: 0.0, 23: 0.808564583, 24: 0.0, 25: 0.811664583, 26: 0.0, 27: 0.931164583, 28: 0.0, 29: 0.0, 30: 1.030064583, 31: 1.033464583, 32: 0.815864583, 33: 0.483402315, 34: 0.0, 35: 0.008364583, 36: 0.867064583, 37: 1.881364583, 38: 0.0, 39: 2.188564583, 40: 0.817064583, 41: 0.0, 42: 0.0, 43: 0.0, 44: 2.559564583, 45: 0.667364583, 46: 0.0, 47: 2.645864583, 48: 0.0, 49: 0.0, 50: 1.780564583, 51: 0.0, 52: 2.514664583, 53: 0.362864583, 54: 0.204664583, 55: 0.515164583, 56: 0.0, 57: 0.0, 58: 0.0, 59: 0.0, 60: 0.8816645829999999, 61: 0.0, 62: 0.0, 63: 0.0, 64: 0.0, 65: 0.0, 66: 0.818564583, 67: 0.0, 68: 0.0, 69: 0.815064583, 70: 0.817064583, 71: 0.0, 72: 0.0, 73: 0.826664583, 74: 0.825864583, 75: 0.0, 76: 0.0, 77: 0.0, 78: 0.0, 79: 0.0, 80: 0.827664583, 81: 0.0, 82: 0.823364583, 83: 0.824364583, 84: 0.0, 85: 0.810564583, 86: 0.0, 87: 0.0, 88: 0.8100645829999999, 89: 0.0, 90: 0.0, 91: 0.0, 92: 0.0, 93: 0.443008705, 94: 0.620664583, 95: 0.0, 96: 0.663364583, 97: 0.0, 98: 0.661864583, 99: 0.0, 100: 0.0, 101: 0.672664583, 102: 0.0, 103: 0.0, 104: 0.0, 105: 0.0, 106: 0.672364583, 107: 0.0, 108: 0.808364583, 109: 0.0, 110: 0.0, 111: 0.8111645830000001, 112: 0.0, 113: 0.0, 114: 0.810864583, 115: 0.0, 116: 0.810564583, 117: 0.809564583, 118: 0.0, 119: 0.0, 120: 0.0, 121: 0.0, 122: 0.009864583, 123: 0.075064583, 124: 0.0, 125: 0.0, 126: 0.063164583, 127: 0.071364583, 128: 0.0, 129: 0.0, 130: 0.135864583, 131: 1.112864583, 132: 1.089864583, 133: 0.283164583, 134: 0.429864583, 135: 0.0, 136: 0.0, 137: 0.0, 138: 0.0, 139: 0.5338645829999999, 140: 0.0, 141: 0.744948827, 142: 0.0, 143: 1.182364583, 144: 0.804664583, 145: 0.0, 146: 0.744364583, 147: 1.070464583, 148: 0.0, 149: 0.0, 150: 0.438564583, 151: 0.635864583, 152: 0.0, 153: 0.0, 154: 0.0, 155: 0.430564583, 156: 0.0, 157: 0.0, 158: 0.976364583, 159: 0.087164583, 160: 0.0, 161: 0.801564583, 162: 0.0, 163: 0.0, 164: 0.0, 165: 0.0, 166: 0.754364583, 167: 0.0, 168: 0.0, 169: 0.819864583, 170: 0.820864583, 171: 0.821864583, 172: 0.819664583, 173: 0.824564583, 174: 0.0, 175: 0.0, 176: 0.0, 177: 0.825564583, 178: 0.0, 179: 0.0, 180: 0.827164583, 181: 0.0, 182: 0.0, 183: 0.0, 184: 0.0, 185: 0.0, 186: 0.591664583, 187: 0.590164583, 188: 0.0, 189: 0.0, 190: 0.0, 191: 0.0];
charge = [0: 0.0, 1: 0.0, 2: 0.0, 3: 1.0, 4: 0.0, 5: 0.0, 6: 0.0, 7: 1.0, 8: 1.0, 9: 0.0, 10: 1.0, 11: 0.0, 12: 1.0, 13: 1.0, 14: 0.0, 15: 0.0, 16: 1.0, 17: 0.0, 18: 0.0, 19: 1.0, 20: 1.0, 21: 0.0, 22: 1.0, 23: 0.0, 24: 1.0, 25: 0.0, 26: 1.0, 27: 0.0, 28: 1.0, 29: 0.0, 30: 0.0, 31: 0.0, 32: 0.0, 33: 0.0, 34: 1.0, 35: 1.0, 36: 0.0, 37: 0.0, 38: 1.0, 39: 0.0, 40: 0.0, 41: 0.0, 42: 1.0, 43: 1.0, 44: 0.0, 45: 1.0, 46: 1.0, 47: 0.0, 48: 1.0, 49: 1.0, 50: 0.0, 51: 0.0, 52: 0.0, 53: 1.0, 54: 1.0, 55: 0.0, 56: 1.0, 57: 1.0, 58: 1.0, 59: 1.0, 60: 0.0, 61: 1.0, 62: 1.0, 63: 1.0, 64: 1.0, 65: 1.0, 66: 0.0, 67: 1.0, 68: 1.0, 69: 0.0, 70: 0.0, 71: 1.0, 72: 0.0, 73: 0.0, 74: 0.0, 75: 1.0, 76: 1.0, 77: 1.0, 78: 1.0, 79: 0.544846521, 80: 0.0, 81: 1.0, 82: 0.0, 83: 0.0, 84: 0.0, 85: 0.0, 86: 0.0, 87: 1.0, 88: 0.0, 89: 0.0, 90: 1.0, 91: 1.0, 92: 1.0, 93: 0.0, 94: 0.0, 95: 0.0, 96: 0.0, 97: 0.0, 98: 0.0, 99: 1.0, 100: 1.0, 101: 0.0, 102: 1.0, 103: 1.0, 104: 0.0, 105: 0.0, 106: 0.0, 107: 0.0, 108: 0.0, 109: 0.0, 110: 1.0, 111: 0.0, 112: 0.0, 113: 0.0, 114: 0.0, 115: 1.0, 116: 0.0, 117: 0.0, 118: 1.0, 119: 0.0, 120: 0.0, 121: 1.0, 122: 0.0, 123: 0.0, 124: 1.0, 125: 1.0, 126: 0.0, 127: 0.0, 128: 1.0, 129: 1.0, 130: 0.0, 131: 0.0, 132: 0.0, 133: 0.0, 134: 0.0, 135: 1.0, 136: 1.0, 137: 0.0, 138: 1.0, 139: 0.0, 140: 0.0, 141: 0.0, 142: 1.0, 143: 0.0, 144: 0.0, 145: 0.0, 146: 0.0, 147: 0.0, 148: 1.0, 149: 0.0, 150: 0.0, 151: 0.0, 152: 1.0, 153: 0.0, 154: 1.0, 155: 0.0, 156: 1.0, 157: 0.0, 158: 0.0, 159: 0.0, 160: 1.0, 161: 0.0, 162: 1.0, 163: 0.0, 164: 1.0, 165: 1.0, 166: 0.0, 167: 1.0, 168: 1.0, 169: 0.0, 170: 0.0, 171: 0.0, 172: 0.0, 173: 0.0, 174: 1.0, 175: 1.0, 176: 0.0, 177: 0.0, 178: 1.0, 179: 1.0, 180: 0.0, 181: 1.0, 182: 0.0, 183: 1.0, 184: 1.0, 185: 1.0, 186: 0.0, 187: 0.0, 188: 1.0, 189: 1.0, 190: 1.0, 191: 1.0];
discharge = [0: 1.0, 1: 1.0, 2: 0.0, 3: 0.0, 4: 1.0, 5: 1.0, 6: 1.0, 7: 0.0, 8: 0.0, 9: 1.0, 10: 0.0, 11: 0.0, 12: 0.0, 13: 0.0, 14: 1.0, 15: 1.0, 16: 0.0, 17: 1.0, 18: 1.0, 19: 0.0, 20: 0.0, 21: 1.0, 22: 0.0, 23: 1.0, 24: 0.0, 25: 1.0, 26: 0.0, 27: 1.0, 28: 0.0, 29: 0.0, 30: 1.0, 31: 1.0, 32: 1.0, 33: 0.630041924, 34: 0.0, 35: 0.0, 36: 0.0, 37: 1.0, 38: 0.0, 39: 1.0, 40: 1.0, 41: 0.0, 42: 0.0, 43: 0.0, 44: 1.0, 45: 0.0, 46: 0.0, 47: 1.0, 48: 0.0, 49: 0.0, 50: 0.0, 51: 0.0, 52: 1.0, 53: 0.0, 54: 0.0, 55: 1.0, 56: 0.0, 57: 0.0, 58: 0.0, 59: 0.0, 60: 0.0, 61: 0.0, 62: 0.0, 63: 0.0, 64: 0.0, 65: 0.0, 66: 1.0, 67: 0.0, 68: 0.0, 69: 1.0, 70: 1.0, 71: 0.0, 72: 0.0, 73: 1.0, 74: 1.0, 75: 0.0, 76: 0.0, 77: 0.0, 78: 0.0, 79: 0.0, 80: 1.0, 81: 0.0, 82: 1.0, 83: 1.0, 84: 0.0, 85: 1.0, 86: 0.0, 87: 0.0, 88: 1.0, 89: 0.0, 90: 0.0, 91: 0.0, 92: 0.0, 93: 0.847937913, 94: 1.0, 95: 0.0, 96: 1.0, 97: 0.0, 98: 1.0, 99: 0.0, 100: 0.0, 101: 1.0, 102: 0.0, 103: 0.0, 104: 0.0, 105: 0.0, 106: 1.0, 107: 0.0, 108: 1.0, 109: 0.0, 110: 0.0, 111: 1.0, 112: 0.0, 113: 0.0, 114: 1.0, 115: 0.0, 116: 1.0, 117: 1.0, 118: 0.0, 119: 0.0, 120: 0.0, 121: 0.0, 122: 0.0, 123: 0.0, 124: 0.0, 125: 0.0, 126: 0.0, 127: 0.0, 128: 0.0, 129: 0.0, 130: 0.0, 131: 1.0, 132: 1.0, 133: 0.0, 134: 0.0, 135: 0.0, 136: 0.0, 137: 0.0, 138: 0.0, 139: 1.0, 140: 0.0, 141: 0.45064916, 142: 0.0, 143: 1.0, 144: 1.0, 145: 0.0, 146: 1.0, 147: 1.0, 148: 0.0, 149: 0.0, 150: 1.0, 151: 1.0, 152: 0.0, 153: 0.0, 154: 0.0, 155: 1.0, 156: 0.0, 157: 0.12181713, 158: 1.0, 159: 0.0, 160: 0.0, 161: 1.0, 162: 0.0, 163: 0.0, 164: 0.0, 165: 0.0, 166: 1.0, 167: 0.0, 168: 0.0, 169: 1.0, 170: 1.0, 171: 1.0, 172: 1.0, 173: 1.0, 174: 0.0, 175: 0.0, 176: 0.0, 177: 1.0, 178: 0.0, 179: 0.0, 180: 1.0, 181: 0.0, 182: 0.0, 183: 0.0, 184: 0.0, 185: 0.0, 186: 1.0, 187: 1.0, 188: 0.0, 189: 0.0, 190: 0.0, 191: 0.0];
soc = [0: 7.928214, 1: 6.926628357, 2: 6.925243032, 3: 7.823857983, 4: 6.822293211, 5: 5.820928753, 6: 4.819764567, 7: 5.718800614, 8: 6.617656854, 9: 5.616333323, 10: 6.515210056, 11: 6.513907014, 12: 7.412604232, 13: 8.311121712, 14: 7.309459487, 15: 6.307997595, 16: 7.206735996, 17: 6.205294649, 18: 5.20405359, 19: 6.103012779, 20: 7.001792176, 21: 6.000391818, 22: 6.89919174, 23: 5.897811901, 24: 6.796632339, 25: 5.795273012, 26: 6.694113958, 27: 5.692775135, 28: 6.59163658, 29: 6.590318253, 30: 5.589000189, 31: 4.587882389, 32: 3.586964813, 33: 2.956205496, 34: 3.855614254, 35: 4.754843132, 36: 4.753892163, 37: 3.752941385, 38: 4.652190796, 39: 3.651260358, 40: 2.650530106, 41: 2.65, 42: 3.54947, 43: 4.448760106, 44: 3.447870354, 45: 4.34718078, 46: 5.246311344, 47: 4.245262081, 48: 5.144413029, 49: 6.043384146, 50: 6.04217547, 51: 6.040967035, 52: 5.039758841, 53: 5.938750889, 54: 6.837563139, 55: 5.836195627, 56: 6.735028387, 57: 7.633681382, 58: 8.532154645, 59: 9.430448215, 60: 9.428562124999999, 61: 10.326676412, 62: 11.224611077, 63: 12.122366155, 64: 13.019941682, 65: 13.917337693, 66: 12.914554226, 67: 13.811971315, 68: 14.709208921, 69: 13.706267079, 70: 12.703525826, 71: 13.60098512, 72: 13.598264923, 73: 12.59554527, 74: 11.593026161, 75: 12.490707556, 76: 13.388209415, 77: 14.285531773, 78: 15.182674666, 79: 15.67, 80: 14.666866, 81: 15.563932627, 82: 14.56081984, 83: 13.557907676, 84: 13.555196095, 85: 12.552485056, 86: 12.549974559, 87: 13.447464564, 88: 12.444775071, 89: 12.442286116, 90: 13.339797658, 91: 14.237129699, 92: 15.134282273, 93: 14.283317503, 94: 13.28046084, 95: 13.277804747, 96: 12.275149186, 97: 12.272694157, 98: 11.270239618, 99: 12.16798557, 100: 13.065551973, 101: 12.062938862, 102: 12.960526275, 103: 13.857934169, 104: 13.855162583, 105: 13.85239155, 106: 12.849621072, 107: 12.847051147, 108: 11.844481737, 109: 11.842112841, 110: 12.739744418, 111: 11.737196469, 112: 11.73484903, 113: 11.73250206, 114: 10.73015556, 115: 11.628009529, 116: 10.625683927, 117: 9.623558790000001, 118: 10.521634078, 119: 10.519529752, 120: 10.517425846, 121: 11.41532236, 122: 11.413039296, 123: 11.410756688, 124: 12.308474537, 125: 13.206012842, 126: 13.203371639, 127: 13.200730965, 128: 14.098090819, 129: 14.995271201, 130: 14.992272146, 131: 13.989273692, 132: 12.986475837, 133: 12.983878542, 134: 12.981281766, 135: 13.87868551, 136: 14.775909773, 137: 14.772954591, 138: 15.67, 139: 14.666866, 140: 14.663932627, 141: 14.21035068, 142: 15.10750861, 143: 14.104487108, 144: 13.101666211, 145: 13.099045878, 146: 12.096426069, 147: 11.094006783, 148: 11.991787982, 149: 11.989389624, 150: 10.986991747, 151: 9.984794347999999, 152: 10.882797389, 153: 10.88062083, 154: 11.778444706, 155: 10.776089017, 156: 11.673933799, 157: 11.549781883, 158: 10.547471926, 159: 10.545362432, 160: 11.443253359, 161: 10.440964709, 162: 11.338876516, 163: 11.33660874, 164: 12.234341419, 165: 13.13189455, 166: 12.129268171, 167: 13.026842318, 168: 13.924236949, 169: 12.921452102, 170: 11.918867812, 171: 10.916484038, 172: 9.914300741, 173: 8.912317881, 174: 9.810535417000001, 175: 10.70857331, 176: 10.706431596, 177: 9.704290308999999, 178: 10.602349451, 179: 11.500228981, 180: 10.497928936, 181: 11.39582935, 182: 11.393550184, 183: 12.291271474, 184: 13.18881322, 185: 14.086175457, 186: 13.083358222, 187: 12.08074155, 188: 12.978325402, 189: 13.875729737, 190: 14.772954591, 191: 15.67];
cost = [0: 0.0, 1: 0.0, 2: 0.133381106, 3: 0.862337091, 4: 0.0, 5: 0.0, 6: 0.0, 7: 0.868140641, 8: 0.858366241, 9: 0.0, 10: 0.857633161, 11: 0.128982626, 12: 0.858977141, 13: 0.859588041, 14: 0.0, 15: 0.0, 16: 1.035954871, 17: 0.0, 18: 0.0, 19: 0.785852411, 20: 0.785058241, 21: 0.0, 22: 0.782309191, 23: 0.0, 24: 1.406676057, 25: 0.0, 26: 1.320430057, 27: 0.0, 28: 1.213009177, 29: 0.085812292, 30: 0.0, 31: 0.0, 32: 0.0, 33: 0.0, 34: 0.452378937, 35: 0.118178165, 36: 0.0, 37: 0.0, 38: 0.118178165, 39: 0.0, 40: 0.0, 41: 0.09687557199999999, 42: 1.404891657, 43: 1.406438137, 44: 0.0, 45: 0.118178165, 46: 1.408222537, 47: 0.0, 48: 1.400133257, 49: 1.399538457, 50: 0.0, 51: 0.09437741199999999, 52: 0.0, 53: 0.118178165, 54: 0.118178165, 55: 0.0, 56: 0.967106441, 57: 0.949390341, 58: 0.9500012410000001, 59: 0.932896041, 60: 0.0, 61: 0.334489577, 62: 0.610476777, 63: 0.564201337, 64: 1.408817337, 65: 1.407270857, 66: 0.0, 67: 1.145796777, 68: 1.284742057, 69: 0.0, 70: 0.0, 71: 1.408222537, 72: 0.086407092, 73: 0.0, 74: 0.0, 75: 1.395017977, 76: 1.394423177, 77: 1.396326537, 78: 1.394423177, 79: 0.799540275, 80: 0.0, 81: 1.393828377, 82: 0.0, 83: 0.0, 84: 0.109009492, 85: 0.0, 86: 0.109961172, 87: 1.416787657, 88: 0.0, 89: 0.152929906, 90: 0.924160171, 91: 0.9240379909999999, 92: 0.922938371, 93: 0.0, 94: 0.0, 95: 0.169302026, 96: 0.0, 97: 0.144866026, 98: 0.0, 99: 0.876082341, 100: 0.869179171, 101: 0.0, 102: 0.867651921, 103: 0.868140641, 104: 0.139795556, 105: 0.140284276, 106: 0.0, 107: 0.130693146, 108: 0.0, 109: 0.055674626, 110: 0.784447341, 111: 0.0, 112: 0.056774246, 113: 0.055552446, 114: 0.0, 115: 0.784630611, 116: 0.0, 117: 0.0, 118: 0.784447341, 119: 0.046694396, 120: 0.127448292, 121: 1.395969657, 122: 0.0, 123: 0.0, 124: 1.394780057, 125: 1.303418777, 126: 0.0, 127: 0.0, 128: 1.268920377, 129: 1.207893897, 130: 0.0, 131: 0.0, 132: 0.0, 133: 0.0, 134: 0.0, 135: 0.718492457, 136: 1.425709657, 137: 0.126615572, 138: 1.430705977, 139: 0.0, 140: 0.125663892, 141: 0.0, 142: 1.009944457, 143: 0.0, 144: 0.0, 145: 0.179790692, 146: 0.0, 147: 0.0, 148: 0.803263061, 149: 0.404681796, 150: 0.0, 151: 0.0, 152: 0.887872711, 153: 0.162765396, 154: 0.894531521, 155: 0.0, 156: 1.171135257, 157: 0.0, 158: 0.0, 159: 0.0, 160: 1.424876937, 161: 0.0, 162: 1.227998137, 163: 0.124117412, 164: 1.337084457, 165: 1.376698137, 166: 0.0, 167: 1.568104777, 168: 1.403702057, 169: 0.0, 170: 0.0, 171: 0.0, 172: 0.0, 173: 0.0, 174: 1.396921337, 175: 1.396326537, 176: 0.089975892, 177: 0.0, 178: 1.394423177, 179: 1.393590457, 180: 0.0, 181: 1.416192857, 182: 0.08664501199999999, 183: 1.418809977, 184: 0.786402221, 185: 0.884146221, 186: 0.0, 187: 0.0, 188: 0.919456241, 189: 0.918967521, 190: 0.898380191, 191: 0.8798699210000001];
earn = [0: 0.383063204, 1: 0.398652161, 2: 0.0, 3: 0.0, 4: 0.395109511, 5: 0.398456128, 6: 0.409551499, 7: 0.0, 8: 0.0, 9: 0.406714975, 10: 0.0, 11: 0.0, 12: 0.0, 13: 0.0, 14: 0.42000258, 15: 0.425634467, 16: 0.0, 17: 0.232934602, 18: 0.212088264, 19: 0.0, 20: 0.0, 21: 0.557244105, 22: 0.0, 23: 0.590575572, 24: 0.0, 25: 0.69738221, 26: 0.0, 27: 0.838886173, 28: 0.0, 29: 0.0, 30: 0.84228381, 31: 0.7523622170000001, 32: 0.654078636, 33: 0.349451533, 34: 0.0, 35: 0.00452273, 36: 0.498041897, 37: 0.970784125, 38: 0.0, 39: 0.842597365, 40: 0.277393426, 41: 0.0, 42: 0.0, 43: 0.0, 44: 0.180193347, 45: 0.027428684, 46: 0.0, 47: 0.033337894, 48: 0.0, 49: 0.0, 50: 0.026708469, 51: 0.0, 52: 0.123972964, 53: 0.019050391, 54: 0.023168031, 55: 0.070577548, 56: 0.0, 57: 0.0, 58: 0.0, 59: 0.0, 60: 0.448767273, 61: 0.0, 62: 0.0, 63: 0.0, 64: 0.0, 65: 0.0, 66: 0.553431515, 67: 0.0, 68: 0.0, 69: 0.67153171, 70: 0.721958266, 71: 0.0, 72: 0.0, 73: 0.917597688, 74: 0.94231149, 75: 0.0, 76: 0.0, 77: 0.0, 78: 0.0, 79: 0.0, 80: 0.778832373, 81: 0.0, 82: 0.721267375, 83: 0.702441061, 84: 0.0, 85: 0.62502635, 86: 0.0, 87: 0.0, 88: 0.600095843, 89: 0.0, 90: 0.0, 91: 0.0, 92: 0.0, 93: 0.303505264, 94: 0.417521065, 95: 0.0, 96: 0.52651247, 97: 0.0, 98: 0.490507843, 99: 0.0, 100: 0.0, 101: 0.480887911, 102: 0.0, 103: 0.0, 104: 0.0, 105: 0.0, 106: 0.481009623, 107: 0.0, 108: 0.577980677, 109: 0.0, 110: 0.0, 111: 0.588662138, 112: 0.0, 113: 0.0, 114: 0.595012431, 115: 0.0, 116: 0.618703946, 117: 0.63728924, 118: 0.0, 119: 0.0, 120: 0.0, 121: 0.0, 122: 0.009285532000000001, 123: 0.069164507, 124: 0.0, 125: 0.0, 126: 0.05921048, 127: 0.06561259799999999, 128: 0.0, 129: 0.0, 130: 0.113976799, 131: 0.835761302, 132: 0.9308533409999999, 133: 0.216960704, 134: 0.280916505, 135: 0.0, 136: 0.0, 137: 0.0, 138: 0.0, 139: 0.293892453, 140: 0.0, 141: 0.417171343, 142: 0.0, 143: 0.662833585, 144: 0.413195264, 145: 0.0, 146: 0.389153804, 147: 0.5606023020000001, 148: 0.0, 149: 0.0, 150: 0.266340271, 151: 0.39480832, 152: 0.0, 153: 0.0, 154: 0.0, 155: 0.275776616, 156: 0.0, 157: 0.0, 158: 0.700736861, 159: 0.06576567799999999, 160: 0.0, 161: 0.626182253, 162: 0.0, 163: 0.0, 164: 0.0, 165: 0.0, 166: 0.724642619, 167: 0.0, 168: 0.0, 169: 0.973999125, 170: 1.009663437, 171: 1.010893438, 172: 0.99425314, 173: 0.972986208, 174: 0.0, 175: 0.0, 176: 0.0, 177: 0.741687222, 178: 0.0, 179: 0.0, 180: 0.65370817, 181: 0.0, 182: 0.0, 183: 0.0, 184: 0.0, 185: 0.0, 186: 0.456705892, 187: 0.444098849, 188: 0.0, 189: 0.0, 190: 0.0, 191: 0.0];
total_cost = 90.635966934;
total_earn = 41.093940688;
% _objective = 49.54202624599999;