production = [0: 0.0, 1: 0.0, 2: 0.0, 3: 0.0, 4: 0.0, 5: 0.0, 6: 0.0, 7: 0.0, 8: 0.0, 9: 0.0, 10: 0.0, 11: 0.0, 12: 0.0, 13: 0.0, 14: 0.0, 15: 0.0, 16: 0.0, 17: 0.0, 18: 0.0, 19: 0.0, 20: 0.0, 21: 0.0, 22: 0.0, 23: 0.000429, 24: 0.0, 25: 9.6e-05, 26: 0.005282, 27: 0.025813, 28: 0.013845, 29: 0.013934, 30: 0.051892, 31: 0.02907, 32: 0.007068, 33: 8.3e-05, 34: 0.140182, 35: 0.040665, 36: 0.085677, 37: 0.035788, 38: 0.083858, 39: 0.01735, 40: 0.043648, 41: 0.226762, 42: 0.459816, 43: 0.511003, 44: 0.036295, 45: 0.200108, 46: 0.631477, 47: 0.43028, 48: 0.542623, 49: 0.117652, 50: 0.249314, 51: 0.263341, 52: 0.114539, 53: 0.149616, 54: 0.390158, 55: 0.89698, 56: 6e-06, 57: 1.425688, 58: 0.675121, 59: 1.428513, 60: 1.000108, 61: 0.357153, 62: 0.03792, 63: 0.40535, 64: 0.563706, 65: 0.124805, 66: 0.554191, 67: 0.263828, 68: 0.282762, 69: 0.248176, 70: 0.421969, 71: 0.251197, 72: 0.14933, 73: 0.069675, 74: 0.012256, 75: 0.039082, 76: 0.025589, 77: 0.016522, 78: 0.004755, 79: 0.000358, 80: 0.000184, 81: 0.0, 82: 0.0, 83: 0.0, 84: 0.0, 85: 0.0, 86: 0.0, 87: 0.0, 88: 0.0, 89: 0.0, 90: 0.0, 91: 0.0, 92: 0.0, 93: 0.0, 94: 0.0, 95: 0.0];
buy = [0: 431.415454, 1: 959.845134, 2: 133.422526, 3: 76.27567000000001, 4: 638.728697, 5: 82.717377, 6: 993.446205, 7: 110.160995, 8: 704.600357, 9: 760.8708810000001, 10: 206.961147, 11: 61.872827, 12: 284.432902, 13: 730.1111100000001, 14: 674.939069, 15: 492.346701, 16: 978.718629, 17: 560.511385, 18: 825.212029, 19: 46.844813, 20: 859.496761, 21: 635.09846, 22: 635.120465, 23: 641.83676, 24: 510.665412, 25: 492.314367, 26: 696.036308, 27: 135.746478, 28: 763.103009, 29: 370.030637, 30: 185.704118, 31: 480.876647, 32: 658.601978, 33: 255.392571, 34: 303.735893, 35: 926.608665, 36: 681.050593, 37: 849.760327, 38: 553.703363, 39: 861.973478, 40: 227.520136, 41: 808.718747, 42: 237.249363, 43: 219.561554, 44: 650.275942, 45: 429.73496, 46: 647.381893, 47: 297.996623, 48: 436.496473, 49: 948.793822, 50: 309.650357, 51: 480.181289, 52: 616.133814, 53: 306.586973, 54: 3.333389, 55: 149.502738, 56: 390.929638, 57: 957.883462, 58: 406.100947, 59: 986.227766, 60: 419.722958, 61: 417.876572, 62: 721.613861, 63: 404.803028, 64: 479.398805, 65: 56.051528, 66: 740.551335, 67: 852.289809, 68: 763.184395, 69: 109.955052, 70: 507.971084, 71: 865.053184, 72: 801.159432, 73: 5.260146, 74: 680.735312, 75: 575.585063, 76: 639.09205, 77: 303.546439, 78: 205.888015, 79: 508.083598, 80: 42.705335, 81: 101.470707, 82: 361.927436, 83: 809.237157, 84: 704.250827, 85: 910.981809, 86: 479.136687, 87: 471.954539, 88: 989.0717509999999, 89: 805.019062, 90: 817.089696, 91: 961.170421, 92: 116.805946, 93: 702.603041, 94: 566.754945, 95: 780.150984];
sell = [0: 3.66357, 1: 3.309307, 2: 0.957556, 3: 1.743106, 4: 0.6043770000000001, 5: 1.036663, 6: 2.626048, 7: 0.389144, 8: 3.551635, 9: 3.014445, 10: 0.098052, 11: 1.829768, 12: 3.781415, 13: 1.573657, 14: 0.440078, 15: 1.035115, 16: 1.494738, 17: 0.34938, 18: 3.535862, 19: 3.431406, 20: 2.791912, 21: 1.196406, 22: 1.130005, 23: 0.763926, 24: 1.580364, 25: 0.92587, 26: 2.800792, 27: 0.561392, 28: 0.870787, 29: 2.405625, 30: 0.8839669999999999, 31: 1.818714, 32: 3.950054, 33: 2.465619, 34: 2.717797, 35: 3.107027, 36: 0.682416, 37: 0.9649450000000001, 38: 0.981201, 39: 3.088744, 40: 3.587271, 41: 3.885303, 42: 3.960583, 43: 2.925415, 44: 1.968552, 45: 3.597822, 46: 1.801493, 47: 3.13209, 48: 0.179253, 49: 1.071163, 50: 2.244476, 51: 2.406932, 52: 3.711709, 53: 0.509895, 54: 3.871074, 55: 1.751967, 56: 2.063604, 57: 2.042223, 58: 3.8518, 59: 2.765595, 60: 0.400357, 61: 2.459108, 62: 0.339624, 63: 3.343051, 64: 3.926676, 65: 3.206559, 66: 1.874473, 67: 2.004313, 68: 2.639292, 69: 2.510657, 70: 0.576588, 71: 2.340419, 72: 0.762136, 73: 2.892809, 74: 2.353777, 75: 1.016304, 76: 1.312801, 77: 0.00252, 78: 3.168805, 79: 0.951466, 80: 1.729032, 81: 1.69585, 82: 0.382791, 83: 0.437835, 84: 1.029056, 85: 3.196414, 86: 1.50452, 87: 3.613009, 88: 3.696459, 89: 2.268785, 90: 0.829041, 91: 2.003908, 92: 3.851294, 93: 3.039372, 94: 0.277861, 95: 2.450853];
charge = [0: 0.308181, 1: 0.487497, 2: 0.1773, 3: 0.103313, 4: 0.960674, 5: 0.870736, 6: 0.487424, 7: 0.651425, 8: 0.956748, 9: 0.697176, 10: 0.762503, 11: 0.998393, 12: 0.268972, 13: 0.7196900000000001, 14: 0.6788459999999999, 15: 0.911651, 16: 0.245186, 17: 0.776621, 18: 0.925441, 19: 0.297739, 20: 0.053108, 21: 0.294383, 22: 0.08011600000000001, 23: 0.732699, 24: 0.370809, 25: 0.257743, 26: 0.735071, 27: 0.634452, 28: 0.9152400000000001, 29: 0.64882, 30: 0.051308, 31: 0.625219, 32: 0.422774, 33: 0.6002769999999999, 34: 0.9882919999999999, 35: 0.760085, 36: 0.5925820000000001, 37: 0.9545129999999999, 38: 0.722712, 39: 0.09254999999999999, 40: 0.372521, 41: 0.98686, 42: 0.211737, 43: 0.06336700000000001, 44: 0.999625, 45: 0.911399, 46: 0.313396, 47: 0.227309, 48: 0.604729, 49: 0.538476, 50: 0.645169, 51: 0.66029, 52: 0.456237, 53: 0.815587, 54: 0.58562, 55: 0.8821, 56: 0.184857, 57: 0.968042, 58: 0.431082, 59: 0.760487, 60: 0.22344, 61: 0.86294, 62: 0.289341, 63: 0.785252, 64: 0.35365, 65: 0.373982, 66: 0.959994, 67: 0.963238, 68: 0.7606540000000001, 69: 0.31935, 70: 0.675868, 71: 0.395796, 72: 0.271266, 73: 0.08561000000000001, 74: 0.986046, 75: 0.407102, 76: 0.001189, 77: 0.229692, 78: 0.777295, 79: 0.156975, 80: 0.611973, 81: 0.811407, 82: 0.859511, 83: 0.916194, 84: 0.408673, 85: 0.345861, 86: 0.331231, 87: 0.303192, 88: 0.001863, 89: 0.61803, 90: 0.634836, 91: 0.561578, 92: 0.53779, 93: 0.215007, 94: 0.317744, 95: 0.769801];
discharge = [0: 0.723859, 1: 0.92113, 2: 0.467971, 3: 0.161086, 4: 0.331396, 5: 0.420478, 6: 0.320542, 7: 0.382289, 8: 0.850727, 9: 0.830189, 10: 0.52102, 11: 0.858054, 12: 0.4353, 13: 0.911251, 14: 0.970042, 15: 0.856887, 16: 0.777459, 17: 0.618694, 18: 0.33874, 19: 0.415938, 20: 0.200863, 21: 0.483633, 22: 0.774909, 23: 0.286332, 24: 0.400353, 25: 0.282627, 26: 0.168735, 27: 0.673278, 28: 0.357498, 29: 0.040497, 30: 0.602904, 31: 0.136575, 32: 0.251904, 33: 0.366247, 34: 0.746318, 35: 0.368427, 36: 0.426285, 37: 0.198718, 38: 0.845853, 39: 0.514721, 40: 0.462223, 41: 0.128307, 42: 0.167239, 43: 0.948774, 44: 0.52744, 45: 0.968452, 46: 0.291421, 47: 0.026247, 48: 0.807127, 49: 0.643028, 50: 0.055716, 51: 0.217331, 52: 0.006469, 53: 0.275331, 54: 0.84337, 55: 0.037926, 56: 0.584159, 57: 0.417293, 58: 0.939522, 59: 0.620157, 60: 0.140968, 61: 0.483597, 62: 0.681144, 63: 0.318214, 64: 0.260611, 65: 0.96613, 66: 0.334924, 67: 0.445895, 68: 0.635749, 69: 0.338947, 70: 0.210919, 71: 0.86657, 72: 0.649608, 73: 0.467932, 74: 0.660067, 75: 0.725382, 76: 0.930508, 77: 0.191108, 78: 0.019215, 79: 0.379102, 80: 0.380442, 81: 0.285832, 82: 0.07255300000000001, 83: 0.518751, 84: 0.080134, 85: 0.318198, 86: 0.437973, 87: 0.368959, 88: 0.851845, 89: 0.156939, 90: 0.175742, 91: 0.938042, 92: 0.044373, 93: 0.487603, 94: 0.7379559999999999, 95: 0.242586];
soc = [0: 9.800564, 1: 11.493657, 2: 12.673672, 3: 12.883801, 4: 12.042358, 5: 10.045582, 6: 11.517325, 7: 12.306953, 8: 9.134026, 9: 14.755837, 10: 4.093306, 11: 6.281734, 12: 13.060149, 13: 11.200403, 14: 9.186866999999999, 15: 7.518139, 16: 2.691192, 17: 4.627935, 18: 10.375415, 19: 10.488192, 20: 11.943861, 21: 13.383906, 22: 10.035765, 23: 11.376197, 24: 6.96939, 25: 14.188796, 26: 12.273702, 27: 14.094441, 28: 8.060283999999999, 29: 9.213779000000001, 30: 15.237602, 31: 11.683917, 32: 3.881097, 33: 11.383891, 34: 6.513121, 35: 8.911128, 36: 9.913952, 37: 13.973534, 38: 2.856188, 39: 5.933156, 40: 7.85957, 41: 4.606964, 42: 10.148921, 43: 9.217848999999999, 44: 14.190605, 45: 10.087312, 46: 11.908881, 47: 11.426793, 48: 5.113587, 49: 13.896311, 50: 13.739469, 51: 4.505824, 52: 9.127095000000001, 53: 5.169661, 54: 13.468264, 55: 2.90862, 56: 11.124097, 57: 6.990225, 58: 12.292422, 59: 12.39876, 60: 10.477226, 61: 9.295026, 62: 8.959536, 63: 7.028377, 64: 12.263549, 65: 12.693575, 66: 2.937311, 67: 5.816323, 68: 10.586202, 69: 12.987007, 70: 13.894389, 71: 2.832747, 72: 11.413668, 73: 5.507146, 74: 3.575825, 75: 15.316049, 76: 5.809884, 77: 5.877993, 78: 11.684015, 79: 2.745954, 80: 6.491991, 81: 8.598276, 82: 7.653049, 83: 8.431837, 84: 4.012251, 85: 14.510583, 86: 5.891306, 87: 10.713615, 88: 3.071683, 89: 8.448385999999999, 90: 13.797075, 91: 3.205103, 92: 13.914505, 93: 8.184526999999999, 94: 12.025892, 95: 12.542995];
cost = [0: 569.166633, 1: 475.738799, 2: 158.38387, 3: 211.710848, 4: 412.987699, 5: 23.271012, 6: 137.519754, 7: 399.247491, 8: 534.335204, 9: 237.835661, 10: 534.670344, 11: 324.400754, 12: 48.632415, 13: 110.139826, 14: 592.703542, 15: 562.501276, 16: 228.200613, 17: 62.838202, 18: 367.876604, 19: 500.272979, 20: 318.593826, 21: 337.787527, 22: 479.144378, 23: 276.135609, 24: 329.387662, 25: 528.189522, 26: 476.017821, 27: 666.864851, 28: 960.4319369999999, 29: 875.648927, 30: 1059.824573, 31: 372.638852, 32: 386.194791, 33: 748.290355, 34: 130.299159, 35: 226.986038, 36: 330.100766, 37: 392.820969, 38: 672.9160900000001, 39: 266.372186, 40: 355.887471, 41: 600.164001, 42: 49.713304, 43: 973.520441, 44: 685.956221, 45: 264.346863, 46: 720.3050459999999, 47: 499.963522, 48: 505.87854, 49: 1082.841184, 50: 701.731809, 51: 20.50033, 52: 525.888074, 53: 477.764588, 54: 366.75369, 55: 176.540517, 56: 413.064451, 57: 281.084085, 58: 292.742688, 59: 236.359277, 60: 527.159853, 61: 254.226817, 62: 464.595562, 63: 1145.511814, 64: 945.706955, 65: 844.844121, 66: 241.282205, 67: 616.90823, 68: 746.917406, 69: 911.434047, 70: 532.9748039999999, 71: 994.466708, 72: 325.840927, 73: 576.5658969999999, 74: 212.689349, 75: 646.883495, 76: 1.583659, 77: 59.703859, 78: 81.08268099999999, 79: 170.481683, 80: 247.747616, 81: 582.856233, 82: 205.028194, 83: 7.010699, 84: 954.107698, 85: 1177.974468, 86: 296.076392, 87: 14.153627, 88: 509.159583, 89: 444.715791, 90: 308.306504, 91: 215.261619, 92: 596.612088, 93: 261.23473, 94: 255.089809, 95: 393.779309];
earn = [0: 0.617803, 1: 1.306672, 2: 0.086993, 3: 0.057278, 4: 1.790871, 5: 1.951879, 6: 0.347879, 7: 0.800787, 8: 0.584584, 9: 0.90585, 10: 0.797811, 11: 1.576302, 12: 0.111247, 13: 1.079374, 14: 0.726148, 15: 0.332907, 16: 0.023938, 17: 0.501985, 18: 0.213932, 19: 0.31612, 20: 1.150331, 21: 0.880168, 22: 0.714461, 23: 0.999807, 24: 0.353534, 25: 0.702107, 26: 0.336811, 27: 0.117159, 28: 1.072654, 29: 1.085877, 30: 0.597726, 31: 0.885092, 32: 0.15879, 33: 0.114221, 34: 0.779269, 35: 0.074006, 36: 0.338319, 37: 0.068199, 38: 0.160357, 39: 0.085802, 40: 0.05357, 41: 0.04389, 42: 0.015769, 43: 0.02917, 44: 0.00602, 45: 0.017193, 46: 0.010108, 47: 2e-05, 48: 0.004181, 49: -0.003854, 50: -0.003365, 51: -0.001808, 52: -0.005703, 53: -0.008168999999999999, 54: -0.007901, 55: -0.000223, 56: -0.015308, 57: -0.00058, 58: -0.012464, 59: -0.005619, 60: -0.000356, 61: -0.000929, 62: -0.003301, 63: -0.002117, 64: 0.000614, 65: 0.01848, 66: 0.016858, 67: 0.298427, 68: 0.651058, 69: 0.467224, 70: 0.242177, 71: 1.167102, 72: 1.452011, 73: 1.435138, 74: 2.038265, 75: 0.702132, 76: 2.38301, 77: 1.796298, 78: 1.57944, 79: 0.94111, 80: 0.045117, 81: 1.159148, 82: 2.408424, 83: 2.207587, 84: 1.921144, 85: 0.628004, 86: 0.166627, 87: 0.848072, 88: 0.8702569999999999, 89: 0.429869, 90: 1.725841, 91: 1.508418, 92: 1.367857, 93: 0.184858, 94: 0.339113, 95: 1.782614];
total_cost = 48.18012112814793;
total_earn = 6.462287715000008;
