production = [0: 0.0, 1: 0.0, 2: 0.0, 3: 0.0, 4: 0.0, 5: 0.0, 6: 0.0, 7: 0.0, 8: 0.0, 9: 0.0, 10: 0.0, 11: 0.0, 12: 0.0, 13: 0.0, 14: 0.0, 15: 0.0, 16: 0.0, 17: 0.0, 18: 0.0, 19: 0.0, 20: 0.0, 21: 0.0, 22: 0.0, 23: 0.000336, 24: 0.0, 25: 0.00101, 26: 0.005374, 27: 0.017625, 28: 0.044216, 29: 0.019746, 30: 0.02044, 31: 0.039573, 32: 0.028648, 33: 0.009112, 34: 0.022052, 35: 0.095654, 36: 0.070049, 37: 0.036133, 38: 0.01107, 39: 0.10296, 40: 0.420552, 41: 0.062847, 42: 0.318555, 43: 0.494527, 44: 0.861333, 45: 0.265055, 46: 0.427696, 47: 0.570597, 48: 0.199738, 49: 0.074863, 50: 0.21947, 51: 1.179201, 52: 0.110862, 53: 0.479504, 54: 0.458025, 55: 0.5960800000000001, 56: 0.089102, 57: 0.846994, 58: 0.79127, 59: 1.443222, 60: 0.195874, 61: 0.251121, 62: 0.608411, 63: 0.07070799999999999, 64: 0.216882, 65: 0.9143520000000001, 66: 1.033178, 67: 0.523956, 68: 0.112535, 69: 0.18666, 70: 0.06360200000000001, 71: 0.09927, 72: 0.177021, 73: 0.190692, 74: 0.011317, 75: 0.045729, 76: 0.024861, 77: 0.013807, 78: 0.004438, 79: 0.000563, 80: 0.000425, 81: 0.0, 82: 0.0, 83: 0.0, 84: 0.0, 85: 0.0, 86: 0.0, 87: 0.0, 88: 0.0, 89: 0.0, 90: 0.0, 91: 0.0, 92: 0.0, 93: 0.0, 94: 0.0, 95: 0.0];
buy = [0: 730.159756, 1: 253.387832, 2: 755.76375, 3: 414.706731, 4: 37.826709, 5: 619.77574, 6: 324.575107, 7: 35.744575, 8: 792.849993, 9: 855.655638, 10: 977.3777, 11: 744.3985719999999, 12: 993.418038, 13: 672.644954, 14: 638.414627, 15: 429.014156, 16: 966.84367, 17: 420.911281, 18: 466.11159, 19: 465.343391, 20: 951.923537, 21: 116.132568, 22: 388.858739, 23: 565.6487, 24: 650.988482, 25: 292.342409, 26: 499.876173, 27: 441.020016, 28: 220.356859, 29: 877.279592, 30: 611.36647, 31: 659.435393, 32: 964.183462, 33: 291.061607, 34: 694.160995, 35: 342.619968, 36: 74.02390800000001, 37: 334.679071, 38: 811.530856, 39: 85.315819, 40: 312.10675, 41: 2.146322, 42: 790.885672, 43: 480.407823, 44: 943.920201, 45: 58.119386, 46: 739.37636, 47: 836.816007, 48: 148.406581, 49: 761.658733, 50: 184.635661, 51: 332.829562, 52: 90.63897, 53: 345.814378, 54: 693.7271480000001, 55: 861.797417, 56: 846.915753, 57: 765.069115, 58: 191.159759, 59: 853.846449, 60: 608.502381, 61: 83.615786, 62: 420.393824, 63: 735.082271, 64: 339.741842, 65: 921.11265, 66: 389.507596, 67: 511.398524, 68: 786.715115, 69: 831.900615, 70: 831.529484, 71: 500.768279, 72: 963.502747, 73: 252.060382, 74: 663.697409, 75: 944.62116, 76: 327.355554, 77: 686.493891, 78: 29.571716, 79: 192.112446, 80: 259.007296, 81: 623.4629210000001, 82: 412.659556, 83: 35.321879, 84: 166.966436, 85: 975.67115, 86: 405.040583, 87: 451.262287, 88: 49.56388, 89: 303.260091, 90: 510.022044, 91: 242.550486, 92: 735.6445629999999, 93: 740.701453, 94: 273.668251, 95: 993.62677];
sell = [0: 0.034613, 1: 3.290185, 2: 2.102374, 3: 3.296558, 4: 2.300907, 5: 2.039499, 6: 0.021568, 7: 0.175368, 8: 3.714618, 9: 3.220866, 10: 2.945323, 11: 1.515126, 12: 2.459329, 13: 3.336947, 14: 3.338004, 15: 2.390884, 16: 2.959621, 17: 0.344299, 18: 0.397864, 19: 3.062071, 20: 1.511365, 21: 1.222528, 22: 3.226952, 23: 2.75683, 24: 1.05821, 25: 0.685395, 26: 2.910863, 27: 1.740279, 28: 2.100577, 29: 3.611439, 30: 3.725494, 31: 3.75034, 32: 1.019732, 33: 2.187323, 34: 0.944256, 35: 1.479046, 36: 2.801407, 37: 1.082584, 38: 2.016089, 39: 2.566596, 40: 3.376081, 41: 1.355801, 42: 0.510502, 43: 1.24384, 44: 2.390657, 45: 1.306936, 46: 0.221498, 47: 3.562132, 48: 2.58401, 49: 2.44024, 50: 3.005495, 51: 0.048534, 52: 2.315471, 53: 2.674872, 54: 3.243226, 55: 3.894795, 56: 3.174741, 57: 2.119433, 58: 3.557811, 59: 2.22038, 60: 0.037137, 61: 1.417387, 62: 0.858992, 63: 3.723382, 64: 0.6409820000000001, 65: 3.888645, 66: 1.618784, 67: 3.525334, 68: 1.967917, 69: 3.75556, 70: 1.251503, 71: 0.478057, 72: 2.028501, 73: 2.778144, 74: 2.479268, 75: 2.878186, 76: 2.880507, 77: 3.141995, 78: 3.554132, 79: 3.450705, 80: 0.446739, 81: 1.641591, 82: 3.007023, 83: 1.108949, 84: 2.684014, 85: 3.814213, 86: 2.474372, 87: 2.252545, 88: 3.531062, 89: 0.129633, 90: 0.204682, 91: 1.103786, 92: 0.322983, 93: 0.197255, 94: 0.424127, 95: 1.006959];
charge = [0: 0.769106, 1: 0.63322, 2: 0.32017, 3: 0.44152, 4: 0.004589, 5: 0.373883, 6: 0.892438, 7: 0.056345, 8: 0.7988229999999999, 9: 0.67581, 10: 0.851016, 11: 0.573134, 12: 0.435958, 13: 0.169471, 14: 0.98024, 15: 0.114331, 16: 0.191098, 17: 0.300955, 18: 0.788792, 19: 0.297969, 20: 0.18042, 21: 0.798056, 22: 0.0066, 23: 0.2386, 24: 0.138663, 25: 0.8302659999999999, 26: 0.707257, 27: 0.49782, 28: 0.901712, 29: 0.374671, 30: 0.467891, 31: 0.424796, 32: 0.523217, 33: 0.329777, 34: 0.324169, 35: 0.880278, 36: 0.901519, 37: 0.595522, 38: 0.249565, 39: 0.984774, 40: 0.417869, 41: 0.199776, 42: 0.171322, 43: 0.513532, 44: 0.496376, 45: 0.693358, 46: 0.303241, 47: 0.889109, 48: 0.828575, 49: 0.781714, 50: 0.311942, 51: 0.803253, 52: 0.419918, 53: 0.097278, 54: 0.56158, 55: 0.828747, 56: 0.022461, 57: 0.598286, 58: 0.401073, 59: 0.593889, 60: 0.192754, 61: 0.933324, 62: 0.758351, 63: 0.292652, 64: 0.788057, 65: 0.682528, 66: 0.170746, 67: 0.627244, 68: 0.69623, 69: 0.009838, 70: 0.127419, 71: 0.617475, 72: 0.829627, 73: 0.2148, 74: 0.903039, 75: 0.204017, 76: 0.05837, 77: 0.589475, 78: 0.120756, 79: 0.478722, 80: 0.627664, 81: 0.707387, 82: 0.74827, 83: 0.307721, 84: 0.350771, 85: 0.353568, 86: 0.312762, 87: 0.232937, 88: 0.017607, 89: 0.634479, 90: 0.6628579999999999, 91: 0.777378, 92: 0.629684, 93: 0.815388, 94: 0.29665, 95: 0.610887];
discharge = [0: 0.570578, 1: 0.075044, 2: 0.255313, 3: 0.245252, 4: 0.376559, 5: 0.973932, 6: 0.153635, 7: 0.475408, 8: 0.485954, 9: 0.390023, 10: 0.144033, 11: 0.318052, 12: 0.198748, 13: 0.015739, 14: 0.823364, 15: 0.708808, 16: 0.876579, 17: 0.932744, 18: 0.113137, 19: 0.464897, 20: 0.187401, 21: 0.656809, 22: 0.5924739999999999, 23: 0.280733, 24: 0.100473, 25: 0.992331, 26: 0.550661, 27: 0.109017, 28: 0.308851, 29: 0.640227, 30: 0.267389, 31: 0.099589, 32: 0.356468, 33: 0.0274, 34: 0.019138, 35: 0.38772, 36: 0.188391, 37: 0.164632, 38: 0.512512, 39: 0.805997, 40: 0.574079, 41: 0.858228, 42: 0.86639, 43: 0.168865, 44: 0.36223, 45: 0.628816, 46: 0.964947, 47: 0.143675, 48: 0.035431, 49: 0.010632, 50: 0.304658, 51: 0.906311, 52: 0.073725, 53: 0.921937, 54: 0.270742, 55: 0.984637, 56: 0.966214, 57: 0.811118, 58: 0.6030450000000001, 59: 0.795218, 60: 0.481031, 61: 0.353804, 62: 0.358082, 63: 0.377278, 64: 0.9846240000000001, 65: 0.398998, 66: 0.047526, 67: 0.713407, 68: 0.938039, 69: 0.718926, 70: 0.561364, 71: 0.771333, 72: 0.8684539999999999, 73: 0.425695, 74: 0.518972, 75: 0.333988, 76: 0.212433, 77: 0.949614, 78: 0.7286319999999999, 79: 0.139836, 80: 0.5904509999999999, 81: 0.048387, 82: 0.215199, 83: 0.261108, 84: 0.242326, 85: 0.554651, 86: 0.391669, 87: 0.9848519999999999, 88: 0.468324, 89: 0.63916, 90: 0.9836549999999999, 91: 0.243354, 92: 0.610166, 93: 0.8978739999999999, 94: 0.14633, 95: 0.988843];
soc = [0: 9.479751, 1: 10.072779, 2: 9.530536, 3: 8.77373, 4: 7.46941, 5: 14.028997, 6: 10.373122, 7: 13.709325, 8: 3.972956, 9: 9.167446, 10: 13.14535, 11: 7.656346, 12: 8.057751, 13: 5.485888, 14: 6.931932, 15: 5.330167, 16: 14.441948, 17: 8.885695999999999, 18: 14.352055, 19: 12.47638, 20: 13.629887, 21: 9.4976, 22: 3.982336, 23: 12.741813, 24: 5.314495, 25: 5.255801, 26: 12.661886, 27: 14.516634, 28: 3.004107, 29: 14.830355, 30: 3.499599, 31: 14.338564, 32: 3.425459, 33: 4.708659, 34: 7.604303, 35: 3.994, 36: 7.335014, 37: 3.034639, 38: 4.714119, 39: 6.932979, 40: 12.943342, 41: 8.073255, 42: 9.339354, 43: 5.798645, 44: 13.41324, 45: 13.443746, 46: 14.25208, 47: 5.761128, 48: 6.358728, 49: 10.402477, 50: 4.291285, 51: 15.28559, 52: 9.003468, 53: 15.115429, 54: 11.917438, 55: 11.619885, 56: 7.980831, 57: 3.897435, 58: 5.39718, 59: 14.693018, 60: 6.621004, 61: 5.899433, 62: 8.265165, 63: 9.935708999999999, 64: 10.554533, 65: 8.22442, 66: 9.754049999999999, 67: 11.178062, 68: 7.051932, 69: 12.103909, 70: 11.581492, 71: 12.778409, 72: 5.816708, 73: 5.578559, 74: 9.139684000000001, 75: 2.941409, 76: 12.406835, 77: 12.745141, 78: 11.095319, 79: 9.120711999999999, 80: 7.530561, 81: 11.635084, 82: 7.644322, 83: 7.064281, 84: 13.06101, 85: 7.303564, 86: 6.835089, 87: 10.353263, 88: 7.151963, 89: 7.287797, 90: 3.538924, 91: 7.689323, 92: 5.667896, 93: 10.190902, 94: 13.451985, 95: 12.183996];
cost = [0: 424.350884, 1: 395.71626, 2: 323.197454, 3: 471.855353, 4: 399.29039, 5: 105.879338, 6: 322.895937, 7: 148.755916, 8: 489.860403, 9: 185.468252, 10: 48.667485, 11: 221.937713, 12: 183.740558, 13: 96.38472899999999, 14: 347.188534, 15: 575.392805, 16: 380.275726, 17: 69.57387199999999, 18: 323.069687, 19: 607.485537, 20: 449.126661, 21: 76.12527, 22: 84.845859, 23: 571.075031, 24: 614.336694, 25: 377.426605, 26: 1018.05014, 27: 832.249226, 28: 402.577887, 29: 911.703717, 30: 59.935791, 31: 472.573672, 32: 544.5950759999999, 33: 511.349574, 34: 788.034961, 35: 643.469431, 36: 846.1171409999999, 37: 615.814556, 38: 723.512157, 39: 502.433905, 40: 1081.369818, 41: 1006.889601, 42: 651.845118, 43: 1139.764897, 44: 153.979686, 45: 1159.957076, 46: 73.178696, 47: 343.723738, 48: 720.986938, 49: 663.1868480000001, 50: 848.434152, 51: 722.309986, 52: 167.556004, 53: 69.19174700000001, 54: 303.515137, 55: 484.24367, 56: 479.202677, 57: 71.20323999999999, 58: 491.375114, 59: 334.280874, 60: 879.474585, 61: 664.998963, 62: 71.426715, 63: 651.941084, 64: 148.116379, 65: 932.3451700000001, 66: 875.495399, 67: 851.770788, 68: 96.553692, 69: 301.941955, 70: 95.012395, 71: 244.164363, 72: 333.591091, 73: 646.201807, 74: 1101.483006, 75: 773.768165, 76: 837.421643, 77: 258.766178, 78: 114.175689, 79: 578.053137, 80: 560.7810490000001, 81: 925.605268, 82: 553.2292189999999, 83: 850.074439, 84: 790.202096, 85: 372.234844, 86: 333.208483, 87: 390.008794, 88: 510.69672, 89: 364.499761, 90: 524.989422, 91: 10.036362, 92: 125.228695, 93: 228.626224, 94: 137.654686, 95: 64.573397];
earn = [0: 0.09665, 1: 0.181598, 2: 1.231594, 3: 0.123107, 4: 0.248862, 5: 0.774525, 6: 1.641206, 7: 1.904033, 8: 0.172614, 9: 0.90352, 10: 0.699479, 11: 1.35127, 12: 1.185218, 13: 0.742882, 14: 1.240282, 15: 1.495063, 16: 0.657278, 17: 1.155816, 18: 0.255143, 19: 0.454356, 20: 0.895077, 21: 0.6729270000000001, 22: 0.636082, 23: 0.42681, 24: 0.05903, 25: 0.310021, 26: 0.923883, 27: 1.053166, 28: 1.097474, 29: 0.347584, 30: 0.223864, 31: 0.319979, 32: 0.559333, 33: 0.655272, 34: 0.7130649999999999, 35: 0.665119, 36: 0.147499, 37: 0.351843, 38: 0.235028, 39: 0.229489, 40: 0.005923, 41: 0.012666, 42: 0.028264, 43: 0.011878, 44: 0.006226, 45: 0.000778, 46: 0.003475, 47: 0.002901, 48: 0.006715, 49: -0.001634, 50: -0.002643, 51: -0.003631, 52: -0.000392, 53: -0.00611, 54: -0.007329, 55: -0.005235, 56: -0.00251, 57: -0.02056, 58: -0.011771, 59: -0.019779, 60: -0.003259, 61: -0.003029, 62: -0.000954, 63: -0.000518, 64: 0.001357, 65: 0.010101, 66: 0.049113, 67: 0.076548, 68: 0.594835, 69: 0.001987, 70: 0.352983, 71: 0.73868, 72: 0.854226, 73: 0.547665, 74: 2.053279, 75: 2.296661, 76: 1.782061, 77: 0.069979, 78: 0.882974, 79: 2.185119, 80: 0.494417, 81: 1.262253, 82: 0.471971, 83: 1.073597, 84: 0.95275, 85: 1.88507, 86: 1.238949, 87: 0.166105, 88: 0.292536, 89: 0.07033, 90: 0.861327, 91: 0.938202, 92: 1.588541, 93: 1.344309, 94: 0.231304, 95: 1.09246];
total_cost = 53.12158404045474;
total_earn = 8.833827492950801;
