production = [0: 0.0, 1: 0.0, 2: 0.0, 3: 0.0, 4: 0.0, 5: 0.0, 6: 0.0, 7: 0.0, 8: 0.0, 9: 0.0, 10: 0.0, 11: 0.0, 12: 0.0, 13: 0.0, 14: 0.0, 15: 0.0, 16: 0.0, 17: 0.0, 18: 0.0, 19: 0.0, 20: 0.0, 21: 0.0, 22: 0.0, 23: 0.000136, 24: 0.0, 25: 0.000327, 26: 0.003958, 27: 0.023808, 28: 0.026037, 29: 0.014345, 30: 0.033086, 31: 0.03853, 32: 0.048078, 33: 0.074355, 34: 0.058118, 35: 0.145093, 36: 0.06361600000000001, 37: 0.137427, 38: 0.020932, 39: 0.083479, 40: 0.129544, 41: 0.285314, 42: 0.581961, 43: 0.257353, 44: 0.86414, 45: 0.09034, 46: 0.359469, 47: 0.645908, 48: 0.617048, 49: 0.682619, 50: 0.43315, 51: 0.96602, 52: 0.656511, 53: 0.282572, 54: 0.706636, 55: 1.374988, 56: 0.07803599999999999, 57: 0.725365, 58: 0.672098, 59: 0.231126, 60: 0.8286, 61: 0.463067, 62: 0.376273, 63: 0.400321, 64: 0.174321, 65: 0.8732799999999999, 66: 0.203925, 67: 0.054041, 68: 0.310733, 69: 0.34524, 70: 0.481537, 71: 0.489571, 72: 0.028163, 73: 0.206125, 74: 0.049079, 75: 0.018868, 76: 0.037451, 77: 0.005252, 78: 0.004967, 79: 0.000566, 80: 8.899999999999999e-05, 81: 0.0, 82: 0.0, 83: 0.0, 84: 0.0, 85: 0.0, 86: 0.0, 87: 0.0, 88: 0.0, 89: 0.0, 90: 0.0, 91: 0.0, 92: 0.0, 93: 0.0, 94: 0.0, 95: 0.0];
buy = [0: 985.954119, 1: 649.760977, 2: 266.720262, 3: 180.338688, 4: 840.286825, 5: 893.44293, 6: 488.318102, 7: 8.740031999999999, 8: 8.983355, 9: 894.1698280000001, 10: 936.5903520000001, 11: 101.674225, 12: 154.53441, 13: 825.797953, 14: 59.680616, 15: 441.163803, 16: 587.877333, 17: 602.054572, 18: 137.98928, 19: 49.282719, 20: 710.178393, 21: 735.452531, 22: 978.199349, 23: 290.978099, 24: 492.58925, 25: 774.0885479999999, 26: 704.522351, 27: 732.4386929999999, 28: 915.579464, 29: 155.937896, 30: 63.518384, 31: 410.066054, 32: 396.375536, 33: 729.442725, 34: 997.9577410000001, 35: 656.872523, 36: 482.134982, 37: 506.529499, 38: 963.417535, 39: 113.443419, 40: 583.7854160000001, 41: 612.0033519999999, 42: 484.666638, 43: 57.673212, 44: 16.128044, 45: 562.458739, 46: 157.754328, 47: 493.77252, 48: 600.608186, 49: 907.188036, 50: 224.078364, 51: 946.656554, 52: 366.029572, 53: 574.951688, 54: 839.862839, 55: 828.853269, 56: 298.9997, 57: 616.974693, 58: 50.105981, 59: 487.349319, 60: 321.420977, 61: 11.305091, 62: 20.173644, 63: 996.75327, 64: 381.998229, 65: 828.867598, 66: 403.229575, 67: 749.665663, 68: 888.414566, 69: 241.460119, 70: 94.45666300000001, 71: 313.35542, 72: 240.172565, 73: 799.4845, 74: 485.163415, 75: 382.16316, 76: 430.988579, 77: 903.694331, 78: 91.331242, 79: 803.807592, 80: 164.058968, 81: 980.141836, 82: 600.406784, 83: 736.478561, 84: 590.143285, 85: 5.986038, 86: 599.70242, 87: 713.130166, 88: 487.071499, 89: 380.63948, 90: 272.460552, 91: 673.772981, 92: 581.590946, 93: 600.569652, 94: 166.240288, 95: 30.546555];
sell = [0: 3.245682, 1: 2.209893, 2: 3.34919, 3: 1.137604, 4: 1.906857, 5: 2.186031, 6: 2.78715, 7: 1.871649, 8: 1.085458, 9: 0.685293, 10: 3.308699, 11: 3.929294, 12: 2.90194, 13: 3.450851, 14: 3.11666, 15: 1.197915, 16: 3.302195, 17: 2.56507, 18: 1.980972, 19: 2.251769, 20: 0.624512, 21: 3.32094, 22: 0.704911, 23: 1.898872, 24: 3.643888, 25: 0.661327, 26: 0.755431, 27: 0.333886, 28: 2.540386, 29: 3.817061, 30: 3.376854, 31: 2.321917, 32: 2.300736, 33: 2.628942, 34: 1.23673, 35: 0.89455, 36: 2.636026, 37: 3.367141, 38: 1.874528, 39: 3.462065, 40: 2.195186, 41: 0.24487, 42: 3.777986, 43: 0.45069, 44: 0.323462, 45: 0.478681, 46: 0.248753, 47: 0.96527, 48: 0.316368, 49: 0.895104, 50: 3.763361, 51: 0.543902, 52: 3.982609, 53: 2.609461, 54: 3.762213, 55: 0.480703, 56: 0.94892, 57: 3.85003, 58: 2.355629, 59: 3.480331, 60: 0.137252, 61: 0.148975, 62: 1.407893, 63: 3.467744, 64: 0.286693, 65: 1.226546, 66: 3.618736, 67: 3.211787, 68: 0.279141, 69: 0.237495, 70: 0.050978, 71: 0.427248, 72: 1.788435, 73: 2.45682, 74: 0.634154, 75: 3.894513, 76: 2.679473, 77: 0.783903, 78: 3.372648, 79: 2.299094, 80: 2.29175, 81: 0.6626379999999999, 82: 2.422718, 83: 2.090524, 84: 1.663103, 85: 0.575492, 86: 1.650984, 87: 2.574674, 88: 2.83227, 89: 2.318753, 90: 3.294204, 91: 0.67803, 92: 3.940392, 93: 2.87862, 94: 2.341385, 95: 0.878665];
charge = [0: 0.744994, 1: 0.024062, 2: 0.98974, 3: 0.54536, 4: 0.216056, 5: 0.134816, 6: 0.03216, 7: 0.979593, 8: 0.829569, 9: 0.133341, 10: 0.409701, 11: 0.174336, 12: 0.84334, 13: 0.767567, 14: 0.43664, 15: 0.166432, 16: 0.130136, 17: 0.25385, 18: 0.152139, 19: 0.560824, 20: 0.448679, 21: 0.62931, 22: 0.085176, 23: 0.699694, 24: 0.448184, 25: 0.773017, 26: 0.927921, 27: 0.62356, 28: 0.473443, 29: 0.810404, 30: 0.374248, 31: 0.209284, 32: 0.354526, 33: 0.219816, 34: 0.15447, 35: 0.452082, 36: 0.164524, 37: 0.232797, 38: 0.5304410000000001, 39: 0.81413, 40: 0.003888, 41: 0.686638, 42: 0.357212, 43: 0.7630130000000001, 44: 0.559745, 45: 0.340406, 46: 0.598009, 47: 0.871593, 48: 0.564171, 49: 0.5355799999999999, 50: 0.090212, 51: 0.226252, 52: 0.68742, 53: 0.025077, 54: 0.592446, 55: 0.869101, 56: 0.574142, 57: 0.929656, 58: 0.758172, 59: 0.385006, 60: 0.773183, 61: 0.212443, 62: 0.626963, 63: 0.874984, 64: 0.418485, 65: 0.373254, 66: 0.127275, 67: 0.487269, 68: 0.581074, 69: 0.654037, 70: 0.048689, 71: 0.122671, 72: 0.7605460000000001, 73: 0.785261, 74: 0.597166, 75: 0.108801, 76: 0.711486, 77: 0.43426, 78: 0.844535, 79: 0.226337, 80: 0.349545, 81: 0.789984, 82: 0.046355, 83: 0.826211, 84: 0.348721, 85: 0.624326, 86: 0.093281, 87: 0.611748, 88: 0.271752, 89: 0.6038829999999999, 90: 0.271232, 91: 0.202907, 92: 0.361931, 93: 0.591166, 94: 0.437511, 95: 0.936823];
discharge = [0: 0.41528, 1: 0.594016, 2: 0.233722, 3: 0.150264, 4: 0.164838, 5: 0.654961, 6: 0.618787, 7: 0.9345830000000001, 8: 0.964562, 9: 0.209494, 10: 0.7206050000000001, 11: 0.100274, 12: 0.612479, 13: 0.162548, 14: 0.474328, 15: 0.585959, 16: 0.927027, 17: 0.633475, 18: 0.971266, 19: 0.327247, 20: 0.460939, 21: 0.647169, 22: 0.401199, 23: 0.953977, 24: 0.320683, 25: 0.196137, 26: 0.769434, 27: 0.525819, 28: 0.653431, 29: 0.875467, 30: 0.913756, 31: 0.630831, 32: 0.527682, 33: 0.396048, 34: 0.679424, 35: 0.125417, 36: 0.966653, 37: 0.321029, 38: 0.888446, 39: 0.052279, 40: 0.17487, 41: 0.365882, 42: 0.338547, 43: 0.105202, 44: 0.905078, 45: 0.207297, 46: 0.5806519999999999, 47: 0.174809, 48: 0.500441, 49: 0.33962, 50: 0.405876, 51: 0.625538, 52: 0.5177079999999999, 53: 0.851764, 54: 0.910806, 55: 0.060434, 56: 0.7112579999999999, 57: 0.009991, 58: 0.633219, 59: 0.943477, 60: 0.621875, 61: 0.243697, 62: 0.706668, 63: 0.707352, 64: 0.330404, 65: 0.441659, 66: 0.523837, 67: 0.551471, 68: 0.995428, 69: 0.422489, 70: 0.335393, 71: 0.755237, 72: 0.637834, 73: 0.58548, 74: 0.289797, 75: 0.017559, 76: 0.308457, 77: 0.633688, 78: 0.485087, 79: 0.146902, 80: 0.64949, 81: 0.314315, 82: 0.827081, 83: 0.570533, 84: 0.5278040000000001, 85: 0.984445, 86: 0.178486, 87: 0.273297, 88: 0.235715, 89: 0.801897, 90: 0.94342, 91: 0.77238, 92: 0.821364, 93: 0.6510629999999999, 94: 0.335418, 95: 0.959008];
soc = [0: 9.876108, 1: 11.25394, 2: 10.401907, 3: 13.505244, 4: 7.865768, 5: 7.713206, 6: 11.181123, 7: 11.89566, 8: 5.037124, 9: 12.154307, 10: 15.66516, 11: 6.971578, 12: 13.535241, 13: 4.213129, 14: 7.487111, 15: 15.553172, 16: 15.365933, 17: 8.762788, 18: 10.952343, 19: 7.913948, 20: 11.686627, 21: 10.255189, 22: 14.192165, 23: 12.790136, 24: 15.202914, 25: 8.269349, 26: 5.54454, 27: 8.50896, 28: 11.8365, 29: 8.667253000000001, 30: 10.402219, 31: 14.97911, 32: 3.887875, 33: 10.214763, 34: 12.538519, 35: 12.487812, 36: 8.445188, 37: 10.038471, 38: 3.770834, 39: 12.938066, 40: 7.38683, 41: 8.623908, 42: 3.514516, 43: 5.278293, 44: 12.145253, 45: 5.913252, 46: 15.400099, 47: 8.977041, 48: 12.726088, 49: 10.977309, 50: 12.193634, 51: 5.14904, 52: 3.166848, 53: 4.841439, 54: 5.334108, 55: 14.696327, 56: 14.553907, 57: 6.007939, 58: 10.012098, 59: 5.893798, 60: 13.325651, 61: 14.188678, 62: 2.886131, 63: 14.987551, 64: 14.35008, 65: 2.651229, 66: 5.447602, 67: 11.739474, 68: 15.178219, 69: 7.993775, 70: 15.616182, 71: 11.562962, 72: 13.404525, 73: 8.229950000000001, 74: 11.874605, 75: 8.2356, 76: 4.336019, 77: 3.962521, 78: 14.256487, 79: 8.510367, 80: 14.033918, 81: 11.207081, 82: 4.962721, 83: 3.337797, 84: 6.295599, 85: 4.102535, 86: 3.978785, 87: 4.450667, 88: 9.195762999999999, 89: 9.360258999999999, 90: 9.586501, 91: 8.390803999999999, 92: 5.440925, 93: 12.868596, 94: 7.855446, 95: 14.278314];
cost = [0: 200.323612, 1: 544.548133, 2: 368.66109, 3: 199.353274, 4: 425.337347, 5: 558.9407169999999, 6: 255.906094, 7: 570.870075, 8: 69.407319, 9: 504.96831, 10: 507.755044, 11: 516.879318, 12: 41.631967, 13: 6.19885, 14: 11.568147, 15: 597.4413950000001, 16: 243.270604, 17: 108.552071, 18: 587.2088209999999, 19: 340.629033, 20: 15.449057, 21: 215.835882, 22: 585.495727, 23: 360.765945, 24: 108.104479, 25: 483.748789, 26: 215.763506, 27: 308.536688, 28: 852.020335, 29: 456.059122, 30: 412.876324, 31: 828.188129, 32: 111.351587, 33: 1064.96123, 34: 116.962618, 35: 297.927806, 36: 485.750069, 37: 244.571499, 38: 405.135619, 39: 780.160318, 40: 407.250946, 41: 804.142698, 42: 138.409384, 43: 27.079632, 44: 328.856235, 45: 377.052558, 46: 190.434107, 47: 1024.11736, 48: 92.685704, 49: 1141.802078, 50: 778.931334, 51: 790.929538, 52: 140.922846, 53: 250.965427, 54: 408.235377, 55: 472.216337, 56: 386.784298, 57: 379.493012, 58: 601.23815, 59: 78.406853, 60: 632.002, 61: 823.084077, 62: 453.8077, 63: 440.282557, 64: 275.225585, 65: 785.227896, 66: 845.484285, 67: 621.370334, 68: 210.800145, 69: 757.6589739999999, 70: 765.96241, 71: 292.930965, 72: 375.28067, 73: 720.898742, 74: 207.723332, 75: 972.732891, 76: 789.59916, 77: 893.5002040000001, 78: 483.207707, 79: 216.235203, 80: 1173.540479, 81: 909.090646, 82: 974.329125, 83: 340.652933, 84: 183.994226, 85: 716.865462, 86: 489.660214, 87: 1125.120765, 88: 368.994854, 89: 573.619455, 90: 105.778089, 91: 200.609435, 92: 588.627568, 93: 80.566925, 94: 558.561245, 95: 556.343715];
earn = [0: 1.425055, 1: 1.118669, 2: 1.030141, 3: 1.569937, 4: 1.065639, 5: 0.585212, 6: 1.263143, 7: 0.715673, 8: 0.510695, 9: 0.659316, 10: 1.643942, 11: 1.240319, 12: 0.341871, 13: 0.206813, 14: 0.907708, 15: 1.204053, 16: 0.858605, 17: 0.135999, 18: 1.121928, 19: 0.968351, 20: 0.147799, 21: 0.485396, 22: 0.247769, 23: 0.114506, 24: 0.15821, 25: 0.241266, 26: 0.68386, 27: 0.758837, 28: 0.888571, 29: 0.755104, 30: 0.5854200000000001, 31: 0.999121, 32: 0.043218, 33: 0.6322990000000001, 34: 0.341744, 35: 0.655574, 36: 0.181985, 37: 0.065716, 38: 0.087421, 39: 0.129808, 40: 0.0578, 41: 0.026371, 42: 0.001909, 43: 0.029062, 44: 0.016192, 45: 0.002297, 46: 0.003398, 47: 0.001711, 48: 0.003073, 49: -0.002786, 50: -0.003478, 51: -0.003238, 52: -0.000521, 53: -0.002917, 54: -0.000982, 55: -0.004305, 56: -0.013711, 57: -0.00139, 58: -0.000498, 59: -0.016391, 60: -0.003661, 61: -0.001451, 62: -0.000583, 63: -0.000175, 64: 0.000147, 65: 0.01352, 66: 0.0616, 67: 0.080911, 68: 0.47173, 69: 0.795007, 70: 0.239024, 71: 1.071784, 72: 0.657182, 73: 1.847995, 74: 1.768323, 75: 2.060927, 76: 1.090487, 77: 1.313992, 78: 0.290381, 79: 1.27469, 80: 2.783793, 81: 1.201043, 82: 2.017244, 83: 2.205988, 84: 1.532332, 85: 0.594885, 86: 0.09540700000000001, 87: 0.606592, 88: 1.891502, 89: 0.751894, 90: 0.960608, 91: 1.700907, 92: 0.101221, 93: 0.001212, 94: 1.735238, 95: 0.30758];
total_cost = 52.62655862510073;
total_earn = 7.804723535462697;
