production = [0: 0.0, 1: 0.0, 2: 0.0, 3: 0.0, 4: 0.0, 5: 0.0, 6: 0.0, 7: 0.0, 8: 0.0, 9: 0.0, 10: 0.0, 11: 0.0, 12: 0.0, 13: 0.0, 14: 0.0, 15: 0.0, 16: 0.0, 17: 0.0, 18: 0.0, 19: 0.0, 20: 0.0, 21: 0.0, 22: 0.0, 23: 0.000205, 24: 0.0, 25: 0.000548, 26: 0.001628, 27: 0.014806, 28: 0.000249, 29: 0.00504, 30: 0.041808, 31: 0.063897, 32: 0.061714, 33: 0.0762, 34: 0.020665, 35: 0.006865, 36: 0.113381, 37: 0.018364, 38: 0.074874, 39: 0.016574, 40: 0.494196, 41: 0.220061, 42: 0.390771, 43: 0.451897, 44: 0.435307, 45: 0.327366, 46: 0.043106, 47: 0.263235, 48: 0.271429, 49: 0.63085, 50: 1.057471, 51: 1.087694, 52: 0.085878, 53: 0.332276, 54: 0.682492, 55: 0.162452, 56: 0.057419, 57: 1.639232, 58: 0.144459, 59: 0.609478, 60: 0.325272, 61: 0.468135, 62: 0.823274, 63: 0.164345, 64: 0.706882, 65: 0.632872, 66: 0.9114640000000001, 67: 0.507765, 68: 0.356628, 69: 0.212604, 70: 0.249197, 71: 0.182243, 72: 0.006812, 73: 0.137876, 74: 0.02749, 75: 0.022832, 76: 0.033478, 77: 0.006591, 78: 0.001357, 79: 0.0007739999999999999, 80: 0.000125, 81: 0.0, 82: 0.0, 83: 0.0, 84: 0.0, 85: 0.0, 86: 0.0, 87: 0.0, 88: 0.0, 89: 0.0, 90: 0.0, 91: 0.0, 92: 0.0, 93: 0.0, 94: 0.0, 95: 0.0];
buy = [0: 704.601692, 1: 460.053365, 2: 245.726887, 3: 132.721958, 4: 748.427093, 5: 126.739825, 6: 465.722397, 7: 37.954117, 8: 212.520562, 9: 694.2809569999999, 10: 114.005811, 11: 287.866653, 12: 996.424429, 13: 819.621775, 14: 23.602866, 15: 140.478229, 16: 672.701535, 17: 429.847076, 18: 274.058175, 19: 854.627387, 20: 213.485962, 21: 129.008005, 22: 594.6257440000001, 23: 603.935672, 24: 997.726398, 25: 18.839942, 26: 183.632344, 27: 745.631138, 28: 174.277828, 29: 664.257289, 30: 872.9695840000001, 31: 154.456456, 32: 794.288487, 33: 279.567294, 34: 412.639495, 35: 836.197756, 36: 147.151645, 37: 957.2431769999999, 38: 741.135539, 39: 476.638708, 40: 534.6939599999999, 41: 53.106778, 42: 25.858962, 43: 327.091594, 44: 131.856269, 45: 566.65683, 46: 499.51927, 47: 458.711398, 48: 181.770707, 49: 779.523683, 50: 805.836423, 51: 820.4403150000001, 52: 500.037245, 53: 765.6873849999999, 54: 422.482344, 55: 186.859134, 56: 72.029651, 57: 867.190127, 58: 981.003507, 59: 435.382839, 60: 959.416071, 61: 691.759606, 62: 328.038841, 63: 750.836085, 64: 38.440059, 65: 772.762527, 66: 613.718834, 67: 617.146753, 68: 497.190228, 69: 304.323698, 70: 967.590774, 71: 725.098259, 72: 396.348517, 73: 265.56624, 74: 874.876367, 75: 936.588228, 76: 575.320439, 77: 204.34572, 78: 285.520427, 79: 220.528671, 80: 321.062582, 81: 801.294218, 82: 555.1125029999999, 83: 276.028153, 84: 34.156042, 85: 719.162161, 86: 572.770257, 87: 898.089114, 88: 101.657761, 89: 107.326266, 90: 68.30144300000001, 91: 559.410617, 92: 747.1497910000001, 93: 437.190042, 94: 265.501839, 95: 421.202258];
sell = [0: 3.531043, 1: 2.48911, 2: 0.448723, 3: 2.389895, 4: 2.874533, 5: 0.465131, 6: 3.312909, 7: 2.440431, 8: 3.641071, 9: 1.482189, 10: 3.215435, 11: 2.592864, 12: 0.311966, 13: 2.196748, 14: 2.144122, 15: 1.071334, 16: 2.248326, 17: 3.826503, 18: 2.607936, 19: 0.211715, 20: 1.030836, 21: 3.787604, 22: 2.775491, 23: 1.523632, 24: 3.261051, 25: 3.122936, 26: 2.703241, 27: 0.379165, 28: 1.673961, 29: 2.241787, 30: 2.150916, 31: 0.683484, 32: 2.894019, 33: 0.750846, 34: 2.013002, 35: 1.521673, 36: 0.616059, 37: 1.708962, 38: 3.494021, 39: 1.425203, 40: 3.532209, 41: 3.805338, 42: 0.837704, 43: 1.903061, 44: 2.192291, 45: 1.169464, 46: 3.272194, 47: 1.237786, 48: 3.676963, 49: 1.715997, 50: 2.097357, 51: 2.206257, 52: 3.191184, 53: 3.245717, 54: 0.302415, 55: 3.36806, 56: 0.969755, 57: 1.32408, 58: 0.675014, 59: 1.053762, 60: 1.140325, 61: 2.500649, 62: 0.7795339999999999, 63: 0.827831, 64: 3.330104, 65: 3.288442, 66: 1.13326, 67: 2.766503, 68: 1.847108, 69: 1.327889, 70: 0.949827, 71: 0.347506, 72: 3.905935, 73: 1.976543, 74: 3.586536, 75: 2.833302, 76: 0.965182, 77: 0.737832, 78: 0.170192, 79: 3.780046, 80: 3.905584, 81: 2.281202, 82: 2.665952, 83: 3.990069, 84: 3.532597, 85: 2.415923, 86: 3.798409, 87: 1.880631, 88: 1.664468, 89: 0.414578, 90: 0.459675, 91: 3.860903, 92: 2.999835, 93: 1.39641, 94: 2.418648, 95: 3.079189];
charge = [0: 0.165012, 1: 0.821143, 2: 0.964606, 3: 0.758443, 4: 0.340668, 5: 0.5194029999999999, 6: 0.658015, 7: 0.194533, 8: 0.066492, 9: 0.504957, 10: 0.7683179999999999, 11: 0.690061, 12: 0.7980930000000001, 13: 0.49479, 14: 0.915851, 15: 0.50782, 16: 0.417567, 17: 0.559384, 18: 0.55745, 19: 0.850679, 20: 0.956149, 21: 0.648002, 22: 0.206657, 23: 0.861905, 24: 0.312832, 25: 0.068663, 26: 0.058455, 27: 0.456904, 28: 0.798461, 29: 0.974645, 30: 0.126232, 31: 0.387035, 32: 0.666905, 33: 0.6781, 34: 0.216092, 35: 0.766339, 36: 0.201881, 37: 0.847386, 38: 0.7698739999999999, 39: 0.306938, 40: 0.036567, 41: 0.521431, 42: 0.880881, 43: 0.106743, 44: 0.875597, 45: 0.623045, 46: 0.948101, 47: 0.41303, 48: 0.9929750000000001, 49: 0.160871, 50: 0.616431, 51: 0.185277, 52: 0.458997, 53: 0.051554, 54: 0.06579500000000001, 55: 0.225726, 56: 0.221474, 57: 0.092621, 58: 0.9013409999999999, 59: 0.803616, 60: 0.898542, 61: 0.935657, 62: 0.197488, 63: 0.647201, 64: 0.279021, 65: 0.624734, 66: 0.307215, 67: 0.813876, 68: 0.83867, 69: 0.325843, 70: 0.657582, 71: 0.344939, 72: 0.719327, 73: 0.245683, 74: 0.085147, 75: 0.458014, 76: 0.861435, 77: 0.750788, 78: 0.454434, 79: 0.146204, 80: 0.687746, 81: 0.932358, 82: 0.601827, 83: 0.98543, 84: 0.747461, 85: 0.230184, 86: 0.07828499999999999, 87: 0.766604, 88: 0.593363, 89: 0.740587, 90: 0.151928, 91: 0.249241, 92: 0.531134, 93: 0.212275, 94: 0.093901, 95: 0.212014];
discharge = [0: 0.676361, 1: 0.080343, 2: 0.501131, 3: 0.416933, 4: 0.349626, 5: 0.938174, 6: 0.917641, 7: 0.556571, 8: 0.226554, 9: 0.081215, 10: 0.010823, 11: 0.391511, 12: 0.157505, 13: 0.459771, 14: 0.068504, 15: 0.036098, 16: 0.196457, 17: 0.805487, 18: 0.589649, 19: 0.335755, 20: 0.85655, 21: 0.508691, 22: 0.985104, 23: 0.866381, 24: 0.894992, 25: 0.677118, 26: 0.08806700000000001, 27: 0.479935, 28: 0.661086, 29: 0.54503, 30: 0.086479, 31: 0.914245, 32: 0.542327, 33: 0.960104, 34: 0.80644, 35: 0.839553, 36: 0.555172, 37: 0.869415, 38: 0.045093, 39: 0.09556199999999999, 40: 0.76417, 41: 0.915386, 42: 0.345841, 43: 0.712674, 44: 0.682277, 45: 0.158281, 46: 0.028543, 47: 0.186068, 48: 0.864691, 49: 0.51684, 50: 0.140423, 51: 0.99303, 52: 0.705874, 53: 0.905281, 54: 0.561855, 55: 0.486536, 56: 0.845898, 57: 0.078365, 58: 0.077249, 59: 0.805613, 60: 0.68266, 61: 0.430222, 62: 0.420487, 63: 0.8903219999999999, 64: 0.021785, 65: 0.393197, 66: 0.418126, 67: 0.285915, 68: 0.250021, 69: 0.134461, 70: 0.918597, 71: 0.708847, 72: 0.978527, 73: 0.845059, 74: 0.382604, 75: 0.47465, 76: 0.562789, 77: 0.733262, 78: 0.74805, 79: 0.45505, 80: 0.516144, 81: 0.337175, 82: 0.390449, 83: 0.342405, 84: 0.705366, 85: 0.4998, 86: 0.227399, 87: 0.138731, 88: 0.105426, 89: 0.402762, 90: 0.466077, 91: 0.742601, 92: 0.013652, 93: 0.235913, 94: 0.333924, 95: 0.254131];
soc = [0: 9.645505999999999, 1: 11.370436, 2: 7.849424, 3: 7.779672, 4: 6.443956, 5: 12.814131, 6: 7.323053, 7: 4.412804, 8: 13.493281, 9: 8.110497000000001, 10: 5.89917, 11: 9.996561, 12: 15.396661, 13: 7.687459, 14: 14.498197, 15: 8.708581000000001, 16: 9.710812000000001, 17: 11.343563, 18: 5.501054, 19: 15.497942, 20: 12.473751, 21: 10.215427, 22: 13.920436, 23: 9.711460000000001, 24: 13.079526, 25: 3.115823, 26: 4.837508, 27: 5.96155, 28: 9.725776, 29: 8.563008, 30: 3.191748, 31: 8.214157, 32: 5.687236, 33: 13.810954, 34: 14.13506, 35: 14.786258, 36: 12.534139, 37: 15.414939, 38: 8.181499000000001, 39: 4.869707, 40: 12.960404, 41: 12.751706, 42: 5.738603, 43: 2.971683, 44: 9.508668999999999, 45: 12.146288, 46: 9.407925000000001, 47: 4.868773, 48: 12.009124, 49: 4.404508, 50: 13.404211, 51: 10.357508, 52: 5.276153, 53: 6.871594, 54: 11.665875, 55: 5.933298, 56: 5.312065, 57: 2.775754, 58: 12.349436, 59: 10.432854, 60: 9.985027000000001, 61: 15.249039, 62: 14.035576, 63: 8.038501, 64: 14.841042, 65: 7.016471, 66: 3.085951, 67: 4.305759, 68: 13.587261, 69: 14.009834, 70: 15.197931, 71: 3.462991, 72: 2.66345, 73: 11.799908, 74: 5.880266, 75: 4.014071, 76: 14.886209, 77: 11.414814, 78: 3.789888, 79: 3.981639, 80: 15.08603, 81: 5.422983, 82: 6.243954, 83: 10.649312, 84: 12.423578, 85: 10.701759, 86: 10.732677, 87: 14.161235, 88: 4.989776, 89: 13.873922, 90: 7.889621, 91: 9.130881, 92: 15.499839, 93: 5.3759, 94: 5.953866, 95: 15.394262];
cost = [0: 443.827544, 1: 553.234614, 2: 43.044045, 3: 303.547535, 4: 599.957627, 5: 276.177371, 6: 459.328182, 7: 549.999403, 8: 573.513242, 9: 572.82242, 10: 588.7532650000001, 11: 113.270448, 12: 394.804809, 13: 124.410914, 14: 214.128364, 15: 598.713951, 16: 374.371001, 17: 566.036816, 18: 607.537462, 19: 227.151324, 20: 195.345629, 21: 425.565583, 22: 197.399599, 23: 221.794091, 24: 1063.838683, 25: 29.043458, 26: 74.495985, 27: 559.649184, 28: 880.579214, 29: 824.390774, 30: 756.568543, 31: 520.092181, 32: 1043.275009, 33: 165.136071, 34: 1001.276753, 35: 806.909522, 36: 1077.814561, 37: 309.708641, 38: 597.387246, 39: 325.301857, 40: 797.074479, 41: 579.446743, 42: 156.382321, 43: 996.196763, 44: 355.864855, 45: 990.870991, 46: 344.841363, 47: 270.518827, 48: 454.40146, 49: 526.849407, 50: 780.253635, 51: 843.41931, 52: 408.390733, 53: 107.586029, 54: 248.230718, 55: 237.234404, 56: 608.494055, 57: 590.874749, 58: 91.72600300000001, 59: 204.669526, 60: 1060.177596, 61: 238.914588, 62: 514.125318, 63: 20.259321, 64: 33.581515, 65: 567.506071, 66: 156.488679, 67: 807.489568, 68: 603.11258, 69: 761.57222, 70: 659.772234, 71: 1174.979546, 72: 866.628029, 73: 849.286579, 74: 1093.896365, 75: 572.339094, 76: 679.568807, 77: 1016.937607, 78: 439.40982, 79: 217.374006, 80: 721.769379, 81: 960.037768, 82: 383.719467, 83: 95.881199, 84: 1179.126303, 85: 289.254552, 86: 368.321692, 87: 1129.026294, 88: 562.773861, 89: 40.82605, 90: 181.140833, 91: 84.926406, 92: 423.030609, 93: 447.639698, 94: 295.794898, 95: 92.833674];
earn = [0: 0.785564, 1: 0.742716, 2: 0.6321600000000001, 3: 0.311421, 4: 1.215922, 5: 1.153269, 6: 1.499946, 7: 0.803279, 8: 0.687352, 9: 0.240492, 10: 0.059513, 11: 1.2161, 12: 0.200716, 13: 0.850554, 14: 0.35334, 15: 1.171745, 16: 0.514678, 17: 0.619997, 18: 0.609448, 19: 1.061429, 20: 0.736719, 21: 0.020247, 22: 0.525158, 23: 1.072422, 24: 0.643389, 25: 0.210068, 26: 0.283448, 27: 0.311652, 28: 0.046012, 29: 0.090088, 30: 0.021935, 31: 0.906089, 32: 0.434236, 33: 0.015228, 34: 0.292361, 35: 0.5253640000000001, 36: 0.123737, 37: 0.285309, 38: 0.229894, 39: 0.033091, 40: 0.054175, 41: 0.017869, 42: 0.011956, 43: 0.01413, 44: 0.006322, 45: 0.016845, 46: 0.009332999999999999, 47: 1.2e-05, 48: 0.006186, 49: -0.003249, 50: -0.003041, 51: -0.00316, 52: -0.005858, 53: -0.00215, 54: -0.005131, 55: -0.00068, 56: -0.013063, 57: -0.010285, 58: -0.008321, 59: -0.017351, 60: -0.002725, 61: -0.000793, 62: -0.001376, 63: -0.000787, 64: 0.000816, 65: 0.013208, 66: 0.059801, 67: 0.06683799999999999, 68: 0.277396, 69: 0.517432, 70: 1.287155, 71: 0.39822, 72: 1.185766, 73: 0.241879, 74: 1.41863, 75: 0.933545, 76: 2.257403, 77: 1.178786, 78: 1.777238, 79: 1.333106, 80: 1.588608, 81: 2.375258, 82: 1.285441, 83: 1.587541, 84: 0.134108, 85: 1.748472, 86: 0.871058, 87: 0.142375, 88: 1.809515, 89: 2.032631, 90: 0.457847, 91: 0.130942, 92: 0.92331, 93: 0.815592, 94: 1.11212, 95: 0.746281];
total_cost = 48.03697834519155;
total_earn = 5.77625900279251;
