production = [0: 0.0, 1: 0.0, 2: 0.0, 3: 0.0, 4: 0.0, 5: 0.0, 6: 0.0, 7: 0.0, 8: 0.0, 9: 0.0, 10: 0.0, 11: 0.0, 12: 0.0, 13: 0.0, 14: 0.0, 15: 0.0, 16: 0.0, 17: 0.0, 18: 0.0, 19: 0.0, 20: 0.0, 21: 0.0, 22: 0.0, 23: 3.8e-05, 24: 0.0, 25: 0.000349, 26: 0.003967, 27: 0.027784, 28: 0.078791, 29: 0.016904, 30: 0.031186, 31: 0.015008, 32: 0.053252, 33: 0.012421, 34: 0.073514, 35: 0.130368, 36: 0.136339, 37: 0.03312, 38: 0.020283, 39: 0.072676, 40: 0.356427, 41: 0.281378, 42: 0.039112, 43: 0.338001, 44: 0.069928, 45: 0.171158, 46: 0.5958020000000001, 47: 0.148574, 48: 0.082984, 49: 0.006023, 50: 0.351833, 51: 0.48028, 52: 0.461376, 53: 0.215645, 54: 0.827703, 55: 0.020382, 56: 0.10012, 57: 1.424351, 58: 0.988578, 59: 0.700025, 60: 0.857341, 61: 0.302884, 62: 0.293632, 63: 0.21466, 64: 0.477726, 65: 0.500933, 66: 0.8138649999999999, 67: 0.568863, 68: 0.280178, 69: 0.357681, 70: 0.553959, 71: 0.278823, 72: 0.142675, 73: 0.058624, 74: 0.042246, 75: 0.007333, 76: 0.013952, 77: 0.002714, 78: 0.000626, 79: 0.000553, 80: 0.00014, 81: 0.0, 82: 0.0, 83: 0.0, 84: 0.0, 85: 0.0, 86: 0.0, 87: 0.0, 88: 0.0, 89: 0.0, 90: 0.0, 91: 0.0, 92: 0.0, 93: 0.0, 94: 0.0, 95: 0.0];
buy = [0: 900.985363, 1: 654.271749, 2: 645.801604, 3: 991.797333, 4: 69.60782399999999, 5: 91.684641, 6: 36.682866, 7: 402.319189, 8: 725.841107, 9: 514.479943, 10: 100.352687, 11: 287.825327, 12: 291.524158, 13: 141.587037, 14: 852.251504, 15: 125.76758, 16: 288.472417, 17: 546.381556, 18: 912.042425, 19: 622.513291, 20: 439.997579, 21: 916.30683, 22: 271.402393, 23: 368.756479, 24: 112.805784, 25: 627.427111, 26: 605.419138, 27: 661.902256, 28: 895.477241, 29: 843.382772, 30: 489.668774, 31: 482.207447, 32: 989.131659, 33: 211.892793, 34: 777.559928, 35: 439.584821, 36: 657.579777, 37: 451.766894, 38: 927.401714, 39: 918.357316, 40: 420.450536, 41: 995.5513099999999, 42: 523.477927, 43: 897.232794, 44: 38.630857, 45: 10.582396, 46: 8.835932, 47: 583.156485, 48: 571.808433, 49: 570.501399, 50: 167.376282, 51: 644.855573, 52: 831.384378, 53: 749.641837, 54: 843.929638, 55: 454.526298, 56: 562.7786630000001, 57: 772.459708, 58: 448.914972, 59: 709.3816430000001, 60: 472.040868, 61: 535.252979, 62: 348.489658, 63: 846.3546669999999, 64: 191.060953, 65: 686.418731, 66: 440.448629, 67: 365.22835, 68: 883.179836, 69: 431.469041, 70: 713.97209, 71: 72.261359, 72: 622.018013, 73: 935.935152, 74: 308.315656, 75: 654.175662, 76: 744.356684, 77: 497.617487, 78: 206.449427, 79: 163.336188, 80: 518.135122, 81: 741.69373, 82: 681.0668879999999, 83: 342.702915, 84: 718.733874, 85: 731.317848, 86: 354.460108, 87: 631.252215, 88: 4.877304, 89: 983.992821, 90: 552.70233, 91: 730.411731, 92: 958.566477, 93: 578.864997, 94: 304.994862, 95: 223.205254];
sell = [0: 3.225916, 1: 3.409539, 2: 2.207928, 3: 3.616604, 4: 1.161711, 5: 3.945975, 6: 3.927321, 7: 1.405072, 8: 0.922569, 9: 0.773761, 10: 2.476664, 11: 2.914557, 12: 3.606045, 13: 2.751193, 14: 1.134819, 15: 3.957826, 16: 0.936127, 17: 1.022929, 18: 1.725908, 19: 1.466346, 20: 0.198237, 21: 0.09666, 22: 2.179166, 23: 2.578243, 24: 2.254451, 25: 3.835869, 26: 3.026987, 27: 2.505347, 28: 1.596705, 29: 1.723953, 30: 1.00791, 31: 3.044318, 32: 2.396167, 33: 3.010003, 34: 2.213347, 35: 3.578329, 36: 0.461928, 37: 0.180811, 38: 3.328902, 39: 0.023893, 40: 3.377165, 41: 2.502391, 42: 3.484288, 43: 0.912417, 44: 1.54085, 45: 3.765054, 46: 0.525116, 47: 2.548522, 48: 0.999346, 49: 2.873647, 50: 1.346081, 51: 1.184407, 52: 1.331021, 53: 0.424505, 54: 2.619163, 55: 0.036097, 56: 2.536903, 57: 3.476697, 58: 3.68721, 59: 0.386858, 60: 2.83478, 61: 0.737407, 62: 3.391857, 63: 2.675343, 64: 1.374803, 65: 0.213188, 66: 0.688775, 67: 1.573507, 68: 0.10854, 69: 1.448259, 70: 3.918301, 71: 1.83088, 72: 2.707294, 73: 3.033037, 74: 3.974891, 75: 2.652745, 76: 1.778082, 77: 1.523268, 78: 0.678277, 79: 1.0, 80: 3.740657, 81: 3.856478, 82: 2.239179, 83: 1.160136, 84: 1.75864, 85: 0.300211, 86: 3.703783, 87: 0.162149, 88: 3.657641, 89: 2.375511, 90: 3.774988, 91: 3.806071, 92: 0.853621, 93: 0.449878, 94: 2.852807, 95: 3.623276];
charge = [0: 0.175048, 1: 0.036727, 2: 0.123892, 3: 0.376711, 4: 0.919453, 5: 0.216683, 6: 0.699503, 7: 0.178884, 8: 0.811268, 9: 0.494097, 10: 0.353651, 11: 0.08461100000000001, 12: 0.347496, 13: 0.685944, 14: 0.994747, 15: 0.157546, 16: 0.143229, 17: 0.820068, 18: 0.025456, 19: 0.86516, 20: 0.646981, 21: 0.481906, 22: 0.627588, 23: 0.962044, 24: 0.439083, 25: 0.351947, 26: 0.63293, 27: 0.907852, 28: 0.8816889999999999, 29: 0.604916, 30: 0.503057, 31: 0.552741, 32: 0.657932, 33: 0.296869, 34: 0.124735, 35: 0.478639, 36: 0.626576, 37: 0.193355, 38: 0.432199, 39: 0.036007, 40: 0.413352, 41: 0.016049, 42: 0.823825, 43: 0.130375, 44: 0.916076, 45: 0.742638, 46: 0.362187, 47: 0.082827, 48: 0.23004, 49: 0.629337, 50: 0.155289, 51: 0.811376, 52: 0.246092, 53: 0.251759, 54: 0.287997, 55: 0.515353, 56: 0.975916, 57: 0.281089, 58: 0.060851, 59: 0.837334, 60: 0.624027, 61: 0.988351, 62: 0.889875, 63: 0.690038, 64: 0.492841, 65: 0.5239740000000001, 66: 0.143151, 67: 0.070939, 68: 0.839834, 69: 0.85239, 70: 0.006536, 71: 0.743839, 72: 0.879226, 73: 0.005305, 74: 0.991623, 75: 0.711391, 76: 0.07391499999999999, 77: 0.48468, 78: 0.598393, 79: 0.965776, 80: 0.834888, 81: 0.55609, 82: 0.392873, 83: 0.56835, 84: 0.300903, 85: 0.024593, 86: 0.712854, 87: 0.308303, 88: 0.411473, 89: 0.129684, 90: 0.952857, 91: 0.853164, 92: 0.189848, 93: 0.8721640000000001, 94: 0.384298, 95: 0.031835];
discharge = [0: 0.376058, 1: 0.563345, 2: 0.423367, 3: 0.909123, 4: 0.278286, 5: 0.536699, 6: 0.918441, 7: 0.471088, 8: 0.755891, 9: 0.787155, 10: 0.345439, 11: 0.311586, 12: 0.117075, 13: 0.886555, 14: 0.289721, 15: 0.313617, 16: 0.715878, 17: 0.287754, 18: 0.967453, 19: 0.946704, 20: 0.458793, 21: 0.935038, 22: 0.525551, 23: 0.853532, 24: 0.343929, 25: 0.004933, 26: 0.604936, 27: 0.449493, 28: 0.600159, 29: 0.922435, 30: 0.243583, 31: 0.088183, 32: 0.86763, 33: 0.113165, 34: 0.357345, 35: 0.214059, 36: 0.079711, 37: 0.366629, 38: 0.83402, 39: 0.130202, 40: 0.297365, 41: 0.524863, 42: 0.376634, 43: 0.258601, 44: 0.121416, 45: 0.09343799999999999, 46: 0.432617, 47: 0.07896300000000001, 48: 0.522563, 49: 0.58806, 50: 0.02991, 51: 0.677248, 52: 0.6396230000000001, 53: 0.527155, 54: 0.421296, 55: 0.920824, 56: 0.270635, 57: 0.999759, 58: 0.786064, 59: 0.306847, 60: 0.487402, 61: 0.816317, 62: 0.449824, 63: 0.142978, 64: 0.622621, 65: 0.255831, 66: 0.192605, 67: 0.057148, 68: 0.531896, 69: 0.194824, 70: 0.373826, 71: 0.805474, 72: 0.8150810000000001, 73: 0.676933, 74: 0.94809, 75: 0.415075, 76: 0.342826, 77: 0.234757, 78: 0.921218, 79: 0.001277, 80: 0.51249, 81: 0.710762, 82: 0.0007560000000000001, 83: 0.630836, 84: 0.572473, 85: 0.6898840000000001, 86: 0.365635, 87: 0.90099, 88: 0.551555, 89: 0.839157, 90: 0.324359, 91: 0.689649, 92: 0.175923, 93: 0.670134, 94: 0.452959, 95: 0.844245];
soc = [0: 10.007078, 1: 10.945309, 2: 12.607587, 3: 12.805563, 4: 5.093398, 5: 7.852166, 6: 4.788276, 7: 11.006192, 8: 6.203705, 9: 8.876818999999999, 10: 13.947388, 11: 11.838418, 12: 15.069815, 13: 15.645746, 14: 9.624624000000001, 15: 7.942281, 16: 12.391693, 17: 11.290594, 18: 8.741156, 19: 4.819212, 20: 5.769282, 21: 3.025171, 22: 12.746233, 23: 15.586107, 24: 15.59086, 25: 10.945748, 26: 10.091424, 27: 11.597994, 28: 4.612634, 29: 10.151502, 30: 4.645635, 31: 11.451497, 32: 3.263422, 33: 5.158412, 34: 3.685664, 35: 12.429578, 36: 9.1061, 37: 15.227342, 38: 3.045404, 39: 13.292477, 40: 4.952847, 41: 6.425581, 42: 11.902188, 43: 11.757019, 44: 4.755779, 45: 7.15588, 46: 4.620476, 47: 9.375449, 48: 11.431478, 49: 8.31636, 50: 12.44371, 51: 3.776701, 52: 13.135139, 53: 11.762967, 54: 15.457509, 55: 9.721544, 56: 7.067885, 57: 7.109113, 58: 9.351189, 59: 15.274719, 60: 13.653728, 61: 15.137216, 62: 15.487212, 63: 5.521824, 64: 13.430161, 65: 5.214795, 66: 12.634717, 67: 5.808532, 68: 5.780888, 69: 7.011057, 70: 13.153335, 71: 8.809085, 72: 6.167638, 73: 12.485884, 74: 3.623741, 75: 6.943036, 76: 13.512565, 77: 8.804701, 78: 12.183032, 79: 2.852163, 80: 9.928559, 81: 8.455408, 82: 6.249727, 83: 7.101286, 84: 2.955113, 85: 7.917359, 86: 6.246236, 87: 5.653935, 88: 7.102051, 89: 7.388696, 90: 6.040004, 91: 13.735899, 92: 12.535412, 93: 5.505904, 94: 14.299781, 95: 13.968126];
cost = [0: 495.988397, 1: 233.177312, 2: 304.677351, 3: 109.303452, 4: 86.757288, 5: 6.164126, 6: 260.595891, 7: 298.789192, 8: 452.198668, 9: 137.167311, 10: 238.706604, 11: 302.041105, 12: 511.081452, 13: 420.397589, 14: 37.577465, 15: 412.745882, 16: 334.977498, 17: 298.024403, 18: 40.527437, 19: 292.465029, 20: 496.269909, 21: 606.920554, 22: 519.442759, 23: 591.4750749999999, 24: 445.46015, 25: 572.259605, 26: 480.271989, 27: 633.7003570000001, 28: 641.127592, 29: 454.942869, 30: 472.102676, 31: 743.534415, 32: 984.839874, 33: 957.96142, 34: 390.377196, 35: 1102.041301, 36: 944.844274, 37: 435.481581, 38: 498.004911, 39: 40.698604, 40: 538.520299, 41: 454.596768, 42: 120.980612, 43: 575.937951, 44: 188.926404, 45: 946.9746280000001, 46: 905.642182, 47: 556.777383, 48: 654.570647, 49: 960.6573540000001, 50: 251.337386, 51: 374.510747, 52: 197.752875, 53: 354.712588, 54: 179.771068, 55: 469.602522, 56: 72.285456, 57: 21.38974, 58: 60.255709, 59: 194.126713, 60: 1173.834858, 61: 372.52668, 62: 676.204443, 63: 568.175262, 64: 1142.481823, 65: 757.207989, 66: 835.4212659999999, 67: 166.707048, 68: 219.347235, 69: 845.416031, 70: 61.597949, 71: 614.247209, 72: 1079.287273, 73: 282.758298, 74: 1161.019177, 75: 401.877855, 76: 58.48806, 77: 585.101646, 78: 552.798584, 79: 991.7606050000001, 80: 891.079029, 81: 446.719995, 82: 547.070017, 83: 85.184303, 84: 261.123286, 85: 281.320018, 86: 516.337131, 87: 1020.634739, 88: 358.202364, 89: 544.4394579999999, 90: 326.750979, 91: 57.739163, 92: 4.341821, 93: 295.449562, 94: 204.410253, 95: 249.735132];
earn = [0: 1.236512, 1: 1.63219, 2: 0.287115, 3: 1.555095, 4: 0.87226, 5: 0.513868, 6: 1.556158, 7: 1.825305, 8: 0.344763, 9: 0.86808, 10: 1.451494, 11: 1.25904, 12: 0.283658, 13: 0.837507, 14: 0.010839, 15: 0.053681, 16: 0.118709, 17: 0.668886, 18: 1.234676, 19: 0.487699, 20: 0.994738, 21: 1.054879, 22: 0.220105, 23: 0.69253, 24: 0.771936, 25: 0.500764, 26: 0.57941, 27: 1.068499, 28: 1.014411, 29: 0.214815, 30: 1.102162, 31: 0.092436, 32: 0.141278, 33: 0.212286, 34: 0.09535299999999999, 35: 0.141941, 36: 0.049132, 37: 0.165775, 38: 0.061216, 39: 0.120531, 40: 0.000383, 41: 0.0604, 42: 0.03288, 43: 0.029431, 44: 0.021953, 45: 0.017475, 46: 0.00515, 47: 0.002091, 48: 0.004497, 49: -2.3e-05, 50: -0.000902, 51: -0.002945, 52: -0.002733, 53: -0.006699, 54: -0.007638, 55: -0.007259, 56: -0.013437, 57: -0.005192, 58: -0.015459, 59: -0.00637, 60: -0.000753, 61: -0.00085, 62: -0.000456, 63: -0.00206, 64: 0.000662, 65: 0.014065, 66: 0.011101, 67: 0.260622, 68: 0.475978, 69: 0.923527, 70: 0.524382, 71: 0.38515, 72: 1.169803, 73: 1.875141, 74: 1.458984, 75: 0.842805, 76: 2.245024, 77: 1.703639, 78: 1.688403, 79: 0.403385, 80: 1.17648, 81: 1.109464, 82: 2.712106, 83: 1.507401, 84: 0.434134, 85: 0.431396, 86: 0.244701, 87: 1.257436, 88: 1.585701, 89: 1.696724, 90: 0.09359199999999999, 91: 1.754014, 92: 1.761522, 93: 0.135661, 94: 1.007929, 95: 1.179385];
total_cost = 52.62011430562423;
total_earn = 7.47881331833334;
