production = [0: 0.0, 1: 0.0, 2: 0.0, 3: 0.0, 4: 0.0, 5: 0.0, 6: 0.0, 7: 0.0, 8: 0.0, 9: 0.0, 10: 0.0, 11: 0.0, 12: 0.0, 13: 0.0, 14: 0.0, 15: 0.0, 16: 0.0, 17: 0.0, 18: 0.0, 19: 0.0, 20: 0.0, 21: 0.0, 22: 0.0, 23: 6.499999999999999e-05, 24: 0.0, 25: 0.000343, 26: 0.004686, 27: 0.014042, 28: 0.005152, 29: 0.00703, 30: 0.056811, 31: 0.030549, 32: 0.063317, 33: 0.087085, 34: 0.000325, 35: 0.08874600000000001, 36: 0.124345, 37: 0.142066, 38: 0.027132, 39: 0.053661, 40: 0.494964, 41: 0.024277, 42: 0.509984, 43: 0.400665, 44: 0.591377, 45: 0.186855, 46: 0.343376, 47: 0.365154, 48: 0.224166, 49: 0.156072, 50: 0.336809, 51: 0.516714, 52: 0.276222, 53: 0.27724, 54: 1.120813, 55: 0.740946, 56: 0.035802, 57: 0.73232, 58: 0.462986, 59: 0.105575, 60: 1.015304, 61: 0.081009, 62: 0.577032, 63: 0.084087, 64: 0.273657, 65: 0.037113, 66: 0.060656, 67: 0.60648, 68: 0.07294299999999999, 69: 0.021819, 70: 0.150487, 71: 0.302437, 72: 0.024918, 73: 0.161243, 74: 0.04506, 75: 0.02791, 76: 0.024831, 77: 0.01822, 78: 0.000167, 79: 0.000233, 80: 0.000363, 81: 0.0, 82: 0.0, 83: 0.0, 84: 0.0, 85: 0.0, 86: 0.0, 87: 0.0, 88: 0.0, 89: 0.0, 90: 0.0, 91: 0.0, 92: 0.0, 93: 0.0, 94: 0.0, 95: 0.0];
buy = [0: 81.16838300000001, 1: 420.356928, 2: 607.848009, 3: 137.37725, 4: 557.2832069999999, 5: 981.019372, 6: 390.104676, 7: 641.842897, 8: 433.193283, 9: 844.5664399999999, 10: 535.076326, 11: 99.095584, 12: 482.956209, 13: 320.897874, 14: 394.630191, 15: 396.287917, 16: 716.0712, 17: 356.956523, 18: 832.749056, 19: 338.764314, 20: 960.78133, 21: 208.433902, 22: 313.305541, 23: 935.8857420000001, 24: 928.026195, 25: 323.435789, 26: 715.9517039999999, 27: 396.703721, 28: 904.695366, 29: 12.213195, 30: 876.8888940000001, 31: 828.019948, 32: 401.811991, 33: 688.647847, 34: 890.531189, 35: 193.82537, 36: 188.783735, 37: 278.569619, 38: 178.385109, 39: 471.103387, 40: 310.128808, 41: 538.491576, 42: 947.045048, 43: 995.838313, 44: 595.026648, 45: 688.457116, 46: 492.827606, 47: 165.853494, 48: 877.20164, 49: 946.501728, 50: 931.194405, 51: 838.463197, 52: 230.72329, 53: 188.186589, 54: 218.677506, 55: 529.515169, 56: 868.610204, 57: 587.2161170000001, 58: 277.168144, 59: 437.541839, 60: 847.344565, 61: 927.633303, 62: 810.841312, 63: 725.140611, 64: 534.7510600000001, 65: 949.153859, 66: 436.380095, 67: 101.277233, 68: 559.990715, 69: 207.046311, 70: 566.233466, 71: 654.0857580000001, 72: 714.800808, 73: 399.248557, 74: 894.240332, 75: 102.236189, 76: 698.868295, 77: 207.068536, 78: 251.95284, 79: 666.22352, 80: 969.577033, 81: 932.309921, 82: 682.861906, 83: 136.319495, 84: 615.516552, 85: 871.197768, 86: 702.47842, 87: 606.625327, 88: 795.382861, 89: 115.412009, 90: 715.352259, 91: 254.782114, 92: 444.963557, 93: 685.619901, 94: 687.486113, 95: 259.650672];
sell = [0: 2.378415, 1: 0.537517, 2: 3.496342, 3: 2.350985, 4: 3.123525, 5: 1.810174, 6: 1.698202, 7: 3.116677, 8: 3.944081, 9: 1.631021, 10: 1.617416, 11: 2.013362, 12: 3.842926, 13: 2.648245, 14: 1.046975, 15: 0.800032, 16: 2.193991, 17: 0.682798, 18: 0.639404, 19: 0.0102, 20: 0.684705, 21: 0.766966, 22: 3.150706, 23: 2.567212, 24: 3.841456, 25: 2.786659, 26: 1.010753, 27: 1.314238, 28: 0.8491, 29: 2.153573, 30: 3.092757, 31: 0.573267, 32: 2.727671, 33: 1.017436, 34: 1.733152, 35: 2.023209, 36: 0.135262, 37: 3.471643, 38: 1.217911, 39: 3.951713, 40: 2.788569, 41: 2.734788, 42: 2.100963, 43: 0.914967, 44: 1.04211, 45: 0.39153, 46: 0.163474, 47: 0.802484, 48: 1.974862, 49: 1.732544, 50: 0.27996, 51: 0.649837, 52: 1.833125, 53: 0.92535, 54: 0.588235, 55: 3.703675, 56: 2.180606, 57: 0.582548, 58: 0.728154, 59: 2.215683, 60: 2.684505, 61: 0.087204, 62: 2.268969, 63: 0.682083, 64: 2.336595, 65: 2.567124, 66: 2.192381, 67: 0.5083800000000001, 68: 2.547975, 69: 0.556532, 70: 0.32194, 71: 3.304647, 72: 3.772583, 73: 2.580612, 74: 3.367543, 75: 3.201612, 76: 1.326498, 77: 1.532112, 78: 0.88651, 79: 3.742788, 80: 3.026715, 81: 0.776056, 82: 3.287971, 83: 0.776188, 84: 3.592527, 85: 0.64945, 86: 1.573954, 87: 0.533764, 88: 3.502263, 89: 3.138134, 90: 1.903819, 91: 3.710869, 92: 3.893031, 93: 2.904442, 94: 2.877046, 95: 2.50335];
charge = [0: 0.6402099999999999, 1: 0.265336, 2: 0.880616, 3: 0.51898, 4: 0.66552, 5: 0.952396, 6: 0.542049, 7: 0.228183, 8: 0.718969, 9: 0.131406, 10: 0.673366, 11: 0.426139, 12: 0.840936, 13: 0.901392, 14: 0.983856, 15: 0.625058, 16: 0.440591, 17: 0.652325, 18: 0.960917, 19: 0.222044, 20: 0.156328, 21: 0.831714, 22: 0.64013, 23: 0.462925, 24: 0.427933, 25: 0.814531, 26: 0.715029, 27: 0.562365, 28: 0.203105, 29: 0.313545, 30: 0.885866, 31: 0.614385, 32: 0.050344, 33: 0.516522, 34: 0.746157, 35: 0.488328, 36: 0.691666, 37: 0.11258, 38: 0.336986, 39: 0.394963, 40: 0.413366, 41: 0.9281470000000001, 42: 0.746767, 43: 0.849196, 44: 0.745871, 45: 0.295026, 46: 0.047136, 47: 0.132462, 48: 0.867136, 49: 0.699315, 50: 0.122016, 51: 0.597307, 52: 0.792635, 53: 0.117673, 54: 0.99158, 55: 0.535218, 56: 0.398367, 57: 0.19171, 58: 0.712801, 59: 0.492413, 60: 0.097414, 61: 0.938239, 62: 0.872049, 63: 0.944696, 64: 0.455418, 65: 0.327529, 66: 0.794806, 67: 0.426646, 68: 0.193567, 69: 0.176366, 70: 0.511977, 71: 0.545866, 72: 0.095927, 73: 0.074283, 74: 0.730581, 75: 0.5298850000000001, 76: 0.539524, 77: 0.201509, 78: 0.992939, 79: 0.490349, 80: 0.72789, 81: 0.991096, 82: 0.817314, 83: 0.865395, 84: 0.908061, 85: 0.375848, 86: 0.700554, 87: 0.385611, 88: 0.377877, 89: 0.853963, 90: 0.771965, 91: 0.964903, 92: 0.02239, 93: 0.598657, 94: 0.507912, 95: 0.685432];
discharge = [0: 0.803848, 1: 0.793066, 2: 0.301082, 3: 0.100635, 4: 0.680609, 5: 0.970653, 6: 0.20296, 7: 0.254457, 8: 0.732833, 9: 0.157395, 10: 0.117756, 11: 0.196449, 12: 0.723952, 13: 0.658775, 14: 0.8853760000000001, 15: 0.7139259999999999, 16: 0.958054, 17: 0.736735, 18: 0.51944, 19: 0.820909, 20: 0.841329, 21: 0.212246, 22: 0.16297, 23: 0.547973, 24: 0.780277, 25: 0.471594, 26: 0.150168, 27: 0.965852, 28: 0.884409, 29: 0.230316, 30: 0.6785679999999999, 31: 0.177985, 32: 0.38829, 33: 0.031, 34: 0.531089, 35: 0.926538, 36: 0.811578, 37: 0.616232, 38: 0.485502, 39: 0.25986, 40: 0.256864, 41: 0.601198, 42: 0.149104, 43: 0.41142, 44: 0.455777, 45: 0.834626, 46: 0.319902, 47: 0.09709, 48: 0.795099, 49: 0.442391, 50: 0.7664, 51: 0.698971, 52: 0.8438909999999999, 53: 0.890142, 54: 0.056771, 55: 0.391455, 56: 0.419991, 57: 0.875664, 58: 0.428094, 59: 0.56869, 60: 0.297905, 61: 0.498285, 62: 0.621939, 63: 0.823769, 64: 0.162696, 65: 0.33212, 66: 0.120102, 67: 0.8715000000000001, 68: 0.273483, 69: 0.711471, 70: 0.12162, 71: 0.259012, 72: 0.294145, 73: 0.982066, 74: 0.019406, 75: 0.736502, 76: 0.262619, 77: 0.647559, 78: 0.116288, 79: 0.561369, 80: 0.437444, 81: 0.5671890000000001, 82: 0.976993, 83: 0.940568, 84: 0.315113, 85: 0.174114, 86: 0.768504, 87: 0.864391, 88: 0.908955, 89: 0.039638, 90: 0.332409, 91: 0.88498, 92: 0.737262, 93: 0.978154, 94: 0.806761, 95: 0.5692390000000001];
soc = [0: 9.781230000000001, 1: 9.390076000000001, 2: 11.40518, 3: 7.240456, 4: 9.606202, 5: 9.469533, 6: 12.739241, 7: 5.999163, 8: 9.155087, 9: 7.494761, 10: 6.789703, 11: 9.054546999999999, 12: 9.089377000000001, 13: 4.817994, 14: 10.780908, 15: 9.196955000000001, 16: 14.160231, 17: 2.801366, 18: 8.903983, 19: 5.737738, 20: 9.010185, 21: 13.805679, 22: 8.283995000000001, 23: 6.339263, 24: 10.74192, 25: 10.246209, 26: 8.519451, 27: 7.863293, 28: 15.234663, 29: 10.207759, 30: 12.791002, 31: 7.284023, 32: 15.429188, 33: 5.159557, 34: 7.745396, 35: 5.543664, 36: 10.22203, 37: 6.197146, 38: 4.019105, 39: 3.245254, 40: 6.195658, 41: 2.970432, 42: 9.350785, 43: 7.09931, 44: 14.617916, 45: 5.83409, 46: 6.773816, 47: 4.909575, 48: 6.895845, 49: 14.407703, 50: 6.035668, 51: 7.037602, 52: 6.981474, 53: 10.383418, 54: 13.407693, 55: 6.617499, 56: 11.556721, 57: 8.150388, 58: 3.27917, 59: 10.451232, 60: 7.347789, 61: 9.996505000000001, 62: 4.987637, 63: 9.721594, 64: 2.664833, 65: 12.838892, 66: 7.994945, 67: 3.717666, 68: 12.92491, 69: 6.100257, 70: 11.981747, 71: 10.762846, 72: 12.679748, 73: 15.514762, 74: 2.742749, 75: 5.843316, 76: 4.709883, 77: 3.195996, 78: 14.197942, 79: 3.973009, 80: 13.815438, 81: 13.538568, 82: 5.514831, 83: 6.791116, 84: 11.517902, 85: 5.3492, 86: 13.279155, 87: 13.980016, 88: 14.70546, 89: 5.690312, 90: 4.298388, 91: 5.624794, 92: 7.228128, 93: 9.764621999999999, 94: 6.501104, 95: 15.122701];
cost = [0: 381.604655, 1: 208.419402, 2: 116.850464, 3: 586.572987, 4: 609.437908, 5: 388.200998, 6: 86.40557, 7: 499.303481, 8: 477.057879, 9: 200.549338, 10: 509.106247, 11: 159.870795, 12: 422.152794, 13: 609.964792, 14: 76.53294200000001, 15: 11.412876, 16: 515.751727, 17: 406.143319, 18: 383.336891, 19: 275.433495, 20: 274.743564, 21: 468.709961, 22: 579.9051899999999, 23: 140.889869, 24: 440.22931, 25: 786.362784, 26: 347.296905, 27: 239.563591, 28: 257.248832, 29: 1125.248521, 30: 540.016286, 31: 1055.901481, 32: 574.764513, 33: 30.093311, 34: 88.47705999999999, 35: 201.121756, 36: 184.842362, 37: 20.214889, 38: 114.92283, 39: 514.384964, 40: 915.355667, 41: 1107.23396, 42: 1087.702227, 43: 1102.36974, 44: 559.5747679999999, 45: 641.551074, 46: 317.078699, 47: 214.527054, 48: 514.647681, 49: 835.175819, 50: 538.934178, 51: 745.27928, 52: 148.71501, 53: 302.250071, 54: 236.04323, 55: 292.176705, 56: 416.102249, 57: 234.582251, 58: 456.730215, 59: 364.468789, 60: 336.88812, 61: 851.492089, 62: 829.638708, 63: 326.042884, 64: 483.523946, 65: 218.699397, 66: 403.84808, 67: 624.124335, 68: 665.262035, 69: 782.575884, 70: 615.727484, 71: 983.878953, 72: 1035.467328, 73: 399.288147, 74: 237.306262, 75: 1049.03429, 76: 84.71806599999999, 77: 1181.963826, 78: 450.957992, 79: 328.599176, 80: 445.768603, 81: 692.968531, 82: 731.340281, 83: 349.774579, 84: 842.171426, 85: 783.769471, 86: 900.915298, 87: 752.544679, 88: 493.370156, 89: 434.702947, 90: 284.709027, 91: 48.024946, 92: 488.792594, 93: 449.002621, 94: 377.774664, 95: 131.916145];
earn = [0: 0.379602, 1: 1.095129, 2: 1.840499, 3: 0.720502, 4: 1.485349, 5: 0.889966, 6: 0.418949, 7: 1.193358, 8: 0.777153, 9: 0.795161, 10: 0.870269, 11: 1.60908, 12: 0.543084, 13: 1.047679, 14: 0.809428, 15: 1.476246, 16: 0.636946, 17: 0.533282, 18: 0.543054, 19: 0.8413119999999999, 20: 0.584274, 21: 0.97544, 22: 0.090323, 23: 0.6299940000000001, 24: 0.378964, 25: 0.408948, 26: 0.486654, 27: 0.133945, 28: 0.803045, 29: 0.667403, 30: 0.450435, 31: 0.502074, 32: 0.338532, 33: 0.28786, 34: 0.521006, 35: 0.770183, 36: 0.417087, 37: 0.20937, 38: 0.063906, 39: 0.212863, 40: 0.035874, 41: 0.038718, 42: 0.005559, 43: 0.019594, 44: 0.006658, 45: 0.009185, 46: 0.009958, 47: 0.00288, 48: 0.00491, 49: -0.001776, 50: -0.001146, 51: -0.000998, 52: -0.002557, 53: -0.007458, 54: -0.002893, 55: -0.00679, 56: -0.018192, 57: -0.007207, 58: -0.009714, 59: -0.014969, 60: -0.000578, 61: -0.00194, 62: -0.003663, 63: -0.001812, 64: 0.001155, 65: 0.022373, 66: 0.057243, 67: 0.026887, 68: 0.100324, 69: 0.787956, 70: 0.918261, 71: 0.862165, 72: 1.019804, 73: 0.757072, 74: 1.328796, 75: 0.293312, 76: 1.582498, 77: 1.565383, 78: 2.503558, 79: 2.089904, 80: 2.408253, 81: 2.080748, 82: 0.636819, 83: 0.07466399999999999, 84: 0.6374379999999999, 85: 1.140129, 86: 1.274255, 87: 0.316142, 88: 0.46716, 89: 0.305397, 90: 1.786702, 91: 1.76768, 92: 1.697702, 93: 1.789461, 94: 1.463256, 95: 0.6200830000000001];
total_cost = 48.18012112814793;
total_earn = 6.462287715000008;
