production = [0: 0.0, 1: 0.0, 2: 0.0, 3: 0.0, 4: 0.0, 5: 0.0, 6: 0.0, 7: 0.0, 8: 0.0, 9: 0.0, 10: 0.0, 11: 0.0, 12: 0.0, 13: 0.0, 14: 0.0, 15: 0.0, 16: 0.0, 17: 0.0, 18: 0.0, 19: 0.0, 20: 0.0, 21: 0.0, 22: 0.0, 23: 0.000169, 24: 0.0, 25: 0.00033, 26: 0.001341, 27: 0.006661, 28: 0.042991, 29: 0.029361, 30: 0.027767, 31: 0.081986, 32: 0.080188, 33: 0.086396, 34: 0.046435, 35: 0.111608, 36: 0.069276, 37: 0.14307, 38: 0.023642, 39: 0.011118, 40: 0.5304680000000001, 41: 0.123444, 42: 0.436596, 43: 0.165078, 44: 0.322999, 45: 0.057593, 46: 0.411179, 47: 0.273998, 48: 0.239115, 49: 0.33649, 50: 1.106611, 51: 0.313648, 52: 0.043553, 53: 0.518324, 54: 0.498867, 55: 0.648333, 56: 0.12789, 57: 0.767167, 58: 0.766993, 59: 1.275774, 60: 0.39034, 61: 0.054197, 62: 0.379348, 63: 0.361207, 64: 0.318071, 65: 0.405859, 66: 1.189311, 67: 0.329892, 68: 0.515335, 69: 0.418045, 70: 0.171898, 71: 0.260045, 72: 0.202898, 73: 0.147737, 74: 0.041879, 75: 0.041902, 76: 0.021809, 77: 0.01054, 78: 0.003312, 79: 0.000316, 80: 1e-06, 81: 0.0, 82: 0.0, 83: 0.0, 84: 0.0, 85: 0.0, 86: 0.0, 87: 0.0, 88: 0.0, 89: 0.0, 90: 0.0, 91: 0.0, 92: 0.0, 93: 0.0, 94: 0.0, 95: 0.0];
buy = [0: 837.9664320000001, 1: 39.765263, 2: 506.237695, 3: 312.01755, 4: 768.108609, 5: 608.588384, 6: 95.67783799999999, 7: 371.121202, 8: 756.824179, 9: 560.635855, 10: 623.317171, 11: 469.391607, 12: 515.802485, 13: 801.62189, 14: 696.414509, 15: 814.255963, 16: 57.371772, 17: 309.93099, 18: 581.4102339999999, 19: 746.735697, 20: 279.744063, 21: 45.278886, 22: 971.488469, 23: 221.662293, 24: 706.335743, 25: 248.18753, 26: 271.701087, 27: 440.479227, 28: 336.906652, 29: 127.673868, 30: 302.940418, 31: 425.003947, 32: 180.67054, 33: 70.845755, 34: 943.73671, 35: 340.547136, 36: 347.625984, 37: 663.475727, 38: 95.95169, 39: 363.457891, 40: 724.44226, 41: 34.071071, 42: 291.779552, 43: 381.10054, 44: 368.277161, 45: 793.153306, 46: 906.176437, 47: 743.871182, 48: 842.868475, 49: 514.151178, 50: 162.837548, 51: 180.967188, 52: 534.814389, 53: 734.694885, 54: 232.348186, 55: 623.817291, 56: 194.798004, 57: 379.861864, 58: 725.683743, 59: 624.371746, 60: 790.748841, 61: 750.1047170000001, 62: 604.8717779999999, 63: 732.982434, 64: 803.981973, 65: 645.103059, 66: 636.978396, 67: 305.782504, 68: 552.0132160000001, 69: 790.750341, 70: 688.296484, 71: 105.985397, 72: 394.872256, 73: 896.141275, 74: 320.641125, 75: 147.883353, 76: 663.815987, 77: 981.324849, 78: 693.833613, 79: 108.603634, 80: 354.769039, 81: 879.2105790000001, 82: 519.321704, 83: 124.807661, 84: 612.44611, 85: 278.455563, 86: 482.487582, 87: 925.057372, 88: 83.958842, 89: 996.844568, 90: 657.483297, 91: 315.20857, 92: 21.016361, 93: 746.861913, 94: 932.7375929999999, 95: 424.129523];
sell = [0: 1.584485, 1: 0.190326, 2: 1.14704, 3: 2.028672, 4: 2.16128, 5: 3.607439, 6: 0.094906, 7: 0.431684, 8: 3.580579, 9: 2.193689, 10: 0.647132, 11: 0.7345699999999999, 12: 3.779831, 13: 3.67448, 14: 3.524774, 15: 1.455244, 16: 2.172925, 17: 2.579307, 18: 1.071235, 19: 0.993991, 20: 1.293468, 21: 1.332044, 22: 1.133554, 23: 2.331574, 24: 2.278862, 25: 2.934603, 26: 1.845198, 27: 3.86396, 28: 0.701094, 29: 2.26515, 30: 1.604043, 31: 3.40568, 32: 2.265934, 33: 2.69842, 34: 3.8088, 35: 1.426913, 36: 0.142647, 37: 1.077143, 38: 3.779856, 39: 0.498196, 40: 1.339048, 41: 0.387803, 42: 2.413931, 43: 0.197526, 44: 2.803306, 45: 3.652809, 46: 3.559056, 47: 1.007572, 48: 2.463229, 49: 0.706912, 50: 0.848091, 51: 0.181913, 52: 0.560787, 53: 3.76631, 54: 2.645348, 55: 3.404514, 56: 1.692052, 57: 2.385932, 58: 0.420172, 59: 1.687856, 60: 0.008024, 61: 3.424615, 62: 0.206975, 63: 0.015581, 64: 1.289056, 65: 2.504276, 66: 2.591571, 67: 0.855324, 68: 0.170899, 69: 0.973171, 70: 2.303413, 71: 3.42443, 72: 1.139073, 73: 3.956247, 74: 1.497534, 75: 3.895943, 76: 3.300096, 77: 2.291166, 78: 2.888784, 79: 0.81914, 80: 3.621145, 81: 0.998776, 82: 3.714774, 83: 0.001487, 84: 2.589542, 85: 3.050293, 86: 0.428708, 87: 0.618305, 88: 1.878458, 89: 3.219614, 90: 2.887535, 91: 1.739335, 92: 2.508718, 93: 2.900764, 94: 2.452077, 95: 2.026655];
charge = [0: 0.710496, 1: 0.725607, 2: 0.566478, 3: 0.611959, 4: 0.548191, 5: 0.312573, 6: 0.663536, 7: 0.99526, 8: 0.178655, 9: 0.835139, 10: 0.193484, 11: 0.927318, 12: 0.426902, 13: 0.818643, 14: 0.093898, 15: 0.693882, 16: 0.041816, 17: 0.637926, 18: 0.385989, 19: 0.971422, 20: 0.84252, 21: 0.109964, 22: 0.668961, 23: 0.398074, 24: 0.438181, 25: 0.320247, 26: 0.5524829999999999, 27: 0.539093, 28: 0.273229, 29: 0.980502, 30: 0.221783, 31: 0.02745, 32: 0.472853, 33: 0.690486, 34: 0.5623590000000001, 35: 0.601593, 36: 0.841639, 37: 0.645502, 38: 0.499487, 39: 0.661026, 40: 0.810292, 41: 0.133982, 42: 0.028855, 43: 0.07502399999999999, 44: 0.433639, 45: 0.481641, 46: 0.907471, 47: 0.461998, 48: 0.256523, 49: 0.614672, 50: 0.764304, 51: 0.624798, 52: 0.890332, 53: 0.576106, 54: 0.112079, 55: 0.230393, 56: 0.683481, 57: 0.233917, 58: 0.748323, 59: 0.45879, 60: 0.057885, 61: 0.425144, 62: 0.254041, 63: 0.386608, 64: 0.417284, 65: 0.336641, 66: 0.07348300000000001, 67: 0.174238, 68: 0.622933, 69: 0.136749, 70: 0.336136, 71: 0.8706469999999999, 72: 0.045314, 73: 0.223212, 74: 0.424464, 75: 0.9780180000000001, 76: 0.261524, 77: 0.864869, 78: 0.436959, 79: 0.140806, 80: 0.926844, 81: 0.976048, 82: 0.182596, 83: 0.8686120000000001, 84: 0.592329, 85: 0.096747, 86: 0.722827, 87: 0.610476, 88: 0.76178, 89: 0.08558, 90: 0.6010760000000001, 91: 0.771775, 92: 0.104, 93: 0.042161, 94: 0.03467, 95: 0.382159];
discharge = [0: 0.849325, 1: 0.263501, 2: 0.522334, 3: 0.442157, 4: 0.948732, 5: 0.460778, 6: 0.731936, 7: 0.964035, 8: 0.099993, 9: 0.562281, 10: 0.47081, 11: 0.397403, 12: 0.592791, 13: 0.584967, 14: 0.114613, 15: 0.258878, 16: 0.898502, 17: 0.133613, 18: 0.114282, 19: 0.06480900000000001, 20: 0.895334, 21: 0.658806, 22: 0.553502, 23: 0.290563, 24: 0.061795, 25: 0.981005, 26: 0.447738, 27: 0.289181, 28: 0.052001, 29: 0.834764, 30: 0.623007, 31: 0.316414, 32: 0.444536, 33: 0.227706, 34: 0.390833, 35: 0.308624, 36: 0.074249, 37: 0.242242, 38: 0.873375, 39: 0.760053, 40: 0.154027, 41: 0.601409, 42: 0.866748, 43: 0.87159, 44: 0.396881, 45: 0.656934, 46: 0.342504, 47: 0.349048, 48: 0.125884, 49: 0.258169, 50: 0.469838, 51: 0.991449, 52: 0.494091, 53: 0.786872, 54: 0.021584, 55: 0.297797, 56: 0.549123, 57: 0.084242, 58: 0.906688, 59: 0.24224, 60: 0.318763, 61: 0.629458, 62: 0.535435, 63: 0.288761, 64: 0.554103, 65: 0.384093, 66: 0.519552, 67: 0.248452, 68: 0.297852, 69: 0.517474, 70: 0.160859, 71: 0.426698, 72: 0.648077, 73: 0.744276, 74: 0.512084, 75: 0.271578, 76: 0.651901, 77: 0.751004, 78: 0.408738, 79: 0.682733, 80: 0.770153, 81: 0.587638, 82: 0.965957, 83: 0.720868, 84: 0.114166, 85: 0.331779, 86: 0.589539, 87: 0.609966, 88: 0.359243, 89: 0.78704, 90: 0.961214, 91: 0.138172, 92: 0.039868, 93: 0.928629, 94: 0.750833, 95: 0.43152];
soc = [0: 9.908561000000001, 1: 8.036142999999999, 2: 8.512402, 3: 8.458360000000001, 4: 7.081461, 5: 12.757702, 6: 15.34764, 7: 3.532739, 8: 3.085444, 9: 6.401462, 10: 12.108442, 11: 13.487087, 12: 4.803879, 13: 3.066994, 14: 15.335635, 15: 9.914567, 16: 7.363614, 17: 8.090926, 18: 5.919227, 19: 6.816142, 20: 11.780702, 21: 10.582038, 22: 6.517213, 23: 3.172056, 24: 4.587428, 25: 15.098007, 26: 5.381063, 27: 10.560511, 28: 7.313987, 29: 3.591062, 30: 11.523942, 31: 15.429182, 32: 12.117188, 33: 12.055948, 34: 11.167102, 35: 11.723262, 36: 14.157075, 37: 9.006432999999999, 38: 7.987439, 39: 8.655965999999999, 40: 4.307825, 41: 2.954228, 42: 7.706621, 43: 13.561731, 44: 3.737607, 45: 5.304655, 46: 12.07679, 47: 13.936121, 48: 9.236113, 49: 9.305296, 50: 11.969615, 51: 5.51869, 52: 6.105958, 53: 5.626983, 54: 13.823139, 55: 6.488785, 56: 14.744314, 57: 5.911837, 58: 5.800403, 59: 13.170445, 60: 14.248369, 61: 6.04536, 62: 11.518062, 63: 7.076547, 64: 7.351475, 65: 15.047669, 66: 9.797822999999999, 67: 13.261607, 68: 11.039263, 69: 8.129151, 70: 5.566262, 71: 3.557218, 72: 14.300598, 73: 3.660182, 74: 2.949761, 75: 9.679913000000001, 76: 15.17868, 77: 4.834323, 78: 2.784156, 79: 2.746522, 80: 6.633254, 81: 6.9519, 82: 11.747921, 83: 10.514369, 84: 5.172979, 85: 5.199889, 86: 13.781712, 87: 12.649916, 88: 11.995022, 89: 9.414313, 90: 3.617001, 91: 2.651055, 92: 7.069338, 93: 5.235982, 94: 11.96904, 95: 13.383269];
cost = [0: 170.424853, 1: 227.446452, 2: 96.07974900000001, 3: 607.099208, 4: 354.924447, 5: 2.024655, 6: 6.366076, 7: 94.573836, 8: 551.561558, 9: 354.279019, 10: 270.623306, 11: 433.588971, 12: 309.761922, 13: 228.812707, 14: 343.77854, 15: 592.8083810000001, 16: 126.62183, 17: 15.54304, 18: 128.182715, 19: 365.109719, 20: 29.034363, 21: 474.998242, 22: 92.690124, 23: 337.335851, 24: 626.035212, 25: 322.273336, 26: 277.8048, 27: 741.65124, 28: 552.186932, 29: 836.458161, 30: 744.822804, 31: 660.336354, 32: 470.355081, 33: 960.444108, 34: 562.78498, 35: 711.95187, 36: 5.086753, 37: 33.627743, 38: 577.15969, 39: 812.320092, 40: 11.442432, 41: 1034.34923, 42: 908.728783, 43: 918.3222490000001, 44: 426.719931, 45: 184.106269, 46: 939.878389, 47: 1146.243518, 48: 184.281042, 49: 701.545316, 50: 1111.597896, 51: 741.929389, 52: 66.401662, 53: 66.65485700000001, 54: 343.298805, 55: 175.781061, 56: 481.692462, 57: 68.240735, 58: 239.64816, 59: 586.073843, 60: 521.784135, 61: 419.064739, 62: 183.477546, 63: 128.184482, 64: 639.555238, 65: 152.167227, 66: 54.653136, 67: 492.491156, 68: 602.492416, 69: 95.306753, 70: 436.735726, 71: 25.504416, 72: 611.903203, 73: 35.665176, 74: 824.965918, 75: 798.328157, 76: 181.549745, 77: 269.575405, 78: 991.681979, 79: 1123.400708, 80: 610.1102550000001, 81: 792.948746, 82: 948.932442, 83: 609.199395, 84: 569.148584, 85: 630.006516, 86: 498.712526, 87: 963.236793, 88: 500.299787, 89: 144.824225, 90: 384.121102, 91: 578.008208, 92: 71.48004899999999, 93: 39.301377, 94: 444.610664, 95: 136.280508];
earn = [0: 0.680866, 1: 1.521933, 2: 1.96977, 3: 0.496952, 4: 0.567855, 5: 0.974533, 6: 1.89567, 7: 0.146849, 8: 0.342165, 9: 0.634884, 10: 0.894245, 11: 1.62287, 12: 0.138014, 13: 1.11502, 14: 1.212599, 15: 0.274751, 16: 0.716744, 17: 0.399379, 18: 0.699783, 19: 1.108238, 20: 0.44293, 21: 0.923609, 22: 1.039031, 23: 0.812889, 24: 0.527598, 25: 0.314139, 26: 0.170574, 27: 0.229264, 28: 0.267866, 29: 0.059459, 30: 0.408822, 31: 0.71605, 32: 0.817879, 33: 0.707331, 34: 0.349193, 35: 0.465457, 36: 0.319122, 37: 0.02106, 38: 0.102093, 39: 0.145282, 40: 0.047301, 41: 0.027863, 42: 0.019729, 43: 0.014586, 44: 0.017166, 45: 0.003694, 46: 0.011406, 47: 0.001793, 48: 0.001987, 49: -0.002726, 50: -0.002432, 51: -0.004331, 52: -0.001483, 53: -0.003992, 54: -0.004244, 55: -0.001368, 56: -0.005223, 57: -0.006765, 58: -0.005079, 59: -0.020568, 60: -0.002755, 61: -0.001595, 62: -0.003002, 63: -0.001881, 64: 0.000489, 65: 0.00616, 66: 0.04114, 67: 0.243014, 68: 0.509094, 69: 0.296759, 70: 0.776007, 71: 0.111277, 72: 1.701355, 73: 0.777362, 74: 0.005804, 75: 1.408074, 76: 1.145942, 77: 1.708698, 78: 0.11, 79: 1.206775, 80: 1.610951, 81: 1.334062, 82: 2.702975, 83: 0.465754, 84: 1.747861, 85: 1.45394, 86: 0.780633, 87: 0.9593469999999999, 88: 0.619019, 89: 1.242439, 90: 1.17203, 91: 0.415849, 92: 0.671192, 93: 1.269053, 94: 0.763579, 95: 0.06909800000000001];
total_cost = 56.47021177264786;
total_earn = 8.041319086736674;
