production = [0: 0.0, 1: 0.0, 2: 0.0, 3: 0.0, 4: 0.0, 5: 0.0, 6: 0.0, 7: 0.0, 8: 0.0, 9: 0.0, 10: 0.0, 11: 0.0, 12: 0.0, 13: 0.0, 14: 0.0, 15: 0.0, 16: 0.0, 17: 0.0, 18: 0.0, 19: 0.0, 20: 0.0, 21: 0.0, 22: 0.0, 23: 0.000242, 24: 0.0, 25: 0.000742, 26: 0.004513, 27: 0.026774, 28: 0.084798, 29: 0.009866, 30: 0.036821, 31: 0.086476, 32: 0.00503, 33: 0.015052, 34: 0.08012900000000001, 35: 0.098774, 36: 0.00323, 37: 0.136852, 38: 0.086981, 39: 0.206035, 40: 0.516666, 41: 0.123997, 42: 0.545809, 43: 0.300559, 44: 0.449264, 45: 0.342041, 46: 0.249033, 47: 0.421694, 48: 0.252671, 49: 0.907961, 50: 0.167699, 51: 0.646764, 52: 0.299575, 53: 0.009492, 54: 0.197124, 55: 1.473802, 56: 0.157725, 57: 0.824441, 58: 1.01731, 59: 0.20821, 60: 1.28682, 61: 0.229415, 62: 0.315668, 63: 0.283624, 64: 0.723507, 65: 1.088547, 66: 0.312062, 67: 0.198528, 68: 0.239359, 69: 0.129409, 70: 0.541948, 71: 0.106812, 72: 0.043727, 73: 0.011539, 74: 0.057526, 75: 0.029639, 76: 0.038536, 77: 0.02098, 78: 0.002581, 79: 0.000117, 80: 0.000455, 81: 0.0, 82: 0.0, 83: 0.0, 84: 0.0, 85: 0.0, 86: 0.0, 87: 0.0, 88: 0.0, 89: 0.0, 90: 0.0, 91: 0.0, 92: 0.0, 93: 0.0, 94: 0.0, 95: 0.0];
buy = [0: 796.647061, 1: 407.78756, 2: 319.272879, 3: 334.132708, 4: 122.775351, 5: 617.783012, 6: 905.890338, 7: 338.569011, 8: 280.8276, 9: 731.727261, 10: 107.305831, 11: 476.095522, 12: 619.287286, 13: 941.486278, 14: 296.310949, 15: 557.068173, 16: 827.621818, 17: 685.6415919999999, 18: 488.03526, 19: 120.128075, 20: 892.281917, 21: 289.960698, 22: 471.386306, 23: 755.784913, 24: 338.721722, 25: 80.866052, 26: 547.909204, 27: 294.30345, 28: 695.152188, 29: 156.738866, 30: 542.864436, 31: 271.553573, 32: 227.958081, 33: 879.023205, 34: 216.131505, 35: 24.390618, 36: 104.014491, 37: 650.180714, 38: 930.9731399999999, 39: 840.841956, 40: 916.398469, 41: 931.873443, 42: 400.149364, 43: 564.837996, 44: 205.805353, 45: 590.618282, 46: 776.186926, 47: 337.881775, 48: 714.104475, 49: 362.675314, 50: 336.717355, 51: 988.764667, 52: 888.309049, 53: 2.674312, 54: 645.903009, 55: 786.800477, 56: 775.88139, 57: 675.654044, 58: 191.667615, 59: 29.811922, 60: 324.559268, 61: 438.217438, 62: 167.248643, 63: 912.247662, 64: 353.604352, 65: 941.0529770000001, 66: 507.74115, 67: 986.366276, 68: 548.874261, 69: 777.830737, 70: 304.243525, 71: 692.809652, 72: 33.905062, 73: 57.192322, 74: 164.974089, 75: 493.905885, 76: 507.074645, 77: 684.7596160000001, 78: 960.964099, 79: 54.934046, 80: 273.06863, 81: 841.1419529999999, 82: 174.293107, 83: 72.39900900000001, 84: 751.268291, 85: 445.41275, 86: 675.6350190000001, 87: 771.364028, 88: 960.823873, 89: 854.722655, 90: 994.795874, 91: 737.186051, 92: 794.059169, 93: 94.211303, 94: 975.474917, 95: 288.116663];
sell = [0: 2.73122, 1: 2.257092, 2: 0.31434, 3: 0.223681, 4: 3.654079, 5: 2.315488, 6: 2.967066, 7: 3.244645, 8: 3.018579, 9: 3.104426, 10: 3.461443, 11: 0.961935, 12: 2.364518, 13: 3.939141, 14: 2.515459, 15: 0.666365, 16: 3.374897, 17: 3.414259, 18: 3.462966, 19: 0.420347, 20: 1.687539, 21: 0.432633, 22: 3.781726, 23: 0.178574, 24: 2.674316, 25: 1.757366, 26: 0.015441, 27: 1.013211, 28: 0.339186, 29: 2.418717, 30: 2.641992, 31: 1.150261, 32: 3.418035, 33: 0.170075, 34: 2.961504, 35: 0.446743, 36: 0.878952, 37: 1.295484, 38: 3.040133, 39: 2.807846, 40: 1.587652, 41: 0.183544, 42: 2.665843, 43: 1.252022, 44: 1.701565, 45: 0.865906, 46: 3.805538, 47: 2.281178, 48: 3.877093, 49: 0.365207, 50: 1.170755, 51: 3.65568, 52: 1.020118, 53: 1.863922, 54: 0.036259, 55: 3.163522, 56: 2.987808, 57: 0.601701, 58: 2.658855, 59: 2.699315, 60: 0.059902, 61: 1.536259, 62: 3.321658, 63: 0.207101, 64: 0.158852, 65: 1.184485, 66: 3.587255, 67: 3.319612, 68: 2.989003, 69: 0.6452329999999999, 70: 1.241618, 71: 0.032834, 72: 3.110903, 73: 3.519957, 74: 1.290932, 75: 2.90607, 76: 1.447108, 77: 3.147592, 78: 2.628717, 79: 1.739255, 80: 0.6512289999999999, 81: 3.590181, 82: 2.775152, 83: 2.152524, 84: 1.385589, 85: 0.156972, 86: 1.324866, 87: 3.18, 88: 0.677284, 89: 2.243032, 90: 0.883319, 91: 2.224237, 92: 1.931834, 93: 1.09817, 94: 0.448501, 95: 0.554662];
charge = [0: 0.838578, 1: 0.281447, 2: 0.006984, 3: 0.607552, 4: 0.15381, 5: 0.6509740000000001, 6: 0.523161, 7: 0.279953, 8: 0.216098, 9: 0.915834, 10: 0.891312, 11: 0.24159, 12: 0.639834, 13: 0.843017, 14: 0.94346, 15: 0.69328, 16: 0.129283, 17: 0.054566, 18: 0.848958, 19: 0.6388, 20: 0.457349, 21: 0.989926, 22: 0.406182, 23: 0.030836, 24: 0.33553, 25: 0.5991300000000001, 26: 0.763437, 27: 0.980975, 28: 0.752597, 29: 0.210186, 30: 0.269683, 31: 0.145663, 32: 0.8440569999999999, 33: 0.315427, 34: 0.559628, 35: 0.208055, 36: 0.116913, 37: 0.698107, 38: 0.628389, 39: 0.359252, 40: 0.07741099999999999, 41: 0.06425500000000001, 42: 0.784332, 43: 0.686464, 44: 0.420784, 45: 0.796551, 46: 0.668538, 47: 0.676589, 48: 0.701766, 49: 0.577169, 50: 0.891757, 51: 0.478604, 52: 0.157209, 53: 0.75551, 54: 0.623252, 55: 0.52869, 56: 0.609337, 57: 0.231417, 58: 0.77372, 59: 0.199242, 60: 0.765475, 61: 0.114275, 62: 0.76037, 63: 0.354044, 64: 0.7519709999999999, 65: 0.491164, 66: 0.350132, 67: 0.686456, 68: 0.230912, 69: 0.7033199999999999, 70: 0.60904, 71: 0.303246, 72: 0.081326, 73: 0.617196, 74: 0.448189, 75: 0.8559099999999999, 76: 0.609501, 77: 0.021773, 78: 0.586073, 79: 0.187437, 80: 0.521504, 81: 0.483219, 82: 0.282755, 83: 0.111561, 84: 0.618371, 85: 0.390154, 86: 0.55636, 87: 0.300345, 88: 0.06990200000000001, 89: 0.218601, 90: 0.318884, 91: 0.733331, 92: 0.485165, 93: 0.6228630000000001, 94: 0.2722, 95: 0.8039809999999999];
discharge = [0: 0.942072, 1: 0.326389, 2: 0.762428, 3: 0.547227, 4: 0.259747, 5: 0.388941, 6: 0.548781, 7: 0.409542, 8: 0.596236, 9: 0.189573, 10: 0.744019, 11: 0.986659, 12: 0.812934, 13: 0.443263, 14: 0.199784, 15: 0.308668, 16: 0.716039, 17: 0.233188, 18: 0.125107, 19: 0.8077, 20: 0.379464, 21: 0.943405, 22: 0.948462, 23: 0.898459, 24: 0.244964, 25: 0.168826, 26: 0.851983, 27: 0.465371, 28: 0.985675, 29: 0.777135, 30: 0.611746, 31: 0.183154, 32: 0.651637, 33: 0.376251, 34: 0.397609, 35: 0.577531, 36: 0.554049, 37: 0.58106, 38: 0.465389, 39: 0.147048, 40: 0.673199, 41: 0.059149, 42: 0.3097, 43: 0.144532, 44: 0.148127, 45: 0.040599, 46: 0.989357, 47: 0.412287, 48: 0.341687, 49: 0.333964, 50: 0.485542, 51: 0.339981, 52: 0.431849, 53: 0.419702, 54: 0.239847, 55: 0.017738, 56: 0.130458, 57: 0.478411, 58: 0.161562, 59: 0.68646, 60: 0.841012, 61: 0.811837, 62: 0.598083, 63: 0.318582, 64: 0.696224, 65: 0.696299, 66: 0.590772, 67: 0.474591, 68: 0.057183, 69: 0.349864, 70: 0.440686, 71: 0.783355, 72: 0.6963200000000001, 73: 0.685329, 74: 0.989632, 75: 0.7424770000000001, 76: 0.924206, 77: 0.641105, 78: 0.490756, 79: 0.705126, 80: 0.895779, 81: 0.590049, 82: 0.572257, 83: 0.966543, 84: 0.373362, 85: 0.381977, 86: 0.6490050000000001, 87: 0.411718, 88: 0.105912, 89: 0.019677, 90: 0.192911, 91: 0.459098, 92: 0.439397, 93: 0.628323, 94: 0.959477, 95: 0.962947];
soc = [0: 10.411822, 1: 11.688181, 2: 7.499125, 3: 9.476533999999999, 4: 7.204808, 5: 7.46954, 6: 13.034987, 7: 9.31081, 8: 3.407298, 9: 6.190551, 10: 15.356315, 11: 8.221349, 12: 7.274472, 13: 9.294816000000001, 14: 11.159249, 15: 6.697039, 16: 4.175868, 17: 14.445385, 18: 13.671154, 19: 7.249016, 20: 3.283517, 21: 11.585676, 22: 14.555207, 23: 13.600679, 24: 8.722451, 25: 4.879102, 26: 10.182583, 27: 11.946771, 28: 3.162156, 29: 11.833151, 30: 3.866337, 31: 13.243013, 32: 12.363382, 33: 11.216786, 34: 8.996235, 35: 10.7925, 36: 12.998927, 37: 6.594108, 38: 12.85439, 39: 3.919106, 40: 7.022071, 41: 14.43285, 42: 6.162396, 43: 11.641804, 44: 7.760362, 45: 7.275471, 46: 13.103185, 47: 10.778666, 48: 5.6755, 49: 5.560365, 50: 10.066113, 51: 6.596735, 52: 7.989845, 53: 3.034602, 54: 7.217791, 55: 12.769303, 56: 3.794641, 57: 5.007807, 58: 11.545904, 59: 13.98924, 60: 7.010926, 61: 2.961077, 62: 3.962952, 63: 5.15323, 64: 11.049177, 65: 14.157743, 66: 5.565448, 67: 7.794714, 68: 10.193567, 69: 6.29082, 70: 7.799026, 71: 9.466048000000001, 72: 13.10425, 73: 6.020672, 74: 4.892925, 75: 10.84723, 76: 3.282741, 77: 9.735916, 78: 11.71709, 79: 10.162439, 80: 2.670459, 81: 12.393162, 82: 2.72436, 83: 5.748742, 84: 6.267255, 85: 5.600289, 86: 4.107203, 87: 9.02772, 88: 9.231683, 89: 10.702545, 90: 3.130466, 91: 7.715925, 92: 4.911096, 93: 14.888791, 94: 11.92613, 95: 13.147151];
cost = [0: 381.973764, 1: 544.990148, 2: 484.343632, 3: 5.209514, 4: 171.467483, 5: 608.087797, 6: 216.610675, 7: 107.649607, 8: 345.885774, 9: 435.440809, 10: 563.0585139999999, 11: 609.01042, 12: 610.345997, 13: 285.67842, 14: 17.526718, 15: 153.824885, 16: 435.177876, 17: 67.898207, 18: 147.832597, 19: 165.599017, 20: 409.580922, 21: 433.502422, 22: 58.27661, 23: 54.883005, 24: 590.47097, 25: 184.155061, 26: 318.442002, 27: 207.093293, 28: 486.226653, 29: 72.421243, 30: 1139.152947, 31: 411.103784, 32: 76.882892, 33: 853.130177, 34: 0.566246, 35: 812.755028, 36: 469.528541, 37: 1006.678297, 38: 778.37802, 39: 859.804819, 40: 600.8255370000001, 41: 119.913288, 42: 545.583835, 43: 841.219349, 44: 544.523585, 45: 762.146113, 46: 660.057134, 47: 4.981857, 48: 838.3716449999999, 49: 197.032689, 50: 632.318161, 51: 1167.204508, 52: 430.695065, 53: 224.875804, 54: 226.807092, 55: 328.731844, 56: 328.034462, 57: 534.814113, 58: 25.999013, 59: 607.299326, 60: 871.060984, 61: 144.380364, 62: 113.177792, 63: 569.26259, 64: 371.85743, 65: 20.736413, 66: 757.73471, 67: 1022.242942, 68: 40.605038, 69: 43.496435, 70: 576.399, 71: 747.304459, 72: 1114.052899, 73: 634.225159, 74: 161.418293, 75: 284.556419, 76: 980.772318, 77: 448.259744, 78: 1182.576632, 79: 261.737397, 80: 495.189762, 81: 948.04946, 82: 266.46805, 83: 919.66002, 84: 211.861306, 85: 451.135698, 86: 426.179679, 87: 932.686549, 88: 348.686701, 89: 317.655367, 90: 491.252141, 91: 371.398251, 92: 209.451188, 93: 357.162645, 94: 517.393002, 95: 326.659499];
earn = [0: 0.898752, 1: 0.697572, 2: 1.565216, 3: 1.804437, 4: 1.4978, 5: 1.081024, 6: 1.49951, 7: 0.110024, 8: 1.506096, 9: 0.512557, 10: 0.169368, 11: 0.36115, 12: 0.587082, 13: 0.885409, 14: 0.11142, 15: 0.667882, 16: 1.437916, 17: 0.89547, 18: 0.190072, 19: 0.962226, 20: 0.417383, 21: 0.634672, 22: 0.683088, 23: 0.691967, 24: 0.218667, 25: 0.317094, 26: 0.728847, 27: 0.466927, 28: 0.802391, 29: 0.149078, 30: 0.779782, 31: 0.377654, 32: 0.713217, 33: 0.659735, 34: 0.196849, 35: 0.035481, 36: 0.347378, 37: 0.063942, 38: 0.207056, 39: 0.195707, 40: 0.033709, 41: 0.018829, 42: 0.040741, 43: 0.028736, 44: 0.012272, 45: 0.020216, 46: 0.006068, 47: 1.8e-05, 48: 0.004834, 49: -0.000741, 50: -7.6e-05, 51: -0.001668, 52: -0.000757, 53: -0.003577, 54: -0.00745, 55: -0.001061, 56: -0.011183, 57: -0.017144, 58: -0.00371, 59: -0.021032, 60: -0.002072, 61: -0.000955, 62: -0.001385, 63: -0.001267, 64: 0.000241, 65: 0.011515, 66: 0.007808, 67: 0.240611, 68: 0.587744, 69: 0.72068, 70: 0.013882, 71: 1.105433, 72: 0.292202, 73: 1.494019, 74: 2.038859, 75: 0.334589, 76: 0.328888, 77: 1.865346, 78: 0.994578, 79: 2.683394, 80: 0.498623, 81: 2.549532, 82: 0.59899, 83: 1.960391, 84: 2.230931, 85: 1.97318, 86: 0.972388, 87: 0.038091, 88: 2.197257, 89: 0.673584, 90: 0.084865, 91: 1.850652, 92: 0.281461, 93: 1.675082, 94: 1.115231, 95: 0.136274];
total_cost = 49.34234650651042;
total_earn = 6.772301600000006;
