production = [0: 0.0, 1: 0.0, 2: 0.0, 3: 0.0, 4: 0.0, 5: 0.0, 6: 0.0, 7: 0.0, 8: 0.0, 9: 0.0, 10: 0.0, 11: 0.0, 12: 0.0, 13: 0.0, 14: 0.0, 15: 0.0, 16: 0.0, 17: 0.0, 18: 0.0, 19: 0.0, 20: 0.0, 21: 0.0, 22: 0.0, 23: 0.00027, 24: 0.0, 25: 0.000804, 26: 0.005885, 27: 0.028502, 28: 0.058096, 29: 0.019614, 30: 0.000423, 31: 0.076262, 32: 0.055708, 33: 0.010946, 34: 0.137365, 35: 0.09070499999999999, 36: 0.021573, 37: 0.031579, 38: 0.06987599999999999, 39: 0.062873, 40: 0.171565, 41: 0.408954, 42: 0.153287, 43: 0.220772, 44: 0.083103, 45: 0.370978, 46: 0.613251, 47: 0.003731, 48: 0.358302, 49: 0.735112, 50: 0.48592, 51: 0.450049, 52: 0.458381, 53: 0.582299, 54: 0.428535, 55: 0.008753, 56: 0.101951, 57: 1.110068, 58: 0.604316, 59: 0.070577, 60: 0.948141, 61: 0.488269, 62: 0.52494, 63: 0.277291, 64: 0.717019, 65: 0.165984, 66: 1.087803, 67: 0.248005, 68: 0.149881, 69: 0.487407, 70: 0.302356, 71: 0.441273, 72: 0.101076, 73: 0.02201, 74: 0.061757, 75: 0.047983, 76: 0.019552, 77: 0.01855, 78: 0.002654, 79: 0.000693, 80: 0.000295, 81: 0.0, 82: 0.0, 83: 0.0, 84: 0.0, 85: 0.0, 86: 0.0, 87: 0.0, 88: 0.0, 89: 0.0, 90: 0.0, 91: 0.0, 92: 0.0, 93: 0.0, 94: 0.0, 95: 0.0];
buy = [0: 298.870623, 1: 613.847627, 2: 427.92173, 3: 430.875844, 4: 262.625883, 5: 887.030989, 6: 483.150637, 7: 772.847416, 8: 791.92849, 9: 705.862291, 10: 154.44768, 11: 172.083524, 12: 355.510533, 13: 401.015191, 14: 664.323289, 15: 916.74766, 16: 681.87323, 17: 177.495495, 18: 727.634913, 19: 412.006789, 20: 896.564912, 21: 530.516692, 22: 359.21224, 23: 573.831161, 24: 511.164847, 25: 589.101481, 26: 342.957818, 27: 295.237513, 28: 822.928861, 29: 249.77131, 30: 221.337066, 31: 705.872797, 32: 698.710795, 33: 294.288893, 34: 141.866571, 35: 52.216565, 36: 676.586711, 37: 514.552374, 38: 782.456586, 39: 159.210581, 40: 18.02743, 41: 70.008641, 42: 760.252104, 43: 80.582615, 44: 235.848639, 45: 134.05228, 46: 722.872643, 47: 58.885097, 48: 538.69673, 49: 543.885319, 50: 57.895183, 51: 760.551456, 52: 270.863958, 53: 14.473836, 54: 22.97232, 55: 242.205532, 56: 722.074631, 57: 17.157362, 58: 11.532135, 59: 652.1507350000001, 60: 18.585397, 61: 293.945195, 62: 418.567392, 63: 821.788378, 64: 818.412194, 65: 461.457279, 66: 700.5435199999999, 67: 778.109282, 68: 672.577812, 69: 890.786742, 70: 885.830072, 71: 859.187233, 72: 275.423414, 73: 239.097704, 74: 489.00759, 75: 974.8986149999999, 76: 685.808802, 77: 232.82115, 78: 835.298016, 79: 872.6440679999999, 80: 334.61943, 81: 936.447941, 82: 817.8988859999999, 83: 548.083265, 84: 160.27021, 85: 689.490248, 86: 934.3683140000001, 87: 942.241037, 88: 419.925267, 89: 832.52256, 90: 607.784942, 91: 256.976671, 92: 492.48751, 93: 116.92888, 94: 22.469389, 95: 773.273639];
sell = [0: 0.428929, 1: 3.821902, 2: 2.012853, 3: 0.911765, 4: 2.549726, 5: 1.711079, 6: 3.394321, 7: 2.692418, 8: 2.9132, 9: 2.767774, 10: 1.674938, 11: 3.697776, 12: 1.622355, 13: 2.661541, 14: 1.018034, 15: 1.251445, 16: 0.844648, 17: 1.081942, 18: 3.326903, 19: 3.530403, 20: 1.735035, 21: 3.246457, 22: 1.75761, 23: 1.619355, 24: 3.341135, 25: 0.30832, 26: 2.826306, 27: 3.258683, 28: 1.02193, 29: 2.472899, 30: 1.991101, 31: 3.168373, 32: 2.746708, 33: 1.538575, 34: 0.248152, 35: 2.771439, 36: 1.440758, 37: 3.55622, 38: 0.640508, 39: 1.702551, 40: 3.95106, 41: 3.559071, 42: 0.796988, 43: 2.528705, 44: 0.521416, 45: 1.822674, 46: 0.768111, 47: 3.887327, 48: 3.779844, 49: 0.024558, 50: 3.21463, 51: 1.867685, 52: 0.019492, 53: 1.572304, 54: 3.454654, 55: 2.360058, 56: 1.596128, 57: 3.055862, 58: 1.844858, 59: 2.373922, 60: 2.890647, 61: 3.171785, 62: 3.782477, 63: 0.353066, 64: 3.934773, 65: 0.666277, 66: 3.361857, 67: 1.834442, 68: 2.537087, 69: 2.016154, 70: 0.6439319999999999, 71: 1.087574, 72: 3.567253, 73: 0.48097, 74: 1.15042, 75: 1.946249, 76: 2.228198, 77: 1.37792, 78: 2.870122, 79: 1.968933, 80: 2.278971, 81: 0.7705149999999999, 82: 3.183253, 83: 1.215115, 84: 0.347268, 85: 3.881879, 86: 0.034189, 87: 0.71752, 88: 1.444585, 89: 0.805647, 90: 1.642207, 91: 1.070031, 92: 0.043974, 93: 2.059487, 94: 1.099162, 95: 1.421479];
charge = [0: 0.141373, 1: 0.470169, 2: 0.118224, 3: 0.934789, 4: 0.232553, 5: 0.814876, 6: 0.399351, 7: 0.895389, 8: 0.76346, 9: 0.919839, 10: 0.97189, 11: 0.14064, 12: 0.36782, 13: 0.62025, 14: 0.609421, 15: 0.591199, 16: 0.359672, 17: 0.483844, 18: 0.630251, 19: 0.260825, 20: 0.5488459999999999, 21: 0.153354, 22: 0.175655, 23: 0.211317, 24: 0.132742, 25: 0.287895, 26: 0.122173, 27: 0.982021, 28: 0.385804, 29: 0.808815, 30: 0.142715, 31: 0.273352, 32: 0.289738, 33: 0.859217, 34: 0.191345, 35: 0.723298, 36: 0.901786, 37: 0.802274, 38: 0.689964, 39: 0.754294, 40: 0.702372, 41: 0.353924, 42: 0.8537439999999999, 43: 0.94055, 44: 0.440555, 45: 0.310571, 46: 0.299574, 47: 0.289001, 48: 0.373355, 49: 0.48839, 50: 0.292078, 51: 0.987326, 52: 0.7075939999999999, 53: 0.537672, 54: 0.557775, 55: 0.238928, 56: 0.457553, 57: 0.761227, 58: 0.458945, 59: 0.205152, 60: 0.35879, 61: 0.795077, 62: 0.475318, 63: 0.681145, 64: 0.466002, 65: 0.110447, 66: 0.57014, 67: 0.514756, 68: 0.506362, 69: 0.97753, 70: 0.781124, 71: 0.767601, 72: 0.049354, 73: 0.947888, 74: 0.329598, 75: 0.738801, 76: 0.559917, 77: 0.214888, 78: 0.001872, 79: 0.611082, 80: 0.854244, 81: 0.612484, 82: 0.558826, 83: 0.62706, 84: 0.960788, 85: 0.80631, 86: 0.459093, 87: 0.856891, 88: 0.198674, 89: 0.664552, 90: 0.114971, 91: 0.345679, 92: 0.206763, 93: 0.424634, 94: 0.9189310000000001, 95: 0.236265];
discharge = [0: 0.674103, 1: 0.702451, 2: 0.804487, 3: 0.510729, 4: 0.015192, 5: 0.853512, 6: 0.08897099999999999, 7: 0.955602, 8: 0.40849, 9: 0.705433, 10: 0.351449, 11: 0.223265, 12: 0.173469, 13: 0.827657, 14: 0.472588, 15: 0.299846, 16: 0.253977, 17: 0.6578270000000001, 18: 0.483195, 19: 0.9384749999999999, 20: 0.05671, 21: 0.979427, 22: 0.573537, 23: 0.870633, 24: 0.557181, 25: 0.551885, 26: 0.800128, 27: 0.48604, 28: 0.584083, 29: 0.209847, 30: 0.45891, 31: 0.961048, 32: 0.455385, 33: 0.061795, 34: 0.915622, 35: 0.764256, 36: 0.77668, 37: 0.525748, 38: 0.194803, 39: 0.669388, 40: 0.067306, 41: 0.181216, 42: 0.376084, 43: 0.177332, 44: 0.01848, 45: 0.108882, 46: 0.256921, 47: 0.387749, 48: 0.379247, 49: 0.291748, 50: 0.21009, 51: 0.363613, 52: 0.377557, 53: 0.664395, 54: 0.504037, 55: 0.377222, 56: 0.149911, 57: 0.201649, 58: 0.378918, 59: 0.884571, 60: 0.657459, 61: 0.094981, 62: 0.814645, 63: 0.390081, 64: 0.989827, 65: 0.507586, 66: 0.324012, 67: 0.131365, 68: 0.472296, 69: 0.294844, 70: 0.7705880000000001, 71: 0.6480860000000001, 72: 0.750784, 73: 0.333595, 74: 0.514833, 75: 0.021244, 76: 0.06351800000000001, 77: 0.83369, 78: 0.908084, 79: 0.267002, 80: 0.253107, 81: 0.778599, 82: 0.348065, 83: 0.395314, 84: 0.692361, 85: 0.700721, 86: 0.55466, 87: 0.6823709999999999, 88: 0.969853, 89: 0.844946, 90: 0.40631, 91: 0.030632, 92: 0.702217, 93: 0.106723, 94: 0.090304, 95: 0.533767];
soc = [0: 10.790778, 1: 11.666452, 2: 10.016035, 3: 8.535295, 4: 5.028916, 5: 9.458793999999999, 6: 11.47555, 7: 7.153915, 8: 4.184676, 9: 5.262431, 10: 11.26925, 11: 8.624744, 12: 13.064761, 13: 5.145619, 14: 12.398529, 15: 12.869531, 16: 4.125802, 17: 5.636805, 18: 3.823656, 19: 12.497334, 20: 5.631411, 21: 15.637789, 22: 10.258906, 23: 4.681373, 24: 13.570609, 25: 6.253325, 26: 7.126849, 27: 8.744930999999999, 28: 9.040957000000001, 29: 9.330408, 30: 9.029285, 31: 14.736743, 32: 6.089948, 33: 9.208729999999999, 34: 2.841469, 35: 11.773102, 36: 11.130633, 37: 14.656381, 38: 10.107736, 39: 13.258051, 40: 8.725208, 41: 15.539409, 42: 3.864581, 43: 9.645123999999999, 44: 4.553157, 45: 3.079108, 46: 11.037155, 47: 11.473423, 48: 11.104364, 49: 10.616327, 50: 8.064517, 51: 3.931911, 52: 15.334138, 53: 7.28272, 54: 5.759049, 55: 3.069441, 56: 2.87679, 57: 6.485149, 58: 10.964226, 59: 11.712023, 60: 13.458125, 61: 10.58303, 62: 10.691025, 63: 13.291625, 64: 14.018147, 65: 14.166876, 66: 6.234547, 67: 15.397032, 68: 9.610545999999999, 69: 4.150474, 70: 10.057758, 71: 11.659772, 72: 8.380874, 73: 11.943154, 74: 5.38298, 75: 14.700152, 76: 13.350349, 77: 11.470994, 78: 7.361704, 79: 8.408773, 80: 15.143844, 81: 6.912852, 82: 4.200416, 83: 11.824146, 84: 4.160295, 85: 14.539444, 86: 7.548478, 87: 9.550818, 88: 7.437731, 89: 12.526224, 90: 9.234674, 91: 14.527096, 92: 14.895096, 93: 5.385776, 94: 3.585416, 95: 12.621955];
cost = [0: 61.115468, 1: 90.172738, 2: 102.674685, 3: 44.371297, 4: 10.788722, 5: 466.408808, 6: 457.748759, 7: 208.86546, 8: 5.211441, 9: 158.347713, 10: 307.950744, 11: 602.327501, 12: 294.859133, 13: 47.713621, 14: 452.782259, 15: 369.923279, 16: 324.481015, 17: 234.402568, 18: 335.678168, 19: 335.945118, 20: 371.620522, 21: 202.935747, 22: 329.495624, 23: 587.267785, 24: 571.796573, 25: 838.810052, 26: 894.21126, 27: 789.366682, 28: 784.551419, 29: 225.98199, 30: 172.824362, 31: 823.587563, 32: 253.972357, 33: 487.531531, 34: 300.327779, 35: 289.202874, 36: 288.77061, 37: 996.997536, 38: 784.1551020000001, 39: 996.82759, 40: 565.924031, 41: 1157.903207, 42: 19.158228, 43: 721.134871, 44: 749.714952, 45: 527.303631, 46: 219.480957, 47: 131.210445, 48: 457.083576, 49: 969.832151, 50: 853.394903, 51: 770.3828140000001, 52: 324.310684, 53: 317.843468, 54: 441.479786, 55: 413.806108, 56: 433.479476, 57: 324.109423, 58: 172.640252, 59: 75.701747, 60: 130.768031, 61: 931.9939859999999, 62: 820.639109, 63: 1187.144334, 64: 184.839682, 65: 412.029616, 66: 653.99251, 67: 414.114025, 68: 571.728208, 69: 321.449203, 70: 54.199005, 71: 541.628014, 72: 549.275471, 73: 238.957855, 74: 500.64646, 75: 543.869541, 76: 896.725236, 77: 40.104543, 78: 170.855838, 79: 760.862289, 80: 615.653875, 81: 1012.927324, 82: 600.001387, 83: 296.736258, 84: 1165.865253, 85: 139.220544, 86: 183.996891, 87: 548.433638, 88: 312.770588, 89: 158.413415, 90: 188.679823, 91: 216.943341, 92: 316.673692, 93: 260.063742, 94: 415.461418, 95: 310.444165];
earn = [0: 0.380002, 1: 1.699011, 2: 1.942509, 3: 0.486996, 4: 1.15918, 5: 0.219279, 6: 1.721982, 7: 1.267744, 8: 1.339526, 9: 1.312062, 10: 1.007842, 11: 0.809746, 12: 0.338328, 13: 1.42663, 14: 0.648272, 15: 0.525061, 16: 0.507551, 17: 0.484912, 18: 0.491842, 19: 0.36162, 20: 0.226098, 21: 0.462333, 22: 0.851729, 23: 0.728259, 24: 0.626121, 25: 0.376585, 26: 1.02917, 27: 0.857668, 28: 0.041942, 29: 1.112617, 30: 0.153761, 31: 0.52604, 32: 0.783435, 33: 0.415979, 34: 0.327076, 35: 0.375614, 36: 0.023486, 37: 0.080594, 38: 0.041456, 39: 0.049774, 40: 0.028685, 41: 0.00112, 42: 0.036868, 43: 0.002097, 44: 0.010632, 45: 0.002879, 46: 0.007388, 47: 0.00219, 48: 0.001793, 49: -0.003304, 50: -0.001568, 51: -0.004704, 52: -0.000155, 53: -0.002903, 54: -0.001133, 55: -0.005729, 56: -0.006435, 57: -0.010195, 58: -0.016269, 59: -0.021329, 60: -0.001621, 61: -0.003423, 62: -0.003486, 63: -0.001807, 64: 0.000156, 65: 0.008584, 66: 0.001905, 67: 0.188376, 68: 0.452082, 69: 0.570093, 70: 0.062723, 71: 0.611274, 72: 0.327491, 73: 0.164202, 74: 0.772003, 75: 0.119678, 76: 1.288969, 77: 2.015447, 78: 1.336892, 79: 2.61828, 80: 2.359447, 81: 0.141069, 82: 2.059539, 83: 1.899439, 84: 1.888806, 85: 0.252788, 86: 0.489848, 87: 1.039358, 88: 1.490551, 89: 1.710423, 90: 1.119445, 91: 1.443472, 92: 1.077459, 93: 0.505734, 94: 1.252924, 95: 1.248183];
total_cost = 49.34234650651042;
total_earn = 6.772301600000006;
