production = [0.0, 0.0, 0.0, 0.0, 0.0, 0.0, 0.0, 0.0, 0.0, 0.0, 0.0, 0.0, 0.0, 0.0, 0.0, 0.0, 0.0, 0.0, 0.0, 0.0, 0.0, 0.0, 0.0, 0.000242, 0.000324, 0.001791, 0.07230399999999999, 0.131408, 0.002407, 0.011487, 0.054412, 0.040949, 0.090296, 0.008799, 0.147634, 0.127447, 0.232001, 0.21648, 0.136556, 0.412461, 0.564051, 0.493426, 0.480797, 0.04652, 0.328079, 0.136805, 0.239286, 0.015394, 0.155212, 0.072425, 0.028118, 0.201928, 0.066343, 0.019343, 0.20229, 0.177624, 0.169228, 0.16424, 0.171139, 0.010738, 0.139853, 0.130902, 0.048522, 0.144223, 0.186602, 0.015623, 0.08830499999999999, 0.081695, 0.08065899999999999, 0.021616, 0.005298, 0.000453, 0.0, 0.0, 0.0, 0.0, 0.0, 0.0, 0.0, 0.0, 0.0, 0.0, 0.0, 0.0, 0.0, 0.0, 0.0, 0.0, 0.0, 0.0, 0.0, 0.0, 0.0, 0.0, 0.0, 0.0, 0.0, 0.0, 0.0, 0.0, 0.0, 0.0, 0.0, 0.0, 0.0, 0.0, 0.0, 0.0, 0.0, 0.0, 0.0, 0.0, 0.0, 0.0, 0.0, 0.0, 0.0, 0.0, 0.0, 0.000189, 0.001329, 0.008265, 0.008156, 0.018876, 0.053812, 0.160714, 0.126404, 0.08648500000000001, 0.301074, 0.027287, 0.143856, 0.245728, 0.21933, 0.388813, 0.665752, 0.633339, 0.43673, 1.26922, 0.8433580000000001, 0.247816, 0.397607, 1.214168, 0.131068, 0.207909, 1.947898, 0.026152, 0.173494, 1.49703, 0.08524900000000001, 0.548957, 0.473272, 0.630395, 0.486443, 0.253368, 0.05764, 0.119168, 0.049834, 0.264481, 0.133183, 0.01466, 0.124702, 0.243885, 0.191708, 0.01809, 0.017585, 0.027382, 0.023296, 0.030557, 0.000759, 0.000279, 0.0, 0.0, 0.0, 0.0, 0.0, 0.0, 0.0, 0.0, 0.0, 0.0, 0.0, 0.0, 0.0, 0.0, 0.0, 0.0, 0.0, 0.0, 0.0, 0.0, 0.0, 0.0];
buy = [885.747418, 32.998315, 745.701253, 775.842674, 169.021722, 879.520561, 873.539448, 500.542862, 411.898751, 243.8798, 524.502105, 839.838808, 152.284618, 13.582699, 385.644875, 472.428108, 332.602645, 441.156322, 188.080205, 30.583503, 667.609392, 715.473964, 18.72441, 45.86339, 244.678558, 317.262357, 19.458078, 659.429999, 260.730997, 695.2398010000001, 394.807371, 783.192809, 844.451846, 196.149366, 599.573596, 950.414096, 670.84154, 959.128081, 806.466734, 601.45429, 794.149128, 719.346957, 98.568658, 998.698296, 68.446471, 589.091093, 432.106536, 610.630191, 42.226525, 546.161593, 888.077122, 732.478647, 432.211828, 800.904752, 154.240717, 207.097305, 559.005547, 483.364563, 187.052333, 412.8172, 485.725422, 268.56999, 843.4471610000001, 771.53057, 305.215414, 792.804886, 454.337893, 871.138103, 703.286938, 485.005797, 6.250142, 77.84185100000001, 913.919211, 773.163186, 808.245532, 9.78289, 782.457848, 37.254285, 987.908146, 361.855155, 406.844866, 144.882641, 553.111632, 206.494632, 198.984835, 545.700375, 764.887547, 275.787364, 712.341355, 330.633601, 666.1012449999999, 743.370423, 29.625752, 79.412667, 220.893968, 382.061546, 889.568344, 465.439026, 661.024548, 276.077543, 509.4145, 563.656617, 753.051875, 831.525075, 66.60263, 519.461644, 517.41066, 470.380796, 785.610962, 823.1913, 397.739818, 151.043286, 824.606131, 450.800226, 988.300534, 651.823444, 540.189402, 530.809699, 275.164629, 184.616432, 799.854801, 159.765744, 414.094581, 619.792353, 283.423008, 888.346315, 57.65749, 794.748301, 707.488641, 122.733091, 169.200288, 370.388403, 41.8649, 449.992688, 762.984378, 895.273398, 382.285658, 986.218433, 78.994569, 650.403373, 148.067851, 2.65027, 101.375758, 748.1111979999999, 181.326012, 861.63785, 622.810465, 800.568535, 289.779997, 949.815555, 507.93044, 445.134267, 466.123351, 390.220298, 844.675296, 757.800764, 463.974555, 603.244532, 756.613655, 489.926457, 230.614949, 554.107672, 469.446618, 953.278865, 161.218781, 868.911694, 450.336892, 961.136598, 225.830194, 939.543056, 151.603628, 77.89921099999999, 122.771173, 791.196148, 19.971059, 195.715719, 34.827589, 751.0761220000001, 897.420672, 796.713986, 441.528125, 827.547488, 560.315837, 139.580268, 874.0966560000001, 412.520649, 476.511765, 720.2943739999999, 974.284735, 846.442678, 365.859897, 291.477595];
sell = [2.137388, 1.661503, 3.018207, 3.401272, 3.832847, 0.543274, 2.427182, 2.166167, 1.405396, 1.473903, 1.381417, 0.090296, 1.037896, 1.730839, 2.01106, 1.479138, 1.301317, 2.676422, 0.056017, 3.46612, 1.11247, 2.117103, 0.098485, 0.541919, 2.941123, 0.288688, 1.551377, 0.448032, 3.198234, 3.249788, 1.253187, 0.012892, 3.18188, 1.908566, 2.38772, 2.035604, 3.044846, 3.013968, 1.066119, 3.987947, 3.452666, 0.024395, 1.516686, 1.510598, 0.660795, 3.825999, 0.307175, 0.242567, 0.385696, 1.914875, 1.439582, 2.344762, 2.209075, 2.603646, 1.940174, 3.576052, 2.907404, 1.796742, 3.112332, 0.708021, 2.645222, 3.215859, 0.34446, 3.758927, 2.172886, 0.671403, 0.310855, 1.957172, 3.513074, 0.9707249999999999, 2.518366, 1.302064, 3.05881, 1.399534, 0.632649, 0.588817, 0.884445, 3.651632, 0.957514, 3.431011, 0.437339, 3.066362, 3.482956, 3.413283, 0.597046, 2.436327, 2.871633, 3.829413, 0.124747, 2.318603, 2.688387, 1.208298, 2.728308, 0.476201, 0.629701, 0.315177, 2.84085, 3.530298, 3.825203, 3.696313, 3.442102, 0.405495, 1.371052, 3.502545, 3.205365, 0.110927, 2.176646, 0.06371599999999999, 1.396692, 2.70815, 0.07791099999999999, 1.193036, 1.946892, 0.316999, 1.932813, 2.986395, 0.166542, 3.573767, 3.973868, 1.116918, 0.479393, 3.235071, 0.212777, 1.0868, 3.901231, 2.100758, 2.983573, 0.464525, 2.427017, 3.373585, 3.815417, 3.500208, 1.257645, 2.475363, 3.481382, 3.450129, 2.949777, 3.938244, 1.223249, 0.508014, 0.368115, 1.063976, 3.456123, 3.99154, 1.064233, 3.453372, 3.723937, 1.085307, 3.220458, 2.039542, 0.285314, 1.761303, 0.195229, 3.68098, 3.295678, 1.936322, 2.302623, 1.994629, 3.968331, 1.996242, 2.655739, 1.980866, 2.152019, 1.630139, 3.638297, 1.803379, 1.904252, 0.730917, 0.042322, 0.701566, 1.822361, 0.419989, 3.974305, 0.011265, 3.368847, 1.210552, 1.664681, 3.699701, 0.428362, 2.373543, 3.073074, 3.42931, 0.9598, 1.337132, 0.053746, 2.867544, 2.317347, 0.648701, 2.212085, 2.40205, 0.412836, 0.494914];
charge = [0.659122, 0.503667, 0.52999, 0.5638030000000001, 0.398744, 0.08035399999999999, 0.573937, 0.580912, 0.484548, 0.6896600000000001, 0.277766, 0.897809, 0.535079, 0.023512, 0.051439, 0.490727, 0.645355, 0.822643, 0.274345, 0.504851, 0.170112, 0.995332, 0.927592, 0.8771, 0.481701, 0.544856, 0.008880000000000001, 0.770427, 0.197306, 0.525656, 0.93894, 0.845203, 0.629588, 0.666956, 0.041793, 0.055192, 0.150307, 0.382492, 0.468651, 0.972638, 0.026696, 0.7244350000000001, 0.822371, 0.499733, 0.351632, 0.772085, 0.664879, 0.292864, 0.654432, 0.038648, 0.5013840000000001, 0.71473, 0.472763, 0.214778, 0.593485, 0.260015, 0.979963, 0.670384, 0.210502, 0.429061, 0.552803, 0.688013, 0.855252, 0.065862, 0.82634, 0.90002, 0.287531, 0.038195, 0.362463, 0.56664, 0.394753, 0.739482, 0.05434, 0.075409, 0.182016, 0.7581870000000001, 0.06467000000000001, 0.545078, 0.561937, 0.84601, 0.671948, 0.855754, 0.7025169999999999, 0.168728, 0.358216, 0.60177, 0.386647, 0.039239, 0.407716, 0.18255, 0.732654, 0.042334, 0.146551, 0.324721, 0.739553, 0.644197, 0.886726, 0.667237, 0.8186560000000001, 0.751879, 0.809789, 0.015743, 0.140524, 0.6642400000000001, 0.423479, 0.382086, 0.758995, 0.228733, 0.823886, 0.377622, 0.478551, 0.336856, 0.255127, 0.488954, 0.6834249999999999, 0.279596, 0.908337, 0.855148, 0.001965, 0.526537, 0.760956, 0.9867590000000001, 0.716711, 0.12934, 0.536226, 0.492741, 0.540399, 0.556293, 0.165056, 0.529656, 0.484512, 0.736727, 0.416841, 0.7724, 0.409602, 0.047375, 0.631623, 0.421163, 0.83974, 0.607372, 0.169547, 0.846908, 0.10867, 0.156611, 0.472091, 0.9863690000000001, 0.366771, 0.632209, 0.457599, 0.829873, 0.608699, 0.765539, 0.102707, 0.68016, 0.139287, 0.401752, 0.573763, 0.101081, 0.060905, 0.82367, 0.478361, 0.669558, 0.004041, 0.938137, 0.102129, 0.518032, 0.991671, 0.094429, 0.151207, 0.222069, 0.494412, 0.286111, 0.981359, 0.7070340000000001, 0.70442, 0.858413, 0.608734, 0.339073, 0.319733, 0.34875, 0.231093, 0.171446, 0.6336079999999999, 0.526033, 0.7399520000000001, 0.567512, 0.19534, 0.993155, 0.868731, 0.801378, 0.304643, 0.735237];
discharge = [0.807315, 0.722301, 0.115149, 0.142209, 0.269193, 0.538965, 0.865935, 0.852252, 0.30641, 0.512652, 0.156154, 0.206512, 0.476797, 0.863069, 0.488691, 0.798549, 0.935383, 0.079872, 0.318148, 0.491272, 0.598298, 0.720396, 0.632869, 0.633444, 0.938071, 0.7610980000000001, 0.990739, 0.165914, 0.073838, 0.972168, 0.923306, 0.66199, 0.90516, 0.242898, 0.434988, 0.641068, 0.22779, 0.227267, 0.082098, 0.924381, 0.401698, 0.205562, 0.653608, 0.327042, 0.655166, 0.214096, 0.316556, 0.878486, 0.09382600000000001, 0.12204, 0.649666, 0.620799, 0.091062, 0.188498, 0.35499, 0.835924, 0.402244, 0.89418, 0.107948, 0.257867, 0.7432839999999999, 0.536909, 0.484251, 0.916332, 0.8991479999999999, 0.428043, 0.628525, 0.228405, 0.0521, 0.96423, 0.687851, 0.103822, 0.278069, 0.083651, 0.984047, 0.395012, 0.013585, 0.010612, 0.517718, 0.40384, 0.921353, 0.227138, 0.172043, 0.444553, 0.625956, 0.669519, 0.859681, 0.831865, 0.10623, 0.760725, 0.562038, 0.91903, 0.790172, 0.97444, 0.587762, 0.582036, 0.678839, 0.716658, 0.00406, 0.834458, 0.512588, 0.131363, 0.482588, 0.428052, 0.153325, 0.827574, 0.388476, 0.791676, 0.031278, 0.281697, 0.364661, 0.113016, 0.8705850000000001, 0.242803, 0.705066, 0.359431, 0.652811, 0.789324, 0.241063, 0.247301, 0.573947, 0.8665350000000001, 0.5976669999999999, 0.41889, 0.769944, 0.940379, 0.517502, 0.728411, 0.100024, 0.358715, 0.043137, 0.038594, 0.195497, 0.513286, 0.08705400000000001, 0.854288, 0.567993, 0.375279, 0.670289, 0.674079, 0.166659, 0.954855, 0.153291, 0.038597, 0.762894, 0.52971, 0.9588680000000001, 0.50985, 0.491721, 0.087446, 0.133137, 0.816976, 0.346548, 0.640619, 0.806993, 0.321351, 0.580297, 0.104968, 0.779555, 0.583802, 0.959481, 0.974911, 0.937852, 0.46808, 0.7579399999999999, 0.348146, 0.7568859999999999, 0.38633, 0.6654139999999999, 0.001766, 0.955178, 0.208974, 0.88154, 0.823032, 0.109115, 0.152495, 0.897876, 0.018986, 0.646382, 0.167825, 0.7160840000000001, 0.52482, 0.062607, 0.192134, 0.633464, 0.986832, 0.82523, 0.587295, 0.965402, 0.155705, 0.8815809999999999, 0.242481];
soc = [8.997782000000001, 7.963562, 11.191424, 9.516014, 11.078007, 7.717594, 5.223877, 15.166654, 4.415104, 14.388446, 2.936911, 9.439714, 3.53644, 6.305092, 14.873805, 6.79399, 14.303544, 3.137583, 3.746534, 4.465043, 6.356962, 7.404235, 14.864655, 9.715647000000001, 3.940504, 10.119297, 14.982972, 14.310526, 12.217994, 5.836032, 5.52909, 2.799043, 7.623559, 10.021417, 13.127293, 9.038663, 7.543428, 9.50559, 8.683085999999999, 3.697818, 12.50202, 5.955444, 6.970228, 6.023873, 15.012439, 10.29645, 11.010728, 3.038465, 8.327762, 13.144381, 7.005701, 8.392452, 13.046213, 12.786473, 11.504111, 14.356853, 6.626641, 4.41251, 10.754182, 10.346643, 9.744764, 7.769855, 4.019139, 12.927639, 10.894121, 14.253139, 7.517984, 11.416627, 8.337679, 12.701748, 9.097576999999999, 11.640627, 10.935246, 12.72783, 12.442115, 8.894164, 8.898524999999999, 10.523909, 4.250704, 2.845792, 10.790737, 5.466646, 4.097355, 13.635814, 5.984681, 6.049007, 8.606216, 13.152168, 10.81507, 11.986393, 8.019111000000001, 4.160433, 9.03641, 3.821752, 14.598937, 8.134656, 5.649597, 9.797060999999999, 9.25474, 14.426431, 9.519028, 3.063247, 3.259204, 10.313972, 9.896302, 10.212732, 11.802027, 12.46682, 9.325187, 2.837032, 5.260521, 6.409087, 8.678618999999999, 6.459128, 12.687117, 5.374565, 14.725645, 14.117402, 5.539073, 4.341211, 8.211340999999999, 9.087998000000001, 13.795942, 11.38981, 12.381393, 10.165226, 6.008702, 5.731197, 5.835566, 13.15874, 7.310314, 7.799537, 4.357086, 12.700264, 2.848433, 8.471875000000001, 7.322042, 6.200703, 4.055122, 12.790426, 12.03907, 6.946652, 7.78097, 12.721668, 4.936199, 6.99298, 13.346483, 9.559212, 8.656302, 5.453307, 7.13934, 6.629377, 9.359563, 5.832024, 15.397165, 15.519635, 8.730767999999999, 5.064348, 9.164690999999999, 11.940129, 10.226371, 3.153133, 5.390369, 13.466682, 5.969553, 6.738849, 5.401865, 6.796089, 11.481146, 5.88298, 9.134218000000001, 2.799329, 6.223116, 2.989709, 4.311936, 9.521782999999999, 4.432719, 7.487331, 9.587111, 6.66699, 8.080322000000001, 6.022133, 11.020808, 12.147317, 12.257353, 7.231735, 6.956732, 11.778954, 3.455174, 8.943194, 9.525690000000001, 10.153289];
cost = [538.775716, 96.563185, 409.697276, 377.938785, 419.313103, 46.044417, 43.785945, 206.78743, 452.954795, 145.313249, 89.354983, 145.096674, 602.214742, 364.079661, 597.823582, 284.46056, 344.245202, 564.615142, 324.994033, 348.657938, 467.590888, 257.627472, 175.862528, 398.998391, 1123.575956, 206.001265, 1020.94166, 681.142124, 447.80463, 313.99053, 337.250298, 134.539232, 1026.020005, 269.631775, 229.367927, 761.429437, 1152.209451, 1081.67148, 558.346918, 418.412351, 330.44281, 1015.832429, 18.243464, 126.663211, 932.843295, 729.841515, 825.722478, 1181.847391, 378.869526, 909.999177, 1058.059312, 268.899597, 413.299504, 99.863873, 490.63532, 409.308886, 44.663469, 423.816041, 86.556967, 228.200836, 752.811548, 912.015593, 338.247417, 319.99276, 56.427836, 1.88333, 454.183144, 761.372375, 1008.091566, 348.212945, 1026.866748, 835.226175, 206.518966, 399.951331, 701.50968, 75.127841, 1037.392454, 11.767854, 521.8579099999999, 748.480363, 566.406262, 449.422069, 112.67795, 9.907681999999999, 592.631541, 812.708037, 695.554901, 488.529033, 559.570976, 607.933961, 260.451041, 135.276333, 127.451941, 246.666123, 608.03946, 266.25727, 26.615785, 319.180671, 293.167324, 105.178496, 114.190436, 428.493307, 371.921689, 357.241943, 31.583967, 81.828776, 592.914768, 459.252945, 245.188303, 325.975529, 493.906971, 47.496341, 23.455507, 474.86608, 162.091893, 475.449495, 176.180143, 59.899791, 525.644226, 570.710889, 528.380595, 258.838705, 6.894783, 315.229053, 461.82193, 717.646945, 429.462538, 780.926215, 945.794538, 14.851856, 507.173376, 863.842117, 886.46368, 1053.389307, 861.071371, 978.157305, 302.71603, 379.309478, 23.046917, 208.683271, 979.442739, 1173.116005, 254.331128, 446.329785, 1179.106034, 338.133887, 687.724253, 194.416079, 73.59715, 158.955272, 391.198674, 567.838754, 502.900448, 451.58085, 282.304282, 16.392357, 323.93426, 340.57468, 944.560618, 1159.696927, 736.32963, 330.304951, 549.569228, 988.080413, 55.047945, 1049.460023, 603.396115, 482.931265, 670.017708, 220.812323, 154.57208, 1089.305785, 488.732828, 631.084067, 1133.313447, 269.561407, 608.713788, 406.908889, 505.990459, 947.225069, 799.694003, 539.3438180000001, 215.588109, 1120.448556, 83.775718, 521.966905, 91.844289, 463.216953, 508.7056, 437.454215, 507.348599, 141.70476];
earn = [0.926992, 0.990842, 2.024732, 1.490087, 2.446212, 1.661913, 0.6838070000000001, 0.666413, 0.64141, 2.038165, 2.657142, 2.540937, 0.205116, 1.868096, 1.073035, 0.003091, 2.634939, 0.582353, 0.900901, 2.128939, 0.473177, 2.567596, 0.336614, 0.392981, 3.333869, 1.872807, 2.237583, 1.011705, 2.779343, 1.180911, 1.832438, 0.189145, 3.315597, 1.995793, 0.779201, 1.251272, 1.010622, 0.480373, 1.810484, 1.492063, 0.78967, 0.440884, 0.168417, 0.551221, 1.018106, 1.15595, 0.600679, 2.063415, 1.948444, 1.670115, 1.043493, 0.425251, 1.289164, 0.1221, 2.226473, 2.18796, 1.797182, 1.620216, 2.032435, 1.426624, 0.151623, 2.046981, 2.659708, 2.482181, 1.566389, 2.637178, 2.176977, 0.09200800000000001, 0.204833, 0.5178199999999999, 1.344627, 3.864033, 3.672305, 3.958694, 1.29652, 4.503967, 1.107694, 3.433616, 4.118858, 3.042752, 3.454421, 3.169691, 2.690337, 2.778719, 1.636908, 0.830886, 2.861663, 0.017233, 0.271314, 1.148955, 2.971589, 0.462631, 2.016263, 0.063483, 2.05368, 1.425948, 3.092547, 0.470794, 1.364136, 1.862543, 0.247773, 0.2768, 0.630011, 0.523447, 1.223701, 2.128193, 2.324236, 1.664962, 1.235868, 0.551364, 0.964497, 0.327948, 0.546389, 2.343623, 1.790124, 0.953653, 0.340019, 0.759239, 0.544607, 2.198091, 1.515161, 1.161196, 0.973437, 0.852609, 1.11471, 0.503154, 2.053622, 0.225195, 0.215734, 1.310629, 0.167517, 0.695367, 0.305633, 1.164116, 0.298652, 0.01183, 0.491929, 0.574805, 0.453615, 0.35756, 0.126882, 0.01053, 0.002222, 0.004864, -0.000696, -0.060651, -0.026578, 0.000343, -0.049138, -0.002909, 0.030364, 0.099769, 0.480447, 0.346569, 0.460548, 0.60125, 0.148071, 0.415012, 0.801526, 1.542911, 2.064394, 0.667748, 1.360776, 2.119036, 2.794079, 1.702535, 1.395883, 1.798237, 3.281308, 0.224129, 2.874183, 3.496701, 2.967201, 0.052188, 0.047101, 1.149689, 1.878519, 1.088994, 2.878196, 1.362506, 2.219016, 1.748786, 0.153959, 1.367024, 1.259846, 1.551003, 1.653777, 1.425609, 0.585867, 1.56642, 0.642969, 1.947088];
total_cost = 99.93076849562227;
total_earn = 41.25099288250004;
