production = [0: 0.0, 1: 0.0, 2: 0.0, 3: 0.0, 4: 0.0, 5: 0.0, 6: 0.0, 7: 0.0, 8: 0.0, 9: 0.0, 10: 0.0, 11: 0.0, 12: 0.0, 13: 0.0, 14: 0.0, 15: 0.0, 16: 0.0, 17: 0.0, 18: 0.0, 19: 0.0, 20: 0.0, 21: 0.0, 22: 0.0, 23: 0.000291, 24: 0.000356, 25: 0.023342, 26: 0.054757, 27: 0.145601, 28: 0.085106, 29: 0.057604, 30: 0.015432, 31: 0.06281200000000001, 32: 0.033769, 33: 0.105204, 34: 0.055459, 35: 0.260495, 36: 0.106982, 37: 0.200188, 38: 0.267681, 39: 0.539793, 40: 0.248782, 41: 0.791324, 42: 0.03285, 43: 0.455023, 44: 0.280726, 45: 0.237829, 46: 0.27566, 47: 0.144227, 48: 0.01646, 49: 0.297063, 50: 0.052013, 51: 0.127882, 52: 0.185124, 53: 0.226436, 54: 0.028674, 55: 0.039879, 56: 0.124367, 57: 0.114965, 58: 0.099428, 59: 0.021021, 60: 0.029188, 61: 0.131242, 62: 0.141087, 63: 0.128976, 64: 0.029307, 65: 0.076512, 66: 0.087104, 67: 0.027201, 68: 0.06442299999999999, 69: 0.022825, 70: 0.012954, 71: 0.002126, 72: 0.0, 73: 0.0, 74: 0.0, 75: 0.0, 76: 0.0, 77: 0.0, 78: 0.0, 79: 0.0, 80: 0.0, 81: 0.0, 82: 0.0, 83: 0.0, 84: 0.0, 85: 0.0, 86: 0.0, 87: 0.0, 88: 0.0, 89: 0.0, 90: 0.0, 91: 0.0, 92: 0.0, 93: 0.0, 94: 0.0, 95: 0.0, 96: 0.0, 97: 0.0, 98: 0.0, 99: 0.0, 100: 0.0, 101: 0.0, 102: 0.0, 103: 0.0, 104: 0.0, 105: 0.0, 106: 0.0, 107: 0.0, 108: 0.0, 109: 0.0, 110: 0.0, 111: 0.0, 112: 0.0, 113: 0.0, 114: 0.0, 115: 0.0, 116: 0.0, 117: 0.0, 118: 0.0, 119: 0.000139, 120: 0.000425, 121: 0.000673, 122: 0.013109, 123: 0.01734, 124: 0.097874, 125: 0.158724, 126: 0.067907, 127: 0.202468, 128: 0.203501, 129: 0.152131, 130: 0.011762, 131: 0.316943, 132: 0.378048, 133: 0.110452, 134: 1.371424, 135: 1.508356, 136: 0.220933, 137: 1.113802, 138: 1.231095, 139: 0.095578, 140: 0.420909, 141: 0.70123, 142: 0.42373, 143: 1.182069, 144: 0.445493, 145: 0.567526, 146: 0.06848799999999999, 147: 1.568558, 148: 0.243423, 149: 0.53327, 150: 0.249401, 151: 1.495341, 152: 0.246146, 153: 0.183486, 154: 0.023511, 155: 0.135435, 156: 0.393193, 157: 0.14747, 158: 0.123919, 159: 0.212523, 160: 0.029989, 161: 0.024099, 162: 0.23269, 163: 0.004478, 164: 0.047347, 165: 0.051141, 166: 0.015397, 167: 0.002322, 168: 0.010047, 169: 0.000173, 170: 0.0, 171: 0.0, 172: 0.0, 173: 0.0, 174: 0.0, 175: 0.0, 176: 0.0, 177: 0.0, 178: 0.0, 179: 0.0, 180: 0.0, 181: 0.0, 182: 0.0, 183: 0.0, 184: 0.0, 185: 0.0, 186: 0.0, 187: 0.0, 188: 0.0, 189: 0.0, 190: 0.0, 191: 0.0];
buy = [0: 563.710019, 1: 901.906657, 2: 289.804846, 3: 912.676903, 4: 484.574949, 5: 925.063904, 6: 632.845851, 7: 338.28199, 8: 584.964027, 9: 263.241599, 10: 676.868439, 11: 401.917693, 12: 328.613596, 13: 977.76624, 14: 937.631217, 15: 811.27235, 16: 53.617644, 17: 31.069032, 18: 635.152377, 19: 145.993731, 20: 579.016756, 21: 367.245798, 22: 962.102816, 23: 399.698585, 24: 133.896508, 25: 548.48564, 26: 77.531581, 27: 289.748057, 28: 685.423118, 29: 508.292037, 30: 844.005227, 31: 613.922003, 32: 19.638452, 33: 111.53515, 34: 356.425798, 35: 829.6878819999999, 36: 5.011886, 37: 171.03728, 38: 324.83703, 39: 681.74801, 40: 771.318641, 41: 947.100904, 42: 689.0443330000001, 43: 671.047926, 44: 704.952101, 45: 45.880006, 46: 369.139059, 47: 724.044796, 48: 671.345448, 49: 614.123975, 50: 578.4825080000001, 51: 509.010325, 52: 230.109723, 53: 871.875809, 54: 566.060953, 55: 392.439846, 56: 733.374006, 57: 404.20184, 58: 955.9891730000001, 59: 91.09237899999999, 60: 195.801107, 61: 35.159556, 62: 391.579351, 63: 183.602699, 64: 41.769821, 65: 925.976147, 66: 818.597698, 67: 980.247164, 68: 893.745489, 69: 869.815094, 70: 779.734907, 71: 915.672108, 72: 360.431455, 73: 428.206742, 74: 514.907428, 75: 544.3288659999999, 76: 450.305907, 77: 71.757458, 78: 794.320769, 79: 325.557926, 80: 968.072825, 81: 300.890304, 82: 936.724755, 83: 682.268782, 84: 181.243983, 85: 683.504764, 86: 739.813674, 87: 596.794523, 88: 758.464028, 89: 36.09402, 90: 443.727348, 91: 540.346141, 92: 636.923256, 93: 493.995124, 94: 62.215142, 95: 768.486757, 96: 130.776558, 97: 292.239896, 98: 945.217144, 99: 613.52028, 100: 740.121091, 101: 244.140853, 102: 659.419301, 103: 321.177192, 104: 219.382194, 105: 730.613127, 106: 540.2311099999999, 107: 754.976634, 108: 139.914093, 109: 804.969424, 110: 932.12041, 111: 723.87664, 112: 909.235395, 113: 665.017265, 114: 913.92378, 115: 52.801224, 116: 386.786246, 117: 382.970789, 118: 700.2525900000001, 119: 663.333442, 120: 686.450829, 121: 724.117119, 122: 36.255044, 123: 244.588617, 124: 583.624899, 125: 520.854954, 126: 185.836547, 127: 167.089725, 128: 168.006429, 129: 234.386049, 130: 418.249525, 131: 827.833584, 132: 30.638195, 133: 99.285934, 134: 258.72722, 135: 795.606371, 136: 663.581637, 137: 61.55136, 138: 711.22372, 139: 968.1856320000001, 140: 813.643987, 141: 113.216956, 142: 955.104273, 143: 567.505819, 144: 532.410204, 145: 958.527847, 146: 746.798866, 147: 415.290761, 148: 630.1124600000001, 149: 68.31017, 150: 139.21934, 151: 846.147154, 152: 740.509444, 153: 744.0038, 154: 519.439262, 155: 149.0531, 156: 481.970338, 157: 287.846095, 158: 328.177351, 159: 419.830827, 160: 736.907754, 161: 682.121657, 162: 185.530773, 163: 124.225825, 164: 166.998181, 165: 657.043326, 166: 777.850475, 167: 964.510549, 168: 375.941197, 169: 52.058093, 170: 46.267483, 171: 644.0171779999999, 172: 536.6916179999999, 173: 156.03289, 174: 767.865393, 175: 912.1205200000001, 176: 98.94191499999999, 177: 713.779286, 178: 844.0118660000001, 179: 0.508324, 180: 710.080031, 181: 424.987252, 182: 291.398392, 183: 499.082418, 184: 464.844066, 185: 481.505915, 186: 464.528408, 187: 500.161721, 188: 473.196095, 189: 187.515435, 190: 495.401865, 191: 683.543467];
sell = [0: 1.374557, 1: 3.270254, 2: 3.247138, 3: 0.971576, 4: 3.799845, 5: 3.432621, 6: 3.967423, 7: 1.896834, 8: 1.196542, 9: 0.223498, 10: 3.389697, 11: 1.692011, 12: 0.229524, 13: 0.1375, 14: 2.884757, 15: 2.967825, 16: 3.258488, 17: 3.01746, 18: 1.872975, 19: 3.524967, 20: 3.797418, 21: 0.285438, 22: 0.739601, 23: 1.518369, 24: 3.705126, 25: 2.4165, 26: 0.554149, 27: 0.462769, 28: 2.382175, 29: 1.772654, 30: 0.567012, 31: 2.802585, 32: 2.924096, 33: 0.418757, 34: 1.600643, 35: 2.916726, 36: 0.799315, 37: 1.540863, 38: 2.562459, 39: 2.710192, 40: 2.743883, 41: 3.345064, 42: 3.01468, 43: 2.212262, 44: 3.603781, 45: 1.333582, 46: 1.322683, 47: 2.624386, 48: 1.170129, 49: 0.066108, 50: 1.517306, 51: 1.44172, 52: 1.046582, 53: 2.139233, 54: 0.349773, 55: 0.07821699999999999, 56: 1.776439, 57: 1.415144, 58: 3.008069, 59: 0.376657, 60: 2.165489, 61: 3.421053, 62: 2.355943, 63: 1.468073, 64: 1.876252, 65: 1.274772, 66: 2.46785, 67: 0.037057, 68: 1.222724, 69: 3.574218, 70: 3.222221, 71: 3.974538, 72: 0.639066, 73: 3.240754, 74: 3.762671, 75: 1.268518, 76: 2.202598, 77: 0.42794, 78: 1.214518, 79: 0.127752, 80: 3.535245, 81: 2.064265, 82: 2.473783, 83: 1.510844, 84: 2.131172, 85: 2.628559, 86: 0.493579, 87: 3.717184, 88: 1.395977, 89: 3.63217, 90: 3.026951, 91: 2.377961, 92: 0.442108, 93: 2.070783, 94: 2.25165, 95: 2.387626, 96: 3.370459, 97: 0.117962, 98: 0.838484, 99: 1.348517, 100: 2.720764, 101: 2.313458, 102: 0.674515, 103: 1.713267, 104: 1.599297, 105: 0.467412, 106: 0.952383, 107: 2.55094, 108: 3.675937, 109: 0.976976, 110: 3.539055, 111: 2.126393, 112: 2.586072, 113: 3.347794, 114: 2.345858, 115: 1.454247, 116: 0.31964, 117: 2.397189, 118: 2.605907, 119: 0.427133, 120: 0.9610379999999999, 121: 1.227515, 122: 0.683696, 123: 3.466324, 124: 3.151952, 125: 0.059319, 126: 0.535709, 127: 2.04454, 128: 1.338129, 129: 0.235336, 130: 1.649447, 131: 0.38231, 132: 1.087925, 133: 3.205917, 134: 2.511295, 135: 1.705823, 136: 2.620333, 137: 1.313935, 138: 0.149728, 139: 0.105925, 140: 0.508686, 141: 2.359963, 142: 2.180872, 143: 2.936239, 144: 1.236536, 145: 3.961809, 146: 0.625275, 147: 1.008502, 148: 0.325151, 149: 1.692166, 150: 3.491446, 151: 2.903973, 152: 1.128612, 153: 2.122499, 154: 2.838847, 155: 0.255406, 156: 3.848129, 157: 2.067076, 158: 2.3861, 159: 1.394091, 160: 3.763331, 161: 3.568386, 162: 3.469519, 163: 2.025935, 164: 1.34967, 165: 2.186011, 166: 0.796215, 167: 2.06267, 168: 3.329706, 169: 2.800507, 170: 3.597623, 171: 3.441766, 172: 3.926259, 173: 0.685074, 174: 3.886872, 175: 2.410771, 176: 1.910692, 177: 2.188659, 178: 1.349059, 179: 2.270755, 180: 3.78458, 181: 0.835645, 182: 0.797933, 183: 1.884392, 184: 0.814446, 185: 0.262471, 186: 2.072094, 187: 1.268223, 188: 0.272881, 189: 1.093675, 190: 1.127263, 191: 0.952138];
charge = [0: 0.029799, 1: 0.516452, 2: 0.597857, 3: 0.55404, 4: 0.839263, 5: 0.53132, 6: 0.535449, 7: 0.039913, 8: 0.015491, 9: 0.841575, 10: 0.559692, 11: 0.513045, 12: 0.160283, 13: 0.965382, 14: 0.18158, 15: 0.572321, 16: 0.855132, 17: 0.96806, 18: 0.022682, 19: 0.406682, 20: 0.577971, 21: 0.863587, 22: 0.514615, 23: 0.167699, 24: 0.313941, 25: 0.608225, 26: 0.899548, 27: 0.522918, 28: 0.470271, 29: 0.630337, 30: 0.539361, 31: 0.2093, 32: 0.576751, 33: 0.166975, 34: 0.533182, 35: 0.873594, 36: 0.593743, 37: 0.055056, 38: 0.70322, 39: 0.922987, 40: 0.085493, 41: 0.687192, 42: 0.074364, 43: 0.166015, 44: 0.627765, 45: 0.695624, 46: 0.013793, 47: 0.673199, 48: 0.516304, 49: 0.02592, 50: 0.703012, 51: 0.501664, 52: 0.746716, 53: 0.941719, 54: 0.799288, 55: 0.6405999999999999, 56: 0.150738, 57: 0.626817, 58: 0.653047, 59: 0.563793, 60: 0.186662, 61: 0.048645, 62: 0.506062, 63: 0.310298, 64: 0.637907, 65: 0.999733, 66: 0.839159, 67: 0.889351, 68: 0.581048, 69: 0.18899, 70: 0.774442, 71: 0.721408, 72: 0.842824, 73: 0.025638, 74: 0.037644, 75: 0.26155, 76: 0.254914, 77: 0.085941, 78: 0.786161, 79: 0.005686, 80: 0.109254, 81: 0.128454, 82: 0.638877, 83: 0.252449, 84: 0.218683, 85: 0.314248, 86: 0.107973, 87: 0.13972, 88: 0.61773, 89: 0.368579, 90: 0.239632, 91: 0.48125, 92: 0.824133, 93: 0.004485, 94: 0.5899799999999999, 95: 0.188102, 96: 0.00187, 97: 0.893178, 98: 0.431271, 99: 0.10892, 100: 0.956666, 101: 0.262056, 102: 0.220717, 103: 0.46233, 104: 0.179411, 105: 0.061317, 106: 0.381836, 107: 0.203707, 108: 0.323361, 109: 0.041731, 110: 0.982222, 111: 0.371394, 112: 0.201345, 113: 0.644983, 114: 0.328194, 115: 0.256031, 116: 0.301622, 117: 0.839321, 118: 0.949662, 119: 0.873461, 120: 0.898221, 121: 0.5812659999999999, 122: 0.926712, 123: 0.8305630000000001, 124: 0.394459, 125: 0.275531, 126: 0.404415, 127: 0.162002, 128: 0.277888, 129: 0.523991, 130: 0.615916, 131: 0.799704, 132: 0.068922, 133: 0.297959, 134: 0.517559, 135: 0.851872, 136: 0.9407799999999999, 137: 0.902905, 138: 0.400004, 139: 0.604827, 140: 0.383078, 141: 0.48012, 142: 0.582463, 143: 0.197499, 144: 0.699379, 145: 0.911252, 146: 0.628528, 147: 0.013161, 148: 0.700559, 149: 0.836944, 150: 0.534547, 151: 0.180258, 152: 0.500053, 153: 0.102044, 154: 0.301094, 155: 0.372889, 156: 0.773787, 157: 0.980966, 158: 0.648883, 159: 0.469668, 160: 0.800995, 161: 0.662475, 162: 0.471495, 163: 0.948083, 164: 0.462303, 165: 0.832929, 166: 0.51462, 167: 0.623868, 168: 0.021265, 169: 0.519639, 170: 0.284207, 171: 0.236281, 172: 0.44149, 173: 0.508799, 174: 0.890717, 175: 0.298361, 176: 0.613053, 177: 0.322414, 178: 0.790808, 179: 0.726033, 180: 0.799269, 181: 0.8502420000000001, 182: 0.323142, 183: 0.615241, 184: 0.899221, 185: 0.038515, 186: 0.304762, 187: 0.667428, 188: 0.78715, 189: 0.06915300000000001, 190: 0.911975, 191: 0.861308];
discharge = [0: 0.055137, 1: 0.07313799999999999, 2: 0.228384, 3: 0.33544, 4: 0.932616, 5: 0.568059, 6: 0.879907, 7: 0.338002, 8: 0.535179, 9: 0.892482, 10: 0.8053940000000001, 11: 0.289819, 12: 0.302988, 13: 0.29608, 14: 0.062114, 15: 0.429378, 16: 0.010273, 17: 0.12277, 18: 0.107734, 19: 0.601187, 20: 0.865919, 21: 0.893189, 22: 0.320913, 23: 0.041991, 24: 0.780122, 25: 0.199795, 26: 0.737906, 27: 0.443885, 28: 0.172345, 29: 0.363054, 30: 0.616125, 31: 0.990907, 32: 0.006751, 33: 0.537013, 34: 0.722237, 35: 0.947644, 36: 0.101696, 37: 0.418503, 38: 0.397668, 39: 0.885673, 40: 0.108081, 41: 0.308272, 42: 0.846591, 43: 0.383158, 44: 0.483531, 45: 0.9294829999999999, 46: 0.026269, 47: 0.679517, 48: 0.562906, 49: 0.6307430000000001, 50: 0.676677, 51: 0.2025, 52: 0.921814, 53: 0.038648, 54: 0.759099, 55: 0.252309, 56: 0.589892, 57: 0.528435, 58: 0.116281, 59: 0.837506, 60: 0.899044, 61: 0.350318, 62: 0.427942, 63: 0.478412, 64: 0.799408, 65: 0.5705209999999999, 66: 0.253631, 67: 0.223645, 68: 0.8469179999999999, 69: 0.606424, 70: 0.222335, 71: 0.435494, 72: 0.9251239999999999, 73: 0.610685, 74: 0.217302, 75: 0.390825, 76: 0.530956, 77: 0.420343, 78: 0.675715, 79: 0.782342, 80: 0.8622, 81: 0.881397, 82: 0.879042, 83: 0.917343, 84: 0.934485, 85: 0.843034, 86: 0.136293, 87: 0.5807639999999999, 88: 0.44442, 89: 0.779187, 90: 0.355963, 91: 0.8701100000000001, 92: 0.199117, 93: 0.381129, 94: 0.053907, 95: 0.896075, 96: 0.345731, 97: 0.610787, 98: 0.268025, 99: 0.032825, 100: 0.973399, 101: 0.522178, 102: 0.262729, 103: 0.049195, 104: 0.226738, 105: 0.825013, 106: 0.837946, 107: 0.061303, 108: 0.627959, 109: 0.517514, 110: 0.661316, 111: 0.480316, 112: 0.414097, 113: 0.87635, 114: 0.942237, 115: 0.446057, 116: 0.276619, 117: 0.327744, 118: 0.080826, 119: 0.288465, 120: 0.09017699999999999, 121: 0.411538, 122: 0.219901, 123: 0.738999, 124: 0.170733, 125: 0.718512, 126: 0.162425, 127: 0.140631, 128: 0.5301439999999999, 129: 0.75473, 130: 0.379587, 131: 0.563468, 132: 0.604142, 133: 0.518726, 134: 0.272543, 135: 0.775038, 136: 0.591534, 137: 0.658929, 138: 0.732984, 139: 0.779984, 140: 0.072709, 141: 0.943445, 142: 0.760083, 143: 0.416655, 144: 0.38641, 145: 0.929601, 146: 0.344659, 147: 0.716537, 148: 0.20398, 149: 0.620424, 150: 0.456491, 151: 0.642962, 152: 0.222624, 153: 0.285437, 154: 0.7259139999999999, 155: 0.7413960000000001, 156: 0.813925, 157: 0.482653, 158: 0.884485, 159: 0.666286, 160: 0.244451, 161: 0.808686, 162: 0.8462499999999999, 163: 0.913268, 164: 0.343965, 165: 0.431098, 166: 0.522739, 167: 0.752644, 168: 0.146036, 169: 0.522906, 170: 0.929806, 171: 0.36776, 172: 0.219995, 173: 0.099647, 174: 0.307572, 175: 0.814466, 176: 0.545641, 177: 0.993126, 178: 0.424826, 179: 0.381533, 180: 0.916817, 181: 0.22757, 182: 0.7002930000000001, 183: 0.5648879999999999, 184: 0.404229, 185: 0.806106, 186: 0.51102, 187: 0.774899, 188: 0.27247, 189: 0.327442, 190: 0.372318, 191: 0.7044010000000001];
soc = [0: 8.992369, 1: 8.112956000000001, 2: 8.830124, 3: 6.287383, 4: 10.138906, 5: 4.512135, 6: 5.426378, 7: 6.718391, 8: 6.378198, 9: 4.126689, 10: 6.945833, 11: 8.762117, 12: 11.553001, 13: 6.380448, 14: 11.789491, 15: 14.774006, 16: 7.291566, 17: 13.57293, 18: 6.06595, 19: 7.663233, 20: 4.317559, 21: 5.579493, 22: 6.007072, 23: 9.283858, 24: 3.007352, 25: 10.588483, 26: 9.41131, 27: 13.398609, 28: 14.408463, 29: 12.561573, 30: 12.80391, 31: 7.598867, 32: 11.814259, 33: 12.215131, 34: 9.477137000000001, 35: 5.373856, 36: 4.516061, 37: 2.847938, 38: 6.212628, 39: 3.594511, 40: 6.588545, 41: 9.97104, 42: 6.839878, 43: 14.892675, 44: 9.758520000000001, 45: 4.305149, 46: 4.923802, 47: 11.943133, 48: 14.351262, 49: 9.272334000000001, 50: 5.144354, 51: 9.865231, 52: 5.11251, 53: 4.931304, 54: 14.296695, 55: 8.271642999999999, 56: 13.273814, 57: 13.497931, 58: 6.189582, 59: 12.760536, 60: 7.911123, 61: 9.781948999999999, 62: 13.653412, 63: 13.377021, 64: 14.56158, 65: 12.432504, 66: 5.118382, 67: 14.575955, 68: 12.554061, 69: 4.93576, 70: 13.829565, 71: 6.448277, 72: 11.95685, 73: 12.755614, 74: 3.706906, 75: 3.973334, 76: 12.497139, 77: 13.042636, 78: 2.822065, 79: 8.100192, 80: 4.651424, 81: 11.229335, 82: 9.510063000000001, 83: 11.4464, 84: 5.963703, 85: 13.424515, 86: 3.796725, 87: 12.65084, 88: 5.687399, 89: 4.255524, 90: 5.008697, 91: 6.160305, 92: 4.150666, 93: 6.73492, 94: 4.885832, 95: 13.354096, 96: 3.812355, 97: 5.46286, 98: 5.557412, 99: 14.979091, 100: 3.891883, 101: 12.330489, 102: 3.28795, 103: 3.424205, 104: 6.985149, 105: 9.904002, 106: 6.880514, 107: 3.588904, 108: 9.749335, 109: 4.742847, 110: 11.825287, 111: 5.754587, 112: 11.002581, 113: 10.622121, 114: 13.460367, 115: 11.4125, 116: 12.987839, 117: 6.247602, 118: 12.476743, 119: 2.775455, 120: 13.984518, 121: 3.86292, 122: 14.116853, 123: 11.654663, 124: 8.277725, 125: 3.187785, 126: 9.041498000000001, 127: 4.168529, 128: 6.882571, 129: 11.434631, 130: 3.501615, 131: 3.355704, 132: 11.579359, 133: 15.334493, 134: 12.990789, 135: 2.881486, 136: 11.131297, 137: 3.966387, 138: 15.643111, 139: 6.707784, 140: 10.771993, 141: 9.993224, 142: 12.984597, 143: 15.513395, 144: 7.790145, 145: 9.589798, 146: 15.548725, 147: 2.849773, 148: 12.734788, 149: 13.103068, 150: 6.053657, 151: 8.016503999999999, 152: 9.679914, 153: 6.304412, 154: 7.144036, 155: 14.332152, 156: 2.716331, 157: 8.392808, 158: 9.36941, 159: 12.488514, 160: 5.726618, 161: 9.784437, 162: 9.767092999999999, 163: 14.98541, 164: 4.511517, 165: 12.411417, 166: 14.590744, 167: 6.139006, 168: 10.765119, 169: 3.821639, 170: 11.770949, 171: 6.94079, 172: 4.36671, 173: 5.897604, 174: 3.440585, 175: 5.686548, 176: 15.272407, 177: 15.359833, 178: 9.353853000000001, 179: 14.943924, 180: 10.123122, 181: 4.067527, 182: 7.678539, 183: 5.559706, 184: 3.32153, 185: 14.59598, 186: 15.59421, 187: 11.976482, 188: 9.745424, 189: 8.703104, 190: 10.619709, 191: 6.448153];
cost = [0: 2.651017, 1: 262.722746, 2: 459.420128, 3: 561.557244, 4: 396.481905, 5: 426.223758, 6: 118.2295, 7: 74.386777, 8: 433.866146, 9: 402.581918, 10: 104.259318, 11: 224.455818, 12: 156.375154, 13: 209.066865, 14: 340.623987, 15: 219.715745, 16: 445.187062, 17: 272.986611, 18: 519.97409, 19: 120.153149, 20: 430.729062, 21: 464.904769, 22: 358.130065, 23: 12.419394, 24: 1064.459027, 25: 596.7715030000001, 26: 852.4013210000001, 27: 901.210572, 28: 1000.484612, 29: 905.505483, 30: 862.155199, 31: 232.381307, 32: 284.791926, 33: 656.789137, 34: 614.526869, 35: 967.376396, 36: 61.191141, 37: 561.8803799999999, 38: 274.018839, 39: 922.634138, 40: 117.320819, 41: 233.73033, 42: 371.314688, 43: 91.56623399999999, 44: 762.923359, 45: 803.030484, 46: 997.9065890000001, 47: 648.18391, 48: 385.709048, 49: 369.810639, 50: 584.526158, 51: 12.2581, 52: 558.90822, 53: 503.820628, 54: 66.16089100000001, 55: 479.281629, 56: 59.186041, 57: 335.014922, 58: 305.546886, 59: 246.873909, 60: 233.551862, 61: 218.293877, 62: 195.117962, 63: 45.038055, 64: 640.897182, 65: 1167.728387, 66: 661.1845039999999, 67: 474.675976, 68: 58.238646, 69: 359.71916, 70: 1043.930385, 71: 1092.861064, 72: 1046.850868, 73: 977.775668, 74: 793.697994, 75: 1090.077877, 76: 177.351682, 77: 263.355162, 78: 552.007352, 79: 992.778508, 80: 1068.678729, 81: 622.848901, 82: 1082.415298, 83: 481.868471, 84: 889.28794, 85: 947.362564, 86: 884.432296, 87: 478.989419, 88: 120.513829, 89: 334.316183, 90: 265.357081, 91: 284.612768, 92: 201.130062, 93: 528.821291, 94: 568.656912, 95: 241.821375, 96: 577.395093, 97: 102.580546, 98: 31.189303, 99: 380.469091, 100: 40.26651, 101: 426.644682, 102: 362.10743, 103: 226.952086, 104: 145.584979, 105: 122.930991, 106: 277.101751, 107: 497.43079, 108: 385.763654, 109: 207.878788, 110: 433.798036, 111: 357.283564, 112: 478.66829, 113: 183.015268, 114: 577.473468, 115: 413.183421, 116: 361.464668, 117: 602.413123, 118: 559.171912, 119: 264.525983, 120: 821.789553, 121: 624.518589, 122: 22.359876, 123: 1012.897926, 124: 164.525881, 125: 1026.659054, 126: 651.7810909999999, 127: 1122.657295, 128: 51.98611, 129: 206.739564, 130: 486.522692, 131: 85.917056, 132: 1185.274693, 133: 98.65987800000001, 134: 337.642274, 135: 769.5975120000001, 136: 363.383269, 137: 343.361867, 138: 73.99548299999999, 139: 38.369582, 140: 59.76418, 141: 1042.820441, 142: 207.375542, 143: 895.897057, 144: 296.563043, 145: 423.703312, 146: 633.309025, 147: 883.55118, 148: 55.550667, 149: 269.70239, 150: 208.024355, 151: 24.057428, 152: 321.097979, 153: 41.437867, 154: 385.190358, 155: 243.001384, 156: 953.46137, 157: 829.941057, 158: 216.77495, 159: 509.494536, 160: 814.3444, 161: 1130.190035, 162: 555.561333, 163: 178.147034, 164: 688.577345, 165: 292.025111, 166: 172.768058, 167: 582.476659, 168: 650.022317, 169: 1028.032128, 170: 164.969118, 171: 628.284297, 172: 350.744093, 173: 37.066868, 174: 626.023086, 175: 326.186621, 176: 353.511255, 177: 908.4319860000001, 178: 858.566729, 179: 285.656458, 180: 708.6466349999999, 181: 673.054931, 182: 723.337681, 183: 426.008562, 184: 437.960499, 185: 138.224333, 186: 492.346821, 187: 258.5005, 188: 450.151931, 189: 303.003607, 190: 219.962942, 191: 132.162428];
earn = [0: 1.281117, 1: 0.818445, 2: 1.866645, 3: 0.154946, 4: 0.030968, 5: 0.95009, 6: 2.041623, 7: 1.618699, 8: 0.173001, 9: 0.968183, 10: 2.363538, 11: 1.761612, 12: 0.939547, 13: 2.774937, 14: 1.105067, 15: 2.834657, 16: 2.15917, 17: 0.134045, 18: 0.655323, 19: 0.675005, 20: 1.542843, 21: 1.978431, 22: 2.622523, 23: 1.03953, 24: 2.430312, 25: 3.566717, 26: 2.298848, 27: 0.224088, 28: 2.300235, 29: 2.593906, 30: 0.501247, 31: 2.795322, 32: 0.623865, 33: 1.369476, 34: 0.596836, 35: 1.986616, 36: 2.103422, 37: 0.8787509999999999, 38: 1.317068, 39: 1.05294, 40: 0.003537, 41: 1.19095, 42: 0.09027, 43: 0.65817, 44: 0.09861300000000001, 45: 1.953015, 46: 0.636277, 47: 1.638617, 48: 0.557164, 49: 0.548145, 50: 0.523087, 51: 0.258247, 52: 0.596271, 53: 0.518667, 54: 1.798246, 55: 1.601804, 56: 0.333759, 57: 0.016787, 58: 0.328736, 59: 0.943241, 60: 2.794402, 61: 0.50201, 62: 0.009195, 63: 1.056134, 64: 1.345073, 65: 2.334575, 66: 3.205392, 67: 1.472615, 68: 2.084675, 69: 0.818056, 70: 3.331455, 71: 0.751182, 72: 0.04113, 73: 0.865502, 74: 4.271328, 75: 3.446122, 76: 0.260913, 77: 0.813655, 78: 3.794575, 79: 3.393083, 80: 3.695749, 81: 1.079674, 82: 0.292748, 83: 2.835693, 84: 0.939697, 85: 0.933138, 86: 1.859138, 87: 0.182159, 88: 0.576355, 89: 1.678258, 90: 2.538063, 91: 2.64112, 92: 0.976648, 93: 0.286703, 94: 2.208973, 95: 0.586432, 96: 0.906874, 97: 2.425172, 98: 2.886191, 99: 2.208347, 100: 2.164744, 101: 1.088586, 102: 1.063875, 103: 0.491263, 104: 1.428067, 105: 1.567167, 106: 0.297406, 107: 2.537019, 108: 1.670806, 109: 0.402794, 110: 1.300184, 111: 0.237184, 112: 1.678671, 113: 2.614483, 114: 1.503671, 115: 2.369272, 116: 1.077521, 117: 2.395342, 118: 2.052089, 119: 0.899641, 120: 1.876986, 121: 2.718891, 122: 2.594975, 123: 0.912005, 124: 2.880099, 125: 0.689279, 126: 0.332365, 127: 1.983762, 128: 0.480088, 129: 1.929122, 130: 0.458223, 131: 1.2598, 132: 1.397246, 133: 0.870988, 134: 0.8932020000000001, 135: 0.165059, 136: 0.215784, 137: 0.10847, 138: 0.109811, 139: 0.315738, 140: 0.081262, 141: 0.008841999999999999, 142: 0.006087, 143: 0.002448, 144: -0.037971, 145: -0.126827, 146: -0.020977, 147: 0.000394, 148: -0.008126, 149: -0.004821, 150: 0.003871, 151: 0.105001, 152: 0.268659, 153: 0.491953, 154: 0.201585, 155: 0.98044, 156: 0.571634, 157: 0.416047, 158: 1.643987, 159: 1.23586, 160: 1.436029, 161: 0.250064, 162: 1.251543, 163: 2.841506, 164: 2.463863, 165: 1.131209, 166: 1.734679, 167: 2.713835, 168: 0.110917, 169: 1.926517, 170: 2.275304, 171: 1.115614, 172: 1.292376, 173: 1.603162, 174: 0.213459, 175: 1.314411, 176: 1.766074, 177: 2.449167, 178: 2.419991, 179: 0.218775, 180: 0.07059, 181: 1.744999, 182: 0.978836, 183: 0.105075, 184: 1.511838, 185: 0.152941, 186: 1.935814, 187: 0.742291, 188: 1.36462, 189: 0.431731, 190: 0.838304, 191: 1.737617];
total_cost = 99.93076849562227;
total_earn = 41.25099288250004;
