production = [0: 0.0, 1: 0.0, 2: 0.0, 3: 0.0, 4: 0.0, 5: 0.0, 6: 0.0, 7: 0.0, 8: 0.0, 9: 0.0, 10: 0.0, 11: 0.0, 12: 0.0, 13: 0.0, 14: 0.0, 15: 0.0, 16: 0.0, 17: 0.0, 18: 0.0, 19: 0.0, 20: 0.0, 21: 0.0, 22: 0.0, 23: 6.999999999999999e-05, 24: 0.000284, 25: 0.023554, 26: 0.042578, 27: 0.09313399999999999, 28: 0.013252, 29: 0.067164, 30: 0.0594, 31: 0.009762, 32: 0.057914, 33: 0.090602, 34: 0.189146, 35: 0.141096, 36: 0.010244, 37: 0.207665, 38: 0.329633, 39: 0.281966, 40: 0.579923, 41: 0.552805, 42: 0.553521, 43: 0.286585, 44: 0.16415, 45: 0.169921, 46: 0.034241, 47: 0.197451, 48: 0.103075, 49: 0.217542, 50: 0.06771000000000001, 51: 0.165239, 52: 0.093058, 53: 0.14029, 54: 0.00546, 55: 0.018476, 56: 0.06550400000000001, 57: 0.032873, 58: 0.06915300000000001, 59: 0.197638, 60: 0.138109, 61: 0.022257, 62: 0.109593, 63: 0.115211, 64: 0.141506, 65: 0.234484, 66: 0.026672, 67: 0.011564, 68: 0.021896, 69: 0.027214, 70: 0.010154, 71: 1.7e-05, 72: 0.0, 73: 0.0, 74: 0.0, 75: 0.0, 76: 0.0, 77: 0.0, 78: 0.0, 79: 0.0, 80: 0.0, 81: 0.0, 82: 0.0, 83: 0.0, 84: 0.0, 85: 0.0, 86: 0.0, 87: 0.0, 88: 0.0, 89: 0.0, 90: 0.0, 91: 0.0, 92: 0.0, 93: 0.0, 94: 0.0, 95: 0.0, 96: 0.0, 97: 0.0, 98: 0.0, 99: 0.0, 100: 0.0, 101: 0.0, 102: 0.0, 103: 0.0, 104: 0.0, 105: 0.0, 106: 0.0, 107: 0.0, 108: 0.0, 109: 0.0, 110: 0.0, 111: 0.0, 112: 0.0, 113: 0.0, 114: 0.0, 115: 0.0, 116: 0.0, 117: 0.0, 118: 0.0, 119: 7.1e-05, 120: 0.001126, 121: 0.002639, 122: 0.0384, 123: 0.03453, 124: 0.093191, 125: 0.079114, 126: 0.041037, 127: 0.049977, 128: 0.022183, 129: 0.057754, 130: 0.112317, 131: 0.274177, 132: 0.040433, 133: 0.069714, 134: 1.256655, 135: 1.018108, 136: 0.494577, 137: 1.070536, 138: 1.173115, 139: 0.255299, 140: 0.43434, 141: 0.246719, 142: 0.083509, 143: 0.122616, 144: 0.237407, 145: 0.523457, 146: 0.40496, 147: 0.050625, 148: 0.839396, 149: 0.203622, 150: 1.406074, 151: 0.898432, 152: 0.181837, 153: 0.364001, 154: 0.20053, 155: 0.015571, 156: 0.178052, 157: 0.019552, 158: 0.013113, 159: 0.597871, 160: 0.101838, 161: 0.423407, 162: 0.165092, 163: 0.092336, 164: 0.032835, 165: 0.029758, 166: 0.006545, 167: 0.013632, 168: 0.003019, 169: 9.000000000000001e-05, 170: 0.0, 171: 0.0, 172: 0.0, 173: 0.0, 174: 0.0, 175: 0.0, 176: 0.0, 177: 0.0, 178: 0.0, 179: 0.0, 180: 0.0, 181: 0.0, 182: 0.0, 183: 0.0, 184: 0.0, 185: 0.0, 186: 0.0, 187: 0.0, 188: 0.0, 189: 0.0, 190: 0.0, 191: 0.0];
buy = [0: 598.898377, 1: 94.275828, 2: 298.177014, 3: 302.519118, 4: 281.932614, 5: 302.863316, 6: 938.1227689999999, 7: 934.017747, 8: 926.03003, 9: 788.7567749999999, 10: 633.53305, 11: 444.273766, 12: 558.873632, 13: 871.685921, 14: 49.405953, 15: 35.293333, 16: 551.651162, 17: 0.581777, 18: 48.140696, 19: 658.244762, 20: 276.745751, 21: 513.297058, 22: 550.3081089999999, 23: 656.723426, 24: 601.356974, 25: 565.273503, 26: 262.894459, 27: 978.544275, 28: 311.514927, 29: 788.3027, 30: 619.695202, 31: 595.309653, 32: 183.726213, 33: 225.616881, 34: 767.094347, 35: 299.954325, 36: 847.515665, 37: 800.311433, 38: 938.760229, 39: 516.658132, 40: 231.137758, 41: 729.473739, 42: 379.211812, 43: 303.606716, 44: 554.826727, 45: 489.248984, 46: 736.144821, 47: 596.95388, 48: 680.404635, 49: 904.128066, 50: 263.0864, 51: 273.963758, 52: 223.341504, 53: 677.723911, 54: 517.416863, 55: 348.178282, 56: 248.825628, 57: 169.734713, 58: 18.376722, 59: 2.704753, 60: 309.907122, 61: 865.878771, 62: 493.836737, 63: 662.000946, 64: 97.317588, 65: 896.743984, 66: 747.784589, 67: 135.407698, 68: 118.740856, 69: 259.400269, 70: 805.3297690000001, 71: 414.531217, 72: 988.052267, 73: 50.418798, 74: 105.255257, 75: 624.204934, 76: 513.852319, 77: 124.672447, 78: 958.885358, 79: 300.610347, 80: 516.126709, 81: 448.775814, 82: 1.778396, 83: 712.602882, 84: 525.180682, 85: 358.107045, 86: 861.635688, 87: 359.938867, 88: 982.36086, 89: 750.634267, 90: 357.681937, 91: 96.113767, 92: 639.889084, 93: 524.960373, 94: 47.103212, 95: 633.876628, 96: 197.194629, 97: 224.344501, 98: 108.373703, 99: 444.015629, 100: 512.379038, 101: 363.9611, 102: 291.192408, 103: 548.008493, 104: 545.45998, 105: 202.551328, 106: 750.752691, 107: 486.776154, 108: 447.624655, 109: 393.786058, 110: 893.756128, 111: 840.682563, 112: 734.984331, 113: 95.07102500000001, 114: 694.404985, 115: 959.3055869999999, 116: 401.663798, 117: 671.485249, 118: 288.64771, 119: 473.776132, 120: 495.315632, 121: 367.340889, 122: 23.409814, 123: 274.565235, 124: 317.967409, 125: 167.268638, 126: 574.701186, 127: 266.483121, 128: 146.704825, 129: 478.536676, 130: 852.980671, 131: 582.813011, 132: 848.071072, 133: 730.895501, 134: 259.469647, 135: 879.225306, 136: 266.9999, 137: 23.009708, 138: 183.595059, 139: 486.890289, 140: 925.658731, 141: 403.909651, 142: 887.3790760000001, 143: 10.327225, 144: 455.777616, 145: 12.26676, 146: 425.800306, 147: 308.572435, 148: 715.3020330000001, 149: 543.411119, 150: 772.972388, 151: 258.748049, 152: 970.050559, 153: 536.060401, 154: 116.76424, 155: 150.172891, 156: 760.066008, 157: 352.643741, 158: 711.9887, 159: 43.016836, 160: 839.770298, 161: 909.102254, 162: 955.783606, 163: 845.697426, 164: 6.629886, 165: 722.198172, 166: 405.242816, 167: 738.141544, 168: 552.4058219999999, 169: 825.7241780000001, 170: 881.612739, 171: 882.341033, 172: 790.57849, 173: 461.094079, 174: 398.27506, 175: 810.021799, 176: 894.78676, 177: 176.228143, 178: 83.404937, 179: 434.148581, 180: 477.011995, 181: 256.621289, 182: 971.0273539999999, 183: 914.568431, 184: 916.318169, 185: 712.740336, 186: 4.131723, 187: 231.776036, 188: 778.099528, 189: 292.610925, 190: 833.805278, 191: 255.495261];
sell = [0: 1.901759, 1: 3.420966, 2: 3.092254, 3: 3.894383, 4: 0.931727, 5: 2.315258, 6: 3.805482, 7: 1.781152, 8: 2.179069, 9: 2.934835, 10: 3.828842, 11: 3.923268, 12: 3.529354, 13: 3.087859, 14: 1.383472, 15: 3.378259, 16: 2.19117, 17: 3.294565, 18: 3.890269, 19: 3.756525, 20: 3.082045, 21: 2.165094, 22: 2.758331, 23: 2.593848, 24: 1.752861, 25: 2.311545, 26: 2.939687, 27: 0.083261, 28: 0.983148, 29: 1.015355, 30: 1.390221, 31: 1.58464, 32: 3.445017, 33: 0.620954, 34: 3.504608, 35: 3.66448, 36: 0.550624, 37: 0.151236, 38: 0.075682, 39: 1.646791, 40: 1.637335, 41: 0.040001, 42: 0.422223, 43: 3.942492, 44: 2.417133, 45: 0.804278, 46: 1.172345, 47: 1.947952, 48: 0.370778, 49: 2.05682, 50: 0.440489, 51: 2.24239, 52: 0.052461, 53: 1.449353, 54: 0.178116, 55: 2.902927, 56: 0.15904, 57: 3.952571, 58: 3.884407, 59: 0.767073, 60: 1.498866, 61: 2.249091, 62: 1.496502, 63: 1.858821, 64: 0.39211, 65: 3.00489, 66: 0.131386, 67: 1.689218, 68: 3.900745, 69: 2.423553, 70: 1.265684, 71: 2.664125, 72: 1.910382, 73: 0.530423, 74: 3.199071, 75: 0.314678, 76: 2.330605, 77: 1.467729, 78: 3.985314, 79: 1.74358, 80: 3.333103, 81: 1.578814, 82: 0.29225, 83: 1.937199, 84: 3.114452, 85: 0.220361, 86: 0.250135, 87: 0.246335, 88: 0.024996, 89: 0.989046, 90: 0.475331, 91: 3.827086, 92: 2.162448, 93: 2.139813, 94: 0.647718, 95: 3.588288, 96: 1.8351, 97: 0.907514, 98: 2.647266, 99: 0.927783, 100: 1.285964, 101: 0.291413, 102: 2.96248, 103: 1.979411, 104: 3.959838, 105: 2.664776, 106: 3.388124, 107: 1.875465, 108: 2.088015, 109: 1.795287, 110: 0.918665, 111: 2.701994, 112: 1.491052, 113: 3.718599, 114: 0.220674, 115: 0.452462, 116: 1.782601, 117: 1.385005, 118: 0.854228, 119: 2.413163, 120: 2.961139, 121: 2.85861, 122: 3.644087, 123: 0.797719, 124: 0.208596, 125: 1.71762, 126: 2.791368, 127: 1.846153, 128: 0.618682, 129: 1.054529, 130: 2.826049, 131: 1.31372, 132: 0.94615, 133: 3.442924, 134: 3.772866, 135: 0.264739, 136: 2.424541, 137: 2.677618, 138: 2.825078, 139: 1.516976, 140: 3.489955, 141: 1.751004, 142: 2.645764, 143: 2.138037, 144: 1.265479, 145: 1.890869, 146: 1.437091, 147: 0.376228, 148: 2.28948, 149: 2.042925, 150: 1.028749, 151: 0.800426, 152: 3.019608, 153: 3.355801, 154: 3.516123, 155: 1.703114, 156: 1.096994, 157: 3.339773, 158: 0.37594, 159: 0.751681, 160: 1.386625, 161: 2.405527, 162: 1.352859, 163: 1.123754, 164: 0.294533, 165: 2.140404, 166: 0.016756, 167: 1.79191, 168: 3.354451, 169: 0.543768, 170: 3.36399, 171: 3.619261, 172: 3.745676, 173: 0.035935, 174: 3.782829, 175: 3.379504, 176: 1.595962, 177: 2.446981, 178: 2.304249, 179: 3.419039, 180: 3.931609, 181: 3.18859, 182: 2.610394, 183: 0.585808, 184: 1.938707, 185: 2.979331, 186: 0.628172, 187: 1.289542, 188: 2.184995, 189: 3.943362, 190: 2.426433, 191: 1.945212];
charge = [0: 0.28075, 1: 0.145679, 2: 0.466379, 3: 0.924945, 4: 0.181995, 5: 0.224424, 6: 0.218691, 7: 0.157649, 8: 0.898546, 9: 0.030913, 10: 0.856985, 11: 0.347138, 12: 0.686686, 13: 0.09648, 14: 0.173089, 15: 0.519925, 16: 0.729445, 17: 0.885141, 18: 0.141314, 19: 0.7166940000000001, 20: 0.716333, 21: 0.5572549999999999, 22: 0.831846, 23: 0.023308, 24: 0.129245, 25: 0.075809, 26: 0.124379, 27: 0.666618, 28: 0.965668, 29: 0.061923, 30: 0.701059, 31: 0.489368, 32: 0.262819, 33: 0.589001, 34: 0.746742, 35: 0.192878, 36: 0.710205, 37: 0.940692, 38: 0.162499, 39: 0.720293, 40: 0.586279, 41: 0.301949, 42: 0.297961, 43: 0.09614200000000001, 44: 0.654104, 45: 0.401232, 46: 0.190454, 47: 0.136839, 48: 0.113043, 49: 0.5662509999999999, 50: 0.170008, 51: 0.171498, 52: 0.839, 53: 0.343547, 54: 0.006352, 55: 0.808727, 56: 0.382568, 57: 0.722174, 58: 0.629704, 59: 0.536144, 60: 0.420022, 61: 0.7651790000000001, 62: 0.754068, 63: 0.540933, 64: 0.967718, 65: 0.9552079999999999, 66: 0.764886, 67: 0.069962, 68: 0.677588, 69: 0.868407, 70: 0.186299, 71: 0.91831, 72: 0.728599, 73: 0.278456, 74: 0.108571, 75: 0.589296, 76: 0.5600850000000001, 77: 0.563481, 78: 0.351223, 79: 0.383796, 80: 0.340874, 81: 0.174518, 82: 0.776035, 83: 0.281841, 84: 0.542276, 85: 0.142147, 86: 0.234499, 87: 0.878755, 88: 0.507449, 89: 0.000439, 90: 0.576854, 91: 0.79556, 92: 0.897683, 93: 0.406548, 94: 0.786718, 95: 0.783694, 96: 0.809642, 97: 0.975012, 98: 0.085885, 99: 0.568587, 100: 0.8666239999999999, 101: 0.69289, 102: 0.370107, 103: 0.984367, 104: 0.221427, 105: 0.397976, 106: 0.536928, 107: 0.799029, 108: 0.025915, 109: 0.853249, 110: 0.9858440000000001, 111: 0.458744, 112: 0.8647, 113: 0.199778, 114: 0.950441, 115: 0.451842, 116: 0.810756, 117: 0.26702, 118: 0.999444, 119: 0.460871, 120: 0.17194, 121: 0.148914, 122: 0.812558, 123: 0.609119, 124: 0.331107, 125: 0.712674, 126: 0.106205, 127: 0.6806449999999999, 128: 0.007825, 129: 0.178769, 130: 0.663276, 131: 0.620695, 132: 0.440062, 133: 0.164823, 134: 0.262378, 135: 0.668774, 136: 0.868053, 137: 0.282137, 138: 0.193377, 139: 0.577631, 140: 0.779355, 141: 0.857633, 142: 0.795254, 143: 0.42741, 144: 0.708511, 145: 0.477796, 146: 0.65062, 147: 0.244205, 148: 0.042775, 149: 0.128325, 150: 0.92393, 151: 0.417261, 152: 0.49969, 153: 0.295381, 154: 0.324965, 155: 0.428245, 156: 0.232137, 157: 0.421547, 158: 0.972257, 159: 0.39045, 160: 0.756024, 161: 0.639559, 162: 0.36659, 163: 0.667165, 164: 0.741355, 165: 0.9194369999999999, 166: 0.07445599999999999, 167: 0.317013, 168: 0.151709, 169: 0.434148, 170: 0.73912, 171: 0.213518, 172: 0.628308, 173: 0.09989199999999999, 174: 0.251016, 175: 0.569818, 176: 0.551141, 177: 0.026452, 178: 0.743394, 179: 0.120623, 180: 0.334046, 181: 0.009722, 182: 0.447756, 183: 0.854943, 184: 0.270299, 185: 0.6662439999999999, 186: 0.286641, 187: 0.870744, 188: 0.500868, 189: 0.44215, 190: 0.095523, 191: 0.351007];
discharge = [0: 0.169329, 1: 0.917378, 2: 0.023017, 3: 0.438577, 4: 0.109362, 5: 0.822586, 6: 0.624689, 7: 0.516298, 8: 0.632252, 9: 0.178332, 10: 0.5088780000000001, 11: 0.417222, 12: 0.843419, 13: 0.983514, 14: 0.299793, 15: 0.7503609999999999, 16: 0.465565, 17: 0.880161, 18: 0.685624, 19: 0.534934, 20: 0.323771, 21: 0.774413, 22: 0.028747, 23: 0.416545, 24: 0.324374, 25: 0.978515, 26: 0.354296, 27: 0.542804, 28: 0.996464, 29: 0.409272, 30: 0.502845, 31: 0.397356, 32: 0.273095, 33: 0.344578, 34: 0.476493, 35: 0.921843, 36: 0.422596, 37: 0.985001, 38: 0.275774, 39: 0.971176, 40: 0.581664, 41: 0.40376, 42: 0.115371, 43: 0.6015, 44: 0.95717, 45: 0.652461, 46: 0.829157, 47: 0.73465, 48: 0.5797330000000001, 49: 0.083441, 50: 0.9734080000000001, 51: 0.701989, 52: 0.681922, 53: 0.147017, 54: 0.723495, 55: 0.584954, 56: 0.110153, 57: 0.494666, 58: 0.901257, 59: 0.935715, 60: 0.257778, 61: 0.407476, 62: 0.458841, 63: 0.079592, 64: 0.397481, 65: 0.63762, 66: 0.927247, 67: 0.652433, 68: 0.255001, 69: 0.213371, 70: 0.56345, 71: 0.733647, 72: 0.04511, 73: 0.173869, 74: 0.219863, 75: 0.821431, 76: 0.621911, 77: 0.593869, 78: 0.84319, 79: 0.956893, 80: 0.171137, 81: 0.399869, 82: 0.718007, 83: 0.344491, 84: 0.833334, 85: 0.068884, 86: 0.276, 87: 0.086507, 88: 0.166444, 89: 0.92657, 90: 0.882031, 91: 0.076137, 92: 0.6265579999999999, 93: 0.881517, 94: 0.758576, 95: 0.375489, 96: 0.889324, 97: 0.346368, 98: 0.549378, 99: 0.365326, 100: 0.037685, 101: 0.785378, 102: 0.337602, 103: 0.049492, 104: 0.229292, 105: 0.888731, 106: 0.589574, 107: 0.212484, 108: 0.575632, 109: 0.6212490000000001, 110: 0.367409, 111: 0.674601, 112: 0.645942, 113: 0.544452, 114: 0.402012, 115: 0.579297, 116: 0.85386, 117: 0.886374, 118: 0.389567, 119: 0.343028, 120: 0.616066, 121: 0.772987, 122: 0.162188, 123: 0.521409, 124: 0.101021, 125: 0.679579, 126: 0.872636, 127: 0.259422, 128: 0.906838, 129: 0.08337799999999999, 130: 0.662617, 131: 0.46494, 132: 0.397276, 133: 0.840829, 134: 0.103157, 135: 0.666687, 136: 0.601727, 137: 0.095078, 138: 0.9669759999999999, 139: 0.327682, 140: 0.898443, 141: 0.048226, 142: 0.990937, 143: 0.5806210000000001, 144: 0.165382, 145: 0.425909, 146: 0.184567, 147: 0.605335, 148: 0.866612, 149: 0.256899, 150: 0.566136, 151: 0.301695, 152: 0.1975, 153: 0.12471, 154: 0.167115, 155: 0.243128, 156: 0.030968, 157: 0.601768, 158: 0.844969, 159: 0.645559, 160: 0.616962, 161: 0.198878, 162: 0.575742, 163: 0.800576, 164: 0.07853499999999999, 165: 0.934907, 166: 0.909478, 167: 0.062451, 168: 0.176467, 169: 0.797784, 170: 0.5889450000000001, 171: 0.215393, 172: 0.095597, 173: 0.36617, 174: 0.385187, 175: 0.958122, 176: 0.323157, 177: 0.739791, 178: 0.453616, 179: 0.291102, 180: 0.854302, 181: 0.62354, 182: 0.103891, 183: 0.132613, 184: 0.7527239999999999, 185: 0.162448, 186: 0.490808, 187: 0.042678, 188: 0.216872, 189: 0.617025, 190: 0.278869, 191: 0.025539];
soc = [0: 8.818614999999999, 1: 7.278408, 2: 6.248187, 3: 7.573597, 4: 4.969722, 5: 13.37719, 6: 9.474318, 7: 2.913021, 8: 14.150245, 9: 10.40268, 10: 3.992962, 11: 11.673698, 12: 11.868837, 13: 5.284022, 14: 6.299975, 15: 4.350813, 16: 4.045614, 17: 14.598782, 18: 2.656016, 19: 11.876157, 20: 15.280913, 21: 11.162996, 22: 9.466174000000001, 23: 11.688046, 24: 6.452773, 25: 5.190277, 26: 5.791467, 27: 9.952558, 28: 7.023272, 29: 10.462283, 30: 5.655538, 31: 13.532074, 32: 13.062061, 33: 13.540751, 34: 10.162525, 35: 5.604821, 36: 6.381467, 37: 5.658201, 38: 12.304868, 39: 14.024526, 40: 15.06114, 41: 5.300631, 42: 5.253426, 43: 9.773084000000001, 44: 9.444651, 45: 7.740554, 46: 2.899226, 47: 5.82849, 48: 4.093145, 49: 3.976388, 50: 9.157500000000001, 51: 9.858019000000001, 52: 5.662892, 53: 4.846433, 54: 13.645362, 55: 12.23799, 56: 14.697324, 57: 15.206455, 58: 12.255446, 59: 6.056006, 60: 8.845226, 61: 4.302331, 62: 2.677399, 63: 7.108008, 64: 3.947909, 65: 3.27069, 66: 11.536207, 67: 14.50365, 68: 14.620568, 69: 8.89996, 70: 12.585061, 71: 10.787316, 72: 9.250640000000001, 73: 8.042897999999999, 74: 4.356509, 75: 14.587743, 76: 2.941152, 77: 15.341829, 78: 2.987296, 79: 3.175268, 80: 4.181111, 81: 10.078951, 82: 13.89287, 83: 8.200513000000001, 84: 3.592528, 85: 4.748538, 86: 15.368186, 87: 15.257534, 88: 7.06351, 89: 3.272625, 90: 11.715497, 91: 9.552536999999999, 92: 10.270376, 93: 13.044751, 94: 8.243849000000001, 95: 3.625449, 96: 7.358711, 97: 9.23602, 98: 4.361066, 99: 4.760725, 100: 4.165912, 101: 7.360261, 102: 4.156785, 103: 13.556734, 104: 13.592162, 105: 12.561484, 106: 7.332697, 107: 6.839836, 108: 10.070137, 109: 6.298425, 110: 10.053908, 111: 7.111705, 112: 11.175395, 113: 6.198949, 114: 4.218715, 115: 3.891984, 116: 6.832572, 117: 5.814582, 118: 12.177494, 119: 11.746776, 120: 3.252329, 121: 9.344497, 122: 11.718292, 123: 3.627286, 124: 15.351093, 125: 11.726354, 126: 5.924408, 127: 6.570415, 128: 5.714904, 129: 15.429185, 130: 3.125104, 131: 14.300588, 132: 6.270195, 133: 7.687279, 134: 6.176951, 135: 11.297466, 136: 10.655437, 137: 6.144311, 138: 15.270208, 139: 9.019323, 140: 3.732572, 141: 14.79676, 142: 4.334857, 143: 3.645384, 144: 5.673073, 145: 9.946253, 146: 4.249225, 147: 15.529632, 148: 12.922678, 149: 2.714127, 150: 12.902606, 151: 9.339022999999999, 152: 2.707477, 153: 7.849926, 154: 9.069661999999999, 155: 4.930635, 156: 6.201075, 157: 11.772323, 158: 4.232941, 159: 14.055944, 160: 12.466578, 161: 4.629706, 162: 14.711125, 163: 3.309483, 164: 3.920548, 165: 8.735523000000001, 166: 11.936697, 167: 14.179924, 168: 14.996144, 169: 10.399499, 170: 12.15898, 171: 15.446469, 172: 13.293928, 173: 13.778064, 174: 13.775393, 175: 5.396089, 176: 3.90429, 177: 12.673989, 178: 7.323858, 179: 12.622186, 180: 2.663982, 181: 3.280242, 182: 3.24003, 183: 9.111647, 184: 6.490323, 185: 14.684212, 186: 12.330369, 187: 10.987568, 188: 5.397854, 189: 8.980999000000001, 190: 9.399642999999999, 191: 7.818426];
cost = [0: 89.621666, 1: 420.041844, 2: 384.143492, 3: 92.04475100000001, 4: 483.485324, 5: 93.377681, 6: 462.513105, 7: 295.961087, 8: 274.929945, 9: 172.579436, 10: 442.325438, 11: 121.733602, 12: 369.187962, 13: 65.66406000000001, 14: 226.679599, 15: 204.659489, 16: 363.451914, 17: 599.02703, 18: 165.539172, 19: 421.364759, 20: 198.841021, 21: 229.659024, 22: 567.273426, 23: 581.476594, 24: 786.689859, 25: 172.121737, 26: 1081.212885, 27: 574.791782, 28: 589.710752, 29: 51.185604, 30: 654.837681, 31: 3.860256, 32: 595.2733490000001, 33: 650.870725, 34: 201.224937, 35: 830.079787, 36: 132.767759, 37: 932.301655, 38: 952.9843990000001, 39: 665.169851, 40: 113.411236, 41: 104.611772, 42: 442.123634, 43: 326.965652, 44: 272.348219, 45: 1135.829563, 46: 90.844228, 47: 1144.237219, 48: 20.823134, 49: 759.195707, 50: 758.349838, 51: 42.332333, 52: 436.303956, 53: 267.660497, 54: 110.089375, 55: 199.876922, 56: 97.429619, 57: 4.020078, 58: 608.735502, 59: 327.588031, 60: 1179.265059, 61: 137.718111, 62: 467.323583, 63: 215.552846, 64: 455.660459, 65: 310.302349, 66: 409.674442, 67: 516.88828, 68: 97.811094, 69: 1032.231153, 70: 814.9714750000001, 71: 850.439645, 72: 119.321747, 73: 1028.626958, 74: 1103.098905, 75: 550.116768, 76: 148.24814, 77: 842.038908, 78: 865.90966, 79: 356.95488, 80: 31.108443, 81: 1127.808314, 82: 781.291117, 83: 1157.220705, 84: 572.704165, 85: 923.358429, 86: 1114.356648, 87: 369.505622, 88: 567.74582, 89: 70.62640500000001, 90: 238.6333, 91: 272.746073, 92: 21.763469, 93: 388.290627, 94: 451.842511, 95: 403.839265, 96: 288.609152, 97: 261.703412, 98: 567.409127, 99: 15.709064, 100: 387.962248, 101: 424.19944, 102: 58.721721, 103: 297.340426, 104: 26.854595, 105: 297.572121, 106: 224.650075, 107: 116.761007, 108: 362.341673, 109: 260.142107, 110: 320.424209, 111: 472.428935, 112: 284.672932, 113: 555.992673, 114: 168.162174, 115: 26.611794, 116: 545.280454, 117: 27.455419, 118: 608.451371, 119: 337.91124, 120: 281.96419, 121: 146.679599, 122: 850.050163, 123: 837.8768690000001, 124: 683.439529, 125: 201.516682, 126: 439.405496, 127: 46.275288, 128: 214.450701, 129: 772.323229, 130: 169.407111, 131: 1133.491047, 132: 1186.251676, 133: 576.246174, 134: 113.428272, 135: 428.005531, 136: 416.581053, 137: 104.12326, 138: 738.5134399999999, 139: 382.233033, 140: 185.305955, 141: 87.644103, 142: 688.37109, 143: 610.599111, 144: 1018.62843, 145: 348.730871, 146: 792.702633, 147: 872.380255, 148: 187.116199, 149: 176.837732, 150: 26.837175, 151: 386.824834, 152: 604.692436, 153: 542.204839, 154: 598.5955719999999, 155: 117.314116, 156: 805.450802, 157: 1042.690786, 158: 732.506296, 159: 382.775418, 160: 126.616395, 161: 1185.327563, 162: 229.84272, 163: 454.642659, 164: 1073.636732, 165: 519.462214, 166: 1184.624366, 167: 741.6242120000001, 168: 302.950299, 169: 833.994422, 170: 1101.589399, 171: 835.685511, 172: 1169.250668, 173: 428.792092, 174: 964.849147, 175: 36.441654, 176: 794.418175, 177: 249.320342, 178: 574.381166, 179: 636.646644, 180: 826.713597, 181: 384.481274, 182: 324.151909, 183: 743.956518, 184: 93.812732, 185: 514.007836, 186: 592.818134, 187: 573.292235, 188: 595.953221, 189: 153.236144, 190: 86.991826, 191: 35.168778];
earn = [0: 2.672314, 1: 1.079317, 2: 1.463437, 3: 0.902372, 4: 0.202386, 5: 1.263392, 6: 2.090458, 7: 1.250389, 8: 1.290243, 9: 1.786023, 10: 1.351598, 11: 0.9787979999999999, 12: 2.715139, 13: 1.441388, 14: 1.469058, 15: 1.745504, 16: 0.374525, 17: 1.325973, 18: 2.364225, 19: 1.285105, 20: 2.656456, 21: 1.436233, 22: 3.008643, 23: 1.128679, 24: 3.526882, 25: 1.489125, 26: 1.037937, 27: 1.194387, 28: 3.423194, 29: 0.155905, 30: 1.929078, 31: 2.934996, 32: 1.607493, 33: 1.056867, 34: 1.585084, 35: 0.9036650000000001, 36: 0.293147, 37: 1.384903, 38: 2.406371, 39: 1.093638, 40: 2.011175, 41: 1.043383, 42: 0.183787, 43: 0.203529, 44: 1.663243, 45: 1.171551, 46: 0.112172, 47: 1.995533, 48: 1.38307, 49: 1.101748, 50: 1.353524, 51: 0.921762, 52: 1.226604, 53: 1.617643, 54: 1.005044, 55: 0.285589, 56: 0.9633659999999999, 57: 2.395619, 58: 1.429165, 59: 1.523161, 60: 0.458038, 61: 1.132795, 62: 2.031066, 63: 1.163887, 64: 1.5158, 65: 1.67692, 66: 1.226737, 67: 1.211823, 68: 1.377962, 69: 1.896827, 70: 0.774633, 71: 3.147384, 72: 3.752629, 73: 2.620577, 74: 3.773005, 75: 2.568714, 76: 2.594373, 77: 3.311435, 78: 2.724928, 79: 3.124519, 80: 2.370413, 81: 2.472026, 82: 1.757656, 83: 1.668845, 84: 1.072816, 85: 0.432024, 86: 0.801309, 87: 2.138899, 88: 2.515747, 89: 3.288926, 90: 2.101879, 91: 2.433231, 92: 0.416623, 93: 2.299442, 94: 2.023918, 95: 0.96692, 96: 2.514379, 97: 2.03997, 98: 1.097738, 99: 0.697449, 100: 2.518618, 101: 2.460925, 102: 1.712815, 103: 1.248954, 104: 1.06039, 105: 1.308025, 106: 0.6714599999999999, 107: 2.686633, 108: 0.789173, 109: 1.438507, 110: 0.694825, 111: 1.559072, 112: 0.829371, 113: 1.827984, 114: 2.140691, 115: 1.225251, 116: 1.30507, 117: 2.872913, 118: 1.518468, 119: 1.091983, 120: 1.754301, 121: 0.201467, 122: 1.622941, 123: 2.241772, 124: 2.506164, 125: 2.789759, 126: 1.639536, 127: 0.392584, 128: 1.868089, 129: 1.967695, 130: 0.655383, 131: 0.00161, 132: 0.935802, 133: 0.0331, 134: 0.914083, 135: 0.720121, 136: 0.015689, 137: 0.221728, 138: 0.300665, 139: 0.198825, 140: 0.064805, 141: 0.013994, 142: 0.019657, 143: 0.002899, 144: -0.149626, 145: -0.074445, 146: -0.019004, 147: 0.000393, 148: -0.009927, 149: -0.010483, 150: 0.029066, 151: 0.113743, 152: 0.468695, 153: 0.543618, 154: 0.028505, 155: 0.679871, 156: 0.860331, 157: 0.39078, 158: 1.121365, 159: 1.863295, 160: 1.672061, 161: 2.362219, 162: 0.577549, 163: 0.531142, 164: 0.545328, 165: 0.017354, 166: 0.224211, 167: 2.859582, 168: 3.047569, 169: 3.158174, 170: 3.642804, 171: 0.588311, 172: 2.087734, 173: 3.007637, 174: 0.770734, 175: 0.872068, 176: 1.833844, 177: 2.849325, 178: 2.258364, 179: 1.384714, 180: 0.969424, 181: 0.18673, 182: 0.24193, 183: 1.668326, 184: 0.667389, 185: 0.5270590000000001, 186: 1.684259, 187: 0.617329, 188: 2.118108, 189: 0.184198, 190: 0.401947, 191: 0.4646];
total_cost = 97.61183147014111;
total_earn = 35.4741796157963;
