production = [0.0, 0.0, 0.0, 0.0, 0.0, 0.0, 0.0, 0.0, 0.0, 0.0, 0.0, 0.0, 0.0, 0.0, 0.0, 0.0, 0.0, 0.0, 0.0, 0.0, 0.0, 0.0, 0.0, 0.000232, 0.000159, 0.014725, 0.055169, 0.095623, 0.027565, 0.048384, 0.10142, 0.038389, 0.04285, 0.033388, 0.192791, 0.040305, 0.169481, 0.304639, 0.143297, 0.562612, 0.287188, 0.716297, 0.210099, 0.448919, 0.216688, 0.109532, 0.110064, 0.280237, 0.330818, 0.413556, 0.196842, 0.142808, 0.31148, 0.049898, 0.048506, 0.128138, 0.189808, 0.111011, 0.163986, 0.060967, 0.013635, 0.12527, 0.049527, 0.04586, 0.196483, 0.051897, 0.06984600000000001, 0.061134, 0.026785, 0.033186, 0.016635, 0.002192, 0.0, 0.0, 0.0, 0.0, 0.0, 0.0, 0.0, 0.0, 0.0, 0.0, 0.0, 0.0, 0.0, 0.0, 0.0, 0.0, 0.0, 0.0, 0.0, 0.0, 0.0, 0.0, 0.0, 0.0, 0.0, 0.0, 0.0, 0.0, 0.0, 0.0, 0.0, 0.0, 0.0, 0.0, 0.0, 0.0, 0.0, 0.0, 0.0, 0.0, 0.0, 0.0, 0.0, 0.0, 0.0, 0.0, 0.0, 0.000179, 0.001193, 0.006124, 0.035691, 0.034372, 0.051069, 0.008118, 0.024761, 0.185161, 0.051936, 0.069109, 0.339669, 0.242613, 0.008567, 0.003655, 1.331964, 1.701616, 0.74103, 0.273958, 0.7816419999999999, 0.285115, 0.639245, 0.696754, 1.893765, 1.744819, 2.050011, 0.00026, 0.343475, 0.583871, 0.683134, 0.084784, 0.778851, 1.149194, 0.251985, 0.312818, 0.058835, 0.055323, 0.506402, 0.175599, 0.278708, 0.043457, 0.157346, 0.013283, 0.019338, 0.038201, 0.07698000000000001, 0.079085, 0.04726, 0.022491, 0.000474, 0.000164, 0.0, 0.0, 0.0, 0.0, 0.0, 0.0, 0.0, 0.0, 0.0, 0.0, 0.0, 0.0, 0.0, 0.0, 0.0, 0.0, 0.0, 0.0, 0.0, 0.0, 0.0, 0.0];
buy = [484.675824, 848.797417, 100.102964, 502.615039, 156.309664, 536.210304, 723.892456, 245.829439, 903.082803, 595.693491, 277.325921, 44.874157, 328.309818, 374.008887, 461.894329, 311.507454, 161.810663, 68.60609100000001, 930.343648, 10.922815, 431.254535, 544.738232, 819.404192, 534.620002, 89.375562, 240.830486, 127.32328, 139.256233, 960.759902, 686.410737, 611.397279, 144.890842, 49.941917, 242.386763, 267.196152, 719.7833450000001, 354.335401, 421.693793, 321.750318, 467.182031, 736.987647, 396.296533, 808.187826, 718.727993, 839.083304, 875.123318, 62.236965, 930.8664669999999, 990.138895, 976.46933, 648.823758, 436.281594, 339.12819, 336.588906, 754.4858400000001, 95.31311700000001, 313.196375, 566.842393, 152.418298, 683.935516, 637.2763, 166.132371, 293.934637, 591.764131, 408.261731, 855.253781, 882.0557700000001, 321.309651, 374.475435, 138.596581, 279.721754, 556.2019780000001, 393.010881, 219.362522, 903.5485629999999, 766.959563, 189.213742, 459.615983, 996.307604, 943.8417449999999, 764.559141, 77.682191, 140.295636, 892.651879, 868.897825, 291.801441, 386.340916, 784.139682, 139.810526, 170.693489, 427.757762, 648.8067150000001, 665.6056, 219.3414, 152.96013, 456.618336, 263.421552, 562.654215, 233.221687, 253.458691, 844.502101, 136.53645, 271.00439, 62.695581, 294.316194, 766.190655, 112.854589, 924.742326, 994.526247, 750.09723, 911.1776159999999, 580.2211569999999, 396.227925, 238.004652, 94.4267, 946.13909, 251.283001, 448.934827, 903.226805, 59.980709, 503.525063, 807.699039, 941.071217, 232.376883, 14.096325, 771.112698, 122.314271, 172.264689, 864.938227, 631.625555, 760.29734, 139.746555, 289.434937, 235.843066, 839.5904860000001, 379.327984, 824.410699, 384.164687, 206.035897, 3.225836, 852.701678, 232.376116, 255.865065, 899.538395, 963.1762179999999, 626.155497, 429.418556, 252.088947, 241.160744, 214.469563, 177.527157, 104.128616, 18.308136, 221.8766, 33.741603, 521.424019, 66.370001, 0.257076, 359.251902, 40.679713, 64.606236, 67.022732, 620.441365, 157.107965, 227.348825, 328.178079, 718.067086, 589.288217, 236.111089, 332.810263, 851.912911, 338.804953, 464.20874, 852.079974, 433.340459, 985.737723, 103.482042, 951.1461, 844.300608, 48.064502, 65.774478, 469.583333, 667.6840539999999, 646.1066, 27.35978, 550.771019, 926.436969, 833.673059, 611.993369, 630.264103, 521.9205899999999, 177.13668];
sell = [2.915764, 3.756142, 0.284875, 1.038339, 1.212959, 0.656834, 3.882439, 2.485867, 0.265659, 3.967137, 1.151188, 0.984945, 2.713751, 3.885061, 1.129039, 1.806311, 2.061131, 0.153258, 0.574976, 2.987716, 2.818854, 2.853906, 2.866653, 3.903824, 3.195295, 2.20433, 0.992351, 0.659833, 1.292222, 2.78567, 1.1192, 1.726443, 0.894324, 2.671196, 1.151133, 2.344713, 0.513443, 1.709816, 1.723125, 3.391086, 3.798305, 2.808878, 3.06, 1.711895, 0.184351, 0.800013, 0.321081, 3.632783, 2.909469, 2.561313, 0.358881, 3.027663, 2.971106, 1.550358, 2.705344, 1.267227, 2.809954, 1.224875, 0.696507, 0.889357, 0.779764, 2.197415, 1.175833, 3.717418, 0.317742, 3.155498, 1.114186, 0.654981, 0.389678, 2.84456, 0.37716, 0.431326, 3.05407, 0.739671, 0.697878, 0.444756, 0.348772, 3.615027, 1.345786, 1.76462, 0.609942, 2.20911, 0.01757, 0.762574, 2.859433, 3.359874, 0.5477109999999999, 2.74623, 0.32501, 1.097225, 1.872454, 0.823059, 3.657878, 1.69427, 2.456417, 1.520359, 1.002323, 1.822271, 3.357526, 1.410199, 0.095538, 1.368353, 3.327892, 1.967441, 3.288241, 1.746672, 1.830811, 3.429492, 3.784414, 3.38653, 0.353156, 1.154811, 3.989429, 2.225476, 1.914472, 2.046202, 3.394918, 0.834284, 2.544828, 1.109847, 0.395152, 3.400248, 2.845645, 0.025126, 3.771013, 0.429583, 1.397564, 2.75984, 3.746741, 1.431838, 2.102751, 0.263089, 0.939373, 1.771076, 1.296007, 3.257739, 3.781889, 0.22131, 1.446919, 1.091088, 0.182696, 3.425209, 2.07865, 1.822907, 1.750838, 1.361075, 0.177538, 0.826258, 0.692322, 1.440214, 0.7134779999999999, 3.652919, 2.044362, 0.964625, 1.630122, 3.400522, 1.072232, 3.558187, 2.250608, 1.72119, 3.409406, 2.961952, 0.488422, 1.924196, 0.611285, 3.833295, 1.536266, 3.095356, 3.001157, 3.391083, 1.087537, 0.49237, 1.551957, 0.915996, 2.186984, 2.398857, 0.07131899999999999, 3.765921, 2.436884, 2.301057, 1.580067, 1.479102, 1.554975, 2.13491, 3.165864, 2.62467, 1.693662, 3.767381, 0.259762, 1.219117, 2.861696, 3.832609];
charge = [0.134719, 0.941974, 0.891692, 0.101341, 0.98145, 0.918902, 0.844649, 0.491596, 0.634666, 0.566377, 0.307065, 0.78, 0.184922, 0.821994, 0.03188, 0.162859, 0.99076, 0.410438, 0.277161, 0.299996, 0.403771, 0.679695, 0.684266, 0.17383, 0.034065, 0.032708, 0.13047, 0.788326, 0.8716159999999999, 0.20432, 0.493173, 0.337419, 0.477425, 0.6376309999999999, 0.275449, 0.417583, 0.521729, 0.7201379999999999, 0.524277, 0.817512, 0.840693, 0.275554, 0.021746, 0.104916, 0.8407750000000001, 0.505756, 0.605555, 0.973764, 0.796489, 0.309036, 0.460878, 0.9320850000000001, 0.345829, 0.194571, 0.096552, 0.567285, 0.819767, 0.969473, 0.447411, 0.790553, 0.844041, 0.343162, 0.098186, 0.504275, 0.362382, 0.663457, 0.666108, 0.7110570000000001, 0.415907, 0.48577, 0.291221, 0.761231, 0.997996, 0.043431, 0.181374, 0.144832, 0.337924, 0.5233719999999999, 0.582846, 0.151965, 0.431479, 0.62294, 0.289593, 0.083145, 0.531805, 0.306736, 0.568538, 0.208451, 0.268637, 0.093532, 0.028007, 0.934127, 0.933354, 0.80376, 0.121128, 0.160889, 0.904784, 0.5584519999999999, 0.126423, 0.274222, 0.087115, 0.795018, 0.994743, 0.744998, 0.835192, 0.852139, 0.276402, 0.174079, 0.327465, 0.131819, 0.032916, 0.780046, 0.03334, 0.328948, 0.4607, 0.317051, 0.806602, 0.245415, 0.297983, 0.648655, 0.889361, 0.578618, 0.553822, 0.375279, 0.684038, 0.849731, 0.505295, 0.975958, 0.834649, 0.454543, 0.83274, 0.9814349999999999, 0.08731999999999999, 0.661294, 0.710272, 0.166735, 0.307545, 0.445606, 0.305494, 0.642908, 0.921168, 0.439185, 0.7595499999999999, 0.27023, 0.148077, 0.314672, 0.967336, 0.102687, 0.826406, 0.488263, 0.456675, 0.714836, 0.59602, 0.583453, 0.194524, 0.528008, 0.909776, 0.664888, 0.496335, 0.164636, 0.130786, 0.937632, 0.783941, 0.546197, 0.004922, 0.755457, 0.188234, 0.416812, 0.740939, 0.333833, 0.143224, 0.012569, 0.838939, 0.404454, 0.514767, 0.331002, 0.699969, 0.366165, 0.211173, 0.927824, 0.012557, 0.052142, 0.063399, 0.976332, 0.220325, 0.9232590000000001, 0.498442, 0.042012, 0.282336, 0.757498, 0.677829, 0.275002];
discharge = [0.475741, 0.320199, 0.151193, 0.752602, 0.868657, 0.991946, 0.591943, 0.615583, 0.134532, 0.754475, 0.500939, 0.6168979999999999, 0.19168, 0.382633, 0.47744, 0.628216, 0.956975, 0.5734669999999999, 0.633367, 0.105901, 0.788584, 0.162306, 0.516759, 0.323237, 0.383108, 0.077441, 0.684088, 0.8848240000000001, 0.083526, 0.464746, 0.409525, 0.435742, 0.480672, 0.5976939999999999, 0.532128, 0.305533, 0.04098, 0.897573, 0.744025, 0.358644, 0.994671, 0.386143, 0.993632, 0.201587, 0.534721, 0.460576, 0.307319, 0.232381, 0.018422, 0.39732, 0.711197, 0.6099059999999999, 0.750708, 0.8694770000000001, 0.058973, 0.004824, 0.121586, 0.744583, 0.705472, 0.038798, 0.401413, 0.94321, 0.670164, 0.588319, 0.517891, 0.984254, 0.083442, 0.520191, 0.619968, 0.155768, 0.248332, 0.129881, 0.8261540000000001, 0.920853, 0.763123, 0.168, 0.334908, 0.321054, 0.962894, 0.388947, 0.944432, 0.942662, 0.01136, 0.040063, 0.911241, 0.105557, 0.372791, 0.775609, 0.659718, 0.569269, 0.965512, 0.429853, 0.513912, 0.080134, 0.374156, 0.540596, 0.06403300000000001, 0.035309, 0.273273, 0.887276, 0.265275, 0.615084, 0.368797, 0.275151, 0.500686, 0.733764, 0.826321, 0.36961, 0.270334, 0.871305, 0.712728, 0.497857, 0.237154, 0.976657, 0.105191, 0.060653, 0.30703, 0.385371, 0.950298, 0.060795, 0.216328, 0.909415, 0.660016, 0.54584, 0.949125, 0.086382, 0.845574, 0.447834, 0.514882, 0.683072, 0.582619, 0.52201, 0.762684, 0.389861, 0.243977, 0.104422, 0.300423, 0.654372, 0.100156, 0.979711, 0.7312419999999999, 0.269986, 0.955975, 0.019631, 0.8169459999999999, 0.363513, 0.42756, 0.857341, 0.998063, 0.771106, 0.761287, 0.388547, 0.032603, 0.804165, 0.872069, 0.628516, 0.51263, 0.602719, 0.085531, 0.381211, 0.38292, 0.221328, 0.262524, 0.755691, 0.490678, 0.624991, 0.499824, 0.347725, 0.723701, 0.957493, 0.329764, 0.816441, 0.993586, 0.836774, 0.929937, 0.671956, 0.045732, 0.254432, 0.941025, 0.211671, 0.771072, 0.263032, 0.538906, 0.342793, 0.271765, 0.349408, 0.098181, 0.703885, 0.207664, 0.657866, 0.840902, 0.783766];
soc = [9.887361, 8.003800999999999, 11.105798, 12.113511, 7.992873, 13.886667, 10.730082, 8.626860000000001, 9.568103000000001, 3.529341, 14.649696, 14.762674, 6.030882, 15.231174, 8.147325, 14.920803, 13.756488, 15.213427, 10.039578, 14.69173, 5.065111, 7.03148, 12.080156, 5.298968, 11.302037, 13.899351, 4.03649, 7.196556, 2.666609, 6.31825, 5.877746, 3.060933, 14.198536, 8.180949999999999, 5.676868, 3.094084, 10.788099, 12.710613, 7.421963, 3.900931, 10.76748, 11.915201, 11.913958, 14.260825, 10.297155, 13.686289, 9.881470999999999, 5.037052, 6.196272, 6.443692, 13.073927, 13.695382, 11.96357, 7.013039, 14.49084, 15.514523, 3.573894, 3.286054, 12.654336, 5.208081, 4.473486, 5.393998, 2.921089, 3.488249, 15.069977, 14.556369, 13.709818, 11.553195, 12.111686, 4.141188, 3.17802, 13.427319, 8.91793, 6.507884, 6.545477, 14.809119, 2.655151, 11.038778, 8.408083, 3.852655, 7.285131, 10.447046, 9.389208, 10.669233, 12.657404, 5.945728, 12.371366, 7.144209, 11.192715, 8.311194, 4.580256, 8.601845000000001, 5.317866, 14.7417, 2.737726, 9.728755, 13.009418, 8.116509000000001, 2.671318, 3.410013, 12.455433, 7.758498, 4.088484, 9.734054, 8.380552, 9.323797000000001, 9.543839999999999, 6.458746, 9.069799, 12.684811, 6.554482, 4.679533, 12.854818, 7.810842, 6.53782, 15.17648, 3.458553, 6.401627, 2.978995, 3.653916, 8.926474000000001, 11.058145, 8.912651, 7.332134, 15.643679, 10.261157, 3.764257, 4.529033, 12.896101, 4.772883, 4.737227, 3.092278, 14.46571, 14.600969, 7.296018, 15.667876, 6.906316, 6.904071, 14.836715, 3.561327, 11.477927, 3.998774, 13.501491, 3.883923, 7.81919, 14.155242, 10.48957, 3.82169, 5.37855, 2.675912, 6.246273, 11.379928, 7.010076, 8.108663999999999, 9.638083, 13.748741, 6.525117, 6.67364, 15.61248, 3.499294, 4.768145, 14.729045, 9.796789, 10.563724, 8.110365, 12.757245, 3.687102, 7.11398, 11.712533, 15.100334, 6.358981, 11.993055, 14.18786, 11.919862, 11.875593, 12.870679, 11.368204, 3.75856, 12.967739, 6.786411, 4.76287, 12.150403, 8.457176, 3.046506, 13.693621, 12.90742, 5.852853, 14.189854, 6.710291, 4.365952, 5.97519, 9.714411999999999];
cost = [127.14465, 501.580247, 8.558835999999999, 324.05707, 558.030131, 122.759314, 18.132649, 329.327348, 392.500151, 41.175923, 543.187831, 298.51065, 120.249064, 458.473429, 560.588466, 517.22991, 218.620056, 547.483847, 212.916248, 453.387663, 71.25642000000001, 124.472358, 470.798815, 158.661205, 1093.657918, 799.195608, 1099.061017, 562.340511, 746.538308, 431.698118, 198.246612, 405.201944, 1071.642656, 224.931469, 81.64855900000001, 557.547449, 342.782929, 1122.060664, 753.1055720000001, 618.579596, 162.815737, 128.361731, 311.469264, 1029.580139, 353.34348, 1058.509664, 963.762083, 149.884445, 696.812035, 21.073404, 719.680326, 1108.940464, 484.113219, 475.061713, 468.608646, 558.927717, 92.512378, 202.875717, 70.64664999999999, 117.008341, 393.076161, 752.927193, 193.247945, 167.702105, 649.302186, 833.033067, 1019.276658, 530.171548, 457.61709, 523.121393, 837.218402, 76.73579599999999, 955.451185, 10.813135, 1175.146182, 1183.887551, 147.529582, 743.670533, 540.895047, 972.057811, 680.026969, 860.206014, 151.457366, 86.488899, 230.790973, 749.096628, 648.711366, 890.156732, 395.617629, 293.981402, 299.087398, 393.103074, 433.880088, 503.257172, 437.97499, 117.287615, 6.201131, 591.795177, 580.693585, 47.935066, 297.156564, 69.374827, 413.632867, 112.24164, 518.206642, 81.68141799999999, 301.637518, 216.788198, 441.275337, 515.602367, 173.737689, 337.591723, 316.368756, 553.73176, 540.701182, 573.369372, 459.200722, 40.219538, 197.060476, 300.954228, 553.411905, 1050.904864, 155.4406, 1186.738671, 251.045358, 112.54777, 833.7222400000001, 875.6161990000001, 773.983535, 20.129009, 221.693663, 232.716876, 525.490625, 412.034084, 733.921006, 291.332446, 804.261848, 86.403947, 482.704088, 1029.021208, 222.827879, 885.368732, 16.640251, 1175.877667, 303.123306, 162.377692, 275.59464, 490.529978, 399.894096, 456.378118, 487.893426, 184.265943, 83.474136, 282.434265, 18.985923, 470.808625, 207.788127, 760.503362, 935.537833, 694.292461, 316.135194, 57.421322, 394.933878, 825.045505, 313.172425, 452.274026, 217.09274, 345.701487, 90.863992, 579.457584, 659.186746, 89.345505, 1052.340896, 18.653818, 157.698774, 1141.580944, 332.090469, 316.915204, 66.17321099999999, 167.916638, 927.709062, 639.445937, 1152.886208, 328.411891, 608.302996, 12.206914, 549.535373, 31.093236, 533.619455, 485.058308, 583.767416, 354.017401];
earn = [0.325123, 0.87448, 2.255668, 1.094073, 2.399667, 2.50566, 1.7385, 0.264, 0.983283, 1.410951, 0.798114, 2.57139, 1.925406, 2.507098, 1.345827, 0.208034, 1.822971, 0.5543129999999999, 2.794858, 2.163676, 0.474015, 0.656683, 2.467294, 2.165044, 0.038833, 0.836155, 0.180921, 1.199555, 0.782232, 1.116426, 0.379977, 2.197913, 0.386343, 2.68995, 2.254907, 1.085987, 1.971607, 0.106065, 1.461059, 1.387149, 1.993718, 1.68234, 0.093748, 0.01643, 2.164565, 0.255707, 1.570257, 0.37089, 0.761495, 1.134667, 0.755553, 0.741403, 2.276164, 1.662296, 1.241385, 1.754935, 2.325992, 1.92239, 0.963208, 2.141482, 1.231655, 0.365944, 2.08514, 2.863541, 1.553746, 0.149653, 0.93482, 0.74965, 3.131776, 0.177445, 2.525848, 0.747545, 3.759113, 1.927696, 3.454383, 3.77725, 3.778456, 3.909245, 0.258187, 1.314931, 3.492926, 2.223009, 0.099352, 0.513729, 0.096273, 2.203126, 2.326422, 3.102915, 1.237446, 1.692334, 2.097301, 0.304245, 0.074229, 2.181543, 0.732436, 1.138955, 2.811196, 0.174115, 2.676542, 2.151939, 1.261359, 2.92352, 1.260788, 2.138445, 2.59319, 0.170961, 2.150904, 1.634504, 0.932054, 0.389446, 2.297656, 1.67554, 0.769019, 0.490551, 2.130314, 2.161031, 1.249113, 1.059186, 0.620161, 2.052794, 0.221873, 2.430111, 0.154716, 1.890161, 1.389834, 2.402809, 0.602341, 1.486733, 1.238669, 0.8047339999999999, 1.344994, 0.612578, 0.028396, 1.22885, 0.795442, 0.236809, 0.296047, 0.30798, 0.280607, 0.117223, 0.069296, 0.030243, 0.002467, 0.006296, -0.162674, -0.112376, -0.024577, 0.000192, -0.035149, -0.014693, 0.011079, 0.042741, 0.49805, 0.063292, 0.38725, 1.03915, 1.097427, 1.431329, 1.529322, 2.097679, 0.020641, 1.594929, 0.72443, 0.315345, 0.407204, 0.958012, 2.915813, 0.9834580000000001, 2.754838, 2.725945, 2.194707, 0.573469, 0.900773, 1.100083, 2.560606, 2.822621, 0.156044, 0.132533, 2.040347, 1.564449, 0.470305, 1.694686, 0.9110239999999999, 0.7619629999999999, 0.259642, 1.520554, 0.432094, 0.632644, 0.96455, 1.380313, 0.32494, 1.713704];
total_cost = 97.61183147014111;
total_earn = 35.4741796157963;
% _objective = 62.13765185434481;
