production = [0.0, 0.0, 0.0, 0.0, 0.0, 0.0, 0.0, 0.0, 0.0, 0.0, 0.0, 0.0, 0.0, 0.0, 0.0, 0.0, 0.0, 0.0, 0.0, 0.0, 0.0, 0.0, 0.0, 0.00015, 0.000416, 0.002717, 0.08004699999999999, 0.055501, 0.009908999999999999, 0.051997, 0.08976099999999999, 0.015484, 0.053418, 0.14474, 0.163928, 0.172484, 0.053598, 0.116947, 0.415616, 0.546085, 0.728415, 0.190107, 0.435125, 0.386818, 0.380363, 0.14566, 0.382083, 0.23705, 0.051334, 0.383553, 0.129999, 0.102523, 0.191087, 0.037715, 0.012006, 0.043459, 0.132593, 0.143277, 0.024498, 0.159038, 0.192079, 0.169001, 0.170756, 0.170922, 0.127943, 0.052753, 0.142043, 0.103122, 0.036564, 0.034141, 0.012584, 0.000432, 0.0, 0.0, 0.0, 0.0, 0.0, 0.0, 0.0, 0.0, 0.0, 0.0, 0.0, 0.0, 0.0, 0.0, 0.0, 0.0, 0.0, 0.0, 0.0, 0.0, 0.0, 0.0, 0.0, 0.0, 0.0, 0.0, 0.0, 0.0, 0.0, 0.0, 0.0, 0.0, 0.0, 0.0, 0.0, 0.0, 0.0, 0.0, 0.0, 0.0, 0.0, 0.0, 0.0, 0.0, 0.0, 0.0, 0.0, 0.000106, 0.000475, 0.007988, 0.001793, 0.063516, 0.061767, 0.018174, 0.106459, 0.182557, 0.07478600000000001, 0.033221, 0.164768, 0.443713, 0.17714, 0.212574, 0.904932, 1.715963, 0.246194, 0.382204, 0.849952, 0.207027, 0.022796, 1.232504, 1.82877, 1.290976, 0.37528, 0.705337, 0.096222, 0.933492, 0.09583800000000001, 0.005125, 0.458743, 0.938902, 0.084414, 0.10476, 0.260848, 0.228031, 0.7579669999999999, 0.260683, 0.230682, 0.702556, 0.152123, 0.330669, 0.004193, 0.009974, 0.016698, 0.073933, 0.052975, 0.010639, 0.008899000000000001, 0.000241, 0.0, 0.0, 0.0, 0.0, 0.0, 0.0, 0.0, 0.0, 0.0, 0.0, 0.0, 0.0, 0.0, 0.0, 0.0, 0.0, 0.0, 0.0, 0.0, 0.0, 0.0, 0.0];
buy = [785.999398, 598.745195, 772.060951, 983.703979, 790.377279, 391.044418, 841.597471, 906.154249, 706.101659, 721.4431049999999, 608.926523, 19.184359, 15.111136, 502.323643, 169.562185, 653.262932, 4.654381, 90.025902, 351.565336, 615.3017180000001, 602.7321930000001, 366.402653, 288.823897, 487.508566, 419.527976, 206.647009, 398.515781, 582.32793, 824.2194040000001, 446.876027, 531.05195, 245.740273, 779.122669, 193.975468, 215.49185, 946.995727, 311.182658, 720.4825509999999, 541.4404919999999, 170.324958, 107.320076, 156.003851, 189.923848, 789.637334, 768.121744, 864.31253, 678.442547, 417.817487, 212.60467, 679.763049, 13.87027, 333.647423, 134.500136, 877.65838, 224.967065, 721.891336, 272.805892, 908.655699, 821.846201, 705.962355, 227.745662, 960.672905, 354.973013, 657.9428380000001, 328.862335, 80.57086099999999, 881.612856, 603.672324, 618.710409, 95.70969700000001, 792.930714, 168.507682, 594.829595, 701.553036, 400.595005, 987.583117, 314.606056, 310.434107, 270.219013, 532.896777, 567.781893, 996.896304, 485.125312, 789.307867, 482.685877, 846.819467, 720.70788, 591.388922, 92.42200699999999, 783.258693, 160.341512, 716.331183, 925.801514, 680.180161, 380.639805, 861.883744, 971.394306, 694.8560639999999, 882.53315, 868.331949, 781.641245, 311.956011, 524.81297, 49.373377, 600.713479, 16.921519, 917.759655, 469.423761, 157.386179, 512.774828, 194.322872, 350.411157, 566.729891, 269.738839, 382.49397, 571.796701, 662.142904, 70.501729, 33.072512, 105.239188, 680.6988250000001, 593.04211, 515.467574, 294.98833, 702.0895829999999, 567.89276, 815.1464089999999, 40.612109, 32.753377, 372.55285, 267.197349, 185.841602, 132.803084, 152.789577, 760.171463, 609.983073, 508.375822, 965.247122, 986.114843, 302.322661, 879.109019, 208.621657, 466.128067, 740.266913, 800.060328, 227.398516, 81.638198, 212.891199, 167.433164, 213.365491, 795.640516, 941.434062, 73.49773999999999, 607.403748, 919.15643, 369.980187, 450.544324, 903.563084, 970.6996339999999, 729.278126, 814.751175, 184.546176, 959.5385649999999, 457.984601, 978.763658, 389.635227, 73.24756600000001, 786.104448, 329.229649, 590.154442, 818.138466, 400.145043, 631.32845, 22.059998, 57.957712, 62.097171, 581.2560570000001, 756.265947, 182.710765, 131.0709, 630.103158, 161.934806, 874.48997, 819.122015, 38.33598, 100.729906, 710.9315790000001, 564.897903, 223.102623, 705.438663, 91.531975, 323.512807];
sell = [2.896469, 0.318939, 0.20184, 1.244953, 2.785062, 1.639354, 0.694886, 1.88481, 3.068486, 2.803575, 2.187555, 3.894765, 0.66862, 0.579244, 1.616601, 1.205451, 0.413146, 1.349794, 3.538889, 3.657522, 3.481737, 2.77257, 1.757158, 2.919367, 1.689969, 2.800111, 1.241965, 2.101185, 0.296424, 3.175784, 1.137496, 2.278138, 1.293402, 3.457225, 1.557097, 0.463202, 2.229509, 3.565133, 2.344406, 2.823531, 1.941073, 2.119181, 2.947479, 1.031457, 3.654122, 0.370316, 3.073199, 1.041981, 1.381367, 3.301612, 1.624899, 3.910258, 1.877717, 0.48445, 1.881213, 3.277684, 0.300995, 0.534117, 0.465936, 0.232342, 3.368333, 3.24063, 3.267553, 2.75644, 2.401271, 1.529977, 2.50238, 1.207476, 3.937174, 3.167029, 3.316828, 2.932047, 3.655407, 2.437269, 0.920389, 0.552067, 1.153166, 1.394301, 1.520849, 0.273006, 3.946355, 1.047754, 3.916777, 2.112789, 2.910229, 1.089541, 0.14737, 3.261107, 0.876037, 2.314871, 1.769574, 2.896327, 3.135744, 3.625875, 3.789776, 1.088997, 3.403592, 2.308683, 3.62978, 3.499714, 2.160892, 0.531138, 0.326148, 1.5374, 1.317341, 3.76196, 2.821645, 3.844598, 3.878467, 2.17131, 0.86098, 2.188936, 2.203436, 2.591753, 2.883969, 0.282096, 2.992215, 1.633311, 0.674747, 3.301635, 3.214929, 1.439629, 2.033578, 1.255012, 3.736468, 0.464917, 2.29568, 0.237711, 1.855914, 0.27505, 3.577037, 2.469259, 1.386849, 3.932435, 2.25741, 3.841192, 2.812734, 1.283308, 3.314444, 0.570358, 1.48908, 3.304443, 3.706325, 0.949875, 0.518405, 0.871312, 3.418668, 1.023767, 0.959579, 1.013433, 0.201409, 3.972601, 3.022389, 1.202924, 0.80298, 0.477122, 2.039419, 1.861089, 1.116316, 2.664469, 1.450189, 1.088129, 1.16665, 1.869211, 1.23512, 1.991929, 0.632498, 3.353421, 3.026758, 1.612212, 0.477961, 3.957717, 1.199401, 1.26595, 1.845805, 0.729301, 1.309503, 0.6581, 2.405938, 3.297736, 0.658137, 0.019299, 1.181506, 0.107065, 2.948478, 0.461121, 2.02014, 0.734742, 1.557961, 0.351043, 0.602311, 0.314937];
charge = [0.832795, 0.033165, 0.491108, 0.103846, 0.91644, 0.930217, 0.954106, 0.410013, 0.458844, 0.825693, 0.278901, 0.62485, 0.391756, 0.505788, 0.559728, 0.395307, 0.40866, 0.10928, 0.70278, 0.864188, 0.913434, 0.110143, 0.086006, 0.90949, 0.589546, 0.128442, 0.594885, 0.767477, 0.073009, 0.441497, 0.29687, 0.451966, 0.248687, 0.882211, 0.258952, 0.162257, 0.042663, 0.185271, 0.29728, 0.065196, 0.578322, 0.026231, 0.510255, 0.673696, 0.18563, 0.408825, 0.89045, 0.458625, 0.34866, 0.279192, 0.160134, 0.7156130000000001, 0.431933, 0.167309, 0.683972, 0.448123, 0.271554, 0.024007, 0.142286, 0.031079, 0.391269, 0.679993, 0.6906330000000001, 0.472914, 0.543972, 0.831153, 0.13771, 0.558315, 0.45062, 0.051336, 0.50364, 0.27298, 0.734459, 0.339697, 0.051594, 0.961295, 0.127516, 0.768779, 0.914122, 0.785478, 0.191442, 0.312227, 0.573198, 0.951413, 0.935774, 0.376871, 0.8556510000000001, 0.224206, 0.472295, 0.307853, 0.647956, 0.943805, 0.537893, 0.105071, 0.519235, 0.38485, 0.64486, 0.776339, 0.974141, 0.475626, 0.819398, 0.401884, 0.990563, 0.166446, 0.167064, 0.154942, 0.88225, 0.451781, 0.719688, 0.914388, 0.6670970000000001, 0.824659, 0.041685, 0.71136, 0.324717, 0.782428, 0.098187, 0.666254, 0.259676, 0.776425, 0.954313, 0.793024, 0.176221, 0.266815, 0.056111, 0.936745, 0.13994, 0.791621, 0.854093, 0.256767, 0.058988, 0.758511, 0.464448, 0.872928, 0.739646, 0.93863, 0.531681, 0.778543, 0.259371, 0.841787, 0.361719, 0.761507, 0.942234, 0.277771, 0.838513, 0.881019, 0.157242, 0.432227, 0.818748, 0.656152, 0.001035, 0.371582, 0.206288, 0.82763, 0.909308, 0.873042, 0.86368, 0.226978, 0.41171, 0.243873, 0.591797, 0.434731, 0.939736, 0.302633, 0.746569, 0.528027, 0.999713, 0.014311, 0.13699, 0.870067, 0.09274300000000001, 0.245572, 0.371679, 0.821298, 0.717533, 0.778169, 0.751659, 0.158647, 0.515365, 0.144645, 0.448525, 0.039592, 0.245985, 0.842683, 0.937191, 0.7998459999999999, 0.213198, 0.634639, 0.549854, 0.458153, 0.808067, 0.864915];
discharge = [0.646301, 0.595769, 0.477259, 0.5542859999999999, 0.8775810000000001, 0.684018, 0.780523, 0.9847399999999999, 0.532879, 0.154051, 0.051084, 0.805036, 0.769801, 0.140832, 0.497926, 0.118829, 0.35365, 0.110993, 0.807686, 0.57933, 0.868601, 0.988192, 0.8699, 0.333356, 0.496042, 0.451479, 0.360571, 0.079206, 0.711547, 0.008997, 0.432491, 0.626589, 0.133524, 0.324159, 0.6322759999999999, 0.74233, 0.08133700000000001, 0.115527, 0.295109, 0.315264, 0.829558, 0.019204, 0.493707, 0.248785, 0.407607, 0.33551, 0.914416, 0.619103, 0.416849, 0.44232, 0.302723, 0.477001, 0.6672129999999999, 0.252589, 0.599481, 0.557788, 0.8833259999999999, 0.988306, 0.356102, 0.208258, 0.078193, 0.581003, 0.322702, 0.560152, 0.537201, 0.462322, 0.363077, 0.807405, 0.59271, 0.5092410000000001, 0.970264, 0.708961, 0.46265, 0.384681, 0.249256, 0.267751, 0.286447, 0.366559, 0.420167, 0.5663820000000001, 0.945681, 0.284902, 0.47978, 0.859811, 0.950926, 0.254877, 0.294341, 0.60288, 0.342845, 0.413497, 0.044488, 0.537727, 0.092574, 0.81079, 0.649645, 0.365199, 0.427232, 0.522614, 0.197526, 0.215715, 0.525788, 0.175877, 0.052294, 0.946248, 0.267615, 0.745719, 0.327866, 0.326205, 0.58141, 0.475743, 0.361081, 0.432663, 0.84866, 0.548945, 0.302476, 0.096774, 0.003319, 0.692496, 0.673247, 0.911476, 0.07668800000000001, 0.9923110000000001, 0.279432, 0.721336, 0.887732, 0.689541, 0.391261, 0.131729, 0.665828, 0.697874, 0.121677, 0.662721, 0.72732, 0.382543, 0.064889, 0.419129, 0.596457, 0.372431, 0.928975, 0.843353, 0.397135, 0.912266, 0.599849, 0.297815, 0.371103, 0.914172, 0.738746, 0.602383, 0.516077, 0.496713, 0.512722, 0.100772, 0.320329, 0.060023, 0.27665, 0.853789, 0.288772, 0.197687, 0.164937, 0.679605, 0.692037, 0.731, 0.083034, 0.588317, 0.089312, 0.323329, 0.882732, 0.730342, 0.343374, 0.2448, 0.211206, 0.25588, 0.919605, 0.076867, 0.123344, 0.600881, 0.452477, 0.938491, 0.658807, 0.699132, 0.727541, 0.7771980000000001, 0.867364, 0.711578, 0.662841, 0.379792, 0.902436, 0.222455, 0.379131, 0.176645, 0.809993, 0.235412];
soc = [8.866149999999999, 10.259195, 10.278285, 7.203958, 7.305051, 6.850855, 6.658589, 12.606043, 8.258347000000001, 8.901265, 5.493595, 5.875212, 6.579486, 12.236042, 5.734031, 9.926019999999999, 11.934087, 6.846705, 5.636778, 13.554115, 11.189874, 3.239204, 14.030989, 3.419621, 12.069281, 12.120496, 2.756894, 7.366562, 8.531902000000001, 7.312602, 14.6651, 14.586665, 14.687363, 12.898626, 6.413085, 9.655688, 3.050216, 5.281094, 4.256153, 10.562338, 9.537141, 8.43472, 10.593341, 3.367667, 13.16966, 15.613492, 9.235601000000001, 2.813583, 9.115341000000001, 6.935896, 9.274960999999999, 12.231818, 7.182675, 14.486934, 10.144366, 14.826174, 4.262285, 8.985944999999999, 11.38045, 9.324462, 3.84542, 10.882401, 8.348789, 3.260492, 9.919472000000001, 8.222187999999999, 9.149111, 14.946834, 14.861741, 9.983442999999999, 14.390689, 2.928638, 4.19864, 7.020171, 10.957076, 11.877473, 8.54912, 6.382222, 10.453396, 3.333868, 10.607295, 6.537443, 9.140290999999999, 10.368119, 3.978736, 11.814111, 7.441704, 11.688051, 14.822873, 6.283942, 5.947948, 7.440927, 13.087924, 9.52763, 5.587454, 7.572295, 12.823963, 10.209269, 5.269237, 3.804279, 8.725006, 3.51105, 8.006563999999999, 8.53378, 6.469893, 4.574962, 2.686184, 11.58518, 7.090749, 4.505805, 13.124269, 7.600434, 2.731923, 14.508033, 5.552474, 4.51503, 9.840572999999999, 13.661422, 5.144743, 8.383592, 9.714321999999999, 6.767445, 13.882378, 3.666963, 8.015117999999999, 9.553094, 5.364795, 10.328157, 15.203036, 13.721422, 15.664922, 11.620129, 11.26163, 15.621231, 3.09625, 5.103438, 8.477344, 9.457255, 12.99715, 4.176339, 8.020790999999999, 11.701829, 14.852993, 2.679675, 13.264978, 6.272385, 12.653187, 7.872968, 12.147721, 5.653962, 14.184476, 13.206464, 15.5218, 9.405305, 9.200042, 11.939277, 14.017182, 12.556809, 8.010971, 12.480124, 12.131306, 12.569587, 13.471482, 9.92205, 5.494619, 8.223815, 10.593583, 2.792879, 4.406143, 14.616351, 3.470366, 11.158574, 9.348877, 3.812405, 3.28085, 13.243833, 9.113612, 7.93814, 15.611875, 11.969018, 3.444439, 13.562559, 6.931334, 12.138222, 5.371432, 5.131776, 12.957919, 14.407794, 12.46718, 14.012876, 4.634944, 13.807981];
cost = [540.114154, 399.567047, 63.085553, 437.613492, 308.873344, 201.759044, 487.049444, 567.014255, 510.438094, 138.919807, 32.568653, 233.028536, 586.517611, 493.120975, 60.377498, 370.910524, 401.617671, 295.925683, 601.406537, 2.705313, 390.031099, 486.236537, 321.567267, 478.881054, 825.445253, 1180.821813, 796.672773, 1036.916281, 1086.244959, 193.907337, 351.129122, 441.442479, 603.808679, 304.190953, 125.784361, 960.2748350000001, 115.842671, 33.246211, 1079.633282, 227.949996, 375.613735, 619.360984, 77.480538, 709.341802, 645.080305, 162.951222, 518.673395, 688.755256, 407.332487, 1022.296139, 224.645025, 1061.47635, 291.584304, 596.4722850000001, 22.815172, 401.065404, 478.819522, 449.407929, 316.158764, 5.427253, 1132.319862, 845.796745, 344.410842, 671.516358, 575.214679, 677.406674, 219.575423, 904.251787, 959.908651, 1059.310175, 314.869106, 866.25204, 893.243857, 852.003712, 1186.628295, 856.949819, 485.342056, 986.46172, 549.332938, 959.910448, 194.008665, 497.29034, 534.855137, 232.535437, 901.723077, 456.80601, 649.111313, 1010.580462, 48.780129, 548.593603, 576.643002, 368.443027, 294.687562, 564.236988, 495.681074, 501.905187, 259.196648, 312.761994, 325.243384, 408.626264, 275.427155, 328.800837, 12.540411, 218.509306, 479.453604, 376.245736, 517.439842, 105.366292, 212.568856, 401.005257, 290.832341, 509.408278, 416.784155, 2.546487, 74.17005, 550.054353, 321.220753, 49.615917, 151.432469, 553.3738, 325.881844, 1006.504568, 601.169727, 594.894143, 1110.530468, 616.176123, 130.690433, 657.40182, 871.1292110000001, 552.038765, 202.783911, 676.446466, 805.207528, 178.498549, 791.708469, 835.458132, 185.197676, 752.957575, 1043.346604, 155.633407, 699.786128, 354.269966, 100.918024, 870.111216, 424.618519, 79.50428599999999, 998.641795, 850.0024979999999, 436.539343, 31.52833, 373.752305, 250.248751, 529.765637, 449.354261, 57.243279, 135.996886, 615.740893, 1035.654433, 391.457397, 633.265427, 955.737845, 254.720881, 736.899282, 854.672365, 739.712853, 181.994335, 511.847686, 460.253974, 836.749876, 24.393885, 251.483028, 260.175394, 215.982919, 921.617516, 557.288869, 725.417236, 676.546302, 203.632081, 628.153506, 262.007092, 394.021765, 354.407305, 1129.002053, 780.59379, 478.307768, 146.113585, 306.453358, 385.278806, 409.950848, 583.384183, 195.557828, 222.793263];
earn = [0.07185800000000001, 1.363076, 1.215707, 2.617754, 2.525153, 0.982426, 2.142956, 2.656698, 1.804694, 1.520892, 2.693671, 1.739932, 1.160354, 0.343124, 1.717116, 0.445694, 2.55289, 2.797112, 0.676197, 2.025491, 1.46045, 0.559351, 0.714319, 3.054118, 1.934195, 0.523558, 3.481907, 2.637362, 3.894699, 0.723987, 2.392486, 2.401529, 2.578815, 1.458199, 1.998788, 2.009551, 0.738895, 0.017072, 1.840629, 2.025805, 1.254772, 0.102893, 2.137668, 0.775715, 0.9753579999999999, 1.170249, 1.776538, 1.19963, 1.893405, 0.604913, 1.388944, 1.503962, 1.561848, 0.221189, 1.547521, 0.467707, 2.015324, 0.08158799999999999, 1.693075, 1.10298, 0.8265439999999999, 0.09118, 2.642703, 0.545946, 1.16941, 3.091678, 0.026409, 3.287794, 1.037226, 2.353014, 2.112061, 2.993011, 1.63723, 3.686053, 4.399456, 1.759458, 2.632958, 2.61613, 0.159233, 3.496359, 3.752293, 0.567311, 2.683187, 1.208848, 3.02785, 1.410484, 1.347061, 1.466257, 2.681229, 2.370185, 1.946566, 1.371688, 2.667158, 2.911212, 0.907138, 0.841184, 0.754791, 2.085748, 2.850707, 0.040083, 2.236891, 1.557192, 0.697803, 2.097487, 0.900274, 0.657421, 2.670309, 2.671195, 2.347843, 1.066019, 0.832425, 1.939951, 2.356304, 1.31462, 0.8226250000000001, 1.53371, 1.180152, 2.829837, 0.791416, 2.857543, 1.738449, 0.615887, 1.582598, 1.036858, 2.863251, 2.079812, 0.303318, 0.883867, 0.620892, 1.861606, 0.34534, 1.159229, 0.003603, 0.33542, 0.665707, 0.728352, 0.304351, 0.373967, 0.297796, 0.200377, 0.059934, 0.027702, 0.017107, 5.7e-05, -0.076539, -0.147097, -0.030614, 0.000362, -0.017325, -0.005769, 0.010318, 0.027799, 0.409654, 0.032017, 0.815777, 0.929808, 0.25498, 0.177212, 0.817045, 1.449775, 1.043262, 1.877376, 1.603896, 0.259651, 2.651912, 0.081395, 0.986264, 1.762017, 0.491738, 2.721965, 3.531317, 1.433844, 0.045764, 0.38539, 0.868179, 3.157326, 1.865606, 2.562473, 1.39909, 2.517729, 1.12644, 2.392417, 1.020652, 0.85403, 0.812858, 0.553384, 0.436083, 0.394225, 0.707333, 0.532174, 2.072678, 0.253222];
total_cost = 99.93076849562227;
total_earn = 41.25099288250004;
