production = [0: 0.0, 1: 0.0, 2: 0.0, 3: 0.0, 4: 0.0, 5: 0.0, 6: 0.0, 7: 0.0, 8: 0.0, 9: 0.0, 10: 0.0, 11: 0.0, 12: 0.0, 13: 0.0, 14: 0.0, 15: 0.0, 16: 0.0, 17: 0.0, 18: 0.0, 19: 0.0, 20: 0.0, 21: 0.0, 22: 0.0, 23: 7.2e-05, 24: 0.000166, 25: 0.010223, 26: 0.012707, 27: 0.024967, 28: 0.07793700000000001, 29: 0.061916, 30: 0.014565, 31: 0.056766, 32: 0.06859899999999999, 33: 0.07505100000000001, 34: 0.158523, 35: 0.092401, 36: 0.017262, 37: 0.064245, 38: 0.481296, 39: 0.077433, 40: 0.655944, 41: 0.546669, 42: 0.444897, 43: 0.250179, 44: 0.244476, 45: 0.179505, 46: 0.035972, 47: 0.367894, 48: 0.36387, 49: 0.264189, 50: 0.081779, 51: 0.168902, 52: 0.105441, 53: 0.082861, 54: 0.085684, 55: 0.176154, 56: 0.125844, 57: 0.089602, 58: 0.138831, 59: 0.141671, 60: 0.041748, 61: 0.199337, 62: 0.111191, 63: 0.011438, 64: 0.148221, 65: 0.135898, 66: 0.128902, 67: 0.089827, 68: 0.06671299999999999, 69: 0.030227, 70: 0.003839, 71: 0.002456, 72: 0.0, 73: 0.0, 74: 0.0, 75: 0.0, 76: 0.0, 77: 0.0, 78: 0.0, 79: 0.0, 80: 0.0, 81: 0.0, 82: 0.0, 83: 0.0, 84: 0.0, 85: 0.0, 86: 0.0, 87: 0.0, 88: 0.0, 89: 0.0, 90: 0.0, 91: 0.0, 92: 0.0, 93: 0.0, 94: 0.0, 95: 0.0, 96: 0.0, 97: 0.0, 98: 0.0, 99: 0.0, 100: 0.0, 101: 0.0, 102: 0.0, 103: 0.0, 104: 0.0, 105: 0.0, 106: 0.0, 107: 0.0, 108: 0.0, 109: 0.0, 110: 0.0, 111: 0.0, 112: 0.0, 113: 0.0, 114: 0.0, 115: 0.0, 116: 0.0, 117: 0.0, 118: 0.0, 119: 5.7e-05, 120: 0.000298, 121: 0.004562, 122: 0.013203, 123: 0.055336, 124: 0.00716, 125: 0.105808, 126: 0.157488, 127: 0.205463, 128: 0.108869, 129: 0.027258, 130: 0.109333, 131: 0.334063, 132: 0.044269, 133: 0.090569, 134: 0.823187, 135: 0.917915, 136: 1.035327, 137: 1.887482, 138: 1.263059, 139: 0.409915, 140: 0.839487, 141: 1.764061, 142: 1.119511, 143: 1.162936, 144: 0.790793, 145: 0.605054, 146: 0.443323, 147: 1.237914, 148: 0.557483, 149: 0.417915, 150: 1.108144, 151: 0.607487, 152: 0.495508, 153: 0.197175, 154: 0.281764, 155: 0.257644, 156: 0.36222, 157: 0.034357, 158: 0.000998, 159: 0.894275, 160: 0.060027, 161: 0.353525, 162: 0.282102, 163: 0.022991, 164: 0.09810099999999999, 165: 0.041079, 166: 0.056405, 167: 0.004531, 168: 0.008373999999999999, 169: 0.000275, 170: 0.0, 171: 0.0, 172: 0.0, 173: 0.0, 174: 0.0, 175: 0.0, 176: 0.0, 177: 0.0, 178: 0.0, 179: 0.0, 180: 0.0, 181: 0.0, 182: 0.0, 183: 0.0, 184: 0.0, 185: 0.0, 186: 0.0, 187: 0.0, 188: 0.0, 189: 0.0, 190: 0.0, 191: 0.0];
buy = [0: 900.808884, 1: 307.379453, 2: 962.888131, 3: 791.22345, 4: 124.896892, 5: 357.788669, 6: 608.357064, 7: 153.498119, 8: 53.113959, 9: 356.46633, 10: 852.5690990000001, 11: 326.467098, 12: 122.253502, 13: 499.086402, 14: 142.446987, 15: 20.605903, 16: 772.993828, 17: 560.448503, 18: 519.3321549999999, 19: 421.876831, 20: 392.447758, 21: 502.171679, 22: 647.482749, 23: 207.354467, 24: 960.158889, 25: 365.791601, 26: 415.85586, 27: 527.980824, 28: 827.029225, 29: 482.757703, 30: 271.654809, 31: 143.645309, 32: 670.715293, 33: 664.940139, 34: 47.097855, 35: 768.837686, 36: 654.706826, 37: 905.177037, 38: 148.358178, 39: 186.672573, 40: 750.4190129999999, 41: 82.436126, 42: 771.230142, 43: 677.460138, 44: 389.970763, 45: 122.663994, 46: 162.635275, 47: 298.578547, 48: 406.469907, 49: 715.971034, 50: 45.801506, 51: 781.8629529999999, 52: 354.735861, 53: 551.793588, 54: 639.882804, 55: 876.8562460000001, 56: 116.407136, 57: 392.649778, 58: 298.495915, 59: 14.8599, 60: 571.3654770000001, 61: 473.565299, 62: 173.022231, 63: 489.824082, 64: 260.270016, 65: 294.473313, 66: 643.319061, 67: 351.757968, 68: 620.92813, 69: 723.708813, 70: 596.609273, 71: 614.987795, 72: 726.759192, 73: 265.586515, 74: 723.389241, 75: 209.894992, 76: 245.473359, 77: 264.684315, 78: 653.290443, 79: 617.719985, 80: 167.314501, 81: 795.963981, 82: 36.15741, 83: 687.911895, 84: 620.176798, 85: 684.230238, 86: 471.014569, 87: 414.604028, 88: 4.883962, 89: 818.354235, 90: 289.558898, 91: 295.930157, 92: 490.451992, 93: 574.460137, 94: 266.297561, 95: 782.941268, 96: 300.198127, 97: 257.847973, 98: 503.811289, 99: 37.070262, 100: 403.658899, 101: 71.157512, 102: 890.5512670000001, 103: 419.482934, 104: 645.484201, 105: 282.0129, 106: 724.487767, 107: 776.029375, 108: 939.3920440000001, 109: 977.853144, 110: 110.680766, 111: 352.3132, 112: 307.481753, 113: 654.564019, 114: 646.460809, 115: 715.514573, 116: 698.524963, 117: 416.751042, 118: 156.998862, 119: 89.372077, 120: 854.749361, 121: 31.986769, 122: 144.970765, 123: 131.324903, 124: 693.383364, 125: 362.311957, 126: 587.603296, 127: 276.503365, 128: 154.731192, 129: 445.287851, 130: 796.648672, 131: 480.358724, 132: 891.73652, 133: 783.45479, 134: 888.387207, 135: 710.431149, 136: 291.837963, 137: 270.128567, 138: 42.346653, 139: 724.321379, 140: 88.05012499999999, 141: 129.144726, 142: 280.687069, 143: 808.892696, 144: 373.40646, 145: 823.424741, 146: 811.419147, 147: 310.059333, 148: 517.902858, 149: 225.733063, 150: 181.318478, 151: 495.106087, 152: 751.4270289999999, 153: 290.269304, 154: 983.22037, 155: 901.197486, 156: 461.186373, 157: 156.558693, 158: 790.537001, 159: 410.302574, 160: 776.84106, 161: 183.191206, 162: 518.667996, 163: 632.889773, 164: 248.267077, 165: 524.30927, 166: 41.002346, 167: 614.912631, 168: 568.789353, 169: 596.796959, 170: 996.880455, 171: 877.48323, 172: 927.495078, 173: 736.235944, 174: 668.678988, 175: 781.594729, 176: 497.724278, 177: 521.695206, 178: 535.49577, 179: 743.658642, 180: 814.8939789999999, 181: 569.50329, 182: 974.306762, 183: 615.679692, 184: 827.426202, 185: 725.596973, 186: 56.173349, 187: 613.588838, 188: 744.182446, 189: 952.203069, 190: 897.6410550000001, 191: 243.630317];
sell = [0: 1.945383, 1: 2.702421, 2: 3.171894, 3: 1.756086, 4: 1.940934, 5: 3.927586, 6: 2.339956, 7: 0.923004, 8: 3.984935, 9: 2.24101, 10: 0.902707, 11: 1.802435, 12: 1.199008, 13: 3.421407, 14: 2.876417, 15: 1.717324, 16: 2.884214, 17: 1.534131, 18: 1.324518, 19: 0.719739, 20: 3.123484, 21: 3.12832, 22: 1.539483, 23: 3.641145, 24: 2.238773, 25: 0.83967, 26: 0.3501, 27: 0.85628, 28: 3.111617, 29: 1.177466, 30: 0.228287, 31: 1.782758, 32: 1.28526, 33: 2.920044, 34: 3.776427, 35: 1.148402, 36: 3.11949, 37: 0.173865, 38: 3.034379, 39: 0.43747, 40: 2.982075, 41: 2.371817, 42: 0.158354, 43: 2.691462, 44: 2.093977, 45: 3.227964, 46: 0.148838, 47: 1.465927, 48: 0.026022, 49: 2.388206, 50: 1.824871, 51: 0.934333, 52: 3.134077, 53: 2.64765, 54: 2.320045, 55: 0.034696, 56: 3.820191, 57: 2.243601, 58: 0.025465, 59: 0.35075, 60: 0.223886, 61: 3.555829, 62: 1.660433, 63: 0.092916, 64: 2.173326, 65: 2.148957, 66: 2.955817, 67: 2.845903, 68: 1.596231, 69: 2.753914, 70: 1.472851, 71: 2.640137, 72: 2.929033, 73: 3.356129, 74: 1.031131, 75: 1.738197, 76: 1.827657, 77: 2.512417, 78: 2.157004, 79: 0.7788929999999999, 80: 1.37408, 81: 2.374344, 82: 2.342321, 83: 2.131125, 84: 1.710075, 85: 3.660467, 86: 2.651654, 87: 0.338642, 88: 1.980557, 89: 1.503935, 90: 3.611485, 91: 2.944573, 92: 1.53614, 93: 0.270411, 94: 2.663226, 95: 0.732549, 96: 2.689915, 97: 3.836062, 98: 3.839719, 99: 2.673193, 100: 3.182468, 101: 3.294717, 102: 1.718987, 103: 2.604168, 104: 0.143645, 105: 0.682791, 106: 2.397597, 107: 0.162728, 108: 3.837881, 109: 2.761706, 110: 3.379397, 111: 1.184851, 112: 0.767226, 113: 0.276611, 114: 1.170931, 115: 3.352632, 116: 2.766431, 117: 3.132175, 118: 0.8073630000000001, 119: 3.949315, 120: 2.387932, 121: 0.286365, 122: 3.643914, 123: 0.7498010000000001, 124: 3.859508, 125: 0.132639, 126: 1.52618, 127: 0.971727, 128: 3.67661, 129: 0.964557, 130: 0.850865, 131: 1.277932, 132: 0.9686669999999999, 133: 0.638426, 134: 2.552905, 135: 1.138856, 136: 0.9383860000000001, 137: 3.823426, 138: 1.826611, 139: 2.769725, 140: 2.14153, 141: 0.596004, 142: 0.051185, 143: 1.568524, 144: 1.843542, 145: 0.326833, 146: 3.01736, 147: 3.440288, 148: 1.040863, 149: 1.862845, 150: 1.065384, 151: 0.159117, 152: 2.097638, 153: 1.363778, 154: 1.128764, 155: 1.690944, 156: 1.275114, 157: 2.143526, 158: 1.853415, 159: 2.049911, 160: 1.186707, 161: 2.057579, 162: 0.361387, 163: 2.856084, 164: 1.31155, 165: 0.179022, 166: 0.309249, 167: 2.996433, 168: 1.481593, 169: 0.705767, 170: 3.366931, 171: 1.259349, 172: 3.065239, 173: 1.981111, 174: 2.090558, 175: 0.208686, 176: 3.610451, 177: 0.158788, 178: 3.759665, 179: 0.351409, 180: 1.431306, 181: 2.525528, 182: 2.628611, 183: 0.540034, 184: 0.95477, 185: 2.383036, 186: 2.945754, 187: 2.928223, 188: 2.947909, 189: 1.81455, 190: 2.534962, 191: 0.612313];
charge = [0: 0.241461, 1: 0.470135, 2: 0.401244, 3: 0.193649, 4: 0.637827, 5: 0.567321, 6: 0.031822, 7: 0.986313, 8: 0.41308, 9: 0.5702120000000001, 10: 0.242728, 11: 0.196963, 12: 0.829558, 13: 0.92526, 14: 0.712543, 15: 0.331845, 16: 0.298772, 17: 0.697522, 18: 0.764207, 19: 0.756843, 20: 0.401634, 21: 0.947956, 22: 0.794634, 23: 0.930365, 24: 0.017221, 25: 0.849333, 26: 0.006014, 27: 0.058839, 28: 0.344269, 29: 0.521071, 30: 0.372613, 31: 0.939725, 32: 0.167709, 33: 0.712489, 34: 0.09557, 35: 0.213354, 36: 0.8319800000000001, 37: 0.584587, 38: 0.246769, 39: 0.839495, 40: 0.30597, 41: 0.8930709999999999, 42: 0.514462, 43: 0.495103, 44: 0.764483, 45: 0.869985, 46: 0.764411, 47: 0.554616, 48: 0.8281539999999999, 49: 0.901591, 50: 0.462297, 51: 0.017048, 52: 0.416345, 53: 0.971864, 54: 0.8912369999999999, 55: 0.582887, 56: 0.033568, 57: 0.07853300000000001, 58: 0.952709, 59: 0.939169, 60: 0.395963, 61: 0.825786, 62: 0.930451, 63: 0.241396, 64: 0.445832, 65: 0.879365, 66: 0.962592, 67: 0.772848, 68: 0.847516, 69: 0.769001, 70: 0.088292, 71: 0.980023, 72: 0.029585, 73: 0.815523, 74: 0.054785, 75: 0.546673, 76: 0.732071, 77: 0.111062, 78: 0.968404, 79: 0.934938, 80: 0.208933, 81: 0.488322, 82: 0.916698, 83: 0.080036, 84: 0.836032, 85: 0.207074, 86: 0.651342, 87: 0.72814, 88: 0.713415, 89: 0.432126, 90: 0.926841, 91: 0.6216970000000001, 92: 0.484289, 93: 0.82322, 94: 0.578319, 95: 0.470708, 96: 0.720438, 97: 0.94513, 98: 0.185072, 99: 0.34876, 100: 0.216812, 101: 0.007266, 102: 0.325962, 103: 0.28664, 104: 0.644211, 105: 0.9640339999999999, 106: 0.617825, 107: 0.356024, 108: 0.321448, 109: 0.700645, 110: 0.385758, 111: 0.236246, 112: 0.159564, 113: 0.237846, 114: 0.9456290000000001, 115: 0.5216190000000001, 116: 0.075835, 117: 0.576319, 118: 0.976283, 119: 0.000611, 120: 0.861652, 121: 0.684665, 122: 0.889508, 123: 0.09714100000000001, 124: 0.967735, 125: 0.323208, 126: 0.015899, 127: 0.918751, 128: 0.523258, 129: 0.067874, 130: 0.949663, 131: 0.327402, 132: 0.408684, 133: 0.865245, 134: 0.343852, 135: 0.537283, 136: 0.562624, 137: 0.449581, 138: 0.561813, 139: 0.975317, 140: 0.7477549999999999, 141: 0.701836, 142: 0.114133, 143: 0.08774999999999999, 144: 0.856594, 145: 0.235243, 146: 0.21444, 147: 0.323243, 148: 0.064568, 149: 0.36467, 150: 0.763537, 151: 0.450196, 152: 0.914055, 153: 0.00119, 154: 0.935833, 155: 0.318473, 156: 0.553293, 157: 0.7184430000000001, 158: 0.20991, 159: 0.035595, 160: 0.406378, 161: 0.66123, 162: 0.826701, 163: 0.661907, 164: 0.802414, 165: 0.612057, 166: 0.143619, 167: 0.724368, 168: 0.705963, 169: 0.6615839999999999, 170: 0.577309, 171: 0.120815, 172: 0.005612, 173: 0.941604, 174: 0.065258, 175: 0.153759, 176: 0.854236, 177: 0.373981, 178: 0.42318, 179: 0.0289, 180: 0.93416, 181: 0.787828, 182: 0.959408, 183: 0.206939, 184: 0.408935, 185: 0.250812, 186: 0.183339, 187: 0.391463, 188: 0.111432, 189: 0.446712, 190: 0.331635, 191: 0.061969];
discharge = [0: 0.866263, 1: 0.24395, 2: 0.566435, 3: 0.171467, 4: 0.331834, 5: 0.512745, 6: 0.290843, 7: 0.79896, 8: 0.019759, 9: 0.051603, 10: 0.790072, 11: 0.991204, 12: 0.8900670000000001, 13: 0.999318, 14: 0.707782, 15: 0.400339, 16: 0.404713, 17: 0.484332, 18: 0.305288, 19: 0.139163, 20: 0.725139, 21: 0.363333, 22: 0.306022, 23: 0.87635, 24: 0.39668, 25: 0.954647, 26: 0.740046, 27: 0.990532, 28: 0.792287, 29: 0.310833, 30: 0.586209, 31: 0.998239, 32: 0.125251, 33: 0.397023, 34: 0.036087, 35: 0.901728, 36: 0.655917, 37: 0.209548, 38: 0.099441, 39: 0.06736200000000001, 40: 0.67844, 41: 0.15472, 42: 0.49959, 43: 0.573292, 44: 0.529961, 45: 0.200849, 46: 0.856777, 47: 0.977029, 48: 0.072995, 49: 0.694184, 50: 0.59796, 51: 0.870021, 52: 0.126746, 53: 0.445575, 54: 0.025483, 55: 0.494251, 56: 0.524749, 57: 0.271287, 58: 0.7903, 59: 0.111165, 60: 0.885419, 61: 0.878773, 62: 0.039373, 63: 0.266652, 64: 0.076478, 65: 0.124213, 66: 0.770603, 67: 0.075657, 68: 0.402336, 69: 0.191105, 70: 0.628574, 71: 0.998395, 72: 0.810088, 73: 0.1585, 74: 0.353664, 75: 0.192207, 76: 0.810425, 77: 0.5483710000000001, 78: 0.567929, 79: 0.134781, 80: 0.743962, 81: 0.441253, 82: 0.159307, 83: 0.814143, 84: 0.113812, 85: 0.286309, 86: 0.904796, 87: 0.708466, 88: 0.875677, 89: 0.652858, 90: 0.210213, 91: 0.672161, 92: 0.993662, 93: 0.775178, 94: 0.006781, 95: 0.201653, 96: 0.953008, 97: 0.024777, 98: 0.686469, 99: 0.364444, 100: 0.793845, 101: 0.322757, 102: 0.851039, 103: 0.20445, 104: 0.37254, 105: 0.559553, 106: 0.416259, 107: 0.327762, 108: 0.107313, 109: 0.645244, 110: 0.167637, 111: 0.656601, 112: 0.879903, 113: 0.735302, 114: 0.694782, 115: 0.060123, 116: 0.552862, 117: 0.842496, 118: 0.73589, 119: 0.2794, 120: 0.59857, 121: 0.974485, 122: 0.716245, 123: 0.5679920000000001, 124: 0.122689, 125: 0.057021, 126: 0.30004, 127: 0.393468, 128: 0.754706, 129: 0.715426, 130: 0.267807, 131: 0.404471, 132: 0.473118, 133: 0.74419, 134: 0.561874, 135: 0.013177, 136: 0.703989, 137: 0.685903, 138: 0.602836, 139: 0.680915, 140: 0.948801, 141: 0.152786, 142: 0.931817, 143: 0.401542, 144: 0.056887, 145: 0.850971, 146: 0.407286, 147: 0.182327, 148: 0.832883, 149: 0.802233, 150: 0.6810310000000001, 151: 0.107407, 152: 0.684416, 153: 0.632032, 154: 0.510077, 155: 0.671184, 156: 0.058272, 157: 0.116209, 158: 0.272477, 159: 0.994262, 160: 0.298367, 161: 0.164146, 162: 0.102099, 163: 0.219483, 164: 0.340577, 165: 0.719334, 166: 0.516382, 167: 0.046279, 168: 0.217245, 169: 0.948002, 170: 0.475645, 171: 0.585973, 172: 0.570688, 173: 0.729451, 174: 0.114688, 175: 0.685854, 176: 0.031851, 177: 0.692222, 178: 0.697973, 179: 0.938728, 180: 0.624299, 181: 0.045916, 182: 0.121385, 183: 0.562898, 184: 0.089611, 185: 0.724299, 186: 0.038614, 187: 0.011534, 188: 0.83679, 189: 0.468513, 190: 0.583971, 191: 0.392335];
soc = [0: 8.393521, 1: 10.59658, 2: 8.974078, 3: 11.563679, 4: 11.396991, 5: 10.754794, 6: 3.211213, 7: 2.869519, 8: 15.569409, 9: 9.723347, 10: 3.398515, 11: 7.857751, 12: 6.416636, 13: 14.373808, 14: 9.834680000000001, 15: 7.092792, 16: 4.278191, 17: 5.971968, 18: 8.376766, 19: 5.392522, 20: 5.342276, 21: 11.369786, 22: 4.68835, 23: 7.566601, 24: 15.259745, 25: 6.62663, 26: 14.392266, 27: 11.800334, 28: 9.139683, 29: 14.526899, 30: 8.755050000000001, 31: 5.125958, 32: 15.11482, 33: 5.591403, 34: 5.519813, 35: 9.975989, 36: 8.442912, 37: 12.603316, 38: 4.642924, 39: 3.502783, 40: 3.582942, 41: 9.661303999999999, 42: 4.07086, 43: 6.422042, 44: 15.057723, 45: 10.65589, 46: 9.780995000000001, 47: 11.547706, 48: 5.088426, 49: 3.775318, 50: 13.649118, 51: 10.24768, 52: 6.270876, 53: 14.601609, 54: 13.087761, 55: 11.305928, 56: 12.119829, 57: 14.728504, 58: 9.955385, 59: 12.557765, 60: 9.723712000000001, 61: 11.877302, 62: 4.52047, 63: 8.360073, 64: 5.989313, 65: 9.275435999999999, 66: 8.015559, 67: 12.860097, 68: 15.165896, 69: 12.615587, 70: 8.279987999999999, 71: 5.960683, 72: 6.607682, 73: 9.237885, 74: 4.748945, 75: 15.636517, 76: 5.499331, 77: 7.5264, 78: 5.147053, 79: 8.057599, 80: 15.052067, 81: 3.623161, 82: 11.954472, 83: 11.54751, 84: 14.714628, 85: 2.91208, 86: 10.020781, 87: 12.122778, 88: 7.550548, 89: 15.165464, 90: 9.298332, 91: 5.995933, 92: 9.096691, 93: 2.967582, 94: 2.683191, 95: 13.619794, 96: 15.440468, 97: 8.371468, 98: 8.222102, 99: 3.231007, 100: 15.421773, 101: 13.249919, 102: 5.043977, 103: 10.632019, 104: 9.300919, 105: 13.332736, 106: 8.340392, 107: 11.440598, 108: 4.526629, 109: 9.613928, 110: 5.473145, 111: 15.217694, 112: 4.017173, 113: 7.798831, 114: 6.413544, 115: 14.481037, 116: 12.851806, 117: 15.660649, 118: 14.760275, 119: 6.129745, 120: 3.661859, 121: 15.645418, 122: 11.372586, 123: 2.725358, 124: 9.433273, 125: 7.285172, 126: 15.571739, 127: 3.569548, 128: 4.875785, 129: 12.086243, 130: 2.728891, 131: 9.208601, 132: 4.241835, 133: 3.847292, 134: 9.373654, 135: 9.940302000000001, 136: 8.023246, 137: 3.136532, 138: 15.604111, 139: 7.556347, 140: 3.624797, 141: 13.887278, 142: 3.024328, 143: 4.157987, 144: 9.367342000000001, 145: 8.35032, 146: 5.882343, 147: 8.670693999999999, 148: 9.173416, 149: 9.137119, 150: 4.73097, 151: 8.877141, 152: 2.721129, 153: 9.884683000000001, 154: 3.897757, 155: 8.923208000000001, 156: 7.963352, 157: 15.003612, 158: 3.81323, 159: 12.994594, 160: 8.865285, 161: 5.502618, 162: 7.92898, 163: 11.888395, 164: 2.921248, 165: 10.918615, 166: 8.191363000000001, 167: 14.049048, 168: 5.70776, 169: 10.275896, 170: 15.09594, 171: 5.325251, 172: 13.573839, 173: 11.891332, 174: 6.23115, 175: 3.655522, 176: 14.129438, 177: 4.403145, 178: 3.698701, 179: 13.842507, 180: 11.635964, 181: 11.456257, 182: 15.094677, 183: 7.187609, 184: 4.712575, 185: 7.457631, 186: 10.104423, 187: 7.48192, 188: 8.607044999999999, 189: 8.834505999999999, 190: 12.917433, 191: 12.874684];
cost = [0: 14.228358, 1: 462.53741, 2: 319.15982, 3: 27.831377, 4: 568.834742, 5: 9.703789, 6: 375.200961, 7: 1.511587, 8: 12.708456, 9: 43.356465, 10: 327.384543, 11: 552.2684410000001, 12: 355.522493, 13: 94.816908, 14: 284.891291, 15: 367.259989, 16: 325.807001, 17: 193.598753, 18: 285.065083, 19: 263.485674, 20: 322.316242, 21: 254.614681, 22: 317.238648, 23: 101.299887, 24: 1011.222684, 25: 1183.984353, 26: 804.961271, 27: 440.618084, 28: 329.287031, 29: 26.995712, 30: 1026.608752, 31: 816.253618, 32: 85.426498, 33: 917.956506, 34: 333.449622, 35: 810.8059510000001, 36: 1064.388311, 37: 829.171066, 38: 84.336035, 39: 57.344759, 40: 93.426402, 41: 338.682494, 42: 876.109188, 43: 1046.709964, 44: 135.60916, 45: 140.383456, 46: 635.785342, 47: 779.701407, 48: 945.149614, 49: 269.168587, 50: 1152.190137, 51: 55.816033, 52: 203.429673, 53: 230.225219, 54: 390.278112, 55: 404.714551, 56: 574.628183, 57: 152.06086, 58: 506.094549, 59: 183.157099, 60: 704.151916, 61: 704.026761, 62: 357.870143, 63: 999.132216, 64: 478.312864, 65: 633.121404, 66: 539.887742, 67: 297.4719, 68: 273.494969, 69: 498.855728, 70: 405.494559, 71: 722.206448, 72: 322.216367, 73: 121.984963, 74: 405.041957, 75: 111.059182, 76: 1174.857466, 77: 1156.236214, 78: 1181.528597, 79: 44.882784, 80: 68.24770700000001, 81: 685.888607, 82: 270.488864, 83: 1103.741414, 84: 631.075926, 85: 882.791232, 86: 618.265263, 87: 856.963113, 88: 245.372678, 89: 300.81538, 90: 21.856947, 91: 457.4727, 92: 519.0520760000001, 93: 373.706773, 94: 425.862158, 95: 418.18338, 96: 542.257238, 97: 598.508469, 98: 3.034773, 99: 30.556075, 100: 575.6657750000001, 101: 236.982571, 102: 420.797951, 103: 443.000523, 104: 1.8661, 105: 603.029796, 106: 91.082362, 107: 88.960871, 108: 38.497863, 109: 351.424233, 110: 545.499088, 111: 339.796801, 112: 444.898453, 113: 535.163371, 114: 234.044902, 115: 284.360192, 116: 551.306395, 117: 200.823961, 118: 595.661847, 119: 49.793646, 120: 137.874576, 121: 1164.772971, 122: 472.343546, 123: 362.303064, 124: 600.878919, 125: 165.634764, 126: 784.739884, 127: 621.284086, 128: 165.952145, 129: 1176.544355, 130: 847.343717, 131: 138.068878, 132: 414.03177, 133: 577.658969, 134: 226.963788, 135: 90.70122499999999, 136: 550.912059, 137: 528.544217, 138: 749.882242, 139: 1034.254928, 140: 828.023627, 141: 491.666679, 142: 171.217482, 143: 88.255803, 144: 243.484039, 145: 36.391933, 146: 117.793799, 147: 543.948474, 148: 42.659997, 149: 494.499473, 150: 441.72974, 151: 609.989873, 152: 527.1656829999999, 153: 98.699039, 154: 249.413034, 155: 71.039987, 156: 1072.086296, 157: 550.5300140000001, 158: 44.631834, 159: 1003.154473, 160: 198.673996, 161: 210.134356, 162: 402.145946, 163: 1139.756725, 164: 919.663193, 165: 345.103403, 166: 1081.277009, 167: 645.828066, 168: 549.811479, 169: 520.942194, 170: 347.457082, 171: 516.798592, 172: 889.86, 173: 36.273317, 174: 383.754657, 175: 33.391194, 176: 88.602591, 177: 1105.199352, 178: 435.173698, 179: 272.431876, 180: 647.505491, 181: 753.622867, 182: 489.154377, 183: 289.005867, 184: 603.067733, 185: 377.596747, 186: 404.143883, 187: 266.809841, 188: 203.83114, 189: 39.647989, 190: 123.893268, 191: 144.460112];
earn = [0: 1.840461, 1: 0.207181, 2: 0.140285, 3: 1.174323, 4: 0.577778, 5: 2.454543, 6: 0.007168, 7: 2.45396, 8: 2.75801, 9: 2.394183, 10: 0.441633, 11: 2.585528, 12: 0.11443, 13: 0.511615, 14: 1.937341, 15: 2.589551, 16: 2.806398, 17: 0.071115, 18: 0.430068, 19: 2.317647, 20: 2.697961, 21: 1.515588, 22: 0.602252, 23: 1.06474, 24: 3.321523, 25: 2.699611, 26: 0.244125, 27: 1.398127, 28: 0.838005, 29: 1.14852, 30: 2.901292, 31: 1.706634, 32: 2.738348, 33: 1.945501, 34: 1.421756, 35: 1.254987, 36: 3.269712, 37: 2.080527, 38: 1.23245, 39: 0.559246, 40: 0.655197, 41: 2.166027, 42: 0.015419, 43: 0.44503, 44: 2.090865, 45: 1.121883, 46: 1.907854, 47: 0.987258, 48: 0.288955, 49: 0.391692, 50: 1.003617, 51: 1.98857, 52: 1.035127, 53: 1.482253, 54: 0.368329, 55: 0.614769, 56: 2.013749, 57: 0.238837, 58: 1.225514, 59: 2.224822, 60: 1.496686, 61: 2.792426, 62: 1.316241, 63: 2.056757, 64: 2.140051, 65: 2.862654, 66: 1.996861, 67: 1.428768, 68: 1.497983, 69: 1.001224, 70: 3.511425, 71: 2.512328, 72: 2.145315, 73: 3.830478, 74: 3.814049, 75: 0.931952, 76: 1.134911, 77: 4.226687, 78: 2.586519, 79: 0.007637, 80: 2.538654, 81: 3.335594, 82: 1.796636, 83: 0.106194, 84: 1.292655, 85: 2.171265, 86: 3.30132, 87: 0.328815, 88: 2.167294, 89: 2.667841, 90: 0.990237, 91: 2.529771, 92: 1.100173, 93: 2.660698, 94: 2.667305, 95: 2.531176, 96: 2.2786, 97: 2.448891, 98: 0.116456, 99: 2.596794, 100: 1.817971, 101: 2.297514, 102: 1.05295, 103: 0.9228460000000001, 104: 0.939385, 105: 1.07298, 106: 2.184527, 107: 0.532547, 108: 1.982546, 109: 0.854799, 110: 1.723621, 111: 0.392041, 112: 0.709546, 113: 0.106308, 114: 0.501574, 115: 0.841209, 116: 2.132531, 117: 2.802323, 118: 1.673469, 119: 2.653909, 120: 0.600835, 121: 1.610427, 122: 0.274469, 123: 1.190296, 124: 2.499966, 125: 1.620374, 126: 2.138736, 127: 0.172967, 128: 0.162772, 129: 1.134174, 130: 1.669756, 131: 0.173997, 132: 0.274863, 133: 0.240301, 134: 0.681578, 135: 0.430568, 136: 0.428734, 137: 0.513223, 138: 0.250998, 139: 0.339762, 140: 0.109344, 141: 0.004456, 142: 0.000874, 143: 0.006125, 144: -0.128192, 145: -0.138787, 146: -0.030452, 147: 0.000189, 148: -0.008513, 149: -0.000767, 150: 0.030702, 151: 0.06834999999999999, 152: 0.310775, 153: 0.568255, 154: 0.6738189999999999, 155: 0.866173, 156: 0.928411, 157: 0.670042, 158: 0.058267, 159: 1.624073, 160: 1.047009, 161: 0.673187, 162: 0.110117, 163: 0.915637, 164: 2.087215, 165: 2.013193, 166: 1.354268, 167: 0.692296, 168: 1.227258, 169: 1.231625, 170: 1.954278, 171: 3.301555, 172: 3.348304, 173: 3.351768, 174: 0.878949, 175: 0.391374, 176: 0.602116, 177: 1.774938, 178: 1.395392, 179: 0.107955, 180: 2.75446, 181: 1.831553, 182: 1.320936, 183: 1.528718, 184: 1.314433, 185: 1.45383, 186: 2.461898, 187: 0.048244, 188: 1.06811, 189: 2.150287, 190: 2.063769, 191: 2.189587];
total_cost = 95.66708239898026;
total_earn = 38.91694406683694;
