production = [0: 0.0, 1: 0.0, 2: 0.0, 3: 0.0, 4: 0.0, 5: 0.0, 6: 0.0, 7: 0.0, 8: 0.0, 9: 0.0, 10: 0.0, 11: 0.0, 12: 0.0, 13: 0.0, 14: 0.0, 15: 0.0, 16: 0.0, 17: 0.0, 18: 0.0, 19: 0.0, 20: 0.0, 21: 0.0, 22: 0.0, 23: 0.0001, 24: 0.000325, 25: 0.02341, 26: 0.035634, 27: 0.027345, 28: 0.098582, 29: 0.066985, 30: 0.125191, 31: 0.07811800000000001, 32: 0.000599, 33: 0.046428, 34: 0.207453, 35: 0.265693, 36: 0.254405, 37: 0.318163, 38: 0.165219, 39: 0.546374, 40: 0.149926, 41: 0.217343, 42: 0.193539, 43: 0.222161, 44: 0.372615, 45: 0.024765, 46: 0.117112, 47: 0.336133, 48: 0.329841, 49: 0.110986, 50: 0.041386, 51: 0.128539, 52: 0.234716, 53: 0.069729, 54: 0.008318000000000001, 55: 0.033268, 56: 0.041572, 57: 0.061544, 58: 0.071991, 59: 0.09973799999999999, 60: 0.170838, 61: 0.135891, 62: 0.160216, 63: 0.159857, 64: 0.016587, 65: 0.111376, 66: 0.003059, 67: 0.036004, 68: 0.024659, 69: 0.024961, 70: 0.002891, 71: 4.2e-05, 72: 0.0, 73: 0.0, 74: 0.0, 75: 0.0, 76: 0.0, 77: 0.0, 78: 0.0, 79: 0.0, 80: 0.0, 81: 0.0, 82: 0.0, 83: 0.0, 84: 0.0, 85: 0.0, 86: 0.0, 87: 0.0, 88: 0.0, 89: 0.0, 90: 0.0, 91: 0.0, 92: 0.0, 93: 0.0, 94: 0.0, 95: 0.0, 96: 0.0, 97: 0.0, 98: 0.0, 99: 0.0, 100: 0.0, 101: 0.0, 102: 0.0, 103: 0.0, 104: 0.0, 105: 0.0, 106: 0.0, 107: 0.0, 108: 0.0, 109: 0.0, 110: 0.0, 111: 0.0, 112: 0.0, 113: 0.0, 114: 0.0, 115: 0.0, 116: 0.0, 117: 0.0, 118: 0.0, 119: 5.6e-05, 120: 0.001219, 121: 4e-06, 122: 0.012588, 123: 0.045039, 124: 0.023813, 125: 0.130001, 126: 0.210793, 127: 0.181914, 128: 0.222501, 129: 0.034425, 130: 0.319006, 131: 0.078398, 132: 0.38488, 133: 0.358204, 134: 0.054984, 135: 0.98075, 136: 1.241019, 137: 1.725405, 138: 0.91433, 139: 0.656388, 140: 0.803277, 141: 1.257799, 142: 1.968618, 143: 1.600807, 144: 0.139171, 145: 0.339237, 146: 0.429053, 147: 1.429133, 148: 0.867449, 149: 0.265318, 150: 0.271152, 151: 0.264989, 152: 0.607349, 153: 0.158767, 154: 0.219411, 155: 0.297427, 156: 0.400801, 157: 0.039845, 158: 0.188679, 159: 0.821398, 160: 0.061145, 161: 0.378039, 162: 0.262982, 163: 0.085314, 164: 0.037363, 165: 0.061125, 166: 0.021809, 167: 0.019155, 168: 0.002756, 169: 0.000105, 170: 0.0, 171: 0.0, 172: 0.0, 173: 0.0, 174: 0.0, 175: 0.0, 176: 0.0, 177: 0.0, 178: 0.0, 179: 0.0, 180: 0.0, 181: 0.0, 182: 0.0, 183: 0.0, 184: 0.0, 185: 0.0, 186: 0.0, 187: 0.0, 188: 0.0, 189: 0.0, 190: 0.0, 191: 0.0];
buy = [0: 143.085366, 1: 433.495053, 2: 739.916636, 3: 407.20887, 4: 813.212709, 5: 390.834872, 6: 109.332549, 7: 138.1348, 8: 593.554455, 9: 229.463344, 10: 124.914013, 11: 362.24883, 12: 754.518335, 13: 23.192956, 14: 646.8430499999999, 15: 197.115035, 16: 727.552085, 17: 65.899716, 18: 809.352586, 19: 713.753278, 20: 686.4785879999999, 21: 49.293663, 22: 384.181572, 23: 984.5045270000001, 24: 381.106787, 25: 709.408087, 26: 482.20863, 27: 521.6368660000001, 28: 639.457752, 29: 654.786879, 30: 445.532154, 31: 858.013095, 32: 264.232589, 33: 898.906906, 34: 293.945849, 35: 532.728189, 36: 268.438779, 37: 298.116802, 38: 374.143695, 39: 242.281784, 40: 303.525704, 41: 313.717958, 42: 53.230816, 43: 509.448163, 44: 313.158051, 45: 572.979726, 46: 860.477791, 47: 12.406397, 48: 434.394543, 49: 847.881989, 50: 637.725451, 51: 144.642489, 52: 205.067192, 53: 435.347138, 54: 908.315504, 55: 349.419026, 56: 308.882855, 57: 991.97393, 58: 447.702905, 59: 947.90406, 60: 687.00642, 61: 852.14093, 62: 657.885776, 63: 466.627786, 64: 830.360402, 65: 233.723953, 66: 509.784812, 67: 58.352876, 68: 883.599665, 69: 827.614563, 70: 438.219101, 71: 661.19501, 72: 259.027801, 73: 314.389152, 74: 54.479235, 75: 855.467492, 76: 769.45874, 77: 495.729553, 78: 285.376675, 79: 783.49321, 80: 715.019965, 81: 553.723239, 82: 646.727754, 83: 50.898966, 84: 956.934961, 85: 628.30277, 86: 513.367629, 87: 146.620695, 88: 428.245719, 89: 590.412717, 90: 668.1297980000001, 91: 355.044285, 92: 649.435579, 93: 718.500386, 94: 524.364696, 95: 255.213307, 96: 151.818845, 97: 467.714922, 98: 266.513333, 99: 320.887881, 100: 565.332102, 101: 750.3565160000001, 102: 952.36119, 103: 553.210641, 104: 176.36882, 105: 824.024442, 106: 769.779176, 107: 482.072831, 108: 957.277839, 109: 75.24712599999999, 110: 503.531925, 111: 575.373006, 112: 525.113488, 113: 534.0526149999999, 114: 797.0894050000001, 115: 483.542567, 116: 123.854531, 117: 282.565358, 118: 416.218574, 119: 708.751827, 120: 531.26348, 121: 533.4370719999999, 122: 630.367111, 123: 658.472938, 124: 540.579882, 125: 947.9972310000001, 126: 462.981847, 127: 522.5619369999999, 128: 418.564521, 129: 943.412915, 130: 487.476059, 131: 578.585188, 132: 266.207123, 133: 35.593083, 134: 323.249525, 135: 379.266354, 136: 371.931675, 137: 646.640156, 138: 121.694151, 139: 151.520053, 140: 151.13236, 141: 156.290432, 142: 692.077926, 143: 432.979571, 144: 125.042333, 145: 383.57047, 146: 908.646012, 147: 821.705094, 148: 841.1374, 149: 413.936214, 150: 729.758817, 151: 718.91032, 152: 928.800146, 153: 105.942842, 154: 209.362105, 155: 950.4833180000001, 156: 609.269215, 157: 350.033095, 158: 369.647052, 159: 767.450483, 160: 528.110533, 161: 952.842368, 162: 7.219941, 163: 417.045708, 164: 701.184105, 165: 397.914649, 166: 87.367924, 167: 747.636813, 168: 982.985064, 169: 489.578532, 170: 448.443474, 171: 956.2591210000001, 172: 669.450794, 173: 100.021003, 174: 148.719902, 175: 220.738146, 176: 817.394943, 177: 501.359638, 178: 739.888457, 179: 397.981784, 180: 665.643264, 181: 253.107075, 182: 704.023456, 183: 992.8421, 184: 821.67045, 185: 421.997595, 186: 59.057248, 187: 352.946663, 188: 206.338968, 189: 997.638879, 190: 869.723729, 191: 723.46662];
sell = [0: 3.378017, 1: 1.072246, 2: 3.229448, 3: 1.940933, 4: 1.017029, 5: 2.676378, 6: 3.037355, 7: 1.742676, 8: 2.86603, 9: 2.867104, 10: 1.947275, 11: 3.111927, 12: 2.64844, 13: 2.699884, 14: 3.629766, 15: 2.645901, 16: 0.019336, 17: 3.019066, 18: 3.750842, 19: 3.88605, 20: 0.540679, 21: 0.08476400000000001, 22: 1.245681, 23: 1.303096, 24: 2.818578, 25: 0.959673, 26: 1.59482, 27: 1.028077, 28: 0.931734, 29: 0.928924, 30: 1.75659, 31: 2.68826, 32: 2.160225, 33: 3.53832, 34: 1.875252, 35: 3.35167, 36: 1.282042, 37: 0.426767, 38: 2.922872, 39: 2.537887, 40: 3.187329, 41: 0.65974, 42: 3.127337, 43: 3.895123, 44: 1.721594, 45: 3.218438, 46: 3.854416, 47: 2.954042, 48: 3.899295, 49: 2.848244, 50: 2.005498, 51: 1.737182, 52: 0.289724, 53: 3.383604, 54: 1.098198, 55: 1.005564, 56: 1.884981, 57: 0.323595, 58: 1.619362, 59: 2.908438, 60: 2.203378, 61: 1.933642, 62: 0.241576, 63: 3.796265, 64: 3.999469, 65: 2.460952, 66: 1.190352, 67: 3.133396, 68: 2.717653, 69: 0.046823, 70: 1.083308, 71: 1.739145, 72: 2.373397, 73: 3.250367, 74: 2.263223, 75: 0.064331, 76: 3.160541, 77: 2.598142, 78: 0.467235, 79: 0.662185, 80: 2.182268, 81: 0.5254259999999999, 82: 0.639491, 83: 3.488271, 84: 1.798806, 85: 0.045649, 86: 3.353989, 87: 3.824319, 88: 1.324099, 89: 1.734049, 90: 0.532376, 91: 1.706914, 92: 3.230161, 93: 0.697455, 94: 1.107124, 95: 1.35171, 96: 2.464309, 97: 1.85312, 98: 3.733747, 99: 3.422307, 100: 1.743449, 101: 0.76046, 102: 0.750611, 103: 2.483162, 104: 3.126769, 105: 2.788579, 106: 1.728028, 107: 1.4674, 108: 2.616219, 109: 0.964446, 110: 2.738584, 111: 3.558365, 112: 1.106182, 113: 0.9045879999999999, 114: 3.587176, 115: 2.023172, 116: 0.647872, 117: 0.155759, 118: 3.329177, 119: 3.866507, 120: 0.430892, 121: 3.179438, 122: 1.363889, 123: 0.334356, 124: 2.930497, 125: 2.663748, 126: 1.722503, 127: 3.309182, 128: 3.336397, 129: 2.045511, 130: 3.65071, 131: 3.81506, 132: 0.66462, 133: 1.441757, 134: 1.071907, 135: 2.927373, 136: 0.714924, 137: 3.650692, 138: 2.641446, 139: 2.950934, 140: 0.411971, 141: 2.127215, 142: 1.760801, 143: 2.666628, 144: 3.783947, 145: 0.610112, 146: 0.558821, 147: 3.550489, 148: 0.241679, 149: 1.66057, 150: 0.389153, 151: 3.32688, 152: 2.398097, 153: 0.568245, 154: 0.011743, 155: 2.177837, 156: 3.076355, 157: 1.82111, 158: 1.520703, 159: 3.49873, 160: 1.651337, 161: 1.533462, 162: 0.393453, 163: 2.861319, 164: 0.22652, 165: 3.581534, 166: 0.719154, 167: 3.551433, 168: 0.775328, 169: 0.068743, 170: 3.291139, 171: 3.671018, 172: 3.956606, 173: 1.478619, 174: 0.222698, 175: 1.953625, 176: 2.646337, 177: 0.053423, 178: 1.310022, 179: 0.589284, 180: 3.879286, 181: 0.251476, 182: 1.55878, 183: 0.764644, 184: 0.552647, 185: 3.370574, 186: 2.269492, 187: 1.004179, 188: 1.812024, 189: 2.469495, 190: 3.778436, 191: 2.658801];
charge = [0: 0.314471, 1: 0.910088, 2: 0.655624, 3: 0.026584, 4: 0.294903, 5: 0.533535, 6: 0.77912, 7: 0.547974, 8: 0.926809, 9: 0.491982, 10: 0.45009, 11: 0.205771, 12: 0.878053, 13: 0.716231, 14: 0.976853, 15: 0.199651, 16: 0.046263, 17: 0.383097, 18: 0.115002, 19: 0.426558, 20: 0.990471, 21: 0.231673, 22: 0.23826, 23: 0.954251, 24: 0.824576, 25: 0.951603, 26: 0.437706, 27: 0.969805, 28: 0.706947, 29: 0.259529, 30: 0.829674, 31: 0.303765, 32: 0.439339, 33: 0.867384, 34: 0.980486, 35: 0.835031, 36: 0.021216, 37: 0.327387, 38: 0.01343, 39: 0.322766, 40: 0.432435, 41: 0.007317, 42: 0.694855, 43: 0.9862919999999999, 44: 0.564433, 45: 0.609584, 46: 0.657895, 47: 0.287966, 48: 0.754551, 49: 0.786172, 50: 0.148924, 51: 0.248454, 52: 0.244673, 53: 0.877015, 54: 0.294269, 55: 0.7832519999999999, 56: 0.525601, 57: 0.022715, 58: 0.525741, 59: 0.7042389999999999, 60: 0.657184, 61: 0.561954, 62: 0.855374, 63: 0.544492, 64: 0.169582, 65: 0.436005, 66: 0.085536, 67: 0.362315, 68: 0.6639080000000001, 69: 0.448769, 70: 0.426413, 71: 0.796863, 72: 0.53574, 73: 0.976171, 74: 0.467599, 75: 0.700135, 76: 0.969763, 77: 0.744335, 78: 0.434871, 79: 0.400811, 80: 0.024947, 81: 0.170489, 82: 0.741901, 83: 0.392745, 84: 0.005909, 85: 0.777553, 86: 0.708699, 87: 0.9760180000000001, 88: 0.761226, 89: 0.125902, 90: 0.6035160000000001, 91: 0.141956, 92: 0.773147, 93: 0.205032, 94: 0.432586, 95: 0.325809, 96: 0.682022, 97: 0.980459, 98: 0.335958, 99: 0.847595, 100: 0.012564, 101: 0.182368, 102: 0.164472, 103: 0.564779, 104: 0.90871, 105: 0.713433, 106: 0.021252, 107: 0.679215, 108: 0.077296, 109: 0.124664, 110: 0.473768, 111: 0.236426, 112: 0.317023, 113: 0.133296, 114: 0.992555, 115: 0.990088, 116: 0.910959, 117: 0.540901, 118: 0.431821, 119: 0.839106, 120: 0.662457, 121: 0.253112, 122: 0.647097, 123: 0.556274, 124: 0.200706, 125: 0.568345, 126: 0.000251, 127: 0.041093, 128: 0.559548, 129: 0.846726, 130: 0.038727, 131: 0.894312, 132: 0.175343, 133: 0.777971, 134: 0.320729, 135: 0.754765, 136: 0.21178, 137: 0.914952, 138: 0.36591, 139: 0.517768, 140: 0.846433, 141: 0.067907, 142: 0.183067, 143: 0.12955, 144: 0.327476, 145: 0.5960029999999999, 146: 0.254608, 147: 0.27563, 148: 0.895657, 149: 0.208871, 150: 0.873479, 151: 0.67118, 152: 0.986921, 153: 0.060188, 154: 0.523298, 155: 0.229434, 156: 0.324782, 157: 0.7168060000000001, 158: 0.054058, 159: 0.378163, 160: 0.674861, 161: 0.137201, 162: 0.7267670000000001, 163: 0.043167, 164: 0.734187, 165: 0.233382, 166: 0.814142, 167: 0.620888, 168: 0.238158, 169: 0.914772, 170: 0.324888, 171: 0.369422, 172: 0.420045, 173: 0.817265, 174: 0.797071, 175: 0.586026, 176: 0.10071, 177: 0.516412, 178: 0.670864, 179: 0.9446830000000001, 180: 0.213277, 181: 0.262372, 182: 0.794397, 183: 0.923435, 184: 0.046907, 185: 0.720642, 186: 0.413448, 187: 0.115651, 188: 0.948867, 189: 0.870943, 190: 0.652498, 191: 0.181575];
discharge = [0: 0.594251, 1: 0.71767, 2: 0.583125, 3: 0.400336, 4: 0.062111, 5: 0.406418, 6: 0.058369, 7: 0.808165, 8: 0.38711, 9: 0.560032, 10: 0.25732, 11: 0.72189, 12: 0.220622, 13: 0.766547, 14: 0.381173, 15: 0.226494, 16: 0.262529, 17: 0.323357, 18: 0.483221, 19: 0.465973, 20: 0.715793, 21: 0.416916, 22: 0.08004500000000001, 23: 0.538532, 24: 0.423764, 25: 0.293502, 26: 0.415195, 27: 0.257053, 28: 0.702869, 29: 0.279566, 30: 0.273855, 31: 0.652002, 32: 0.076863, 33: 0.245073, 34: 0.152088, 35: 0.796131, 36: 0.273658, 37: 0.506136, 38: 0.836296, 39: 0.529107, 40: 0.89621, 41: 0.813814, 42: 0.682737, 43: 0.186302, 44: 0.954651, 45: 0.818982, 46: 0.431114, 47: 0.860617, 48: 0.132523, 49: 0.183117, 50: 0.850837, 51: 0.507953, 52: 0.413872, 53: 0.856274, 54: 0.737323, 55: 0.686613, 56: 0.014781, 57: 0.451279, 58: 0.872871, 59: 0.450154, 60: 0.7252729999999999, 61: 0.031398, 62: 0.411559, 63: 0.230655, 64: 0.762232, 65: 0.205526, 66: 0.371268, 67: 0.749252, 68: 0.431461, 69: 0.606214, 70: 0.031505, 71: 0.372987, 72: 0.906768, 73: 0.532118, 74: 0.416967, 75: 0.422721, 76: 0.769025, 77: 0.559495, 78: 0.789758, 79: 0.034526, 80: 0.788286, 81: 0.916021, 82: 0.91234, 83: 0.109267, 84: 0.264638, 85: 0.225264, 86: 0.761095, 87: 0.593754, 88: 0.990846, 89: 0.283401, 90: 0.212258, 91: 0.202149, 92: 0.318121, 93: 0.158743, 94: 0.467695, 95: 0.9162360000000001, 96: 0.690683, 97: 0.0013, 98: 0.107833, 99: 0.407634, 100: 0.211161, 101: 0.535463, 102: 0.384499, 103: 0.408711, 104: 0.748403, 105: 0.022865, 106: 0.724404, 107: 0.376554, 108: 0.627617, 109: 0.542327, 110: 0.174707, 111: 0.123747, 112: 0.902266, 113: 0.432153, 114: 0.347438, 115: 0.543579, 116: 0.9159890000000001, 117: 0.273362, 118: 0.270468, 119: 0.059117, 120: 0.964755, 121: 0.8196099999999999, 122: 0.08701299999999999, 123: 0.985284, 124: 0.157066, 125: 0.708128, 126: 0.177448, 127: 0.485618, 128: 0.485115, 129: 0.736199, 130: 0.728841, 131: 0.232012, 132: 0.976781, 133: 0.563297, 134: 0.29769, 135: 0.898939, 136: 0.031509, 137: 0.609725, 138: 0.175997, 139: 0.241059, 140: 0.333511, 141: 0.161899, 142: 0.214361, 143: 0.572315, 144: 0.5189820000000001, 145: 0.146612, 146: 0.013603, 147: 0.331007, 148: 0.168255, 149: 0.366205, 150: 0.302189, 151: 0.555424, 152: 0.689842, 153: 0.045386, 154: 0.899022, 155: 0.599746, 156: 0.113579, 157: 0.862216, 158: 0.890859, 159: 0.211623, 160: 0.556557, 161: 0.305138, 162: 0.741005, 163: 0.319511, 164: 0.272166, 165: 0.759996, 166: 0.285043, 167: 0.548266, 168: 0.37646, 169: 0.329918, 170: 0.528155, 171: 0.258929, 172: 0.617321, 173: 0.590364, 174: 0.90147, 175: 0.639169, 176: 0.939164, 177: 0.093949, 178: 0.444793, 179: 0.820625, 180: 0.109506, 181: 0.525633, 182: 0.306884, 183: 0.767506, 184: 0.426613, 185: 0.457342, 186: 0.623229, 187: 0.654672, 188: 0.034421, 189: 0.39729, 190: 0.11363, 191: 0.26062];
soc = [0: 8.540072, 1: 8.765865, 2: 10.819165, 3: 10.858119, 4: 8.989713, 5: 8.951883, 6: 7.162847, 7: 7.653003, 8: 7.92785, 9: 6.181318, 10: 12.667304, 11: 8.698193, 12: 14.504411, 13: 9.680616000000001, 14: 11.768245, 15: 4.332195, 16: 8.296301, 17: 13.479799, 18: 13.968963, 19: 8.929081999999999, 20: 6.404803, 21: 4.375555, 22: 10.399846, 23: 12.287227, 24: 7.484982, 25: 9.082686000000001, 26: 3.526738, 27: 3.265757, 28: 14.890148, 29: 5.51087, 30: 5.362666, 31: 15.306945, 32: 14.901154, 33: 10.733969, 34: 12.708614, 35: 3.030847, 36: 8.635975999999999, 37: 7.851698, 38: 11.722955, 39: 3.403944, 40: 12.865185, 41: 3.822745, 42: 10.983025, 43: 6.012739, 44: 2.961263, 45: 3.554452, 46: 7.709391, 47: 4.794731, 48: 6.203625, 49: 9.263489, 50: 7.389901, 51: 12.370337, 52: 7.27941, 53: 10.220601, 54: 13.27446, 55: 11.389369, 56: 6.55593, 57: 10.455331, 58: 7.58345, 59: 12.452221, 60: 12.730975, 61: 9.116806, 62: 7.985661, 63: 2.732795, 64: 3.054198, 65: 3.480711, 66: 6.671245, 67: 9.594154, 68: 12.585676, 69: 12.66566, 70: 8.774475000000001, 71: 8.855043, 72: 2.984229, 73: 4.299049, 74: 5.666239, 75: 3.033773, 76: 4.87847, 77: 3.771193, 78: 5.753404, 79: 3.128175, 80: 13.472054, 81: 12.222837, 82: 11.172268, 83: 13.039482, 84: 13.629986, 85: 8.512625999999999, 86: 5.562485, 87: 13.171769, 88: 13.756079, 89: 15.045891, 90: 13.762717, 91: 4.142207, 92: 9.162006999999999, 93: 6.604471, 94: 9.668086000000001, 95: 13.09109, 96: 9.370728, 97: 10.696812, 98: 15.13055, 99: 10.982616, 100: 13.52057, 101: 8.983281, 102: 8.633136, 103: 13.882458, 104: 3.680232, 105: 8.766283, 106: 11.649176, 107: 13.358998, 108: 11.565118, 109: 12.906992, 110: 3.023687, 111: 4.278264, 112: 12.006064, 113: 11.994653, 114: 10.569074, 115: 14.787645, 116: 3.533361, 117: 15.238953, 118: 14.734056, 119: 5.603465, 120: 5.696805, 121: 6.812725, 122: 13.425879, 123: 12.4983, 124: 2.731293, 125: 13.969138, 126: 6.955006, 127: 4.918863, 128: 10.376724, 129: 3.263371, 130: 11.879405, 131: 6.362132, 132: 14.213298, 133: 12.62027, 134: 10.675529, 135: 13.952717, 136: 5.414946, 137: 6.810008, 138: 5.670305, 139: 12.758409, 140: 5.039399, 141: 3.182356, 142: 3.153056, 143: 7.162012, 144: 8.755122, 145: 7.72187, 146: 3.133715, 147: 9.853327, 148: 3.873321, 149: 9.529356, 150: 2.789095, 151: 9.935712000000001, 152: 12.648255, 153: 13.877829, 154: 8.114216000000001, 155: 9.777454000000001, 156: 3.433992, 157: 15.599667, 158: 7.075902, 159: 9.563933, 160: 13.969152, 161: 4.948372, 162: 13.927051, 163: 7.831555, 164: 11.064366, 165: 14.630089, 166: 3.656726, 167: 10.303824, 168: 14.961501, 169: 7.039207, 170: 7.593062, 171: 6.441775, 172: 13.517198, 173: 10.525249, 174: 12.542158, 175: 2.995578, 176: 13.409235, 177: 8.367283, 178: 4.831968, 179: 14.314522, 180: 4.794167, 181: 7.100779, 182: 9.417630000000001, 183: 4.274711, 184: 7.736314, 185: 6.746824, 186: 15.585791, 187: 2.782132, 188: 13.637121, 189: 7.398381, 190: 13.464186, 191: 9.461186];
cost = [0: 133.827136, 1: 251.559734, 2: 195.16582, 3: 112.926378, 4: 374.467313, 5: 568.9670159999999, 6: 364.832779, 7: 507.480108, 8: 471.17041, 9: 246.409165, 10: 571.6782470000001, 11: 286.804385, 12: 109.863449, 13: 137.034023, 14: 355.672498, 15: 229.121887, 16: 277.535647, 17: 491.080388, 18: 277.868057, 19: 155.332678, 20: 457.073073, 21: 291.90209, 22: 154.360756, 23: 189.732742, 24: 1034.154732, 25: 694.026106, 26: 836.21399, 27: 350.486633, 28: 149.722537, 29: 364.965344, 30: 1115.940613, 31: 639.0135299999999, 32: 310.613046, 33: 292.472156, 34: 1108.616945, 35: 330.482062, 36: 720.182197, 37: 630.832713, 38: 432.347229, 39: 302.58222, 40: 36.327097, 41: 289.519592, 42: 902.674622, 43: 896.847226, 44: 564.9189270000001, 45: 329.188722, 46: 350.8889, 47: 403.425251, 48: 1131.107074, 49: 569.555926, 50: 94.520033, 51: 250.648244, 52: 579.111141, 53: 369.569301, 54: 193.45676, 55: 77.89274899999999, 56: 240.067249, 57: 353.161455, 58: 530.047431, 59: 451.623359, 60: 766.299309, 61: 399.334499, 62: 221.848056, 63: 973.979745, 64: 1110.379726, 65: 138.263872, 66: 1092.426779, 67: 899.521398, 68: 1033.361318, 69: 965.779796, 70: 171.581463, 71: 893.56494, 72: 473.555221, 73: 1169.109919, 74: 1030.429461, 75: 509.391869, 76: 591.296125, 77: 423.489071, 78: 653.783648, 79: 203.807313, 80: 959.285086, 81: 275.336532, 82: 786.0351020000001, 83: 586.6719890000001, 84: 151.582988, 85: 420.952352, 86: 1084.853636, 87: 424.270853, 88: 141.800049, 89: 456.088427, 90: 569.447222, 91: 335.314721, 92: 237.646184, 93: 239.729541, 94: 373.378653, 95: 16.554783, 96: 424.232127, 97: 222.394709, 98: 539.762019, 99: 132.980925, 100: 448.299504, 101: 430.393239, 102: 281.164833, 103: 486.951461, 104: 453.19684, 105: 316.254519, 106: 259.76579, 107: 217.856926, 108: 123.094072, 109: 113.678525, 110: 436.541104, 111: 351.781473, 112: 35.626428, 113: 353.657273, 114: 334.820182, 115: 258.796278, 116: 382.144223, 117: 565.9061390000001, 118: 590.975915, 119: 545.010527, 120: 139.465973, 121: 406.135583, 122: 898.355362, 123: 352.429808, 124: 150.371221, 125: 990.33942, 126: 11.616362, 127: 762.807935, 128: 241.18351, 129: 546.115916, 130: 471.265001, 131: 731.48423, 132: 1006.123729, 133: 29.382305, 134: 364.406415, 135: 838.407299, 136: 908.145769, 137: 423.725856, 138: 361.299783, 139: 286.478515, 140: 541.682146, 141: 108.620945, 142: 22.65378, 143: 326.68905, 144: 310.780378, 145: 577.070375, 146: 390.258988, 147: 331.292699, 148: 85.691362, 149: 196.680036, 150: 386.35445, 151: 496.758114, 152: 294.477511, 153: 153.546892, 154: 41.412754, 155: 419.806699, 156: 1109.884444, 157: 130.411258, 158: 711.44629, 159: 818.641486, 160: 925.847259, 161: 1029.12557, 162: 540.33822, 163: 124.995861, 164: 818.511699, 165: 361.772676, 166: 238.991191, 167: 500.620642, 168: 770.0717110000001, 169: 645.393896, 170: 552.868576, 171: 738.024208, 172: 878.178874, 173: 214.838672, 174: 693.53968, 175: 556.178002, 176: 607.974151, 177: 635.2944220000001, 178: 671.282056, 179: 513.714832, 180: 15.515807, 181: 674.042857, 182: 992.704736, 183: 345.886833, 184: 549.595671, 185: 225.624938, 186: 228.607621, 187: 179.465757, 188: 31.96959, 189: 269.399146, 190: 240.018478, 191: 525.763199];
earn = [0: 2.171541, 1: 2.380437, 2: 2.774723, 3: 0.07018000000000001, 4: 2.461284, 5: 0.495992, 6: 2.175686, 7: 2.49016, 8: 1.505499, 9: 0.139035, 10: 0.299492, 11: 0.003017, 12: 1.638558, 13: 0.584905, 14: 0.45712, 15: 1.322835, 16: 2.278802, 17: 1.714624, 18: 0.053051, 19: 2.551718, 20: 2.077179, 21: 0.691167, 22: 0.487448, 23: 1.038845, 24: 0.905881, 25: 3.291068, 26: 1.089884, 27: 2.035745, 28: 0.212877, 29: 3.177586, 30: 2.370604, 31: 2.357267, 32: 2.463511, 33: 2.697093, 34: 0.979007, 35: 2.464014, 36: 3.147001, 37: 1.776084, 38: 1.644867, 39: 0.871812, 40: 1.795253, 41: 2.15715, 42: 1.212636, 43: 1.615936, 44: 1.877475, 45: 0.857411, 46: 0.02435, 47: 0.604783, 48: 0.790327, 49: 1.896513, 50: 1.772919, 51: 1.718251, 52: 2.003323, 53: 2.111274, 54: 1.653775, 55: 1.279168, 56: 0.927159, 57: 1.570702, 58: 1.542999, 59: 0.150819, 60: 1.518862, 61: 2.041292, 62: 0.577761, 63: 1.662744, 64: 2.135347, 65: 2.554004, 66: 1.928162, 67: 0.5472939999999999, 68: 3.336104, 69: 2.979645, 70: 3.240398, 71: 2.927953, 72: 1.062072, 73: 4.057269, 74: 3.115228, 75: 0.337969, 76: 1.595216, 77: 0.1794, 78: 1.791268, 79: 3.068982, 80: 2.797374, 81: 3.066557, 82: 0.684389, 83: 1.226599, 84: 1.840556, 85: 0.274321, 86: 3.231241, 87: 0.904101, 88: 0.148083, 89: 0.247044, 90: 3.032566, 91: 2.861651, 92: 2.786706, 93: 2.908266, 94: 0.644583, 95: 1.633927, 96: 2.925122, 97: 2.725761, 98: 2.95185, 99: 0.106194, 100: 1.920221, 101: 2.900363, 102: 2.354129, 103: 2.249514, 104: 2.510117, 105: 0.839993, 106: 0.453839, 107: 0.546367, 108: 0.431388, 109: 1.268552, 110: 2.279149, 111: 1.903425, 112: 0.236738, 113: 1.789451, 114: 2.691032, 115: 0.527373, 116: 1.053428, 117: 2.667077, 118: 0.473933, 119: 2.664083, 120: 1.592407, 121: 1.095325, 122: 0.440624, 123: 2.838489, 124: 1.173171, 125: 2.447136, 126: 1.483282, 127: 0.50528, 128: 0.808932, 129: 1.288972, 130: 0.916376, 131: 0.261912, 132: 0.167808, 133: 0.9717479999999999, 134: 0.007448, 135: 0.813982, 136: 0.323356, 137: 0.280022, 138: 0.236218, 139: 0.326343, 140: 0.068777, 141: 0.016103, 142: 0.005525, 143: 0.006079, 144: -0.042555, 145: -0.014115, 146: -0.025845, 147: 0.000296, 148: -0.035378, 149: -0.004345, 150: 0.011773, 151: 0.05654, 152: 0.357385, 153: 0.445382, 154: 0.382204, 155: 1.118242, 156: 0.9269770000000001, 157: 0.8465279999999999, 158: 0.499949, 159: 1.217122, 160: 2.06151, 161: 1.79069, 162: 2.041781, 163: 1.747256, 164: 0.080637, 165: 1.989642, 166: 0.473477, 167: 3.236161, 168: 2.598903, 169: 1.212603, 170: 1.937009, 171: 3.331477, 172: 2.221593, 173: 3.37518, 174: 1.443203, 175: 0.657857, 176: 3.071437, 177: 0.253279, 178: 1.549797, 179: 0.690519, 180: 2.775031, 181: 2.078787, 182: 0.37766, 183: 1.724343, 184: 1.153437, 185: 1.475417, 186: 1.595148, 187: 0.403643, 188: 2.242419, 189: 0.798053, 190: 1.740138, 191: 0.438751];
total_cost = 101.8215090140754;
total_earn = 41.79262938862043;
