open = [1, 1, 1, 1, 1, 1, 1, 0];
satisfied = 
[|           0.818823, 0.317011, 0.260326, 0.467811, 0.696043,           0.322548, 0.187946,            0.595705, 0.816196, 0.709109,  0.00583,           0.435382
 |           0.894678, 0.019409, 0.728034,  0.69747, 0.496691,           0.003508, 0.146985, 0.08595899999999999, 0.651003, 0.580944, 0.760042,           0.055383
 |             0.4951, 0.500076, 0.321937, 0.970975, 0.178052,           0.141252, 0.419022,            0.812934, 0.001032, 0.400912, 0.494024,           0.586709
 |           0.756695, 0.394295, 0.414851, 0.331076, 0.900653,           0.027342, 0.121827, 0.07446800000000001, 0.958798, 0.107956, 0.234844,           0.228104
 |           0.538687, 0.468852, 0.132413, 0.236941, 0.776712,           0.331189, 0.833649,            0.738738, 0.879571, 0.309335, 0.570342, 0.8879629999999999
 |            0.36724, 0.304972, 0.825139, 0.210515,  0.67658,           0.167826, 0.138304,            0.872475, 0.585556, 0.297767, 0.358609,           0.662353
 |           0.738332, 0.721151, 0.195159, 0.567836, 0.259779, 0.8187489999999999, 0.813315,            0.698921, 0.312755, 0.473381, 0.888702, 0.8721370000000001
 | 0.6501670000000001, 0.616083,  0.06605, 0.125956, 0.787668, 0.8246019999999999, 0.033836,            0.447715, 0.438698, 0.617148, 0.266931,           0.859578
 |];
% _objective = 33961.92831;
