open = [1, 1, 0, 0, 1, 0, 1, 0];
satisfied = 
[| 0.855844,           0.312822,            0.81169, 0.496292, 0.851431, 0.781924, 0.394304, 0.7046750000000001,           0.017079, 0.054484, 0.105964, 0.608382
 | 0.846286,            0.90027,           0.552226,  0.68727, 0.978949, 0.746026, 0.781036,           0.333976,           0.679916, 0.652892, 0.634324, 0.803656
 | 0.008616,           0.970278,           0.799334, 0.182884, 0.469846, 0.390285, 0.724935,           0.564509,           0.040688, 0.011646, 0.396455, 0.014485
 |  0.83384, 0.7540519999999999,           0.953951, 0.672967, 0.886732, 0.877555, 0.823556,           0.288498,           0.499125, 0.328769,  0.22289, 0.556204
 | 0.121103,           0.655883,           0.931061, 0.269731, 0.400816, 0.608589, 0.245562,           0.257761,           0.560767, 0.619756, 0.271581,  0.07638
 | 0.411451,           0.158534, 0.5985740000000001, 0.093801, 0.825897, 0.649246, 0.758189,           0.893823,            0.71774, 0.282941, 0.068929, 0.240076
 | 0.575726,           0.913183,           0.505819, 0.059501, 0.887402, 0.402224, 0.464135,           0.680802, 0.8863760000000001, 0.085933, 0.491954, 0.358902
 |  0.39169,           0.763503,           0.799193,  0.27848,  0.20807, 0.924995,   0.4654, 0.7984830000000001,           0.038018, 0.832767, 0.567928, 0.189096
 |];
% _objective = 34836.44155100001;
