open = [1, 1, 0, 0, 1, 0, 0, 0];
satisfied = 
[| 0.339834,           0.085037,           0.056723, 0.7034280000000001,           0.571586, 0.818797,            0.93776,           0.896836,           0.524371, 0.937846, 0.028639, 0.946537
 | 0.711157,           0.018294,           0.501727,           0.864015,           0.771481, 0.149301,           0.345776,           0.249796,           0.783319, 0.946762, 0.788671, 0.721816
 |  0.40203, 0.6760119999999999, 0.6409629999999999,            0.03137,           0.980568, 0.874972,           0.529189,           0.644689,           0.666995, 0.972154, 0.782623, 0.857432
 | 0.439106,           0.035096,           0.055187,           0.247706,           0.706138, 0.029284, 0.5357769999999999,           0.485787,           0.181744, 0.388456,  0.72235, 0.828024
 | 0.847858,           0.230601,           0.226534,           0.086592, 0.7001309999999999, 0.186045,           0.971171,            0.82155,           0.468209, 0.773111, 0.133138, 0.819642
 | 0.278569,           0.082452,           0.337186,            0.02469,           0.004637, 0.645938,           0.478109,           0.160344,           0.409293, 0.579045,  0.19502, 0.281937
 | 0.385185,           0.311144,            0.76876,           0.510899,           0.532743, 0.500208,           0.011149,           0.723046,           0.325882, 0.184814, 0.772114, 0.148119
 | 0.571358,            0.28431,             0.8214,           0.947252,           0.253189, 0.927338,           0.342159, 0.8099769999999999, 0.7266280000000001, 0.200096, 0.361741,  0.28555
 |];
% _objective = 29447.425875;
