open = [1, 1, 1, 1, 0, 0, 0, 0];
satisfied = 
[| 0.892472,           0.203826,            0.37032, 0.294854, 0.7479479999999999,  0.65898,           0.469909, 0.9990560000000001,            0.080565, 0.957107,           0.877012,   0.0848
 | 0.691719,           0.616623, 0.8267640000000001, 0.275027,           0.562673, 0.210285, 0.7816149999999999,           0.525068, 0.06637700000000001, 0.630568,           0.681562, 0.970908
 | 0.033601,           0.112524,           0.211717, 0.097439,           0.209687, 0.692455,            0.75296,           0.001392,             0.77071, 0.884993,           0.265211, 0.508143
 |  0.20297,           0.494477,           0.680194, 0.316589,           0.422486, 0.075017,           0.356654,           0.421382,            0.639231, 0.291997,           0.811047, 0.335429
 | 0.313738,           0.195846, 0.8222120000000001, 0.603038,           0.302181, 0.970544, 0.6179789999999999,            0.91078,            0.276519, 0.971016,           0.906838, 0.063286
 | 0.023086,           0.431359,           0.101729, 0.600513,           0.159573, 0.799686,           0.510748,            0.14955,            0.907861, 0.706681, 0.7276820000000001, 0.466297
 | 0.641191,           0.316621,           0.591065, 0.299337,           0.413123, 0.742796,           0.617003,           0.886725,            0.562061, 0.159718,           0.925157, 0.923847
 | 0.604143, 0.5162639999999999,           0.843996, 0.733233,           0.636977, 0.487929,           0.313691,           0.736074,            0.056165, 0.970606,           0.161095, 0.050311
 |];
% _objective = 35274.51167899999;
