open = [1, 0, 0, 1, 0, 0, 1, 0];
satisfied = 
[| 0.6157859999999999,            0.806848,           0.508562,  0.70811, 0.004989,           0.627769, 0.033398, 0.890853, 0.832133, 0.543878,           0.870859, 0.280924
 |           0.933652,            0.393729, 0.5578379999999999, 0.331515, 0.897305,           0.100607, 0.607615,  0.14621, 0.733257, 0.726974,           0.843215, 0.644743
 |           0.495876,            0.789941,           0.498997, 0.379224, 0.552916,           0.342048, 0.943191, 0.057633, 0.376071, 0.191538,           0.235074,  0.37053
 |           0.174785,            0.024352,           0.301853, 0.333011, 0.239903,           0.581053, 0.670674, 0.300817, 0.118826, 0.183424,           0.375419, 0.102254
 |            0.19705,            0.605801,           0.133274, 0.290757, 0.708762,            0.30718, 0.743976, 0.714139, 0.818908, 0.635086,           0.060153, 0.207111
 |           0.534767, 0.07546899999999999,           0.309721, 0.982607, 0.596822, 0.5844780000000001, 0.992196, 0.123155, 0.396264, 0.700084,            0.43946, 0.619518
 | 0.8749980000000001,            0.454175,            0.62453, 0.081208, 0.517533,           0.146508, 0.140177, 0.791441, 0.723168, 0.791669,           0.530847, 0.258946
 |            0.77462,            0.486944,           0.659443, 0.568792,  0.42085,           0.475353, 0.893529, 0.488138, 0.493784, 0.497502, 0.9221200000000001, 0.956357
 |];
% _objective = 30158.019517;
