open = [1, 0, 0, 1, 1, 1, 1, 1];
satisfied = 
[| 0.206773, 0.940091, 0.533667, 0.350888,           0.163384, 0.003318, 0.899211,           0.764666, 0.867323, 0.189699,           0.597905,           0.563619
 | 0.767242, 0.171605, 0.439818, 0.103102,           0.762483, 0.627788, 0.409338, 0.5815900000000001, 0.127374, 0.253791,           0.652428,            0.59553
 | 0.542787, 0.895935, 0.470084, 0.092531,             0.3916, 0.903403,  0.29433,           0.623689, 0.246083, 0.061974, 0.9154330000000001,           0.118215
 | 0.979011, 0.063251, 0.353221, 0.162005,            0.86121, 0.432758, 0.278923,           0.798744, 0.450273, 0.278481,           0.044634,           0.648508
 | 0.414556, 0.436865, 0.314888, 0.861632,           0.442493, 0.957838, 0.340936,           0.792807, 0.923311, 0.264836,           0.697101,           0.011691
 | 0.838507, 0.105776, 0.031956,   0.7725, 0.9458760000000001, 0.632259, 0.580539,           0.117451, 0.414982, 0.275809,           0.219141,            0.24837
 | 0.502634, 0.992811,  0.43607, 0.627904, 0.9530380000000001, 0.130336,  0.95949, 0.5249779999999999, 0.826022, 0.820428,           0.130141, 0.8859629999999999
 | 0.154941, 0.295583, 0.163623, 0.529162,           0.340884, 0.166525, 0.068358,           0.671469,  0.91064, 0.094883,           0.787206,            0.41695
 |];
% _objective = 35962.512084;
