production = [0: 0.0, 1: 0.0, 2: 0.0, 3: 0.0, 4: 0.0, 5: 0.0, 6: 0.0, 7: 0.0, 8: 0.0, 9: 0.0, 10: 0.0, 11: 0.0, 12: 0.0, 13: 0.0, 14: 0.0, 15: 0.0, 16: 0.0, 17: 0.0, 18: 0.0, 19: 0.0, 20: 0.0, 21: 0.0005, 22: 0.0, 23: 0.0, 24: 0.0, 25: 0.0016, 26: 0.008399999999999999, 27: 0.0, 28: 0.0789, 29: 0.0, 30: 0.148, 31: 0.0, 32: 0.0, 33: 0.0, 34: 0.0, 35: 0.0, 36: 0.0, 37: 1.1215, 38: 0.0, 39: 1.3358, 40: 0.0, 41: 1.5614, 42: 0.0, 43: 1.161164583, 44: 1.158964583, 45: 1.8992, 46: 0.0, 47: 0.0, 48: 0.0, 49: 1.7649, 50: 0.0, 51: 2.1483, 52: 0.0, 53: 0.0, 54: 1.9538, 55: 0.0, 56: 1.441364583, 57: 1.9691, 58: 0.0, 59: 1.2184, 60: 1.7733, 61: 1.6514, 62: 1.497, 63: 1.3524, 64: 1.2347, 65: 0.0, 66: 1.1252, 67: 0.0, 68: 0.0, 69: 0.6837, 70: 0.5309, 71: 0.4185, 72: 0.0, 73: 0.1494, 74: 0.08309999999999999, 75: 0.0549, 76: 0.0464, 77: 0.0, 78: 0.0037, 79: 0.0016, 80: 0.0, 81: 0.0, 82: 0.0, 83: 0.0, 84: 0.0, 85: 0.0, 86: 0.0, 87: 0.0, 88: 0.0, 89: 0.0, 90: 0.0, 91: 0.0, 92: 0.0, 93: 0.0, 94: 0.0, 95: 0.0, 96: 0.0, 97: 0.0, 98: 0.0, 99: 0.0, 100: 0.0, 101: 0.0, 102: 0.0, 103: 0.0, 104: 0.0, 105: 0.0, 106: 0.0, 107: 0.0, 108: 0.0, 109: 0.0, 110: 0.0, 111: 0.0, 112: 0.0, 113: 0.0, 114: 0.0, 115: 0.0, 116: 0.0, 117: 0.0, 118: 0.0, 119: 0.0, 120: 0.0, 121: 0.001, 122: 0.008800000000000001, 123: 0.0, 124: 0.057, 125: 0.0, 126: 0.118, 127: 0.1752, 128: 0.0, 129: 0.3347, 130: 0.5723, 131: 0.0, 132: 0.9507, 133: 1.0655, 134: 1.1632, 135: 1.2303, 136: 0.0, 137: 1.4732, 138: 1.5545, 139: 1.6453, 140: 1.7203, 141: 1.7745, 142: 1.8447, 143: 1.8927, 144: 1.9403, 145: 0.0, 146: 0.0, 147: 1.9423, 148: 0.0, 149: 1.183564583, 150: 1.9552, 151: 0.0, 152: 1.8902, 153: 1.856, 154: 0.0, 155: 1.7477, 156: 0.0, 157: 1.586, 158: 0.8786645830000001, 159: 0.0, 160: 0.0, 161: 1.185, 162: 0.0, 163: 0.8117, 164: 0.4507, 165: 0.7083, 166: 0.5972, 167: 0.0, 168: 0.2502, 169: 0.1995, 170: 0.0, 171: 0.0, 172: 0.0, 173: 0.0, 174: 0.0025, 175: 0.0, 176: 0.0003, 177: 0.0, 178: 0.0, 179: 0.0, 180: 0.0, 181: 0.0, 182: 0.0, 183: 0.0, 184: 0.0, 185: 0.0, 186: 0.0, 187: 0.0, 188: 0.0, 189: 0.0, 190: 0.0, 191: 0.0];
buy = [0: 1.489964583, 1: 1.492864583, 2: 0.116864583, 3: 1.517864583, 4: 0.477264583, 5: 0.0, 6: 0.0, 7: 0.0, 8: 1.421564583, 9: 0.0, 10: 1.431364583, 11: 1.489664583, 12: 1.403364583, 13: 0.0, 14: 0.290564583, 15: 0.419964583, 16: 1.380664583, 17: 0.379664583, 18: 0.371464583, 19: 1.977064583, 20: 0.0, 21: 0.0, 22: 1.682064583, 23: 0.583664583, 24: 0.0, 25: 0.0, 26: 0.939864583, 27: 0.409664583, 28: 1.048664583, 29: 0.127364583, 30: 0.0, 31: 0.0, 32: 0.0, 33: 2.122164583, 34: 0.0, 35: 1.279864583, 36: 0.0, 37: 0.007964583000000001, 38: 0.140564583, 39: 0.0, 40: 0.138464583, 41: 0.0, 42: 1.114664583, 43: 0.0, 44: 0.0, 45: 0.0, 46: 0.182264583, 47: 0.0, 48: 1.159264583, 49: 0.0, 50: 0.170864583, 51: 0.0, 52: 0.155564583, 53: 0.140564583, 54: 0.0, 55: 0.0, 56: 0.0, 57: 0.234064583, 58: 0.0, 59: 0.0, 60: 0.0, 61: 0.0, 62: 0.0, 63: 0.0, 64: 0.0, 65: 0.0, 66: 0.023264583, 67: 0.142064583, 68: 0.0, 69: 0.458964583, 70: 0.0, 71: 0.718864583, 72: 0.130764583, 73: 0.0, 74: 1.052664583, 75: 0.0, 76: 0.081164583, 77: 1.127864583, 78: 0.116264583, 79: 0.0, 80: 1.127864583, 81: 0.0, 82: 1.127564583, 83: 0.0, 84: 0.0, 85: 1.144264583, 86: 0.0, 87: 0.146564583, 88: 0.136264583, 89: 1.136864583, 90: 1.136564583, 91: 0.0, 92: 1.144464583, 93: 1.327864583, 94: 1.353764583, 95: 0.0, 96: 1.348064583, 97: 1.308664583, 98: 0.0, 99: 1.298564583, 100: 0.0, 101: 0.0, 102: 0.0, 103: 1.303864583, 104: 0.0, 105: 0.305864583, 106: 1.308864583, 107: 1.313664583, 108: 1.312364583, 109: 0.0, 110: 1.306164583, 111: 0.0, 112: 0.0, 113: 1.316364583, 114: 0.018064583, 115: 0.0, 116: 0.0, 117: 1.369164583, 118: 1.363164583, 119: 1.309864583, 120: 1.267364583, 121: 0.266364583, 122: 1.258764583, 123: 0.0, 124: 1.069364583, 125: 0.130164583, 126: 0.0, 127: 0.958664583, 128: 1.133564583, 129: 0.0, 130: 0.0, 131: 0.0, 132: 0.0, 133: 0.0, 134: 0.0, 135: 0.0, 136: 0.0, 137: 0.0, 138: 0.0, 139: 0.0, 140: 0.0, 141: 0.0, 142: 0.0, 143: 0.0, 144: 0.0, 145: 1.175364583, 146: 1.189364583, 147: 0.0, 148: 1.189364583, 149: 0.0, 150: 0.0, 151: 1.129364583, 152: 0.0, 153: 0.0, 154: 0.0, 155: 0.0, 156: 0.626364583, 157: 0.0, 158: 0.0, 159: 0.0, 160: 0.0, 161: 0.0, 162: 0.0, 163: 0.0, 164: 0.0, 165: 0.422064583, 166: 0.0, 167: 1.133064583, 168: 0.0, 169: 0.927564583, 170: 0.128364583, 171: 1.127864583, 172: 0.137164583, 173: 1.136164583, 174: 1.113364583, 175: 0.116864583, 176: 0.0, 177: 0.0, 178: 0.0, 179: 1.300164583, 180: 0.0, 181: 1.364864583, 182: 1.372364583, 183: 1.374364583, 184: 0.0, 185: 0.0, 186: 1.256064583, 187: 0.251164583, 188: 0.250364583, 189: 0.0, 190: 1.136164583, 191: 1.422864583];
sell = [0: 0.0, 1: 0.0, 2: 0.0, 3: 0.0, 4: 0.0, 5: 0.0, 6: 0.0, 7: 0.437035417, 8: 0.0, 9: 0.470735417, 10: 0.0, 11: 0.0, 12: 0.0, 13: 0.501135417, 14: 0.0, 15: 0.0, 16: 0.0, 17: 0.0, 18: 0.0, 19: 0.0, 20: 0.021235417, 21: 0.120135417, 22: 0.0, 23: 0.0, 24: 0.0, 25: 0.514635417, 26: 0.0, 27: 0.0, 28: 0.0, 29: 0.0, 30: 0.921235417, 31: 0.781335417, 32: 0.782435417, 33: 0.0, 34: 0.635935417, 35: 0.0, 36: 0.0, 37: 0.0, 38: 0.0, 39: 1.619967434, 40: 0.0, 41: 1.430335417, 42: 0.0, 43: 0.0, 44: 0.0, 45: 2.618335417, 46: 0.0, 47: 0.700135417, 48: 0.0, 49: 0.6183354170000001, 50: 0.0, 51: 1.978735417, 52: 0.0, 53: 0.0, 54: 0.262835417, 55: 0.743635417, 56: 0.0, 57: 0.0, 58: 0.059935417, 59: 1.164035417, 60: 1.725535417, 61: 2.111835417, 62: 1.958035417, 63: 1.872235417, 64: 1.096235417, 65: 0.751035417, 66: 0.0, 67: 0.0, 68: 0.759735417, 69: 0.0, 70: 1.289035417, 71: 0.0, 72: 0.0, 73: 0.0, 74: 0.0, 75: 0.827535417, 76: 0.0, 77: 0.0, 78: 0.0, 79: 0.782735417, 80: 0.0, 81: 0.0, 82: 0.0, 83: 0.780535417, 84: 0.762135417, 85: 0.0, 86: 0.753935417, 87: 0.0, 88: 0.0, 89: 0.0, 90: 0.0, 91: 0.757135417, 92: 0.0, 93: 0.0, 94: 0.0, 95: 0.0, 96: 0.0, 97: 0.0, 98: 0.560935417, 99: 0.0, 100: 0.585135417, 101: 0.585835417, 102: 0.589835417, 103: 0.0, 104: 0.0, 105: 0.0, 106: 0.0, 107: 0.0, 108: 0.0, 109: 0.0, 110: 0.0, 111: 0.585135417, 112: 0.584935417, 113: 0.0, 114: 0.0, 115: 0.618835417, 116: 0.546135417, 117: 0.0, 118: 0.0, 119: 0.0, 120: 0.0, 121: 0.0, 122: 0.0, 123: 0.6324354170000001, 124: 0.0, 125: 0.0, 126: 0.882135417, 127: 0.0, 128: 0.0, 129: 1.105035417, 130: 0.444435417, 131: 0.764835417, 132: 0.815535417, 133: 1.830135417, 134: 1.033835417, 135: 0.101635417, 136: 0.772635417, 137: 0.335335417, 138: 0.415135417, 139: 1.922235417, 140: 1.445435417, 141: 0.568635417, 142: 2.543635417, 143: 1.701835417, 144: 0.757735417, 145: 0.0, 146: 0.0, 147: 1.755435417, 148: 0.0, 149: 0.0, 150: 2.671635417, 151: 0.0, 152: 2.660535417, 153: 0.726335417, 154: 0.778135417, 155: 2.524335417, 156: 0.0, 157: 0.680935417, 158: 0.0, 159: 0.688335417, 160: 0.7171354170000001, 161: 0.057635417, 162: 0.762335417, 163: 1.573535417, 164: 1.223035417, 165: 0.0, 166: 1.367035417, 167: 0.0, 168: 1.015335417, 169: 0.0, 170: 0.0, 171: 0.0, 172: 0.0, 173: 0.0, 174: 0.0, 175: 0.0, 176: 0.785935417, 177: 0.775635417, 178: 0.758635417, 179: 0.0, 180: 0.40637025, 181: 0.0, 182: 0.0, 183: 0.0, 184: 0.620135417, 185: 0.650835417, 186: 0.0, 187: 0.0, 188: 0.0, 189: 0.765135417, 190: 0.0, 191: 0.0];
charge = [0: 1.0, 1: 1.0, 2: 0.0, 3: 1.0, 4: 0.0, 5: 0.0, 6: 0.0, 7: 0.0, 8: 1.0, 9: 0.0, 10: 1.0, 11: 1.0, 12: 1.0, 13: 0.0, 14: 0.0, 15: 0.0, 16: 1.0, 17: 0.0, 18: 0.0, 19: 1.0, 20: 0.0, 21: 0.0, 22: 1.0, 23: 0.0, 24: 0.0, 25: 0.0, 26: 0.0, 27: 0.0, 28: 1.0, 29: 0.0, 30: 0.0, 31: 0.0, 32: 0.0, 33: 1.0, 34: 0.0, 35: 1.0, 36: 0.0, 37: 1.0, 38: 0.0, 39: 0.0, 40: 0.0, 41: 0.0, 42: 1.0, 43: 1.0, 44: 1.0, 45: 0.0, 46: 0.0, 47: 0.0, 48: 1.0, 49: 1.0, 50: 0.0, 51: 0.0, 52: 0.0, 53: 0.0, 54: 1.0, 55: 0.0, 56: 1.0, 57: 1.0, 58: 0.0, 59: 0.0, 60: 0.0, 61: 0.0, 62: 0.0, 63: 0.0, 64: 0.0, 65: 0.0, 66: 1.0, 67: 0.0, 68: 0.0, 69: 1.0, 70: 0.0, 71: 1.0, 72: 0.0, 73: 0.017335417, 74: 1.0, 75: 0.0, 76: 0.0, 77: 1.0, 78: 0.0, 79: 0.0, 80: 1.0, 81: 0.0, 82: 1.0, 83: 0.0, 84: 0.0, 85: 1.0, 86: 0.0, 87: 0.0, 88: 0.0, 89: 1.0, 90: 1.0, 91: 0.0, 92: 1.0, 93: 1.0, 94: 1.0, 95: 0.0, 96: 1.0, 97: 1.0, 98: 0.0, 99: 1.0, 100: 0.0, 101: 0.0, 102: 0.0, 103: 1.0, 104: 0.0, 105: 0.0, 106: 1.0, 107: 1.0, 108: 1.0, 109: 0.0, 110: 1.0, 111: 0.0, 112: 0.0, 113: 1.0, 114: 0.0, 115: 0.0, 116: 0.0, 117: 1.0, 118: 1.0, 119: 1.0, 120: 1.0, 121: 0.0, 122: 1.0, 123: 0.0, 124: 1.0, 125: 0.0, 126: 0.0, 127: 1.0, 128: 1.0, 129: 0.0, 130: 0.0, 131: 0.0, 132: 0.0, 133: 0.0, 134: 0.0, 135: 1.0, 136: 0.0, 137: 1.0, 138: 1.0, 139: 0.0, 140: 0.0, 141: 1.0, 142: 0.0, 143: 0.0, 144: 1.0, 145: 1.0, 146: 1.0, 147: 0.0, 148: 1.0, 149: 1.0, 150: 0.0, 151: 1.0, 152: 0.0, 153: 1.0, 154: 0.0, 155: 0.0, 156: 0.0, 157: 0.0, 158: 0.0, 159: 0.0, 160: 0.0, 161: 1.0, 162: 0.0, 163: 0.0, 164: 0.0, 165: 1.0, 166: 0.0, 167: 1.0, 168: 0.0, 169: 1.0, 170: 0.0, 171: 1.0, 172: 0.0, 173: 1.0, 174: 1.0, 175: 0.0, 176: 0.0, 177: 0.0, 178: 0.0, 179: 1.0, 180: 0.0, 181: 1.0, 182: 1.0, 183: 1.0, 184: 0.0, 185: 0.0, 186: 1.0, 187: 0.0, 188: 0.0, 189: 0.0, 190: 1.0, 191: 1.0];
discharge = [0: 0.0, 1: 0.0, 2: 1.0, 3: 0.0, 4: 0.0, 5: 0.532960648, 6: 0.529960648, 7: 1.0, 8: 0.0, 9: 1.0, 10: 0.0, 11: 0.0, 12: 0.0, 13: 1.0, 14: 1.0, 15: 0.0, 16: 0.0, 17: 0.0, 18: 0.0, 19: 0.0, 20: 1.0, 21: 1.0, 22: 0.0, 23: 0.0, 24: 0.539293981, 25: 1.0, 26: 0.0, 27: 0.0, 28: 0.0, 29: 0.0, 30: 1.0, 31: 1.0, 32: 1.0, 33: 0.0, 34: 1.0, 35: 0.0, 36: 0.294849537, 37: 0.0, 38: 0.0, 39: 0.471257797, 40: 0.0, 41: 0.0, 42: 0.0, 43: 0.0, 44: 0.0, 45: 1.0, 46: 0.0, 47: 1.0, 48: 0.0, 49: 0.0, 50: 0.0, 51: 0.0, 52: 0.0, 53: 0.0, 54: 0.0, 55: 1.0, 56: 0.0, 57: 0.0, 58: 1.0, 59: 1.0, 60: 1.0, 61: 1.0, 62: 1.0, 63: 1.0, 64: 0.0, 65: 1.0, 66: 0.0, 67: 0.0, 68: 1.0, 69: 0.0, 70: 1.0, 71: 0.0, 72: 0.0, 73: 0.0, 74: 0.0, 75: 1.0, 76: 0.0, 77: 0.0, 78: 0.0, 79: 1.0, 80: 0.0, 81: 0.143293981, 82: 0.0, 83: 1.0, 84: 1.0, 85: 0.0, 86: 1.0, 87: 0.0, 88: 0.0, 89: 0.0, 90: 0.0, 91: 1.0, 92: 0.0, 93: 0.0, 94: 0.0, 95: 0.392516204, 96: 0.0, 97: 0.0, 98: 1.0, 99: 0.0, 100: 1.0, 101: 1.0, 102: 1.0, 103: 0.0, 104: 0.33318287, 105: 0.0, 106: 0.0, 107: 0.0, 108: 0.0, 109: 0.335405093, 110: 0.0, 111: 1.0, 112: 1.0, 113: 0.0, 114: 1.0, 115: 1.0, 116: 1.0, 117: 0.0, 118: 0.0, 119: 0.0, 120: 0.0, 121: 0.0, 122: 0.0, 123: 1.0, 124: 0.0, 125: 0.0, 126: 1.0, 127: 0.0, 128: 0.0, 129: 1.0, 130: 0.0, 131: 1.0, 132: 0.0, 133: 1.0, 134: 0.0, 135: 0.0, 136: 1.0, 137: 0.0, 138: 0.0, 139: 1.0, 140: 0.0, 141: 0.0, 142: 1.0, 143: 0.0, 144: 0.0, 145: 0.0, 146: 0.0, 147: 0.0, 148: 0.0, 149: 0.0, 150: 1.0, 151: 0.0, 152: 1.0, 153: 0.0, 154: 1.0, 155: 1.0, 156: 0.0, 157: 0.0, 158: 0.0, 159: 1.0, 160: 1.0, 161: 0.0, 162: 1.0, 163: 1.0, 164: 1.0, 165: 0.0, 166: 1.0, 167: 0.0, 168: 1.0, 169: 0.0, 170: 0.0, 171: 0.0, 172: 0.0, 173: 0.0, 174: 0.0, 175: 0.0, 176: 1.0, 177: 1.0, 178: 1.0, 179: 0.0, 180: 0.846594259, 181: 0.0, 182: 0.0, 183: 0.0, 184: 1.0, 185: 1.0, 186: 0.0, 187: 0.0, 188: 0.0, 189: 1.0, 190: 0.0, 191: 0.0];
soc = [0: 8.418495999999999, 1: 9.316812301000001, 2: 8.314948938000001, 3: 9.213285948999999, 4: 9.211443291, 5: 8.676640355, 6: 8.144944378, 7: 7.143315389, 8: 8.041886726, 9: 7.040278349, 10: 7.938870293, 11: 8.837282519, 12: 9.735515062999999, 13: 8.73356796, 14: 7.731821246, 15: 7.730274882, 16: 8.628728827, 17: 8.627003081, 18: 8.625277681, 19: 9.523552625000001, 20: 8.521647915000001, 21: 7.519943585, 22: 8.418439596000001, 23: 8.416755908000001, 24: 7.875778576, 25: 6.87420342, 26: 6.872828579, 27: 6.871454014, 28: 7.770079723, 29: 7.768525707, 30: 6.766972002, 31: 5.765618607, 32: 4.764465484, 33: 5.66351259, 34: 4.662379888, 35: 5.561447412, 36: 5.265485585, 37: 6.164432488, 38: 6.163199602, 39: 5.690709165, 40: 5.689571023, 41: 5.688433109, 42: 6.587295422, 43: 7.485977963, 44: 8.384480768, 45: 7.382803871, 46: 7.381327311, 47: 6.379851045, 48: 7.278575075, 49: 8.177119360000001, 50: 8.175483935999999, 51: 8.173848839, 52: 8.172214070000001, 53: 8.170579627, 54: 9.068945511000001, 55: 8.067131721999999, 56: 8.965518295000001, 57: 9.863725192, 58: 8.861752447000001, 59: 7.859980096, 60: 6.8584081, 61: 5.857036419, 62: 4.855865011, 63: 3.854893838, 64: 3.85412286, 65: 2.853352035, 66: 3.752781365, 67: 3.752030808, 68: 2.751280402, 69: 3.650730146, 70: 2.65, 71: 3.54947, 72: 3.548760106, 73: 3.563652229, 74: 4.462939499, 75: 3.462046911, 76: 3.461354501, 77: 4.36066223, 78: 4.359790098, 79: 3.35891814, 80: 4.258246356, 81: 4.114100726, 82: 5.013277905, 83: 4.01227525, 84: 3.011472795, 85: 3.9108705, 86: 2.910088326, 87: 2.909506308, 88: 2.908924407, 89: 3.808342622, 90: 4.707580954, 91: 3.706639438, 92: 4.60589811, 93: 5.50497693, 94: 6.403875935, 95: 6.010078956, 96: 6.90887694, 97: 7.807495165, 98: 6.805933666, 99: 7.704572479, 100: 6.703031564, 101: 5.701690958, 102: 4.70055062, 103: 5.59961051, 104: 5.265307717, 105: 5.264254656, 106: 6.163201805, 107: 7.061969164, 108: 7.960556771, 109: 7.623559567, 110: 8.522034854999999, 111: 7.520330448, 112: 6.518826382, 113: 7.417522616, 114: 6.416039112, 115: 5.414755904, 116: 4.413672953, 117: 5.312790218, 118: 6.21172766, 119: 7.110485315, 120: 8.009063218, 121: 8.007461405000001, 122: 8.905859913, 123: 7.904078741, 124: 8.802497925000001, 125: 8.800737424999999, 126: 7.798977278, 127: 8.697417482000001, 128: 9.595677998999999, 129: 8.593758863, 130: 8.592040111999999, 131: 7.590321704, 132: 7.588803639, 133: 6.587285878, 134: 6.585968421, 135: 7.484651228, 136: 6.483154297, 137: 7.381857666, 138: 8.280381295, 139: 7.278725219, 140: 7.277269474, 141: 8.175814020000001, 142: 7.174178857, 143: 7.172744021, 144: 8.071309471999999, 145: 8.969695209999999, 146: 9.867901270999999, 147: 9.865927691, 148: 10.763954506, 149: 11.661801715, 150: 10.659469354, 151: 11.557337461, 152: 10.555025993, 153: 11.452914988, 154: 10.450624405, 155: 9.448534280000001, 156: 9.446644573, 157: 9.444755244, 158: 9.442866293, 159: 8.440977719999999, 160: 7.439289524, 161: 8.337801666000001, 162: 7.336134106, 163: 6.334666879, 164: 5.333399946, 165: 6.232333266, 166: 5.231086799, 167: 6.130040582, 168: 5.128814574, 169: 6.027788811, 170: 6.026583253, 171: 6.925377936, 172: 6.923992861, 173: 7.822608062, 174: 8.721043541, 175: 8.719299332, 176: 7.717555472, 177: 6.716011961, 178: 5.714668759, 179: 6.613525825, 180: 5.76560886, 181: 6.664455738, 182: 7.563122847, 183: 8.461610222999999, 184: 7.459917901, 185: 6.458425917, 186: 7.357134232, 187: 7.355662805, 188: 7.354191673, 189: 6.352720834, 190: 7.25145029, 191: 8.15];
cost = [0: 1.028397529, 1: 1.030169139, 2: 0.071392574, 3: 1.045441639, 4: 0.291560934, 5: 0.0, 6: 0.0, 7: 0.0, 8: 0.986611969, 9: 0.0, 10: 0.992598789, 11: 1.028214259, 12: 0.975493589, 13: 0.0, 14: 0.177505904, 15: 0.256556364, 16: 0.961626159, 17: 0.231937094, 18: 0.226927714, 19: 1.325966919, 20: 0.0, 21: 0.0, 22: 1.145751419, 23: 0.356560694, 24: 0.0, 25: 0.0, 26: 1.118062908, 27: 0.487336988, 28: 1.365669554, 29: 0.151512908, 30: 0.0, 31: 0.0, 32: 0.0, 33: 2.642705154, 34: 0.0, 35: 1.640705074, 36: 0.0, 37: 0.127652834, 38: 0.167215628, 39: 0.0, 40: 0.164717468, 41: 0.0, 42: 1.444183154, 43: 0.118178165, 44: 0.118178165, 45: 0.0, 46: 0.216821948, 47: 0.0, 48: 1.497239314, 49: 0.118178165, 50: 0.203260508, 51: 0.0, 52: 0.095034404, 53: 0.085870904, 54: 0.118178165, 55: 0.0, 56: 0.118178165, 57: 0.261168219, 58: 0.0, 59: 0.0, 60: 0.0, 61: 0.0, 62: 0.0, 63: 0.0, 64: 0.0, 65: 0.0, 66: 0.145853714, 67: 0.169000028, 68: 0.0, 69: 0.664162434, 70: 0.0, 71: 0.973339474, 72: 0.155557548, 73: 0.002048668, 74: 1.370427954, 75: 0.0, 76: 0.096553388, 77: 1.459885874, 78: 0.138308348, 79: 0.0, 80: 1.459885874, 81: 0.0, 82: 1.459528994, 83: 0.0, 84: 0.0, 85: 1.479395314, 86: 0.0, 87: 0.174353228, 88: 0.08324403399999999, 89: 0.812688739, 90: 0.812505469, 91: 0.0, 92: 0.817331579, 93: 0.9293706390000001, 94: 0.9451929489999999, 95: 0.0, 96: 0.941710819, 97: 0.917641359, 98: 0.0, 99: 0.911471269, 100: 0.0, 101: 0.0, 102: 0.0, 103: 0.914709039, 104: 0.0, 105: 0.186852674, 106: 0.917763539, 107: 0.9206958589999999, 108: 0.919901689, 109: 0.0, 110: 0.916114109, 111: 0.0, 112: 0.0, 113: 0.922345289, 114: 0.011035654, 115: 0.0, 116: 0.0, 117: 0.954600809, 118: 0.950935409, 119: 0.918374439, 120: 1.625835074, 121: 0.316867308, 122: 1.615604514, 123: 0.0, 124: 1.390294274, 125: 0.154843788, 126: 0.0, 127: 1.258605554, 128: 1.466666667, 129: 0.0, 130: 0.0, 131: 0.0, 132: 0.0, 133: 0.0, 134: 0.0, 135: 0.118178165, 136: 0.0, 137: 0.118178165, 138: 0.118178165, 139: 0.0, 140: 0.0, 141: 0.118178165, 142: 0.0, 143: 0.0, 144: 0.118178165, 145: 1.516391874, 146: 1.533046274, 147: 0.0, 148: 0.844760989, 149: 0.118178165, 150: 0.0, 151: 0.808106989, 152: 0.0, 153: 0.118178165, 154: 0.0, 155: 0.0, 156: 0.745123308, 157: 0.0, 158: 0.0, 159: 0.0, 160: 0.0, 161: 0.118178165, 162: 0.0, 163: 0.0, 164: 0.0, 165: 0.620266194, 166: 0.0, 167: 1.466071794, 168: 0.0, 169: 1.221608994, 170: 0.152702508, 171: 1.459885874, 172: 0.163170988, 173: 1.469759554, 174: 1.442636674, 175: 0.139022108, 176: 0.0, 177: 0.0, 178: 0.0, 179: 1.664853954, 180: 0.0, 181: 1.741821074, 182: 1.750743074, 183: 1.753122274, 184: 0.0, 185: 0.0, 186: 0.885508019, 187: 0.153436444, 188: 0.152947724, 189: 0.0, 190: 0.812261109, 191: 0.987406139];
earn = [0: 0.0, 1: 0.0, 2: 0.0, 3: 0.0, 4: 0.0, 5: 0.0, 6: 0.0, 7: 0.285646348, 8: 0.0, 9: 0.312238802, 10: 0.0, 11: 0.0, 12: 0.0, 13: 0.335810843, 14: 0.0, 15: 0.0, 16: 0.0, 17: 0.0, 18: 0.0, 19: 0.0, 20: 0.015459383, 21: 0.09016163000000001, 22: 0.0, 23: 0.0, 24: 0.0, 25: 0.471766286, 26: 0.0, 27: 0.0, 28: 0.0, 29: 0.0, 30: 0.958084833, 31: 0.785242094, 32: 0.621879669, 33: 0.0, 34: 0.534503718, 35: 0.0, 36: 0.0, 37: 0.0, 38: 0.0, 39: 1.105627774, 40: 0.0, 41: 0.816149389, 42: 0.0, 43: 0.0, 44: 0.0, 45: 1.2154313, 46: 0.0, 47: 0.281944532, 48: 0.0, 49: 0.257598535, 50: 0.0, 51: 0.824341175, 52: 0.0, 53: 0.0, 54: 0.082766873, 55: 0.218405722, 56: 0.0, 57: 0.0, 58: 0.019233275, 59: 0.382618441, 60: 0.715406984, 61: 0.858249913, 62: 0.78008131, 63: 0.787087769, 64: 0.529810577, 65: 0.387984896, 66: 0.0, 67: 0.0, 68: 0.497170857, 69: 0.0, 70: 0.862622501, 71: 0.0, 72: 0.0, 73: 0.0, 74: 0.0, 75: 0.744037093, 76: 0.0, 77: 0.0, 78: 0.0, 79: 0.861791694, 80: 0.0, 81: 0.0, 82: 0.0, 83: 0.7555582830000001, 84: 0.662448104, 85: 0.0, 86: 0.649138394, 87: 0.0, 88: 0.0, 89: 0.0, 90: 0.0, 91: 0.578148604, 92: 0.0, 93: 0.0, 94: 0.0, 95: 0.0, 96: 0.0, 97: 0.0, 98: 0.361859437, 99: 0.0, 100: 0.373374909, 101: 0.364331046, 102: 0.362748781, 103: 0.0, 104: 0.0, 105: 0.0, 106: 0.0, 107: 0.0, 108: 0.0, 109: 0.0, 110: 0.0, 111: 0.343591517, 112: 0.339788984, 113: 0.0, 114: 0.0, 115: 0.367093169, 116: 0.334944851, 117: 0.0, 118: 0.0, 119: 0.0, 120: 0.0, 121: 0.0, 122: 0.0, 123: 0.518533798, 124: 0.0, 125: 0.0, 126: 0.757313255, 127: 0.0, 128: 0.0, 129: 0.817284194, 130: 0.329104426, 131: 0.499361044, 132: 0.456210512, 133: 0.956428769, 134: 0.5312880210000001, 135: 0.04910007, 136: 0.337873468, 137: 0.123872903, 138: 0.146293721, 139: 0.665862348, 140: 0.395760217, 141: 0.147447164, 142: 0.499061269, 143: 0.240128977, 144: 0.138286714, 145: 0.0, 146: 0.0, 147: 0.2052104, 148: 0.0, 149: 0.0, 150: 0.131444463, 151: 0.0, 152: 0.301172609, 153: 0.131611978, 154: 0.14698978, 155: 0.5328872059999999, 156: 0.0, 157: 0.211839008, 158: 0.0, 159: 0.273200327, 160: 0.349460089, 161: 0.02940559, 162: 0.392297805, 163: 0.823588437, 164: 0.708382113, 165: 0.0, 166: 0.82445906, 167: 0.0, 168: 0.7054550469999999, 169: 0.0, 170: 0.0, 171: 0.0, 172: 0.0, 173: 0.0, 174: 0.0, 175: 0.0, 176: 0.704591101, 177: 0.676664338, 178: 0.657129998, 179: 0.0, 180: 0.308760116, 181: 0.0, 182: 0.0, 183: 0.0, 184: 0.447613744, 185: 0.457602381, 186: 0.0, 187: 0.0, 188: 0.0, 189: 0.483565583, 190: 0.0, 191: 0.0];
total_cost = 82.104343058;
total_earn = 39.244722337;
% _objective = 42.859620721;