production = [0: 0.0, 1: 0.0, 2: 0.0, 3: 0.0, 4: 0.0, 5: 0.0, 6: 0.0, 7: 0.0, 8: 0.0, 9: 0.0, 10: 0.0, 11: 0.0, 12: 0.0, 13: 0.0, 14: 0.0, 15: 0.0, 16: 0.0, 17: 0.0, 18: 0.0, 19: 0.0, 20: 0.0, 21: 0.0, 22: 0.0008, 23: 0.0011, 24: 0.0, 25: 0.0016, 26: 0.008399999999999999, 27: 0.0, 28: 0.0, 29: 0.1011, 30: 0.148, 31: 0.0, 32: 0.3048, 33: 0.3948, 34: 0.4644, 35: 0.4043, 36: 1.0088, 37: 0.0, 38: 1.2313, 39: 0.0, 40: 1.4659, 41: 1.5614, 42: 0.0, 43: 1.7736, 44: 1.7834, 45: 0.0, 46: 1.182264583, 47: 0.0, 48: 0.0, 49: 1.7649, 50: 0.0, 51: 2.1483, 52: 0.0, 53: 0.0, 54: 0.0, 55: 2.0929, 56: 2.0053, 57: 0.303164583, 58: 0.0, 59: 0.0, 60: 1.7733, 61: 0.0, 62: 0.0, 63: 1.3524, 64: 1.2347, 65: 1.1073, 66: 0.0, 67: 0.8975, 68: 0.5787, 69: 0.6837, 70: 0.5309, 71: 0.0, 72: 0.1969, 73: 0.0, 74: 0.0, 75: 0.0549, 76: 0.0, 77: 0.0, 78: 0.0037, 79: 0.0016, 80: 0.0, 81: 0.0, 82: 0.0, 83: 0.0, 84: 0.0, 85: 0.0, 86: 0.0, 87: 0.0, 88: 0.0, 89: 0.0, 90: 0.0, 91: 0.0, 92: 0.0, 93: 0.0, 94: 0.0, 95: 0.0, 96: 0.0, 97: 0.0, 98: 0.0, 99: 0.0, 100: 0.0, 101: 0.0, 102: 0.0, 103: 0.0, 104: 0.0, 105: 0.0, 106: 0.0, 107: 0.0, 108: 0.0, 109: 0.0, 110: 0.0, 111: 0.0, 112: 0.0, 113: 0.0, 114: 0.0, 115: 0.0, 116: 0.0, 117: 0.0, 118: 0.0, 119: 0.0, 120: 0.0, 121: 0.0, 122: 0.008800000000000001, 123: 0.0325, 124: 0.0, 125: 0.0, 126: 0.0, 127: 0.1752, 128: 0.1963, 129: 0.0, 130: 0.0, 131: 0.8383, 132: 0.0, 133: 0.0, 134: 0.0, 135: 0.0, 136: 1.338, 137: 0.0, 138: 0.0, 139: 1.6453, 140: 0.0, 141: 1.7745, 142: 1.8447, 143: 0.0, 144: 1.9403, 145: 0.0, 146: 1.9638, 147: 1.9423, 148: 1.9623, 149: 0.0, 150: 1.9552, 151: 1.9115, 152: 0.0, 153: 1.856, 154: 1.7982, 155: 1.7477, 156: 1.665, 157: 0.0, 158: 1.4155, 159: 1.3905, 160: 1.2275, 161: 1.185, 162: 0.0, 163: 0.0, 164: 0.4507, 165: 0.7083, 166: 0.5972, 167: 0.3782, 168: 0.0, 169: 0.1995, 170: 0.0, 171: 0.103, 172: 0.0, 173: 0.0135, 174: 0.0, 175: 0.0, 176: 0.0, 177: 0.0, 178: 0.0, 179: 0.0, 180: 0.0, 181: 0.0, 182: 0.0, 183: 0.0, 184: 0.0, 185: 0.0, 186: 0.0, 187: 0.0, 188: 0.0, 189: 0.0, 190: 0.0, 191: 0.0];
buy = [0: 0.489964583, 1: 1.492864583, 2: 1.016864583, 3: 0.517864583, 4: 0.477264583, 5: 0.0, 6: 0.0, 7: 1.462964583, 8: 1.421564583, 9: 1.429264583, 10: 1.431364583, 11: 0.489664583, 12: 0.0, 13: 1.398864583, 14: 0.290564583, 15: 1.419964583, 16: 1.380664583, 17: 0.0, 18: 0.0, 19: 0.977064583, 20: 1.878764583, 21: 1.780364583, 22: 0.0, 23: 0.0, 24: 1.485364583, 25: 0.0, 26: 1.939864583, 27: 0.0, 28: 0.127564583, 29: 1.026264583, 30: 0.0, 31: 0.0, 32: 0.0, 33: 0.0, 34: 0.799664583, 35: 0.875564583, 36: 0.256564583, 37: 1.129464583, 38: 0.0, 39: 0.0, 40: 0.0, 41: 0.0, 42: 0.114664583, 43: 0.0, 44: 0.0, 45: 1.180864583, 46: 0.0, 47: 1.199864583, 48: 1.159264583, 49: 0.0, 50: 1.170864583, 51: 0.0, 52: 0.0, 53: 1.140564583, 54: 0.690964583, 55: 0.0, 56: 0.0, 57: 0.0, 58: 0.0, 59: 1.954364583, 60: 0.174464583, 61: 1.439564583, 62: 0.0, 63: 0.0, 64: 0.0, 65: 0.0, 66: 0.0, 67: 0.244564583, 68: 0.561564583, 69: 0.0, 70: 0.0, 71: 0.0, 72: 0.0, 73: 1.132064583, 74: 1.135764583, 75: 1.072464583, 76: 1.127564583, 77: 1.127864583, 78: 0.116264583, 79: 1.117264583, 80: 1.127864583, 81: 0.128964583, 82: 0.127564583, 83: 0.119464583, 84: 0.0, 85: 1.144264583, 86: 0.0, 87: 0.146564583, 88: 0.136264583, 89: 0.0, 90: 0.136564583, 91: 1.142864583, 92: 0.0, 93: 1.327864583, 94: 0.0, 95: 0.353264583, 96: 1.348064583, 97: 0.308664583, 98: 0.0, 99: 0.298564583, 100: 0.0, 101: 0.0, 102: 1.310164583, 103: 0.303864583, 104: 0.0, 105: 0.305864583, 106: 0.308864583, 107: 0.0, 108: 1.312364583, 109: 0.0, 110: 0.306164583, 111: 0.0, 112: 0.0, 113: 0.0, 114: 0.018064583, 115: 0.0, 116: 0.0, 117: 0.369164583, 118: 1.363164583, 119: 1.309864583, 120: 0.0, 121: 0.0, 122: 0.258764583, 123: 0.235064583, 124: 0.0, 125: 0.0, 126: 0.135864583, 127: 0.0, 128: 0.937264583, 129: 0.129664583, 130: 0.127864583, 131: 0.0, 132: 0.0, 133: 1.08533152, 134: 0.129364583, 135: 1.128664583, 136: 0.0, 137: 1.137864583, 138: 1.139364583, 139: 0.0, 140: 0.0, 141: 0.0, 142: 0.0, 143: 1.190864583, 144: 0.0, 145: 1.175364583, 146: 0.0, 147: 0.0, 148: 0.0, 149: 1.183564583, 150: 0.0, 151: 0.0, 152: 0.0, 153: 0.0, 154: 0.0, 155: 0.0, 156: 0.0, 157: 1.905064583, 158: 0.0, 159: 0.0, 160: 0.0, 161: 0.0, 162: 0.0, 163: 1.138164583, 164: 0.0, 165: 0.0, 166: 0.532964583, 167: 0.0, 168: 0.0, 169: 0.0, 170: 1.128364583, 171: 1.024864583, 172: 0.0, 173: 0.122664583, 174: 1.115864583, 175: 0.0, 176: 1.114364583, 177: 0.124364583, 178: 1.141364583, 179: 1.300164583, 180: 1.355564583, 181: 1.364864583, 182: 1.372364583, 183: 0.374364583, 184: 1.279864583, 185: 0.249164583, 186: 0.0, 187: 0.0, 188: 0.250364583, 189: 1.134864583, 190: 0.136164583, 191: 1.422864583];
sell = [0: 0.0, 1: 0.0, 2: 0.0, 3: 0.0, 4: 0.0, 5: 0.420335417, 6: 0.423035417, 7: 0.0, 8: 0.0, 9: 0.0, 10: 0.0, 11: 0.0, 12: 0.496635417, 13: 0.0, 14: 0.0, 15: 0.0, 16: 0.0, 17: 0.520335417, 18: 0.528535417, 19: 0.0, 20: 0.0, 21: 0.0, 22: 0.218735417, 23: 0.317435417, 24: 0.0, 25: 0.514635417, 26: 0.0, 27: 0.490335417, 28: 0.0, 29: 0.0, 30: 0.921235417, 31: 0.781335417, 32: 1.087235417, 33: 0.012401742, 34: 0.0, 35: 0.0, 36: 0.0, 37: 0.0, 38: 0.090735417, 39: 0.760035417, 40: 2.227435417, 41: 1.430335417, 42: 0.0, 43: 2.512435417, 44: 0.624435417, 45: 0.0, 46: 0.0, 47: 0.0, 48: 0.0, 49: 0.6183354170000001, 50: 0.0, 51: 0.978735417, 52: 0.744435417, 53: 0.0, 54: 0.0, 55: 2.836535417, 56: 2.463935417, 57: 0.0, 58: 0.0, 59: 0.0, 60: 0.0, 61: 0.0, 62: 0.461035417, 63: 1.872235417, 64: 1.096235417, 65: 0.958335417, 66: 0.751535417, 67: 0.0, 68: 0.0, 69: 0.541035417, 70: 1.289035417, 71: 0.0, 72: 0.9661354170000001, 73: 0.0, 74: 0.0, 75: 0.0, 76: 0.0, 77: 0.0, 78: 0.0, 79: 0.0, 80: 0.0, 81: 0.0, 82: 0.0, 83: 0.0, 84: 0.762135417, 85: 0.0, 86: 0.0, 87: 0.0, 88: 0.0, 89: 0.763135417, 90: 0.0, 91: 0.0, 92: 0.755535417, 93: 0.0, 94: 0.0, 95: 0.0, 96: 0.0, 97: 0.0, 98: 0.560935417, 99: 0.0, 100: 0.585135417, 101: 0.585835417, 102: 0.0, 103: 0.0, 104: 0.6001354169999999, 105: 0.0, 106: 0.0, 107: 0.586335417, 108: 0.0, 109: 0.0, 110: 0.0, 111: 0.585135417, 112: 0.584935417, 113: 0.583635417, 114: 0.0, 115: 0.618835417, 116: 0.546135417, 117: 0.0, 118: 0.0, 119: 0.0, 120: 0.632635417, 121: 0.632635417, 122: 0.0, 123: 0.0, 124: 0.773635417, 125: 0.769835417, 126: 0.0, 127: 0.941335417, 128: 0.0, 129: 0.0, 130: 0.0, 131: 0.703135417, 132: 0.764835417, 133: 0.0, 134: 0.0, 135: 0.0, 136: 1.210635417, 137: 0.0, 138: 0.0, 139: 0.022235417, 140: 0.625135417, 141: 1.568635417, 142: 0.643635417, 143: 0.0, 144: 1.757735417, 145: 0.0, 146: 2.674435417, 147: 2.655435417, 148: 1.772935417, 149: 0.0, 150: 2.671635417, 151: 2.682135417, 152: 0.770335417, 153: 1.726335417, 154: 2.576335417, 155: 2.524335417, 156: 0.038635417, 157: 0.0, 158: 0.0, 159: 0.178835417, 160: 1.944635417, 161: 1.957635417, 162: 0.762335417, 163: 0.0, 164: 0.323035417, 165: 0.577935417, 166: 0.0, 167: 1.145135417, 168: 0.765135417, 169: 0.072435417, 170: 0.0, 171: 0.0, 172: 0.762835417, 173: 0.0, 174: 0.0, 175: 0.783135417, 176: 0.0, 177: 0.0, 178: 0.0, 179: 0.0, 180: 0.0, 181: 0.0, 182: 0.0, 183: 0.0, 184: 0.0, 185: 0.0, 186: 0.643935417, 187: 0.648835417, 188: 0.0, 189: 0.0, 190: 0.0, 191: 0.0];
charge = [0: 0.0, 1: 1.0, 2: 0.0, 3: 0.0, 4: 0.0, 5: 0.0, 6: 0.0, 7: 1.0, 8: 1.0, 9: 1.0, 10: 1.0, 11: 0.0, 12: 0.0, 13: 1.0, 14: 0.0, 15: 1.0, 16: 1.0, 17: 0.0, 18: 0.0, 19: 0.0, 20: 1.0, 21: 1.0, 22: 0.0, 23: 0.0, 24: 1.0, 25: 0.0, 26: 1.0, 27: 0.0, 28: 0.0, 29: 1.0, 30: 0.0, 31: 0.0, 32: 0.0, 33: 0.0, 34: 1.0, 35: 1.0, 36: 1.0, 37: 1.0, 38: 1.0, 39: 0.0, 40: 0.0, 41: 0.0, 42: 0.0, 43: 0.0, 44: 1.0, 45: 1.0, 46: 1.0, 47: 1.0, 48: 1.0, 49: 1.0, 50: 1.0, 51: 1.0, 52: 0.0, 53: 1.0, 54: 0.0, 55: 0.0, 56: 0.0, 57: 0.0, 58: 0.0, 59: 1.0, 60: 1.0, 61: 1.0, 62: 0.0, 63: 0.0, 64: 0.0, 65: 0.0, 66: 0.0, 67: 1.0, 68: 1.0, 69: 0.0, 70: 0.0, 71: 0.0, 72: 0.0, 73: 1.0, 74: 1.0, 75: 1.0, 76: 1.0, 77: 1.0, 78: 0.0, 79: 1.0, 80: 1.0, 81: 0.0, 82: 0.0, 83: 0.0, 84: 0.0, 85: 1.0, 86: 0.0, 87: 0.0, 88: 0.0, 89: 0.0, 90: 0.0, 91: 1.0, 92: 0.0, 93: 1.0, 94: 0.0, 95: 0.0, 96: 1.0, 97: 0.0, 98: 0.0, 99: 0.0, 100: 0.0, 101: 0.0, 102: 1.0, 103: 0.0, 104: 0.0, 105: 0.0, 106: 0.0, 107: 0.0, 108: 1.0, 109: 0.0, 110: 0.0, 111: 0.0, 112: 0.0, 113: 0.0, 114: 0.0, 115: 0.0, 116: 0.0, 117: 0.0, 118: 1.0, 119: 1.0, 120: 0.0, 121: 0.0, 122: 0.0, 123: 0.0, 124: 0.0, 125: 0.0, 126: 0.0, 127: 0.0, 128: 1.0, 129: 0.0, 130: 0.0, 131: 0.0, 132: 0.0, 133: 0.949966936, 134: 0.0, 135: 1.0, 136: 0.0, 137: 1.0, 138: 1.0, 139: 1.0, 140: 0.0, 141: 0.0, 142: 1.0, 143: 1.0, 144: 0.0, 145: 1.0, 146: 0.0, 147: 0.0, 148: 0.0, 149: 1.0, 150: 0.0, 151: 0.0, 152: 0.0, 153: 0.0, 154: 0.0, 155: 0.0, 156: 1.0, 157: 1.0, 158: 0.536835417, 159: 1.0, 160: 0.0, 161: 0.0, 162: 0.0, 163: 1.0, 164: 0.0, 165: 0.0, 166: 1.0, 167: 0.0, 168: 0.0, 169: 0.0, 170: 1.0, 171: 1.0, 172: 0.0, 173: 0.0, 174: 1.0, 175: 0.0, 176: 1.0, 177: 0.0, 178: 1.0, 179: 1.0, 180: 1.0, 181: 1.0, 182: 1.0, 183: 0.0, 184: 1.0, 185: 0.0, 186: 0.0, 187: 0.0, 188: 0.0, 189: 1.0, 190: 0.0, 191: 1.0];
discharge = [0: 0.0, 1: 0.0, 2: 0.0, 3: 0.0, 4: 0.0, 5: 1.0, 6: 1.0, 7: 0.0, 8: 0.0, 9: 0.0, 10: 0.0, 11: 0.0, 12: 1.0, 13: 0.0, 14: 1.0, 15: 0.0, 16: 0.0, 17: 1.0, 18: 1.0, 19: 0.0, 20: 0.0, 21: 0.0, 22: 1.0, 23: 1.0, 24: 0.0, 25: 1.0, 26: 0.0, 27: 1.0, 28: 0.0, 29: 0.0, 30: 1.0, 31: 1.0, 32: 1.0, 33: 0.821962583, 34: 0.0, 35: 0.0, 36: 0.0, 37: 0.0, 38: 0.0, 39: 1.0, 40: 1.0, 41: 0.0, 42: 0.0, 43: 1.0, 44: 0.0, 45: 0.0, 46: 0.0, 47: 0.0, 48: 0.0, 49: 0.0, 50: 0.0, 51: 0.0, 52: 1.0, 53: 0.0, 54: 0.0, 55: 1.0, 56: 1.0, 57: 1.0, 58: 0.933405093, 59: 0.0, 60: 0.0, 61: 0.0, 62: 1.0, 63: 1.0, 64: 0.0, 65: 0.0, 66: 1.0, 67: 0.0, 68: 0.0, 69: 0.0, 70: 1.0, 71: 0.152627315, 72: 1.0, 73: 0.0, 74: 0.0, 75: 0.0, 76: 0.0, 77: 0.0, 78: 0.0, 79: 0.0, 80: 0.0, 81: 0.0, 82: 0.0, 83: 0.0, 84: 1.0, 85: 0.0, 86: 0.162293981, 87: 0.0, 88: 0.0, 89: 1.0, 90: 0.0, 91: 0.0, 92: 1.0, 93: 0.0, 94: 0.393071759, 95: 0.0, 96: 0.0, 97: 0.0, 98: 1.0, 99: 0.0, 100: 1.0, 101: 1.0, 102: 0.0, 103: 0.0, 104: 1.0, 105: 0.0, 106: 0.0, 107: 1.0, 108: 0.0, 109: 0.335405093, 110: 0.0, 111: 1.0, 112: 1.0, 113: 1.0, 114: 1.0, 115: 1.0, 116: 1.0, 117: 0.0, 118: 0.0, 119: 0.0, 120: 1.0, 121: 1.0, 122: 0.0, 123: 0.0, 124: 1.0, 125: 1.0, 126: 0.0, 127: 1.0, 128: 0.0, 129: 0.0, 130: 0.0, 131: 0.0, 132: 1.0, 133: 0.0, 134: 0.0, 135: 0.0, 136: 0.0, 137: 0.0, 138: 0.0, 139: 0.0, 140: 1.0, 141: 0.0, 142: 0.0, 143: 0.0, 144: 0.0, 145: 0.0, 146: 1.0, 147: 1.0, 148: 0.0, 149: 0.0, 150: 1.0, 151: 1.0, 152: 1.0, 153: 0.0, 154: 1.0, 155: 1.0, 156: 0.0, 157: 0.0, 158: 0.0, 159: 0.0, 160: 1.0, 161: 1.0, 162: 1.0, 163: 0.0, 164: 0.0, 165: 0.0, 166: 0.0, 167: 1.0, 168: 1.0, 169: 0.0, 170: 0.0, 171: 0.0, 172: 1.0, 173: 0.0, 174: 0.0, 175: 1.0, 176: 0.0, 177: 0.0, 178: 0.0, 179: 0.0, 180: 0.0, 181: 0.0, 182: 0.0, 183: 0.0, 184: 0.0, 185: 0.0, 186: 1.0, 187: 1.0, 188: 0.0, 189: 0.0, 190: 0.0, 191: 0.0];
soc = [0: 7.518496, 1: 8.416992301000001, 2: 8.415308902, 3: 8.413625841, 4: 8.411943115, 5: 7.410260727, 6: 6.408778675, 7: 7.307496919, 8: 8.206035419999999, 9: 9.104394212000001, 10: 10.002573334, 11: 10.000572819, 12: 8.998572704000001, 13: 9.896772990000001, 14: 8.894793634999999, 15: 9.793014676, 16: 10.691056074, 17: 9.688917862, 18: 8.686980079, 19: 8.685242683, 20: 9.583505634, 21: 10.481588933, 22: 9.479492615, 23: 8.477596717000001, 24: 9.375901196999999, 25: 8.374026017, 26: 9.272351212, 27: 8.270496742000001, 28: 8.268842641999999, 29: 9.167188874000001, 30: 8.165355436, 31: 7.163722365, 32: 6.162289621, 33: 5.339094579, 34: 6.23802676, 35: 7.136779155, 36: 8.035351799000001, 37: 8.933744729000001, 38: 9.83195798, 39: 8.829991588, 40: 7.82822559, 41: 7.826659945, 42: 7.825094613, 43: 6.823529594, 44: 7.722164888, 45: 8.620620454999999, 46: 9.518896331000001, 47: 10.416992552, 48: 11.314909153, 49: 12.212646171, 50: 13.110203642, 51: 14.007581601, 52: 13.004780085, 53: 13.902179129, 54: 13.899398693, 55: 12.896618814, 56: 11.89403949, 57: 10.891660682, 58: 9.956077257, 59: 10.854086042, 60: 11.751915225, 61: 12.649564841, 62: 11.647034929, 63: 10.644705522, 64: 10.64257658, 65: 10.640448065, 66: 9.638319975, 67: 10.536392311, 68: 11.434285033, 69: 11.431998176, 70: 10.429711776, 71: 10.274998519, 72: 9.27294352, 73: 10.171088931, 74: 11.069054713, 75: 11.966840902, 76: 12.864447534, 77: 13.761874644, 78: 13.759122269, 79: 14.656370445, 80: 15.553439171, 81: 15.550328483, 82: 15.547218417, 83: 15.544108974, 84: 14.541000152, 85: 15.438091952, 86: 15.272710352, 87: 15.26965581, 88: 15.266601879, 89: 14.263548558, 90: 14.260695849, 91: 15.15784371, 92: 14.154812141, 93: 15.051981178, 94: 14.655899023, 95: 14.652967843, 96: 15.550037249, 97: 15.546927242, 98: 14.543817857, 99: 14.540909093, 100: 13.538000911, 101: 12.535293311, 102: 13.432786252, 103: 13.430099695, 104: 12.427413675, 105: 12.424928192, 106: 12.422443207, 107: 11.419958718, 108: 12.317674726, 109: 11.979806099, 110: 11.977410138, 111: 10.975014656, 112: 9.972819653, 113: 8.970825089, 114: 7.969030924, 115: 6.967437118, 116: 5.96604363, 117: 5.964850421, 118: 6.863657451, 119: 7.76228472, 120: 6.760732263, 121: 5.759380116, 122: 5.75822824, 123: 5.757076595, 124: 4.755925179, 125: 3.754973994, 126: 3.754223, 127: 2.753472155, 128: 3.652921461, 129: 3.652190876, 130: 3.651460438, 131: 3.650730146, 132: 2.65, 133: 3.504440243, 134: 3.503739355, 135: 4.403038607, 136: 4.402157999, 137: 5.301277567, 138: 6.200217312, 139: 7.098977268, 140: 6.097557473, 141: 6.096337961, 142: 6.995118694, 143: 7.89371967, 144: 7.892140926, 145: 8.790562498, 146: 7.788804385, 147: 6.787246625, 148: 6.785889175, 149: 7.684531997, 150: 6.682995091, 151: 5.681658492, 152: 4.68052216, 153: 4.679586056, 154: 3.678650139, 155: 2.677914409, 156: 3.577378826, 157: 4.47666335, 158: 4.958919892, 159: 5.857928108, 160: 4.856756523, 161: 3.855785171, 162: 2.855014014, 163: 3.754443012, 164: 3.753692123, 165: 3.752941385, 166: 4.652190796, 167: 3.651260358, 168: 2.650530106, 169: 2.65, 170: 3.54947, 171: 4.448760106, 172: 3.447870354, 173: 3.44718078, 174: 4.346491344, 175: 3.345622045, 176: 4.244952921, 177: 4.24410393, 178: 5.14325511, 179: 6.042226459, 180: 6.941018013, 181: 7.83962981, 182: 8.738061884, 183: 8.736314270999999, 184: 9.634567009, 185: 9.632640094999999, 186: 8.630713567000001, 187: 7.628987424, 188: 7.627461627, 189: 8.525936135, 190: 8.524230947, 191: 9.422526101000001];
cost = [0: 0.299319364, 1: 1.030169139, 2: 0.621202574, 3: 0.316363474, 4: 0.291560934, 5: 0.0, 6: 0.0, 7: 1.011903229, 8: 0.986611969, 9: 0.9913158989999999, 10: 0.992598789, 11: 0.299136094, 12: 0.0, 13: 0.972744539, 14: 0.177505904, 15: 0.985634529, 16: 0.961626159, 17: 0.0, 18: 0.0, 19: 0.596888754, 20: 1.265915449, 21: 1.205802889, 22: 0.0, 23: 0.0, 24: 1.885167874, 25: 0.0, 26: 2.425841074, 27: 0.0, 28: 0.151750828, 29: 1.339022514, 30: 0.0, 31: 0.0, 32: 0.0, 33: 0.0, 34: 1.069459154, 35: 1.159749794, 36: 0.423387394, 37: 1.461789234, 38: 0.118178165, 39: 0.0, 40: 0.0, 41: 0.0, 42: 0.136404988, 43: 0.0, 44: 0.118178165, 45: 1.522934674, 46: 0.118178165, 47: 1.545537074, 48: 1.497239314, 49: 0.118178165, 50: 1.511038674, 51: 0.118178165, 52: 0.0, 53: 0.814949069, 54: 0.422110264, 55: 0.0, 56: 0.0, 57: 0.0, 58: 0.0, 59: 1.312099489, 60: 0.325721234, 61: 1.830684194, 62: 0.0, 63: 0.0, 64: 0.0, 65: 0.0, 66: 0.0, 67: 0.409112194, 68: 0.786215394, 69: 0.0, 70: 0.0, 71: 0.0, 72: 0.0, 73: 1.464882194, 74: 1.469283714, 75: 1.393982034, 76: 1.459528994, 77: 1.459885874, 78: 0.138308348, 79: 1.447276114, 80: 1.459885874, 81: 0.153416268, 82: 0.151750828, 83: 0.142115068, 84: 0.0, 85: 1.479395314, 86: 0.0, 87: 0.174353228, 88: 0.08324403399999999, 89: 0.0, 90: 0.08342730399999999, 91: 0.816354139, 92: 0.0, 93: 0.9293706390000001, 94: 0.0, 95: 0.215809334, 96: 0.941710819, 97: 0.188563194, 98: 0.0, 99: 0.182393104, 100: 0.0, 101: 0.0, 102: 0.918557709, 103: 0.185630874, 104: 0.0, 105: 0.186852674, 106: 0.188685374, 107: 0.0, 108: 0.919901689, 109: 0.0, 110: 0.187035944, 111: 0.0, 112: 0.0, 113: 0.0, 114: 0.011035654, 115: 0.0, 116: 0.0, 117: 0.225522644, 118: 0.950935409, 119: 0.918374439, 120: 0.0, 121: 0.0, 122: 0.307826348, 123: 0.279632828, 124: 0.0, 125: 0.0, 126: 0.161624508, 127: 0.0, 128: 1.233148114, 129: 0.154248988, 130: 0.152107708, 131: 0.0, 132: 0.0, 133: 1.403375725, 134: 0.153892108, 135: 1.460837554, 136: 0.0, 137: 1.471781874, 138: 1.473566274, 139: 0.118178165, 140: 0.0, 141: 0.0, 142: 0.118178165, 143: 1.534830674, 144: 0.0, 145: 1.516391874, 146: 0.0, 147: 0.0, 148: 0.0, 149: 0.841217769, 150: 0.0, 151: 0.0, 152: 0.0, 153: 0.0, 154: 0.0, 155: 0.0, 156: 0.118178165, 157: 2.384442994, 158: 0.063442225, 159: 0.118178165, 160: 0.0, 161: 0.0, 162: 0.0, 163: 1.472138754, 164: 0.0, 165: 0.0, 166: 0.752192834, 167: 0.0, 168: 0.0, 169: 0.0, 170: 1.460480674, 171: 1.337357074, 172: 0.0, 173: 0.145921788, 174: 1.445610674, 175: 0.0, 176: 1.443826274, 177: 0.147944108, 178: 1.475945474, 179: 1.664853954, 180: 1.730757794, 181: 1.741821074, 182: 1.750743074, 183: 0.445344108, 184: 0.9000474389999999, 185: 0.152214644, 186: 0.0, 187: 0.0, 188: 0.152947724, 189: 0.811466939, 190: 0.08318294399999999, 191: 0.987406139];
earn = [0: 0.0, 1: 0.0, 2: 0.0, 3: 0.0, 4: 0.0, 5: 0.285113513, 6: 0.286648798, 7: 0.0, 8: 0.0, 9: 0.0, 10: 0.0, 11: 0.0, 12: 0.326984758, 13: 0.0, 14: 0.0, 15: 0.0, 16: 0.0, 17: 0.359863974, 18: 0.376528631, 19: 0.0, 20: 0.0, 21: 0.0, 22: 0.169169971, 23: 0.26109063, 24: 0.0, 25: 0.471766286, 26: 0.0, 27: 0.440174104, 28: 0.0, 29: 0.0, 30: 0.958084833, 31: 0.785242094, 32: 0.864134709, 33: 0.010231437, 34: 0.0, 35: 0.0, 36: 0.0, 37: 0.0, 38: 0.067951754, 39: 0.518724172, 40: 1.459638429, 41: 0.816149389, 42: 0.0, 43: 1.29892911, 44: 0.304162491, 45: 0.0, 46: 0.0, 47: 0.0, 48: 0.0, 49: 0.257598535, 50: 0.0, 51: 0.407741175, 52: 0.269634508, 53: 0.0, 54: 0.0, 55: 0.833090452, 56: 0.785502611, 57: 0.0, 58: 0.0, 59: 0.0, 60: 0.0, 61: 0.0, 62: 0.18367651, 63: 0.787087769, 64: 0.529810577, 65: 0.495076076, 66: 0.393353637, 67: 0.0, 68: 0.0, 69: 0.353783059, 70: 0.862622501, 71: 0.0, 72: 0.745953155, 73: 0.0, 74: 0.0, 75: 0.0, 76: 0.0, 77: 0.0, 78: 0.0, 79: 0.0, 80: 0.0, 81: 0.0, 82: 0.0, 83: 0.0, 84: 0.662448104, 85: 0.0, 86: 0.0, 87: 0.0, 88: 0.0, 89: 0.610203079, 90: 0.0, 91: 0.0, 92: 0.563100546, 93: 0.0, 94: 0.0, 95: 0.0, 96: 0.0, 97: 0.0, 98: 0.361859437, 99: 0.0, 100: 0.373374909, 101: 0.364331046, 102: 0.0, 103: 0.0, 104: 0.363742076, 105: 0.0, 106: 0.0, 107: 0.347462368, 108: 0.0, 109: 0.0, 110: 0.0, 111: 0.343591517, 112: 0.339788984, 113: 0.338566905, 114: 0.0, 115: 0.367093169, 116: 0.334944851, 117: 0.0, 118: 0.0, 119: 0.0, 120: 0.470174642, 121: 0.497884073, 122: 0.0, 123: 0.0, 124: 0.667724728, 125: 0.6693718950000001, 126: 0.0, 127: 0.779896393, 128: 0.0, 129: 0.0, 130: 0.0, 131: 0.459077114, 132: 0.427848932, 133: 0.0, 134: 0.0, 135: 0.0, 136: 0.529410868, 137: 0.0, 138: 0.0, 139: 0.007702348, 140: 0.171162077, 141: 0.406747164, 142: 0.126281269, 143: 0.0, 144: 0.320786714, 145: 0.0, 146: 0.314246161, 147: 0.3104204, 148: 0.090951587, 149: 0.0, 150: 0.131444463, 151: 0.130351781, 152: 0.087201969, 153: 0.312811978, 154: 0.48666976, 155: 0.5328872059999999, 156: 0.010647921, 157: 0.0, 158: 0.0, 159: 0.07097977699999999, 160: 0.947620839, 161: 0.99878559, 162: 0.392297805, 163: 0.0, 164: 0.187102113, 165: 0.336589587, 166: 0.0, 167: 0.703800227, 168: 0.531616088, 169: 0.051487094, 170: 0.0, 171: 0.0, 172: 0.653139684, 173: 0.0, 174: 0.0, 175: 0.726671353, 176: 0.0, 177: 0.0, 178: 0.0, 179: 0.0, 180: 0.0, 181: 0.0, 182: 0.0, 183: 0.0, 184: 0.0, 185: 0.0, 186: 0.439614709, 187: 0.434200661, 188: 0.0, 189: 0.0, 190: 0.0, 191: 0.0];
total_cost = 91.322157487;
total_earn = 36.751633606;
