production = [0: 0.0, 1: 0.0, 2: 0.0, 3: 0.0, 4: 0.0, 5: 0.0, 6: 0.0, 7: 0.0, 8: 0.0, 9: 0.0, 10: 0.0, 11: 0.0, 12: 0.0, 13: 0.0, 14: 0.0, 15: 0.0, 16: 0.0, 17: 0.0, 18: 0.0, 19: 0.0, 20: 0.0, 21: 0.0005, 22: 0.0008, 23: 0.0, 24: 0.0, 25: 0.0016, 26: 0.0, 27: 0.0364, 28: 0.0789, 29: 0.0, 30: 0.0, 31: 0.0, 32: 0.0, 33: 0.0, 34: 0.0, 35: 0.0, 36: 1.0088, 37: 1.1215, 38: 1.2313, 39: 1.3358, 40: 0.0, 41: 1.5614, 42: 1.6076, 43: 0.0, 44: 0.0, 45: 1.180864583, 46: 1.9631, 47: 2.0124, 48: 0.0, 49: 1.7649, 50: 2.2048, 51: 0.0, 52: 2.2576, 53: 1.6298, 54: 0.0, 55: 2.0929, 56: 1.441364583, 57: 0.0, 58: 0.0, 59: 0.0, 60: 0.0, 61: 1.6514, 62: 0.0, 63: 1.3524, 64: 0.0, 65: 1.1073, 66: 1.1252, 67: 0.142064583, 68: 0.0, 69: 0.6837, 70: 0.5309, 71: 0.4185, 72: 0.1969, 73: 0.1494, 74: 0.08309999999999999, 75: 0.0549, 76: 0.0, 77: 0.0219, 78: 0.0, 79: 0.0, 80: 0.0, 81: 0.0, 82: 0.0, 83: 0.0, 84: 0.0, 85: 0.0, 86: 0.0, 87: 0.0, 88: 0.0, 89: 0.0, 90: 0.0, 91: 0.0, 92: 0.0, 93: 0.0, 94: 0.0, 95: 0.0, 96: 0.0, 97: 0.0, 98: 0.0, 99: 0.0, 100: 0.0, 101: 0.0, 102: 0.0, 103: 0.0, 104: 0.0, 105: 0.0, 106: 0.0, 107: 0.0, 108: 0.0, 109: 0.0, 110: 0.0, 111: 0.0, 112: 0.0, 113: 0.0, 114: 0.0, 115: 0.0, 116: 0.0, 117: 0.0, 118: 0.0, 119: 0.0, 120: 0.0, 121: 0.001, 122: 0.0, 123: 0.0325, 124: 0.057, 125: 0.0, 126: 0.118, 127: 0.1752, 128: 0.0, 129: 0.0, 130: 0.5723, 131: 0.8383, 132: 0.9507, 133: 1.0655, 134: 0.0, 135: 1.2303, 136: 1.338, 137: 1.4732, 138: 0.0, 139: 0.0, 140: 1.7203, 141: 1.7745, 142: 0.0, 143: 1.8927, 144: 1.9403, 145: 0.0, 146: 0.0, 147: 0.0, 148: 1.9623, 149: 0.0, 150: 1.9552, 151: 0.0, 152: 1.8902, 153: 0.0, 154: 0.0, 155: 1.7477, 156: 1.665, 157: 0.0, 158: 1.4155, 159: 0.0, 160: 1.2275, 161: 1.185, 162: 0.9878, 163: 0.8117, 164: 0.4507, 165: 0.0, 166: 0.0, 167: 0.0, 168: 0.0, 169: 0.0, 170: 0.0, 171: 0.103, 172: 0.0, 173: 0.0135, 174: 0.0, 175: 0.0, 176: 0.0003, 177: 0.0, 178: 0.0, 179: 0.0, 180: 0.0, 181: 0.0, 182: 0.0, 183: 0.0, 184: 0.0, 185: 0.0, 186: 0.0, 187: 0.0, 188: 0.0, 189: 0.0, 190: 0.0, 191: 0.0];
buy = [0: 0.0, 1: 1.492864583, 2: 1.044130128, 3: 1.517864583, 4: 0.0, 5: 1.479664583, 6: 1.476964583, 7: 1.462964583, 8: 1.421564583, 9: 1.429264583, 10: 0.431364583, 11: 1.489664583, 12: 1.403364583, 13: 0.0, 14: 1.190564583, 15: 1.419964583, 16: 0.0, 17: 1.379664583, 18: 0.0, 19: 1.977064583, 20: 0.878764583, 21: 0.7798645829999999, 22: 0.681264583, 23: 0.0, 24: 0.0, 25: 1.385364583, 26: 0.948264583, 27: 0.0, 28: 0.0, 29: 0.127364583, 30: 0.0, 31: 0.0, 32: 1.117564583, 33: 0.222164583, 34: 0.264064583, 35: 1.279864583, 36: 0.0, 37: 0.0, 38: 0.0, 39: 0.0, 40: 1.138464583, 41: 0.0, 42: 0.0, 43: 0.161164583, 44: 0.0, 45: 0.0, 46: 0.0, 47: 0.0, 48: 0.0, 49: 0.0, 50: 0.0, 51: 1.169564583, 52: 0.0, 53: 0.0, 54: 0.690964583, 55: 0.0, 56: 0.0, 57: 2.203164583, 58: 1.840064583, 59: 1.954364583, 60: 0.047764583, 61: 0.0, 62: 0.0, 63: 0.0, 64: 1.138464583, 65: 0.0, 66: 0.0, 67: 0.0, 68: 0.140264583, 69: 0.0, 70: 0.610964583, 71: 0.718864583, 72: 0.0, 73: 0.0, 74: 1.052664583, 75: 0.0, 76: 1.127564583, 77: 1.105964583, 78: 1.119964583, 79: 1.118864583, 80: 0.127864583, 81: 0.0, 82: 0.0, 83: 0.119464583, 84: 0.137864583, 85: 0.0, 86: 0.146064583, 87: 0.146564583, 88: 0.0, 89: 1.136864583, 90: 0.0, 91: 0.142864583, 92: 1.144464583, 93: 0.327864583, 94: 1.353764583, 95: 0.0, 96: 1.348064583, 97: 0.0, 98: 0.339064583, 99: 1.298564583, 100: 1.314864583, 101: 1.314164583, 102: 1.310164583, 103: 1.303864583, 104: 1.299864583, 105: 0.0, 106: 1.308864583, 107: 0.313664583, 108: 1.312364583, 109: 1.301864583, 110: 0.306164583, 111: 1.314864583, 112: 1.315064583, 113: 1.316364583, 114: 0.918064583, 115: 0.0, 116: 0.0, 117: 0.0, 118: 1.363164583, 119: 1.309864583, 120: 1.267364583, 121: 1.266364583, 122: 0.267564583, 123: 1.235064583, 124: 0.0, 125: 0.0, 126: 1.017864583, 127: 0.0, 128: 1.133564583, 129: 1.129664583, 130: 0.0, 131: 0.0, 132: 0.0, 133: 0.06986458299999999, 134: 0.0, 135: 0.0, 136: 0.0, 137: 0.0, 138: 0.0, 139: 0.0, 140: 0.0, 141: 0.0, 142: 1.201064583, 143: 0.0, 144: 0.0, 145: 1.175364583, 146: 1.189364583, 147: 0.0, 148: 0.0, 149: 0.0, 150: 0.0, 151: 1.129364583, 152: 0.0, 153: 1.129664583, 154: 1.121864583, 155: 0.0, 156: 0.0, 157: 1.243654848, 158: 0.0, 159: 1.211664583, 160: 0.0, 161: 0.0, 162: 0.0, 163: 0.0, 164: 0.0, 165: 1.130364583, 166: 0.130164583, 167: 0.133064583, 168: 1.134864583, 169: 1.127064583, 170: 1.128364583, 171: 0.0, 172: 0.0, 173: 0.122664583, 174: 1.115864583, 175: 1.116864583, 176: 1.114064583, 177: 1.124364583, 178: 1.141364583, 179: 0.0, 180: 0.0, 181: 0.0, 182: 0.0, 183: 0.0, 184: 1.279864583, 185: 1.249164583, 186: 0.0, 187: 0.251164583, 188: 0.0, 189: 0.0, 190: 0.0, 191: 0.0];
sell = [0: 0.410035417, 1: 0.0, 2: 0.0, 3: 0.0, 4: 0.422735417, 5: 0.0, 6: 0.0, 7: 0.0, 8: 0.0, 9: 0.0, 10: 0.0, 11: 0.0, 12: 0.0, 13: 0.501135417, 14: 0.0, 15: 0.0, 16: 0.519335417, 17: 0.0, 18: 0.528535417, 19: 0.0, 20: 0.0, 21: 0.0, 22: 0.0, 23: 0.316335417, 24: 0.414635417, 25: 0.0, 26: 0.0, 27: 0.526735417, 28: 0.851335417, 29: 0.0, 30: 0.773235417, 31: 0.781335417, 32: 0.0, 33: 0.0, 34: 0.0, 35: 0.0, 36: 1.643435417, 37: 1.892035417, 38: 1.090735417, 39: 2.095835417, 40: 0.0, 41: 2.330335417, 42: 2.392935417, 43: 0.0, 44: 0.741035417, 45: 0.0, 46: 0.780835417, 47: 1.812535417, 48: 0.740735417, 49: 2.518335417, 50: 2.933935417, 51: 0.0, 52: 1.302945282, 53: 0.489235417, 54: 0.0, 55: 2.836535417, 56: 0.0, 57: 0.0, 58: 0.0, 59: 0.0, 60: 0.0, 61: 1.211835417, 62: 0.461035417, 63: 1.872235417, 64: 0.0, 65: 1.858335417, 66: 1.876735417, 67: 0.0, 68: 0.0, 69: 1.441035417, 70: 0.0, 71: 0.0, 72: 0.9661354170000001, 73: 0.017335417, 74: 0.0, 75: 0.827535417, 76: 0.0, 77: 0.0, 78: 0.0, 79: 0.0, 80: 0.0, 81: 0.771035417, 82: 0.772435417, 83: 0.0, 84: 0.0, 85: 0.56416713, 86: 0.0, 87: 0.0, 88: 0.763735417, 89: 0.0, 90: 0.7634354169999999, 91: 0.0, 92: 0.0, 93: 0.0, 94: 0.0, 95: 0.5467354169999999, 96: 0.0, 97: 0.591335417, 98: 0.0, 99: 0.0, 100: 0.0, 101: 0.0, 102: 0.0, 103: 0.0, 104: 0.0, 105: 0.5941354170000001, 106: 0.0, 107: 0.0, 108: 0.0, 109: 0.0, 110: 0.0, 111: 0.0, 112: 0.0, 113: 0.0, 114: 0.0, 115: 0.618835417, 116: 0.546135417, 117: 0.530835417, 118: 0.0, 119: 0.0, 120: 0.0, 121: 0.0, 122: 0.0, 123: 0.0, 124: 0.830635417, 125: 0.769835417, 126: 0.0, 127: 0.041335417, 128: 0.0, 129: 0.0, 130: 1.344435417, 131: 1.603135417, 132: 1.715535417, 133: 0.0, 134: 0.770635417, 135: 2.001635417, 136: 2.110635417, 137: 1.335335417, 138: 0.760635417, 139: 0.276935417, 140: 2.345435417, 141: 1.568635417, 142: 0.0, 143: 0.701835417, 144: 2.657735417, 145: 0.0, 146: 0.0, 147: 0.713135417, 148: 2.672935417, 149: 0.716435417, 150: 0.771635417, 151: 0.0, 152: 2.660535417, 153: 0.0, 154: 0.0, 155: 2.524335417, 156: 0.038635417, 157: 0.0, 158: 0.536835417, 159: 0.0, 160: 0.044635417, 161: 0.057635417, 162: 1.750135417, 163: 1.573535417, 164: 1.223035417, 165: 0.0, 166: 0.0, 167: 0.0, 168: 0.0, 169: 0.0, 170: 0.0, 171: 0.875135417, 172: 0.762835417, 173: 0.0, 174: 0.0, 175: 0.0, 176: 0.0, 177: 0.0, 178: 0.0, 179: 0.599835417, 180: 0.0, 181: 0.535135417, 182: 0.430942921, 183: 0.525635417, 184: 0.0, 185: 0.0, 186: 0.643935417, 187: 0.0, 188: 0.649635417, 189: 0.765135417, 190: 0.763835417, 191: 0.477135417];
charge = [0: 0.0, 1: 1.0, 2: 0.027265544, 3: 1.0, 4: 0.0, 5: 1.0, 6: 1.0, 7: 1.0, 8: 1.0, 9: 1.0, 10: 0.0, 11: 1.0, 12: 1.0, 13: 0.0, 14: 0.0, 15: 1.0, 16: 0.0, 17: 1.0, 18: 0.0, 19: 1.0, 20: 0.0, 21: 0.0, 22: 0.0, 23: 0.0, 24: 0.0, 25: 1.0, 26: 0.0, 27: 0.0, 28: 0.0, 29: 0.0, 30: 0.0, 31: 0.0, 32: 1.0, 33: 0.0, 34: 0.0, 35: 1.0, 36: 0.0, 37: 0.0, 38: 0.0, 39: 0.0, 40: 1.0, 41: 0.0, 42: 0.0, 43: 0.0, 44: 0.0, 45: 1.0, 46: 1.0, 47: 0.0, 48: 0.0, 49: 0.0, 50: 0.0, 51: 1.0, 52: 0.799090135, 53: 1.0, 54: 0.0, 55: 0.0, 56: 1.0, 57: 1.0, 58: 1.0, 59: 1.0, 60: 0.0, 61: 0.0, 62: 0.0, 63: 0.0, 64: 1.0, 65: 0.0, 66: 0.0, 67: 0.0, 68: 0.0, 69: 0.0, 70: 1.0, 71: 1.0, 72: 0.0, 73: 0.0, 74: 1.0, 75: 0.0, 76: 1.0, 77: 1.0, 78: 1.0, 79: 1.0, 80: 0.0, 81: 0.0, 82: 0.0, 83: 0.0, 84: 0.0, 85: 0.0, 86: 0.0, 87: 0.0, 88: 0.0, 89: 1.0, 90: 0.0, 91: 0.0, 92: 1.0, 93: 0.0, 94: 1.0, 95: 0.0, 96: 1.0, 97: 0.0, 98: 0.0, 99: 1.0, 100: 1.0, 101: 1.0, 102: 1.0, 103: 1.0, 104: 1.0, 105: 0.0, 106: 1.0, 107: 0.0, 108: 1.0, 109: 1.0, 110: 0.0, 111: 1.0, 112: 1.0, 113: 1.0, 114: 0.0, 115: 0.0, 116: 0.0, 117: 0.0, 118: 1.0, 119: 1.0, 120: 1.0, 121: 1.0, 122: 0.0, 123: 1.0, 124: 0.0, 125: 0.0, 126: 1.0, 127: 0.0, 128: 1.0, 129: 1.0, 130: 0.0, 131: 0.0, 132: 0.0, 133: 1.0, 134: 0.0, 135: 0.0, 136: 0.0, 137: 0.0, 138: 0.0, 139: 0.0, 140: 0.0, 141: 0.0, 142: 1.0, 143: 1.0, 144: 0.0, 145: 1.0, 146: 1.0, 147: 0.0, 148: 0.0, 149: 0.0, 150: 1.0, 151: 1.0, 152: 0.0, 153: 1.0, 154: 1.0, 155: 0.0, 156: 1.0, 157: 0.338590265, 158: 0.0, 159: 1.0, 160: 1.0, 161: 1.0, 162: 0.0, 163: 0.0, 164: 0.0, 165: 1.0, 166: 0.0, 167: 0.0, 168: 1.0, 169: 1.0, 170: 1.0, 171: 0.0, 172: 0.0, 173: 0.0, 174: 1.0, 175: 1.0, 176: 1.0, 177: 1.0, 178: 1.0, 179: 0.0, 180: 0.0, 181: 0.0, 182: 0.0, 183: 0.0, 184: 1.0, 185: 1.0, 186: 0.0, 187: 0.0, 188: 0.0, 189: 0.0, 190: 0.0, 191: 0.0];
discharge = [0: 1.0, 1: 0.0, 2: 0.0, 3: 0.0, 4: 1.0, 5: 0.0, 6: 0.0, 7: 0.0, 8: 0.0, 9: 0.0, 10: 0.0, 11: 0.0, 12: 0.0, 13: 1.0, 14: 0.0, 15: 0.0, 16: 1.0, 17: 0.0, 18: 1.0, 19: 0.0, 20: 0.0, 21: 0.0, 22: 0.0, 23: 1.0, 24: 1.0, 25: 0.0, 26: 0.0, 27: 1.0, 28: 1.0, 29: 0.0, 30: 1.0, 31: 1.0, 32: 0.0, 33: 1.0, 34: 0.0, 35: 0.0, 36: 1.0, 37: 1.0, 38: 0.0, 39: 1.0, 40: 0.0, 41: 1.0, 42: 1.0, 43: 0.0, 44: 1.0, 45: 0.0, 46: 0.0, 47: 0.0, 48: 1.0, 49: 1.0, 50: 1.0, 51: 0.0, 52: 0.0, 53: 0.0, 54: 0.0, 55: 1.0, 56: 0.0, 57: 0.0, 58: 0.0, 59: 0.0, 60: 1.0, 61: 0.0, 62: 1.0, 63: 1.0, 64: 0.0, 65: 1.0, 66: 1.0, 67: 0.0, 68: 0.0, 69: 1.0, 70: 0.0, 71: 0.0, 72: 1.0, 73: 0.0, 74: 0.0, 75: 1.0, 76: 0.0, 77: 0.0, 78: 0.0, 79: 0.0, 80: 0.0, 81: 1.0, 82: 1.0, 83: 0.0, 84: 0.0, 85: 0.7871463480000001, 86: 0.0, 87: 0.0, 88: 1.0, 89: 0.0, 90: 1.0, 91: 0.0, 92: 0.0, 93: 0.0, 94: 0.0, 95: 1.0, 96: 0.0, 97: 1.0, 98: 0.0, 99: 0.0, 100: 0.0, 101: 0.0, 102: 0.0, 103: 0.0, 104: 0.0, 105: 1.0, 106: 0.0, 107: 0.0, 108: 0.0, 109: 0.0, 110: 0.0, 111: 0.0, 112: 0.0, 113: 0.0, 114: 0.0, 115: 1.0, 116: 1.0, 117: 1.0, 118: 0.0, 119: 0.0, 120: 0.0, 121: 0.0, 122: 0.0, 123: 0.0, 124: 1.0, 125: 1.0, 126: 0.0, 127: 0.0, 128: 0.0, 129: 0.0, 130: 1.0, 131: 1.0, 132: 1.0, 133: 0.0, 134: 1.0, 135: 1.0, 136: 1.0, 137: 0.0, 138: 1.0, 139: 1.0, 140: 1.0, 141: 0.0, 142: 0.0, 143: 0.0, 144: 1.0, 145: 0.0, 146: 0.0, 147: 1.0, 148: 1.0, 149: 1.0, 150: 0.0, 151: 0.0, 152: 1.0, 153: 0.0, 154: 0.0, 155: 1.0, 156: 0.0, 157: 0.0, 158: 0.0, 159: 0.0, 160: 0.0, 161: 0.0, 162: 1.0, 163: 1.0, 164: 1.0, 165: 0.0, 166: 0.0, 167: 0.0, 168: 0.0, 169: 0.0, 170: 0.0, 171: 1.0, 172: 1.0, 173: 0.0, 174: 0.0, 175: 0.0, 176: 0.0, 177: 0.0, 178: 0.0, 179: 1.0, 180: 0.395071759, 181: 1.0, 182: 0.892563894, 183: 1.0, 184: 0.0, 185: 0.0, 186: 1.0, 187: 0.0, 188: 1.0, 189: 1.0, 190: 1.0, 191: 1.0];
soc = [0: 6.518496, 1: 7.417192301, 2: 7.440247852, 3: 8.338759803, 4: 7.337092051, 5: 8.235624632, 6: 9.133977507000001, 7: 10.032150712, 8: 10.930144282, 9: 11.827958253, 10: 11.825592661, 11: 12.723227543, 12: 13.620682897, 13: 12.617958761, 14: 12.615435169, 15: 13.512912082, 16: 12.510209499, 17: 13.407707457, 18: 12.405025916, 19: 13.302544911, 20: 13.299884402, 21: 13.297224425, 22: 13.29456498, 23: 12.291906067, 24: 11.289447686, 25: 12.187189796, 26: 12.184752358, 27: 11.182315408, 28: 10.180078945, 29: 10.178042929, 30: 9.17600732, 31: 8.174172119, 32: 9.072537283999999, 33: 8.070722777, 34: 8.069108632000001, 35: 8.967494811, 36: 7.965701312, 37: 6.964108172, 38: 6.96271535, 39: 5.961322807, 40: 6.860130542, 41: 5.858758516, 42: 4.857586764, 43: 4.856615247, 44: 3.855643924, 45: 4.754872795, 46: 5.653921821, 47: 5.652791036, 48: 4.651660478, 49: 3.650730146, 50: 2.65, 51: 3.54947, 52: 4.267941228, 53: 5.167087639, 54: 5.166054222, 55: 4.165021011, 56: 5.064188007, 57: 5.963175169, 58: 6.861982534, 59: 7.760610138, 60: 6.759058016, 61: 6.757706204, 62: 5.756354663, 63: 4.755203392, 64: 5.654252351, 65: 4.653121501, 66: 3.652190876, 67: 3.651460438, 68: 3.650730146, 69: 2.65, 70: 3.54947, 71: 4.448760106, 72: 3.447870354, 73: 3.44718078, 74: 4.346491344, 75: 3.345622045, 76: 4.244952921, 77: 5.14410393, 78: 6.04307511, 79: 6.941866495, 80: 6.940478121, 81: 5.939090026, 82: 4.937902208, 83: 4.936914627, 84: 4.935927244, 85: 4.147793711, 86: 4.146964152, 87: 4.146134759, 88: 3.145305532, 89: 4.044676471, 90: 3.043867536, 91: 3.043258762, 92: 3.942650111, 93: 3.941861581, 94: 4.841073208, 95: 3.840104994, 96: 4.739336973, 97: 3.738389105, 98: 3.737641428, 99: 4.636893899, 100: 5.53596652, 101: 6.434859327, 102: 7.333572355, 103: 8.232105641, 104: 9.130459220000001, 105: 8.128633128000001, 106: 9.027007401000001, 107: 9.025202, 108: 9.923396959, 109: 10.82141228, 110: 10.819247997, 111: 11.717084148, 112: 12.614740731, 113: 13.512217783, 114: 13.509515339, 115: 12.506813436, 116: 11.504312074, 117: 10.502011211, 118: 11.399910809, 119: 12.297630827, 120: 13.195171301, 121: 14.092532266, 122: 14.08971376, 123: 14.986895817, 124: 13.983898438, 125: 12.981101658, 126: 13.878505438, 127: 13.875729737, 128: 14.772954591, 129: 15.67, 130: 14.666866, 131: 13.663932627, 132: 12.66119984, 133: 13.5586676, 134: 12.555955867, 135: 11.553444676, 136: 10.551133987, 137: 10.54902376, 138: 9.546913955000001, 139: 8.545004572, 140: 7.543295571, 141: 7.541786912, 142: 8.440278555000001, 143: 9.338590499, 144: 8.336722781000001, 145: 9.235055437, 146: 10.133208425, 147: 9.131181784000001, 148: 8.129355546999999, 149: 7.127729676, 150: 8.02630413, 151: 8.92469887, 152: 7.92291393, 153: 8.821329347000001, 154: 9.719565081000001, 155: 8.717621168000001, 156: 9.615877643999999, 157: 9.918685707, 158: 9.91670197, 159: 10.814718629, 160: 11.712555685, 161: 12.610213174, 162: 11.607691132, 163: 10.605369593, 164: 9.603248519999999, 165: 10.50132787, 166: 10.499227604, 167: 10.497127759, 168: 11.395028333, 169: 12.292749327, 170: 13.190290778, 171: 12.187652719, 172: 11.185215189, 173: 11.182978146, 174: 12.08074155, 175: 12.978325402, 176: 13.875729737, 177: 14.772954591, 178: 15.67, 179: 14.666866, 180: 14.268860868, 181: 13.266007095, 182: 12.37079, 183: 11.368315842, 184: 12.266042179, 185: 13.163588971, 186: 12.160956253, 187: 12.158524062, 188: 11.156092357, 189: 10.153861138, 190: 9.151830366, 191: 8.15];
cost = [0: 0.0, 1: 1.030169139, 2: 0.641081287, 3: 1.045441639, 4: 0.0, 5: 1.022105259, 6: 1.020455829, 7: 1.011903229, 8: 0.986611969, 9: 0.9913158989999999, 10: 0.263520624, 11: 1.028214259, 12: 0.975493589, 13: 0.0, 14: 0.727315904, 15: 0.985634529, 16: 0.0, 17: 0.961015259, 18: 0.0, 19: 1.325966919, 20: 0.536837284, 21: 0.476419274, 22: 0.416184534, 23: 0.0, 24: 0.0, 25: 1.766207874, 26: 1.128055548, 27: 0.0, 28: 0.0, 29: 0.151512908, 30: 0.0, 31: 0.0, 32: 1.447632994, 33: 0.264286988, 34: 0.314131228, 35: 1.640705074, 36: 0.0, 37: 0.0, 38: 0.0, 39: 0.0, 40: 1.472495634, 41: 0.0, 42: 0.0, 43: 0.191721388, 44: 0.0, 45: 0.118178165, 46: 0.118178165, 47: 0.0, 48: 0.0, 49: 0.0, 50: 0.0, 51: 1.509492194, 52: 0.094435006, 53: 0.118178165, 54: 0.422110264, 55: 0.0, 56: 0.118178165, 57: 1.464091409, 58: 1.242273619, 59: 1.312099489, 60: 0.056820748, 61: 0.0, 62: 0.0, 63: 0.0, 64: 1.472495634, 65: 0.0, 66: 0.0, 67: 0.0, 68: 0.166858748, 69: 0.0, 70: 0.844981634, 71: 0.973339474, 72: 0.0, 73: 0.0, 74: 1.370427954, 75: 0.0, 76: 1.459528994, 77: 1.433833634, 78: 1.450488034, 79: 1.449179474, 80: 0.152107708, 81: 0.0, 82: 0.0, 83: 0.142115068, 84: 0.164003708, 85: 0.0, 86: 0.173758428, 87: 0.174353228, 88: 0.0, 89: 0.812688739, 90: 0.0, 91: 0.08727597400000001, 92: 0.817331579, 93: 0.200292474, 94: 0.9451929489999999, 95: 0.0, 96: 0.941710819, 97: 0.0, 98: 0.207134554, 99: 0.911471269, 100: 0.921428939, 101: 0.921001309, 102: 0.918557709, 103: 0.914709039, 104: 0.912265439, 105: 0.0, 106: 0.917763539, 107: 0.191617694, 108: 0.919901689, 109: 0.913487239, 110: 0.187035944, 111: 0.921428939, 112: 0.921551119, 113: 0.922345289, 114: 0.560845654, 115: 0.0, 116: 0.0, 117: 0.0, 118: 0.950935409, 119: 0.918374439, 120: 1.625835074, 121: 1.624645474, 122: 0.318294828, 123: 1.587410994, 124: 0.0, 125: 0.0, 126: 1.329029874, 127: 0.0, 128: 1.466666594, 129: 1.462027154, 130: 0.0, 131: 0.0, 132: 0.0, 133: 0.201289074, 134: 0.0, 135: 0.0, 136: 0.0, 137: 0.0, 138: 0.0, 139: 0.0, 140: 0.0, 141: 0.0, 142: 1.546964594, 143: 0.118178165, 144: 0.0, 145: 1.516391874, 146: 1.533046274, 147: 0.0, 148: 0.0, 149: 0.0, 150: 0.118178165, 151: 0.808106989, 152: 0.0, 153: 0.808290259, 154: 0.8035252389999999, 155: 0.0, 156: 0.118178165, 157: 1.519465784, 158: 0.0, 159: 1.559574354, 160: 0.118178165, 161: 0.118178165, 162: 0.0, 163: 0.0, 164: 0.0, 165: 1.462859874, 166: 0.154843788, 167: 0.158293628, 168: 1.468213074, 169: 1.458934194, 170: 1.460480674, 171: 0.0, 172: 0.0, 173: 0.145921788, 174: 1.445610674, 175: 1.446800274, 176: 1.443469394, 177: 1.455722274, 178: 1.475945474, 179: 0.0, 180: 0.0, 181: 0.0, 182: 0.0, 183: 0.0, 184: 0.9000474389999999, 185: 0.881292809, 186: 0.0, 187: 0.153436444, 188: 0.0, 189: 0.0, 190: 0.0, 191: 0.0];
earn = [0: 0.319089561, 1: 0.0, 2: 0.0, 3: 0.0, 4: 0.292025626, 5: 0.0, 6: 0.0, 7: 0.0, 8: 0.0, 9: 0.0, 10: 0.0, 11: 0.0, 12: 0.0, 13: 0.335810843, 14: 0.0, 15: 0.0, 16: 0.354082887, 17: 0.0, 18: 0.376528631, 19: 0.0, 20: 0.0, 21: 0.0, 22: 0.0, 23: 0.26018588, 24: 0.358079146, 25: 0.0, 26: 0.0, 27: 0.472850384, 28: 0.915185573, 29: 0.0, 30: 0.804164833, 31: 0.785242094, 32: 0.0, 33: 0.0, 34: 0.0, 35: 0.0, 36: 1.228796661, 37: 1.444947448, 38: 0.816851754, 39: 1.430407672, 40: 0.0, 41: 1.329689389, 42: 1.251744516, 43: 0.0, 44: 0.360958351, 45: 0.0, 46: 0.374098248, 47: 0.729908012, 48: 0.305257065, 49: 1.049138535, 50: 1.225504824, 51: 0.0, 52: 0.471926781, 53: 0.162964317, 54: 0.0, 55: 0.833090452, 56: 0.0, 57: 0.0, 58: 0.0, 59: 0.0, 60: 0.0, 61: 0.492489913, 62: 0.18367651, 63: 0.787087769, 64: 0.0, 65: 0.9600160760000001, 66: 0.982283317, 67: 0.0, 68: 0.0, 69: 0.942293059, 70: 0.0, 71: 0.0, 72: 0.745953155, 73: 0.01437106, 74: 0.0, 75: 0.744037093, 76: 0.0, 77: 0.0, 78: 0.0, 79: 0.0, 80: 0.0, 81: 0.789540267, 82: 0.780932206, 83: 0.0, 84: 0.0, 85: 0.490543319, 86: 0.0, 87: 0.0, 88: 0.632525672, 89: 0.0, 90: 0.605022568, 91: 0.0, 92: 0.0, 93: 0.0, 94: 0.0, 95: 0.372108125, 96: 0.0, 97: 0.393060651, 98: 0.0, 99: 0.0, 100: 0.0, 101: 0.0, 102: 0.0, 103: 0.0, 104: 0.0, 105: 0.35648125, 106: 0.0, 107: 0.0, 108: 0.0, 109: 0.0, 110: 0.0, 111: 0.0, 112: 0.0, 113: 0.0, 114: 0.0, 115: 0.367093169, 116: 0.334944851, 117: 0.330816632, 118: 0.0, 119: 0.0, 120: 0.0, 121: 0.0, 122: 0.0, 123: 0.0, 124: 0.716921428, 125: 0.6693718950000001, 126: 0.0, 127: 0.034246393, 128: 0.0, 129: 0.0, 130: 0.995554426, 131: 1.046687114, 132: 0.959670512, 133: 0.0, 134: 0.396029541, 135: 0.96699007, 136: 0.922980868, 137: 0.493272903, 138: 0.268047921, 139: 0.095930428, 140: 0.6421802170000001, 141: 0.406747164, 142: 0.0, 143: 0.099028977, 144: 0.485036714, 145: 0.0, 146: 0.0, 147: 0.08336552999999999, 148: 0.137121587, 149: 0.035248623, 150: 0.037964463, 151: 0.0, 152: 0.301172609, 153: 0.0, 154: 0.0, 155: 0.5328872059999999, 156: 0.010647921, 157: 0.0, 158: 0.198038585, 159: 0.0, 160: 0.021750839, 161: 0.02940559, 162: 0.900619685, 163: 0.823588437, 164: 0.708382113, 165: 0.0, 166: 0.0, 167: 0.0, 168: 0.0, 169: 0.0, 170: 0.0, 171: 0.651975885, 172: 0.653139684, 173: 0.0, 174: 0.0, 175: 0.0, 176: 0.0, 177: 0.0, 178: 0.0, 179: 0.506800944, 180: 0.0, 181: 0.412107784, 182: 0.32510334, 183: 0.380665169, 184: 0.0, 185: 0.0, 186: 0.439614709, 187: 0.0, 188: 0.419339661, 189: 0.483565583, 190: 0.490993406, 191: 0.28709238];
total_cost = 95.473617989;
total_earn = 47.663094448;
% _objective = 47.810523541;