production = [0: 0.0, 1: 0.0, 2: 0.0, 3: 0.0, 4: 0.0, 5: 0.0, 6: 0.0, 7: 0.0, 8: 0.0, 9: 0.0, 10: 0.0, 11: 0.0, 12: 0.0, 13: 0.0, 14: 0.0, 15: 0.0, 16: 0.0, 17: 0.0, 18: 0.0, 19: 0.0, 20: 0.0003, 21: 0.0, 22: 0.0, 23: 0.0011, 24: 0.0013, 25: 0.0016, 26: 0.0, 27: 0.0, 28: 0.0789, 29: 0.1011, 30: 0.0, 31: 0.2343, 32: 0.0, 33: 0.0, 34: 0.0, 35: 0.0, 36: 1.0088, 37: 0.129464583, 38: 0.0, 39: 0.0, 40: 0.0, 41: 1.5614, 42: 1.6076, 43: 0.0, 44: 1.7834, 45: 0.0, 46: 0.0, 47: 0.0, 48: 2.0546, 49: 1.7649, 50: 2.2048, 51: 2.1483, 52: 2.2576, 53: 0.0, 54: 0.0, 55: 0.0, 56: 2.0053, 57: 1.9691, 58: 0.0, 59: 1.2184, 60: 1.7733, 61: 1.6514, 62: 0.0, 63: 0.0, 64: 0.0, 65: 0.0, 66: 1.1252, 67: 0.0, 68: 0.5787, 69: 0.6837, 70: 0.5309, 71: 0.0, 72: 0.1969, 73: 0.1494, 74: 0.08309999999999999, 75: 0.0, 76: 0.0464, 77: 0.0219, 78: 0.0, 79: 0.0016, 80: 0.0, 81: 0.0, 82: 0.0, 83: 0.0, 84: 0.0, 85: 0.0, 86: 0.0, 87: 0.0, 88: 0.0, 89: 0.0, 90: 0.0, 91: 0.0, 92: 0.0, 93: 0.0, 94: 0.0, 95: 0.0, 96: 0.0, 97: 0.0, 98: 0.0, 99: 0.0, 100: 0.0, 101: 0.0, 102: 0.0, 103: 0.0, 104: 0.0, 105: 0.0, 106: 0.0, 107: 0.0, 108: 0.0, 109: 0.0, 110: 0.0, 111: 0.0, 112: 0.0, 113: 0.0, 114: 0.0, 115: 0.0, 116: 0.0, 117: 0.0, 118: 0.0, 119: 0.0, 120: 0.0, 121: 0.001, 122: 0.0, 123: 0.0, 124: 0.057, 125: 0.08450000000000001, 126: 0.0, 127: 0.1752, 128: 0.0, 129: 0.3347, 130: 0.0, 131: 0.0, 132: 0.0, 133: 0.0, 134: 1.1632, 135: 0.0, 136: 0.0, 137: 0.0, 138: 0.0, 139: 1.6453, 140: 1.7203, 141: 1.7745, 142: 0.0, 143: 0.0, 144: 1.9403, 145: 1.9652, 146: 1.189364583, 147: 1.9423, 148: 1.9623, 149: 1.9503, 150: 0.183564583, 151: 0.0, 152: 0.0, 153: 0.0, 154: 1.7982, 155: 1.7477, 156: 1.665, 157: 0.0, 158: 1.4155, 159: 1.3905, 160: 0.0, 161: 1.185, 162: 0.9878, 163: 0.8117, 164: 0.4507, 165: 0.0, 166: 0.0, 167: 0.3782, 168: 0.2502, 169: 0.0, 170: 0.1293, 171: 0.0, 172: 0.0445, 173: 0.0, 174: 0.0025, 175: 0.0, 176: 0.0, 177: 0.0, 178: 0.0, 179: 0.0, 180: 0.0, 181: 0.0, 182: 0.0, 183: 0.0, 184: 0.0, 185: 0.0, 186: 0.0, 187: 0.0, 188: 0.0, 189: 0.0, 190: 0.0, 191: 0.0];
buy = [0: 1.489964583, 1: 0.0, 2: 2.016864583, 3: 1.517864583, 4: 1.477264583, 5: 1.479664583, 6: 0.476964583, 7: 1.462964583, 8: 0.0, 9: 1.429264583, 10: 0.0, 11: 1.489664583, 12: 0.0, 13: 0.0, 14: 0.593893206, 15: 1.419964583, 16: 1.380664583, 17: 0.0, 18: 1.371464583, 19: 0.07706458300000001, 20: 0.0, 21: 0.780364583, 22: 1.682064583, 23: 1.582564583, 24: 0.484064583, 25: 0.0, 26: 0.948264583, 27: 0.409664583, 28: 1.048664583, 29: 1.026264583, 30: 1.126764583, 31: 0.884364583, 32: 1.117564583, 33: 1.122164583, 34: 1.264064583, 35: 0.0, 36: 0.256564583, 37: 0.0, 38: 0.140564583, 39: 1.139964583, 40: 0.0, 41: 0.0, 42: 0.0, 43: 0.0, 44: 0.0, 45: 0.0, 46: 1.182264583, 47: 0.199864583, 48: 0.0, 49: 0.0, 50: 0.0, 51: 0.0, 52: 0.0, 53: 1.140564583, 54: 0.690964583, 55: 0.0, 56: 0.0, 57: 0.0, 58: 0.840064583, 59: 0.735964583, 60: 0.0, 61: 0.0, 62: 1.438964583, 63: 0.0, 64: 1.138464583, 65: 1.148964583, 66: 0.023264583, 67: 0.0, 68: 0.561564583, 69: 0.0, 70: 0.610964583, 71: 0.137364583, 72: 0.0, 73: 0.0, 74: 1.052664583, 75: 1.127364583, 76: 0.0, 77: 0.625772593, 78: 0.0, 79: 0.0, 80: 0.127864583, 81: 1.128964583, 82: 0.0, 83: 0.0, 84: 0.137864583, 85: 0.144264583, 86: 1.146064583, 87: 0.146564583, 88: 1.136264583, 89: 1.136864583, 90: 0.136564583, 91: 0.0, 92: 0.0, 93: 1.327864583, 94: 0.0, 95: 0.0, 96: 1.348064583, 97: 0.308664583, 98: 0.0, 99: 0.0, 100: 0.314864583, 101: 0.314164583, 102: 1.310164583, 103: 1.303864583, 104: 1.299864583, 105: 0.0, 106: 0.0, 107: 1.313664583, 108: 1.312364583, 109: 1.301864583, 110: 1.306164583, 111: 1.314864583, 112: 0.0, 113: 0.316364583, 114: 0.018064583, 115: 1.281164583, 116: 0.353864583, 117: 1.369164583, 118: 0.363164583, 119: 1.309864583, 120: 0.0, 121: 1.266364583, 122: 0.0, 123: 0.267564583, 124: 1.069364583, 125: 0.0, 126: 0.0, 127: 0.958664583, 128: 0.0, 129: 0.0, 130: 1.127864583, 131: 1.135164583, 132: 0.135164583, 133: 0.0, 134: 0.0, 135: 1.128664583, 136: 1.127364583, 137: 0.137864583, 138: 0.0, 139: 0.0, 140: 0.0, 141: 0.0, 142: 1.201064583, 143: 0.0, 144: 0.0, 145: 0.0, 146: 0.0, 147: 0.0, 148: 0.0, 149: 0.0, 150: 0.0, 151: 1.129365079, 152: 1.129664583, 153: 1.129664583, 154: 0.0, 155: 0.0, 156: 0.0, 157: 0.005064583, 158: 0.0, 159: 0.0, 160: 0.0, 161: 0.0, 162: 0.149864583, 163: 0.0, 164: 0.676964583, 165: 0.0, 166: 1.130164583, 167: 0.754864583, 168: 0.0, 169: 1.127064583, 170: 0.0, 171: 1.127864583, 172: 0.0, 173: 0.0, 174: 0.0, 175: 0.0, 176: 1.114364583, 177: 0.124364583, 178: 1.141364583, 179: 0.0, 180: 1.355564583, 181: 0.364864583, 182: 1.372364583, 183: 0.412538637, 184: 0.279864583, 185: 0.249164583, 186: 1.256064583, 187: 0.0, 188: 0.250364583, 189: 1.134864583, 190: 0.0, 191: 1.422864583];
sell = [0: 0.0, 1: 0.407135417, 2: 0.0, 3: 0.0, 4: 0.0, 5: 0.0, 6: 0.0, 7: 0.0, 8: 0.478435417, 9: 0.0, 10: 0.468635417, 11: 0.0, 12: 0.496635417, 13: 0.501135417, 14: 0.0, 15: 0.0, 16: 0.0, 17: 0.520335417, 18: 0.0, 19: 0.0, 20: 0.021535417, 21: 0.0, 22: 0.0, 23: 0.0, 24: 0.0, 25: 0.514635417, 26: 0.0, 27: 0.0, 28: 0.0, 29: 0.0, 30: 0.0, 31: 0.0, 32: 0.0, 33: 0.0, 34: 0.0, 35: 0.620135417, 36: 0.0, 37: 0.0, 38: 0.0, 39: 0.0, 40: 0.761535417, 41: 2.330335417, 42: 2.392935417, 43: 0.738835417, 44: 1.624435417, 45: 0.7191354170000001, 46: 0.0, 47: 0.0, 48: 2.795335417, 49: 1.618335417, 50: 1.033935417, 51: 0.978735417, 52: 3.002035417, 53: 0.0, 54: 0.0, 55: 0.743635417, 56: 2.463935417, 57: 1.665935417, 58: 0.0, 59: 0.0, 60: 0.825535417, 61: 0.211835417, 62: 0.0, 63: 0.519835417, 64: 0.0, 65: 0.0, 66: 0.0, 67: 0.757935417, 68: 0.0, 69: 1.441035417, 70: 0.0, 71: 0.0, 72: 0.9661354170000001, 73: 0.917335417, 74: 0.0, 75: 0.0, 76: 0.818835417, 77: 0.0, 78: 0.780035417, 79: 0.782735417, 80: 0.0, 81: 0.0, 82: 0.772435417, 83: 0.780535417, 84: 0.0, 85: 0.0, 86: 0.0, 87: 0.0, 88: 0.0, 89: 0.0, 90: 0.0, 91: 0.757135417, 92: 0.755535417, 93: 0.0, 94: 0.546235417, 95: 0.5467354169999999, 96: 0.0, 97: 0.0, 98: 0.560935417, 99: 0.601435417, 100: 0.0, 101: 0.0, 102: 0.0, 103: 0.0, 104: 0.0, 105: 0.0, 106: 0.5911354170000001, 107: 0.0, 108: 0.0, 109: 0.0, 110: 0.0, 111: 0.0, 112: 0.584935417, 113: 0.0, 114: 0.0, 115: 0.0, 116: 0.0, 117: 0.0, 118: 0.0, 119: 0.0, 120: 0.632635417, 121: 0.0, 122: 0.6324354170000001, 123: 0.0, 124: 0.0, 125: 0.854335417, 126: 0.764135417, 127: 0.0, 128: 0.766435417, 129: 0.205035417, 130: 0.0, 131: 0.0, 132: 0.0, 133: 0.764635417, 134: 0.033835417, 135: 0.0, 136: 0.0, 137: 0.0, 138: 0.760635417, 139: 1.922235417, 140: 2.345435417, 141: 2.468635417, 142: 0.0, 143: 0.709135417, 144: 1.757735417, 145: 2.689835417, 146: 0.0, 147: 2.655435417, 148: 0.772935417, 149: 2.666735417, 150: 0.0, 151: 0.0, 152: 0.0, 153: 0.0, 154: 1.676335417, 155: 2.524335417, 156: 1.038635417, 157: 0.0, 158: 0.536835417, 159: 0.178835417, 160: 0.0, 161: 0.057635417, 162: 0.0, 163: 1.573535417, 164: 0.0, 165: 0.242681145, 166: 0.0, 167: 0.0, 168: 0.115335417, 169: 0.0, 170: 0.900935417, 171: 0.0, 172: 0.807335417, 173: 0.763835417, 174: 0.7866354169999999, 175: 0.783135417, 176: 0.0, 177: 0.0, 178: 0.0, 179: 0.599835417, 180: 0.0, 181: 0.0, 182: 0.0, 183: 0.0, 184: 0.0, 185: 0.0, 186: 0.0, 187: 0.0, 188: 0.0, 189: 0.0, 190: 0.763835417, 191: 0.0];
charge = [0: 1.0, 1: 0.0, 2: 1.0, 3: 1.0, 4: 1.0, 5: 1.0, 6: 0.0, 7: 1.0, 8: 0.0, 9: 1.0, 10: 0.0, 11: 1.0, 12: 0.0, 13: 0.0, 14: 0.0, 15: 1.0, 16: 1.0, 17: 0.0, 18: 1.0, 19: 0.0, 20: 0.0, 21: 0.0, 22: 1.0, 23: 1.0, 24: 0.0, 25: 0.0, 26: 0.0, 27: 0.0, 28: 1.0, 29: 1.0, 30: 1.0, 31: 1.0, 32: 1.0, 33: 0.0, 34: 1.0, 35: 0.0, 36: 1.0, 37: 0.0, 38: 0.0, 39: 1.0, 40: 0.0, 41: 0.0, 42: 0.0, 43: 0.0, 44: 0.0, 45: 0.0, 46: 1.0, 47: 0.0, 48: 0.0, 49: 0.0, 50: 1.0, 51: 1.0, 52: 0.0, 53: 1.0, 54: 0.0, 55: 0.0, 56: 0.0, 57: 0.0, 58: 0.0, 59: 1.0, 60: 0.0, 61: 1.0, 62: 1.0, 63: 0.0, 64: 1.0, 65: 1.0, 66: 1.0, 67: 0.0, 68: 1.0, 69: 0.0, 70: 1.0, 71: 0.0, 72: 0.0, 73: 0.0, 74: 1.0, 75: 1.0, 76: 0.0, 77: 0.51980801, 78: 0.0, 79: 0.0, 80: 0.0, 81: 1.0, 82: 0.0, 83: 0.0, 84: 0.0, 85: 0.0, 86: 1.0, 87: 0.0, 88: 1.0, 89: 1.0, 90: 0.0, 91: 0.0, 92: 0.0, 93: 1.0, 94: 0.0, 95: 0.0, 96: 1.0, 97: 0.0, 98: 0.0, 99: 0.0, 100: 0.0, 101: 0.0, 102: 1.0, 103: 1.0, 104: 1.0, 105: 0.0, 106: 0.0, 107: 1.0, 108: 1.0, 109: 1.0, 110: 1.0, 111: 1.0, 112: 0.0, 113: 0.0, 114: 0.0, 115: 1.0, 116: 0.0, 117: 1.0, 118: 0.0, 119: 1.0, 120: 0.0, 121: 1.0, 122: 0.0, 123: 0.0, 124: 1.0, 125: 0.0, 126: 0.0, 127: 1.0, 128: 0.0, 129: 0.0, 130: 1.0, 131: 1.0, 132: 0.0, 133: 0.0, 134: 1.0, 135: 1.0, 136: 1.0, 137: 0.0, 138: 0.0, 139: 0.0, 140: 0.0, 141: 0.0, 142: 1.0, 143: 0.0, 144: 0.0, 145: 0.0, 146: 1.0, 147: 0.0, 148: 1.0, 149: 0.0, 150: 0.0, 151: 1.0, 152: 1.0, 153: 1.0, 154: 0.0, 155: 0.0, 156: 0.0, 157: 0.0, 158: 0.0, 159: 1.0, 160: 0.0, 161: 1.0, 162: 1.0, 163: 0.0, 164: 1.0, 165: 0.0, 166: 1.0, 167: 1.0, 168: 0.0, 169: 1.0, 170: 0.0, 171: 1.0, 172: 0.0, 173: 0.0, 174: 0.0, 175: 0.0, 176: 1.0, 177: 0.0, 178: 1.0, 179: 0.0, 180: 1.0, 181: 0.0, 182: 1.0, 183: 0.038174054, 184: 0.0, 185: 0.0, 186: 1.0, 187: 0.0, 188: 0.0, 189: 1.0, 190: 0.0, 191: 1.0];
discharge = [0: 0.0, 1: 1.0, 2: 0.0, 3: 0.0, 4: 0.0, 5: 0.0, 6: 0.0, 7: 0.0, 8: 1.0, 9: 0.0, 10: 1.0, 11: 0.0, 12: 1.0, 13: 1.0, 14: 0.662968196, 15: 0.0, 16: 0.0, 17: 1.0, 18: 0.0, 19: 1.0, 20: 1.0, 21: 0.0, 22: 0.0, 23: 0.0, 24: 0.0, 25: 1.0, 26: 0.0, 27: 0.0, 28: 0.0, 29: 0.0, 30: 0.0, 31: 0.0, 32: 0.0, 33: 0.0, 34: 0.0, 35: 1.0, 36: 0.0, 37: 0.0, 38: 0.0, 39: 0.0, 40: 1.0, 41: 1.0, 42: 1.0, 43: 1.0, 44: 0.0, 45: 1.0, 46: 0.0, 47: 0.0, 48: 1.0, 49: 0.0, 50: 0.0, 51: 0.0, 52: 1.0, 53: 0.0, 54: 0.0, 55: 1.0, 56: 1.0, 57: 1.0, 58: 0.0, 59: 0.0, 60: 0.0, 61: 0.0, 62: 0.0, 63: 1.0, 64: 0.0, 65: 0.0, 66: 0.0, 67: 1.0, 68: 0.0, 69: 1.0, 70: 0.0, 71: 0.0, 72: 1.0, 73: 1.0, 74: 0.0, 75: 0.0, 76: 1.0, 77: 0.0, 78: 1.0, 79: 1.0, 80: 0.0, 81: 0.0, 82: 1.0, 83: 1.0, 84: 0.0, 85: 0.0, 86: 0.0, 87: 0.0, 88: 0.0, 89: 0.0, 90: 0.0, 91: 1.0, 92: 1.0, 93: 0.0, 94: 1.0, 95: 1.0, 96: 0.0, 97: 0.0, 98: 1.0, 99: 1.0, 100: 0.0, 101: 0.0, 102: 0.0, 103: 0.0, 104: 0.0, 105: 0.339849537, 106: 1.0, 107: 0.0, 108: 0.0, 109: 0.0, 110: 0.0, 111: 0.0, 112: 1.0, 113: 0.0, 114: 1.0, 115: 0.0, 116: 0.0, 117: 0.0, 118: 0.0, 119: 0.0, 120: 1.0, 121: 0.0, 122: 1.0, 123: 0.0, 124: 0.0, 125: 1.0, 126: 1.0, 127: 0.0, 128: 1.0, 129: 0.0, 130: 0.0, 131: 0.0, 132: 0.0, 133: 1.0, 134: 0.0, 135: 0.0, 136: 0.0, 137: 0.0, 138: 1.0, 139: 1.0, 140: 1.0, 141: 1.0, 142: 0.0, 143: 1.0, 144: 0.0, 145: 1.0, 146: 0.0, 147: 1.0, 148: 0.0, 149: 1.0, 150: 0.0, 151: 0.0, 152: 0.0, 153: 0.0, 154: 0.0, 155: 1.0, 156: 0.0, 157: 1.0, 158: 0.0, 159: 0.0, 160: 0.20318287, 161: 0.0, 162: 0.0, 163: 1.0, 164: 0.0, 165: 0.414495254, 166: 0.0, 167: 0.0, 168: 0.0, 169: 0.0, 170: 1.0, 171: 0.0, 172: 1.0, 173: 1.0, 174: 1.0, 175: 1.0, 176: 0.0, 177: 0.0, 178: 0.0, 179: 1.0, 180: 0.0, 181: 0.0, 182: 0.0, 183: 0.0, 184: 0.0, 185: 0.0, 186: 0.0, 187: 0.279071759, 188: 0.0, 189: 0.0, 190: 1.0, 191: 0.0];
soc = [0: 8.418495999999999, 1: 7.416812301, 2: 8.315328938, 3: 9.213665873, 4: 10.111823139, 5: 11.009800775, 6: 11.007598815, 7: 11.905397295, 8: 10.903016215, 9: 11.800835612, 10: 10.798475445, 11: 11.69631575, 12: 10.693976487, 13: 9.691837691, 14: 9.026931126999999, 15: 9.925125741, 16: 10.823140716, 17: 9.820976088, 18: 10.719011893, 19: 9.71686809, 20: 8.714924717000001, 21: 8.713181732000001, 22: 9.611439095, 23: 10.509516808, 24: 10.507414904, 25: 9.505313421, 26: 9.503412359, 27: 9.501511676, 28: 10.399611374, 29: 11.297531451, 30: 12.195271945, 31: 13.092832891, 32: 13.990214324, 33: 13.987416281, 34: 14.884618798, 35: 13.881641874, 36: 14.778865546, 37: 14.775909773, 38: 14.772954591, 39: 15.67, 40: 14.666866, 41: 13.663932627, 42: 12.66119984, 43: 11.6586676, 44: 11.656335867, 45: 10.6540046, 46: 11.551873799, 47: 11.549563424, 48: 10.547253511, 49: 10.545144061, 50: 11.443035032, 51: 12.340746425, 52: 11.338278275, 53: 12.23601062, 54: 12.233563418, 55: 11.231116705, 56: 10.228870482, 57: 9.226824708000001, 58: 9.224979342999999, 59: 10.123134347, 60: 10.12110972, 61: 11.019085498, 62: 11.916881681, 63: 10.914498304, 64: 11.812315405, 65: 12.709952942, 66: 13.607410951, 67: 12.604689469, 68: 13.502168531, 69: 12.499468097, 70: 13.396968204, 71: 13.39428881, 72: 12.391609952, 73: 11.38913163, 74: 12.286853804, 75: 13.184396433, 76: 12.181759554, 77: 12.647150411, 78: 11.644620981, 79: 10.642292056, 80: 10.640163598, 81: 11.538035565, 82: 10.535727958, 83: 9.533620813000001, 84: 9.531714087999999, 85: 9.529807745999999, 86: 10.427901784, 87: 10.425816204, 88: 11.323731041, 89: 12.221466294, 90: 12.219022001, 91: 11.216578197, 92: 10.214334881, 93: 11.112292014, 94: 10.110069556, 95: 9.108047542, 96: 10.006225932, 97: 10.004224687, 98: 9.002223841999999, 99: 8.000423397, 100: 7.998823313, 101: 7.997223548, 102: 8.895624102999999, 103: 9.793844977999999, 104: 10.691886209, 105: 10.349898295, 106: 9.347828314999999, 107: 10.24595875, 108: 11.143909558, 109: 12.041680776, 110: 12.93927244, 111: 13.836684586, 112: 12.833917249, 113: 12.831350465, 114: 11.828784195, 115: 12.726418438, 116: 12.723873155, 117: 13.62132838, 118: 13.618604114, 119: 14.515880393, 120: 13.512977217, 121: 14.410274622, 122: 13.407392567, 123: 13.404711088, 124: 14.302030146, 125: 13.29916974, 126: 12.296509906, 127: 13.194050604, 128: 12.191411794, 129: 12.188973512, 130: 13.086535717, 131: 13.98391841, 132: 13.981121626, 133: 12.978325402, 134: 13.875729737, 135: 14.772954591, 136: 15.67, 137: 15.666866, 138: 14.663732627, 139: 13.66079988, 140: 12.65806772, 141: 11.655536107, 142: 12.553205, 143: 11.550694359, 144: 11.54838422, 145: 10.546074543, 146: 11.443965328, 147: 10.441676535, 148: 11.3395882, 149: 10.337320282, 150: 10.335252818, 151: 11.233185767, 152: 12.13093913, 153: 13.028512942, 154: 13.02590724, 155: 12.023302058, 156: 12.020897398, 157: 11.018493218, 158: 11.01628952, 159: 11.914086262, 160: 11.708520574, 161: 12.60617887, 162: 13.503657634, 163: 12.500956903, 164: 13.398456711, 165: 12.981281766, 166: 13.87868551, 167: 14.775909773, 168: 14.772954591, 169: 15.67, 170: 14.666866, 171: 15.563932627, 172: 14.56081984, 173: 13.557907676, 174: 12.555196095, 175: 11.552685056, 176: 12.450374519, 177: 12.447884444, 178: 13.345394867, 179: 12.342725788, 180: 13.240257243, 181: 13.237609191, 182: 14.134961669, 183: 14.166491326, 184: 14.163658027, 185: 14.160825296, 186: 15.057993131, 187: 14.775909773, 188: 14.772954591, 189: 15.67, 190: 14.666866, 191: 15.563932627];
cost = [0: 1.028397529, 1: 0.0, 2: 1.350280739, 3: 1.045441639, 4: 1.020639099, 5: 1.022105259, 6: 0.291377664, 7: 1.011903229, 8: 0.0, 9: 0.9913158989999999, 10: 0.0, 11: 1.028214259, 12: 0.0, 13: 0.0, 14: 0.36280936, 15: 0.985634529, 16: 0.961626159, 17: 0.0, 18: 0.956005879, 19: 0.047078754, 20: 0.0, 21: 0.476724724, 22: 1.145751419, 23: 1.084966869, 24: 0.575843228, 25: 0.0, 26: 1.128055548, 27: 0.487336988, 28: 1.365669554, 29: 1.339022514, 30: 1.458577314, 31: 1.170218274, 32: 1.447632994, 33: 1.334926988, 34: 1.621909394, 35: 0.0, 36: 0.423387394, 37: 0.0, 38: 0.167215628, 39: 1.474280034, 40: 0.0, 41: 0.0, 42: 0.0, 43: 0.0, 44: 0.0, 45: 0.0, 46: 1.524600114, 47: 0.237758908, 48: 0.0, 49: 0.0, 50: 0.118178165, 51: 0.118178165, 52: 0.0, 53: 0.814949069, 54: 0.422110264, 55: 0.0, 56: 0.0, 57: 0.0, 58: 0.513195454, 59: 0.567778929, 60: 0.0, 61: 0.118178165, 62: 1.829970434, 63: 0.0, 64: 1.472495634, 65: 1.484986434, 66: 0.145853714, 67: 0.0, 68: 0.786215394, 69: 0.0, 70: 0.844981634, 71: 0.163408908, 72: 0.0, 73: 0.0, 74: 1.370427954, 75: 1.459291074, 76: 0.0, 77: 0.805849034, 78: 0.0, 79: 0.0, 80: 0.152107708, 81: 1.461194434, 82: 0.0, 83: 0.0, 84: 0.164003708, 85: 0.171617148, 86: 1.481536594, 87: 0.174353228, 88: 0.812322199, 89: 0.812688739, 90: 0.08342730399999999, 91: 0.0, 92: 0.0, 93: 0.9293706390000001, 94: 0.0, 95: 0.0, 96: 0.941710819, 97: 0.188563194, 98: 0.0, 99: 0.0, 100: 0.192350774, 101: 0.191923144, 102: 0.918557709, 103: 0.914709039, 104: 0.912265439, 105: 0.0, 106: 0.0, 107: 0.9206958589999999, 108: 0.919901689, 109: 0.913487239, 110: 0.916114109, 111: 0.921428571, 112: 0.0, 113: 0.193267124, 114: 0.011035654, 115: 0.900841609, 116: 0.216175874, 117: 0.954600809, 118: 0.221857244, 119: 0.918374439, 120: 0.0, 121: 1.624645474, 122: 0.0, 123: 0.318294828, 124: 1.390294274, 125: 0.0, 126: 0.0, 127: 1.258605554, 128: 0.0, 129: 0.0, 130: 1.459885874, 131: 1.468569954, 132: 0.160791788, 133: 0.0, 134: 0.118178165, 135: 1.460837554, 136: 1.459291074, 137: 0.164003708, 138: 0.0, 139: 0.0, 140: 0.0, 141: 0.0, 142: 1.546964594, 143: 0.0, 144: 0.0, 145: 0.0, 146: 0.118178165, 147: 0.0, 148: 0.118178165, 149: 0.0, 150: 0.0, 151: 0.808106989, 152: 0.808290259, 153: 0.808290259, 154: 0.0, 155: 0.0, 156: 0.0, 157: 0.006024828, 158: 0.0, 159: 0.118178165, 160: 0.0, 161: 0.118178165, 162: 0.296457074, 163: 0.0, 164: 0.923495234, 165: 0.0, 166: 1.462621954, 167: 1.016165074, 168: 0.0, 169: 1.458934194, 170: 0.0, 171: 1.459885874, 172: 0.0, 173: 0.0, 174: 0.0, 175: 0.0, 176: 1.443826274, 177: 0.147944108, 178: 1.475945474, 179: 0.0, 180: 1.730757794, 181: 0.434042908, 182: 1.750743074, 183: 0.495267303, 184: 0.170969274, 185: 0.152214644, 186: 0.885508019, 187: 0.0, 188: 0.152947724, 189: 0.811466939, 190: 0.0, 191: 0.987406139];
earn = [0: 0.0, 1: 0.304333724, 2: 0.0, 3: 0.0, 4: 0.0, 5: 0.0, 6: 0.0, 7: 0.0, 8: 0.318255239, 9: 0.0, 10: 0.312532959, 11: 0.0, 12: 0.326984127, 13: 0.335810843, 14: 0.0, 15: 0.0, 16: 0.0, 17: 0.359863974, 18: 0.0, 19: 0.0, 20: 0.015677783, 21: 0.0, 22: 0.0, 23: 0.0, 24: 0.0, 25: 0.471766286, 26: 0.0, 27: 0.0, 28: 0.0, 29: 0.0, 30: 0.0, 31: 0.0, 32: 0.0, 33: 0.0, 34: 0.0, 35: 0.536975257, 36: 0.0, 37: 0.0, 38: 0.0, 39: 0.0, 40: 0.499034159, 41: 1.329689389, 42: 1.251744516, 43: 0.38197791, 44: 0.791262491, 45: 0.33382266, 46: 0.0, 47: 0.0, 48: 1.151957725, 49: 0.674198535, 50: 0.431874824, 51: 0.407741175, 52: 1.087337228, 53: 0.0, 54: 0.0, 55: 0.218405722, 56: 0.785502611, 57: 0.508610083, 58: 0.0, 59: 0.0, 60: 0.342266984, 61: 0.086089913, 62: 0.0, 63: 0.218538809, 64: 0.0, 65: 0.0, 66: 0.0, 67: 0.438996193, 68: 0.0, 69: 0.942293059, 70: 0.0, 71: 0.0, 72: 0.745953155, 73: 0.76047106, 74: 0.0, 75: 0.0, 76: 0.8311179480000001, 77: 0.0, 78: 0.847118463, 79: 0.861791694, 80: 0.0, 81: 0.0, 82: 0.780932206, 83: 0.7555582830000001, 84: 0.0, 85: 0.0, 86: 0.0, 87: 0.0, 88: 0.0, 89: 0.0, 90: 0.0, 91: 0.578148604, 92: 0.563100546, 93: 0.0, 94: 0.385041345, 95: 0.372108125, 96: 0.0, 97: 0.0, 98: 0.361859437, 99: 0.384317231, 100: 0.0, 101: 0.0, 102: 0.0, 103: 0.0, 104: 0.0, 105: 0.0, 106: 0.35367632, 107: 0.0, 108: 0.0, 109: 0.0, 110: 0.0, 111: 0.0, 112: 0.339788984, 113: 0.0, 114: 0.0, 115: 0.0, 116: 0.0, 117: 0.0, 118: 0.0, 119: 0.0, 120: 0.470174642, 121: 0.0, 122: 0.513853776, 123: 0.0, 124: 0.0, 125: 0.742844645, 126: 0.656010255, 127: 0.0, 128: 0.566319129, 129: 0.151644194, 130: 0.0, 131: 0.0, 132: 0.0, 133: 0.399598469, 134: 0.017388021, 135: 0.0, 136: 0.0, 137: 0.0, 138: 0.268047921, 139: 0.665862348, 140: 0.6421802170000001, 141: 0.640117164, 142: 0.0, 143: 0.100059007, 144: 0.320786714, 145: 0.315248711, 146: 0.0, 147: 0.3104204, 148: 0.039651587, 149: 0.131203383, 150: 0.0, 151: 0.0, 152: 0.0, 153: 0.0, 154: 0.31665976, 155: 0.5328872059999999, 156: 0.286247921, 157: 0.0, 158: 0.198038585, 159: 0.07097977699999999, 160: 0.0, 161: 0.02940559, 162: 0.0, 163: 0.823588437, 164: 0.0, 165: 0.141337499, 166: 0.0, 167: 0.0, 168: 0.080135048, 169: 0.0, 170: 0.664890337, 171: 0.0, 172: 0.691240584, 173: 0.670876646, 174: 0.709387819, 175: 0.726671353, 176: 0.0, 177: 0.0, 178: 0.0, 179: 0.506800944, 180: 0.0, 181: 0.0, 182: 0.0, 183: 0.0, 184: 0.0, 185: 0.0, 186: 0.0, 187: 0.0, 188: 0.0, 189: 0.0, 190: 0.490993406, 191: 0.0];
total_cost = 94.70362564;
total_earn = 37.676079705;
