production = [0: 0.0, 1: 0.0, 2: 0.0, 3: 0.0, 4: 0.0, 5: 0.0, 6: 0.0, 7: 0.0, 8: 0.0, 9: 0.0, 10: 0.0, 11: 0.0, 12: 0.0, 13: 0.0, 14: 0.0, 15: 0.0, 16: 0.0, 17: 0.0, 18: 0.0, 19: 0.0, 20: 0.0003, 21: 0.0005, 22: 0.0, 23: 0.0, 24: 0.0, 25: 0.0016, 26: 0.0, 27: 0.0, 28: 0.0, 29: 0.0, 30: 0.0, 31: 0.2343, 32: 0.0, 33: 0.3948, 34: 0.4644, 35: 0.4043, 36: 1.0088, 37: 1.1215, 38: 0.0, 39: 1.3358, 40: 1.4659, 41: 0.0, 42: 0.0, 43: 0.0, 44: 0.0, 45: 1.8992, 46: 0.0, 47: 2.0124, 48: 2.0546, 49: 1.7649, 50: 0.0, 51: 2.1483, 52: 2.2576, 53: 1.6298, 54: 1.9538, 55: 2.0929, 56: 2.0053, 57: 1.9691, 58: 1.840064583, 59: 1.2184, 60: 1.7733, 61: 1.6514, 62: 1.497, 63: 0.0, 64: 1.2347, 65: 0.0, 66: 1.1252, 67: 0.8975, 68: 0.0, 69: 0.6837, 70: 0.0, 71: 0.4185, 72: 0.0, 73: 0.0, 74: 0.0, 75: 0.0549, 76: 0.0464, 77: 0.0, 78: 0.0, 79: 0.0, 80: 0.0, 81: 0.0, 82: 0.0, 83: 0.0, 84: 0.0, 85: 0.0, 86: 0.0, 87: 0.0, 88: 0.0, 89: 0.0, 90: 0.0, 91: 0.0, 92: 0.0, 93: 0.0, 94: 0.0, 95: 0.0, 96: 0.0, 97: 0.0, 98: 0.0, 99: 0.0, 100: 0.0, 101: 0.0, 102: 0.0, 103: 0.0, 104: 0.0, 105: 0.0, 106: 0.0, 107: 0.0, 108: 0.0, 109: 0.0, 110: 0.0, 111: 0.0, 112: 0.0, 113: 0.0, 114: 0.0, 115: 0.0, 116: 0.0, 117: 0.0, 118: 0.0, 119: 0.0, 120: 0.0, 121: 0.001, 122: 0.0, 123: 0.0, 124: 0.057, 125: 0.0, 126: 0.118, 127: 0.0, 128: 0.0, 129: 0.3347, 130: 0.0, 131: 0.0, 132: 0.0, 133: 0.0, 134: 0.0, 135: 1.2303, 136: 1.127364583, 137: 0.0, 138: 0.0, 139: 0.0, 140: 0.0, 141: 1.7745, 142: 0.0, 143: 0.0, 144: 1.9403, 145: 0.0, 146: 0.0, 147: 0.0, 148: 1.9623, 149: 0.0, 150: 0.0, 151: 1.9115, 152: 1.8902, 153: 0.0, 154: 0.0, 155: 1.7477, 156: 1.626364583, 157: 0.0, 158: 0.0, 159: 1.3905, 160: 0.0, 161: 0.0, 162: 0.0, 163: 0.0, 164: 0.4507, 165: 0.0, 166: 0.5972, 167: 0.0, 168: 0.2502, 169: 0.0, 170: 0.0, 171: 0.0, 172: 0.0, 173: 0.0135, 174: 0.0, 175: 0.0, 176: 0.0, 177: 0.0, 178: 0.0, 179: 0.0, 180: 0.0, 181: 0.0, 182: 0.0, 183: 0.0, 184: 0.0, 185: 0.0, 186: 0.0, 187: 0.0, 188: 0.0, 189: 0.0, 190: 0.0, 191: 0.0];
buy = [0: 0.0, 1: 0.492864583, 2: 2.016864583, 3: 0.0, 4: 1.477264583, 5: 0.479664583, 6: 0.0, 7: 1.462964583, 8: 1.421564583, 9: 1.429264583, 10: 1.431364583, 11: 1.489664583, 12: 0.0, 13: 0.0, 14: 0.290564583, 15: 0.0, 16: 0.0, 17: 1.379664583, 18: 1.371464583, 19: 0.07706458300000001, 20: 1.878464583, 21: 0.0, 22: 0.0, 23: 1.583664583, 24: 0.454012262, 25: 1.385364583, 26: 0.948264583, 27: 1.409664583, 28: 0.0, 29: 0.0, 30: 0.0, 31: 0.0, 32: 0.0, 33: 1.727364583, 34: 0.799664583, 35: 0.0, 36: 0.256564583, 37: 0.0, 38: 0.0, 39: 0.0, 40: 0.0, 41: 1.131064583, 42: 1.114664583, 43: 1.161164583, 44: 1.158964583, 45: 0.0, 46: 0.0, 47: 0.0, 48: 0.0, 49: 0.0, 50: 1.170864583, 51: 0.0, 52: 0.0, 53: 0.0, 54: 0.0, 55: 0.0, 56: 0.0, 57: 0.0, 58: 0.0, 59: 0.0, 60: 0.174464583, 61: 0.0, 62: 0.0, 63: 0.380164583, 64: 0.0, 65: 1.148964583, 66: 0.0, 67: 0.0, 68: 0.0, 69: 0.0, 70: 0.141864583, 71: 0.0, 72: 0.130764583, 73: 1.132064583, 74: 1.135764583, 75: 0.0, 76: 1.081164583, 77: 0.127864583, 78: 0.0, 79: 1.118864583, 80: 0.0, 81: 0.0, 82: 0.127564583, 83: 1.119464583, 84: 0.0, 85: 1.144264583, 86: 0.146064583, 87: 1.146564583, 88: 0.0, 89: 0.136864583, 90: 0.0, 91: 0.0, 92: 0.0, 93: 1.327864583, 94: 0.0, 95: 0.353264583, 96: 1.348064583, 97: 1.308664583, 98: 1.339064583, 99: 0.0, 100: 0.0, 101: 1.314164583, 102: 0.310164583, 103: 1.303864583, 104: 0.0, 105: 1.305864583, 106: 0.0, 107: 0.313664583, 108: 1.312364583, 109: 1.301864583, 110: 1.306164583, 111: 0.0, 112: 0.0, 113: 1.316364583, 114: 0.018064583, 115: 0.281164583, 116: 1.353864583, 117: 0.032329058, 118: 0.0, 119: 1.309864583, 120: 0.267364583, 121: 0.0, 122: 0.0, 123: 0.0, 124: 1.069364583, 125: 0.130164583, 126: 0.0, 127: 0.133864583, 128: 1.133564583, 129: 0.7949645829999999, 130: 1.127864583, 131: 0.135164583, 132: 0.0, 133: 0.476251477, 134: 0.0, 135: 0.0, 136: 0.0, 137: 0.137864583, 138: 0.139364583, 139: 1.623064583, 140: 0.274864583, 141: 0.0, 142: 0.0, 143: 1.190864583, 144: 0.0, 145: 1.175364583, 146: 0.0, 147: 0.0, 148: 0.0, 149: 0.0, 150: 0.183564583, 151: 0.0, 152: 0.0, 153: 1.129664583, 154: 1.121864583, 155: 0.0, 156: 0.0, 157: 0.905064583, 158: 0.8786645830000001, 159: 0.0, 160: 0.182864583, 161: 0.127364583, 162: 1.137664583, 163: 1.138164583, 164: 0.0, 165: 0.130364583, 166: 0.0, 167: 0.0, 168: 0.0, 169: 0.127064583, 170: 0.0, 171: 0.40824928, 172: 1.137164583, 173: 1.122664583, 174: 0.0, 175: 1.116864583, 176: 1.114364583, 177: 0.0, 178: 0.0, 179: 1.300164583, 180: 1.355564583, 181: 0.0, 182: 1.372364583, 183: 0.374364583, 184: 1.279864583, 185: 1.249164583, 186: 1.256064583, 187: 0.0, 188: 0.0, 189: 0.0, 190: 0.136164583, 191: 1.422864583];
sell = [0: 0.410035417, 1: 0.0, 2: 0.0, 3: 0.382135417, 4: 0.0, 5: 0.0, 6: 0.423035417, 7: 0.0, 8: 0.0, 9: 0.0, 10: 0.0, 11: 0.0, 12: 0.496635417, 13: 0.501135417, 14: 0.0, 15: 0.480035417, 16: 0.519335417, 17: 0.0, 18: 0.0, 19: 0.0, 20: 0.0, 21: 0.120135417, 22: 0.217935417, 23: 0.0, 24: 0.0, 25: 0.0, 26: 0.0, 27: 0.0, 28: 0.772435417, 29: 0.772635417, 30: 0.773235417, 31: 0.115635417, 32: 0.782435417, 33: 0.0, 34: 0.0, 35: 0.124435417, 36: 0.0, 37: 0.992035417, 38: 0.7594354169999999, 39: 1.195835417, 40: 1.327435417, 41: 0.0, 42: 0.0, 43: 0.0, 44: 0.0, 45: 2.618335417, 46: 0.717735417, 47: 0.812535417, 48: 0.895335417, 49: 0.6183354170000001, 50: 0.0, 51: 0.978735417, 52: 3.002035417, 53: 2.389235417, 54: 2.162835417, 55: 0.936535417, 56: 1.563935417, 57: 1.665935417, 58: 0.0, 59: 1.164035417, 60: 0.0, 61: 2.111835417, 62: 0.058035417, 63: 0.0, 64: 1.996235417, 65: 0.0, 66: 1.876735417, 67: 1.655435417, 68: 0.759735417, 69: 1.441035417, 70: 0.0, 71: 0.281135417, 72: 0.0, 73: 0.0, 74: 0.0, 75: 0.827535417, 76: 0.0, 77: 0.0, 78: 0.780035417, 79: 0.0, 80: 0.772135417, 81: 0.771035417, 82: 0.0, 83: 0.0, 84: 0.762135417, 85: 0.0, 86: 0.0, 87: 0.0, 88: 0.763735417, 89: 0.0, 90: 0.7634354169999999, 91: 0.757135417, 92: 0.755535417, 93: 0.0, 94: 0.454642417, 95: 0.0, 96: 0.0, 97: 0.0, 98: 0.0, 99: 0.601435417, 100: 0.585135417, 101: 0.0, 102: 0.0, 103: 0.0, 104: 0.6001354169999999, 105: 0.0, 106: 0.5911354170000001, 107: 0.0, 108: 0.0, 109: 0.0, 110: 0.0, 111: 0.585135417, 112: 0.584935417, 113: 0.0, 114: 0.0, 115: 0.0, 116: 0.0, 117: 0.0, 118: 0.536835417, 119: 0.0, 120: 0.0, 121: 0.633635417, 122: 0.6324354170000001, 123: 0.0, 124: 0.0, 125: 0.0, 126: 0.882135417, 127: 0.0, 128: 0.0, 129: 0.0, 130: 0.0, 131: 0.0, 132: 0.764835417, 133: 0.0, 134: 0.770635417, 135: 2.001635417, 136: 0.0, 137: 0.0, 138: 0.0, 139: 0.0, 140: 0.0, 141: 0.568635417, 142: 0.6989354169999999, 143: 0.0, 144: 2.657735417, 145: 0.0, 146: 0.710635417, 147: 0.713135417, 148: 0.772935417, 149: 0.716435417, 150: 0.0, 151: 2.130632674, 152: 0.760535417, 153: 0.0, 154: 0.0, 155: 1.624335417, 156: 0.0, 157: 0.0, 158: 0.0, 159: 2.078835417, 160: 0.0, 161: 0.0, 162: 0.0, 163: 0.0, 164: 0.323035417, 165: 0.0, 166: 0.467035417, 167: 0.766935417, 168: 0.115335417, 169: 0.0, 170: 0.771635417, 171: 0.0, 172: 0.0, 173: 0.0, 174: 0.784135417, 175: 0.0, 176: 0.0, 177: 0.775635417, 178: 0.758635417, 179: 0.0, 180: 0.0, 181: 0.535135417, 182: 0.0, 183: 0.0, 184: 0.0, 185: 0.0, 186: 0.0, 187: 0.648835417, 188: 0.649635417, 189: 0.765135417, 190: 0.0, 191: 0.0];
charge = [0: 0.0, 1: 0.0, 2: 1.0, 3: 0.0, 4: 1.0, 5: 0.0, 6: 0.0, 7: 1.0, 8: 1.0, 9: 1.0, 10: 1.0, 11: 1.0, 12: 0.0, 13: 0.0, 14: 0.0, 15: 0.0, 16: 0.0, 17: 1.0, 18: 1.0, 19: 0.0, 20: 1.0, 21: 0.0, 22: 0.0, 23: 1.0, 24: 0.0, 25: 1.0, 26: 0.0, 27: 1.0, 28: 0.0, 29: 0.0, 30: 0.0, 31: 0.0, 32: 0.0, 33: 1.0, 34: 1.0, 35: 0.0, 36: 1.0, 37: 0.0, 38: 0.0, 39: 0.0, 40: 0.0, 41: 1.0, 42: 1.0, 43: 1.0, 44: 1.0, 45: 0.0, 46: 0.0, 47: 1.0, 48: 1.0, 49: 1.0, 50: 1.0, 51: 1.0, 52: 0.0, 53: 0.0, 54: 0.0, 55: 1.0, 56: 0.0, 57: 0.0, 58: 1.0, 59: 0.0, 60: 1.0, 61: 0.0, 62: 1.0, 63: 0.0, 64: 0.0, 65: 1.0, 66: 0.0, 67: 0.0, 68: 0.0, 69: 0.0, 70: 0.0, 71: 0.0, 72: 0.0, 73: 1.0, 74: 1.0, 75: 0.0, 76: 1.0, 77: 0.0, 78: 0.0, 79: 1.0, 80: 0.0, 81: 0.0, 82: 0.0, 83: 1.0, 84: 0.0, 85: 1.0, 86: 0.0, 87: 1.0, 88: 0.0, 89: 0.0, 90: 0.0, 91: 0.0, 92: 0.0, 93: 1.0, 94: 0.0, 95: 0.0, 96: 1.0, 97: 1.0, 98: 1.0, 99: 0.0, 100: 0.0, 101: 1.0, 102: 0.0, 103: 1.0, 104: 0.0, 105: 1.0, 106: 0.0, 107: 0.0, 108: 1.0, 109: 1.0, 110: 1.0, 111: 0.0, 112: 0.0, 113: 1.0, 114: 0.0, 115: 0.0, 116: 1.0, 117: 0.0, 118: 0.0, 119: 1.0, 120: 0.0, 121: 0.0, 122: 0.0, 123: 0.0, 124: 1.0, 125: 0.0, 126: 0.0, 127: 0.0, 128: 1.0, 129: 1.0, 130: 1.0, 131: 0.0, 132: 0.0, 133: 0.340886894, 134: 0.0, 135: 0.0, 136: 1.0, 137: 0.0, 138: 0.0, 139: 1.0, 140: 0.0, 141: 1.0, 142: 0.0, 143: 1.0, 144: 0.0, 145: 1.0, 146: 0.0, 147: 0.0, 148: 1.0, 149: 0.0, 150: 0.0, 151: 0.0, 152: 1.0, 153: 1.0, 154: 1.0, 155: 0.0, 156: 1.0, 157: 0.0, 158: 0.0, 159: 0.0, 160: 0.0, 161: 0.0, 162: 1.0, 163: 1.0, 164: 0.0, 165: 0.0, 166: 0.0, 167: 0.0, 168: 0.0, 169: 0.0, 170: 0.0, 171: 0.280384697, 172: 1.0, 173: 1.0, 174: 0.0, 175: 1.0, 176: 1.0, 177: 0.0, 178: 0.0, 179: 1.0, 180: 1.0, 181: 0.0, 182: 1.0, 183: 0.0, 184: 1.0, 185: 1.0, 186: 1.0, 187: 0.0, 188: 0.0, 189: 0.0, 190: 0.0, 191: 1.0];
discharge = [0: 1.0, 1: 0.0, 2: 0.0, 3: 1.0, 4: 0.0, 5: 0.0, 6: 1.0, 7: 0.0, 8: 0.0, 9: 0.0, 10: 0.0, 11: 0.0, 12: 1.0, 13: 1.0, 14: 1.0, 15: 1.0, 16: 1.0, 17: 0.0, 18: 0.0, 19: 1.0, 20: 0.0, 21: 1.0, 22: 1.0, 23: 0.0, 24: 0.034835913, 25: 0.0, 26: 0.0, 27: 0.0, 28: 1.0, 29: 1.0, 30: 1.0, 31: 0.0, 32: 1.0, 33: 0.0, 34: 0.0, 35: 0.0, 36: 0.0, 37: 0.0, 38: 1.0, 39: 0.0, 40: 0.0, 41: 0.0, 42: 0.0, 43: 0.0, 44: 0.0, 45: 1.0, 46: 1.0, 47: 0.0, 48: 0.0, 49: 0.0, 50: 0.0, 51: 0.0, 52: 1.0, 53: 1.0, 54: 1.0, 55: 0.0, 56: 0.0, 57: 1.0, 58: 0.0, 59: 1.0, 60: 0.0, 61: 1.0, 62: 0.0, 63: 0.0, 64: 1.0, 65: 0.0, 66: 1.0, 67: 1.0, 68: 1.0, 69: 1.0, 70: 0.0, 71: 0.0, 72: 0.0, 73: 0.0, 74: 0.0, 75: 1.0, 76: 0.0, 77: 0.0, 78: 1.0, 79: 0.0, 80: 1.0, 81: 1.0, 82: 0.0, 83: 0.0, 84: 1.0, 85: 0.0, 86: 0.0, 87: 0.0, 88: 1.0, 89: 0.0, 90: 1.0, 91: 1.0, 92: 1.0, 93: 0.0, 94: 0.89823, 95: 0.0, 96: 0.0, 97: 0.0, 98: 0.0, 99: 1.0, 100: 1.0, 101: 0.0, 102: 0.0, 103: 0.0, 104: 1.0, 105: 0.0, 106: 1.0, 107: 0.0, 108: 0.0, 109: 0.0, 110: 0.0, 111: 1.0, 112: 1.0, 113: 0.0, 114: 1.0, 115: 0.0, 116: 0.0, 117: 0.374261695, 118: 1.0, 119: 0.0, 120: 0.0, 121: 1.0, 122: 1.0, 123: 0.297293981, 124: 0.0, 125: 0.0, 126: 1.0, 127: 0.0, 128: 0.0, 129: 0.0, 130: 0.0, 131: 0.0, 132: 1.0, 133: 0.0, 134: 1.0, 135: 1.0, 136: 0.0, 137: 0.0, 138: 0.0, 139: 0.0, 140: 0.0, 141: 0.0, 142: 1.0, 143: 0.0, 144: 1.0, 145: 0.0, 146: 1.0, 147: 1.0, 148: 0.0, 149: 1.0, 150: 0.0, 151: 0.387219175, 152: 0.0, 153: 0.0, 154: 0.0, 155: 0.0, 156: 0.0, 157: 0.0, 158: 0.0, 159: 1.0, 160: 0.0, 161: 0.0, 162: 0.0, 163: 0.0, 164: 0.0, 165: 0.0, 166: 0.0, 167: 1.0, 168: 0.0, 169: 0.0, 170: 1.0, 171: 0.0, 172: 0.0, 173: 0.0, 174: 1.0, 175: 0.0, 176: 0.0, 177: 1.0, 178: 1.0, 179: 0.0, 180: 0.0, 181: 1.0, 182: 0.0, 183: 0.0, 184: 0.0, 185: 0.0, 186: 0.0, 187: 1.0, 188: 1.0, 189: 1.0, 190: 0.0, 191: 0.0];
soc = [0: 6.518496, 1: 6.517192301, 2: 7.415888862, 3: 6.414405685, 4: 7.313122803, 5: 7.311660179, 6: 6.310197847, 7: 7.208935807, 8: 8.107494020000001, 9: 9.005872521000001, 10: 9.904071347, 11: 10.802090533, 12: 9.799930114, 13: 8.797970127999999, 14: 7.796210534, 15: 6.794651292, 16: 5.793292362, 17: 6.692133704, 18: 7.590795277, 19: 6.589277118, 20: 7.487959262, 21: 6.48646167, 22: 5.485164378, 23: 6.384067345, 24: 6.347954619, 25: 7.246685028, 26: 7.245235691, 27: 8.143786644, 28: 7.142157887, 29: 6.140729455, 30: 5.139501309, 31: 5.138473409, 32: 4.137445714, 33: 5.036618225, 34: 5.935610901, 35: 5.934423779, 36: 6.833236895, 37: 6.831870247, 38: 5.830503873, 39: 5.829337772, 40: 5.828171905, 41: 6.72700627, 42: 7.625660869, 43: 8.524135737, 44: 9.422430909999999, 45: 8.420546423999999, 46: 7.418862314, 47: 8.317378542, 48: 9.215715066, 49: 10.113871923, 50: 11.011849149, 51: 11.909646779, 52: 10.90726485, 53: 9.905083397, 54: 8.90310238, 55: 9.801321759, 56: 9.799361494999999, 57: 8.797401623000001, 58: 9.695642142000001, 59: 8.693703014, 60: 9.591964273, 61: 8.590045881, 62: 9.488327870999999, 63: 9.486430206, 64: 8.484532919999999, 65: 9.382836013, 66: 8.380959446, 67: 7.379283254, 68: 6.377807397, 69: 5.376531836, 70: 5.37545653, 71: 5.374381438, 72: 5.373306562, 73: 6.272231901, 74: 7.170977454, 75: 6.169543259, 76: 7.06830935, 77: 7.066895688, 78: 6.065482309, 79: 6.964269213, 80: 5.962876359, 81: 4.961683784, 82: 4.960691447, 83: 5.859699309, 84: 4.858527369, 85: 5.757555663, 86: 5.756404152, 87: 6.655252871, 88: 5.653921821, 89: 5.652791036, 90: 4.651660478, 91: 3.650730146, 92: 2.65, 93: 3.54947, 94: 2.650530106, 95: 2.65, 96: 3.54947, 97: 4.448760106, 98: 5.347870354, 99: 4.34680078, 100: 3.34593142, 101: 4.245262233, 102: 4.244413181, 103: 5.143564298, 104: 4.142535586, 105: 5.041707078, 106: 4.040698737, 107: 4.039890597, 108: 4.939082619, 109: 5.838094803, 110: 6.736927184, 111: 5.735579798, 112: 4.734432682, 113: 5.633485796, 114: 4.632359099, 115: 4.631432627, 116: 5.53050634, 117: 5.155138544, 118: 4.154107516, 119: 5.053276695, 120: 5.052266039, 121: 4.051255586, 122: 3.050445335, 123: 2.752541264, 124: 3.651990756, 125: 3.651260358, 126: 2.650530106, 127: 2.65, 128: 3.54947, 129: 4.448760106, 130: 5.347870354, 131: 5.34680078, 132: 4.34573142, 133: 4.651660478, 134: 3.650730146, 135: 2.65, 136: 3.54947, 137: 3.548760106, 138: 3.548050354, 139: 4.447340744, 140: 4.446451276, 141: 5.345561986, 142: 4.344492873, 143: 5.243623975, 144: 4.24257525, 145: 5.141726735, 146: 4.140698389, 147: 3.13987025, 148: 4.039242276, 149: 3.038434427, 150: 3.03782674, 151: 2.65, 152: 3.54947, 153: 4.448760106, 154: 5.347870354, 155: 5.34680078, 156: 6.24573142, 157: 6.244482273, 158: 6.243233377, 159: 5.24198473, 160: 5.240936333, 161: 5.239888146, 162: 6.138840168, 163: 7.0376124, 164: 7.036204878, 165: 7.034797637, 166: 7.033390677, 167: 6.031983999, 168: 6.030777603, 169: 6.029571447, 170: 5.028365533, 171: 5.279706087, 172: 6.178650146, 173: 7.077414416, 174: 6.075998933, 175: 6.974783733, 176: 7.873388776, 177: 6.871814099, 178: 5.870439736, 179: 6.769265648, 180: 7.667911795, 181: 6.666378212, 182: 7.565044937, 183: 7.563531928, 184: 8.462019221, 185: 9.360326818000001, 186: 10.258454752, 187: 9.256403061, 188: 8.254551781, 189: 7.25290087, 190: 7.25145029, 191: 8.15];
cost = [0: 0.0, 1: 0.301090974, 2: 1.350280739, 3: 0.0, 4: 1.020639099, 5: 0.293027094, 6: 0.0, 7: 1.011903229, 8: 0.986611969, 9: 0.9913158989999999, 10: 0.992598789, 11: 1.028214259, 12: 0.0, 13: 0.0, 14: 0.177505904, 15: 0.0, 16: 0.0, 17: 0.961015259, 18: 0.956005879, 19: 0.047078754, 20: 1.265732179, 21: 0.0, 22: 0.0, 23: 1.085638859, 24: 0.540092987, 25: 1.766207874, 26: 1.128055548, 27: 1.795115154, 28: 0.0, 29: 0.0, 30: 0.0, 31: 0.0, 32: 0.0, 33: 2.173051074, 34: 1.069459154, 35: 0.0, 36: 0.423387394, 37: 0.0, 38: 0.0, 39: 0.0, 40: 0.0, 41: 1.463692594, 42: 1.444183154, 43: 1.499499554, 44: 1.496882434, 45: 0.0, 46: 0.0, 47: 0.118178165, 48: 0.118178165, 49: 0.118178165, 50: 1.511038674, 51: 0.118178165, 52: 0.0, 53: 0.0, 54: 0.0, 55: 0.118178165, 56: 0.0, 57: 0.0, 58: 0.118178165, 59: 0.0, 60: 0.325721234, 61: 0.0, 62: 0.118178165, 63: 0.452243788, 64: 0.0, 65: 1.484986434, 66: 0.0, 67: 0.0, 68: 0.0, 69: 0.0, 70: 0.168762108, 71: 0.0, 72: 0.155557548, 73: 1.464882194, 74: 1.469283714, 75: 0.0, 76: 1.404331554, 77: 0.152107708, 78: 0.0, 79: 1.449179474, 80: 0.0, 81: 0.0, 82: 0.151750828, 83: 1.449893234, 84: 0.0, 85: 1.479395314, 86: 0.173758428, 87: 1.482131394, 88: 0.0, 89: 0.08361057399999999, 90: 0.0, 91: 0.0, 92: 0.0, 93: 0.9293706390000001, 94: 0.0, 95: 0.215809334, 96: 0.941710819, 97: 0.917641359, 98: 0.936212719, 99: 0.0, 100: 0.0, 101: 0.921001309, 102: 0.189479544, 103: 0.914709039, 104: 0.0, 105: 0.9159308390000001, 106: 0.0, 107: 0.191617694, 108: 0.919901689, 109: 0.913487239, 110: 0.916114109, 111: 0.0, 112: 0.0, 113: 0.922345289, 114: 0.011035654, 115: 0.171763444, 116: 0.945254039, 117: 0.019749821, 118: 0.0, 119: 0.918374439, 120: 0.318056908, 121: 0.0, 122: 0.0, 123: 0.0, 124: 1.390294274, 125: 0.154843788, 126: 0.0, 127: 0.159245308, 128: 1.466666594, 129: 1.063868034, 130: 1.459885874, 131: 0.160791788, 132: 0.0, 133: 0.606834145, 134: 0.0, 135: 0.0, 136: 0.118178165, 137: 0.164003708, 138: 0.165788108, 139: 2.048975794, 140: 0.326978908, 141: 0.118178165, 142: 0.0, 143: 1.534830674, 144: 0.0, 145: 1.516391874, 146: 0.0, 147: 0.0, 148: 0.118178165, 149: 0.0, 150: 0.112139604, 151: 0.0, 152: 0.118178165, 153: 0.808290259, 154: 0.8035252389999999, 155: 0.0, 156: 0.118178165, 157: 1.076664828, 158: 1.045259388, 159: 0.0, 160: 0.217535708, 161: 0.151512908, 162: 1.471543954, 163: 1.472138754, 164: 0.0, 165: 0.155081708, 166: 0.0, 167: 0.0, 168: 0.0, 169: 0.151156028, 170: 0.0, 171: 0.518788693, 172: 1.470949154, 173: 1.453699954, 174: 0.0, 175: 1.446800274, 176: 1.443826274, 177: 0.0, 178: 0.0, 179: 1.664853954, 180: 1.730757794, 181: 0.0, 182: 1.750743074, 183: 0.445344108, 184: 0.9000474389999999, 185: 0.881292809, 186: 0.885508019, 187: 0.0, 188: 0.0, 189: 0.0, 190: 0.08318294399999999, 191: 0.987406139];
earn = [0: 0.319089561, 1: 0.0, 2: 0.0, 3: 0.265125552, 4: 0.0, 5: 0.0, 6: 0.286648798, 7: 0.0, 8: 0.0, 9: 0.0, 10: 0.0, 11: 0.0, 12: 0.326984758, 13: 0.335810843, 14: 0.0, 15: 0.329352299, 16: 0.354082887, 17: 0.0, 18: 0.0, 19: 0.0, 20: 0.0, 21: 0.09016163000000001, 22: 0.168551251, 23: 0.0, 24: 0.0, 25: 0.0, 26: 0.0, 27: 0.0, 28: 0.830368073, 29: 0.820538813, 30: 0.804164833, 31: 0.116213594, 32: 0.621879669, 33: 0.0, 34: 0.0, 35: 0.107748627, 36: 0.0, 37: 0.757617448, 38: 0.568741184, 39: 0.816157672, 40: 0.8698684290000001, 41: 0.0, 42: 0.0, 43: 0.0, 44: 0.0, 45: 1.2154313, 46: 0.343867038, 47: 0.327208012, 48: 0.368967725, 49: 0.257598535, 50: 0.0, 51: 0.407741175, 52: 1.087337228, 53: 0.795854317, 54: 0.681076873, 55: 0.275060452, 56: 0.498582611, 57: 0.508610083, 58: 0.0, 59: 0.382618441, 60: 0.0, 61: 0.858249913, 62: 0.02312131, 63: 0.0, 64: 0.964780577, 65: 0.0, 66: 0.982283317, 67: 0.958828193, 68: 0.497170857, 69: 0.942293059, 70: 0.0, 71: 0.202333159, 72: 0.0, 73: 0.0, 74: 0.0, 75: 0.744037093, 76: 0.0, 77: 0.0, 78: 0.847118463, 79: 0.0, 80: 0.800704427, 81: 0.789540267, 82: 0.0, 83: 0.0, 84: 0.662448104, 85: 0.0, 86: 0.0, 87: 0.0, 88: 0.632525672, 89: 0.0, 90: 0.605022568, 91: 0.578148604, 92: 0.563100546, 93: 0.0, 94: 0.320477439, 95: 0.0, 96: 0.0, 97: 0.0, 98: 0.0, 99: 0.384317231, 100: 0.373374909, 101: 0.0, 102: 0.0, 103: 0.0, 104: 0.363742076, 105: 0.0, 106: 0.35367632, 107: 0.0, 108: 0.0, 109: 0.0, 110: 0.0, 111: 0.343591517, 112: 0.339788984, 113: 0.0, 114: 0.0, 115: 0.0, 116: 0.0, 117: 0.0, 118: 0.342608363, 119: 0.0, 120: 0.0, 121: 0.498671073, 122: 0.513853776, 123: 0.0, 124: 0.0, 125: 0.0, 126: 0.757313255, 127: 0.0, 128: 0.0, 129: 0.0, 130: 0.0, 131: 0.0, 132: 0.427848932, 133: 0.0, 134: 0.396029541, 135: 0.96699007, 136: 0.0, 137: 0.0, 138: 0.0, 139: 0.0, 140: 0.0, 141: 0.147447164, 142: 0.137131129, 143: 0.0, 144: 0.485036714, 145: 0.0, 146: 0.083499661, 147: 0.08336552999999999, 148: 0.039651587, 149: 0.035248623, 150: 0.0, 151: 0.103548748, 152: 0.086092609, 153: 0.0, 154: 0.0, 155: 0.342897206, 156: 0.0, 157: 0.0, 158: 0.0, 159: 0.825089777, 160: 0.0, 161: 0.0, 162: 0.0, 163: 0.0, 164: 0.187102113, 165: 0.0, 166: 0.28166906, 167: 0.471358507, 168: 0.080135048, 169: 0.0, 170: 0.569466938, 171: 0.0, 172: 0.0, 173: 0.0, 174: 0.707133319, 175: 0.0, 176: 0.0, 177: 0.676664338, 178: 0.657129998, 179: 0.0, 180: 0.0, 181: 0.412107784, 182: 0.0, 183: 0.0, 184: 0.0, 185: 0.0, 186: 0.0, 187: 0.434200661, 188: 0.419339661, 189: 0.483565583, 190: 0.0, 191: 0.0];
total_cost = 92.022071805;
total_earn = 41.721931083;
