production = [0: 0.0, 1: 0.0, 2: 0.0, 3: 0.0, 4: 0.0, 5: 0.0, 6: 0.0, 7: 0.0, 8: 0.0, 9: 0.0, 10: 0.0, 11: 0.0, 12: 0.0, 13: 0.0, 14: 0.0, 15: 0.0, 16: 0.0, 17: 0.0, 18: 0.0, 19: 0.0, 20: 0.0, 21: 0.0, 22: 0.0008, 23: 0.0011, 24: 0.0013, 25: 0.0, 26: 0.008399999999999999, 27: 0.0, 28: 0.0, 29: 0.0, 30: 0.148, 31: 0.2343, 32: 0.0, 33: 0.0, 34: 0.0, 35: 0.0, 36: 1.0088, 37: 1.1215, 38: 0.0, 39: 0.0, 40: 1.4659, 41: 1.5614, 42: 0.0, 43: 1.7736, 44: 1.7834, 45: 0.0, 46: 1.9631, 47: 0.0, 48: 2.0546, 49: 1.7649, 50: 2.2048, 51: 0.0, 52: 2.2576, 53: 1.6298, 54: 1.9538, 55: 1.156364583, 56: 0.0, 57: 1.9691, 58: 1.9098, 59: 1.2184, 60: 1.7733, 61: 0.0, 62: 0.438964583, 63: 0.0, 64: 1.2347, 65: 0.0, 66: 1.1252, 67: 0.8975, 68: 0.5787, 69: 0.6837, 70: 0.5309, 71: 0.4185, 72: 0.0, 73: 0.0, 74: 0.0, 75: 0.0, 76: 0.0, 77: 0.0219, 78: 0.0037, 79: 0.0016, 80: 0.0, 81: 0.0, 82: 0.0, 83: 0.0, 84: 0.0, 85: 0.0, 86: 0.0, 87: 0.0, 88: 0.0, 89: 0.0, 90: 0.0, 91: 0.0, 92: 0.0, 93: 0.0, 94: 0.0, 95: 0.0, 96: 0.0, 97: 0.0, 98: 0.0, 99: 0.0, 100: 0.0, 101: 0.0, 102: 0.0, 103: 0.0, 104: 0.0, 105: 0.0, 106: 0.0, 107: 0.0, 108: 0.0, 109: 0.0, 110: 0.0, 111: 0.0, 112: 0.0, 113: 0.0, 114: 0.0, 115: 0.0, 116: 0.0, 117: 0.0, 118: 0.0, 119: 0.0005, 120: 0.0, 121: 0.001, 122: 0.008800000000000001, 123: 0.0, 124: 0.057, 125: 0.08450000000000001, 126: 0.0, 127: 0.1752, 128: 0.1963, 129: 0.0, 130: 0.5723, 131: 0.8383, 132: 0.9507, 133: 0.0, 134: 0.0, 135: 1.2303, 136: 0.0, 137: 1.137864583, 138: 1.5545, 139: 0.0, 140: 1.7203, 141: 0.0, 142: 1.8447, 143: 1.8927, 144: 1.9403, 145: 1.9652, 146: 0.0, 147: 0.0, 148: 0.0, 149: 1.9503, 150: 0.0, 151: 0.0, 152: 1.8902, 153: 0.0, 154: 1.7982, 155: 1.7477, 156: 1.665, 157: 0.0, 158: 0.0, 159: 0.0, 160: 1.2275, 161: 0.0, 162: 0.0, 163: 0.8117, 164: 0.0, 165: 0.0, 166: 0.0, 167: 0.0, 168: 0.0, 169: 0.1995, 170: 0.0, 171: 0.103, 172: 0.0, 173: 0.0135, 174: 0.0, 175: 0.0, 176: 0.0003, 177: 0.0, 178: 0.0, 179: 0.0, 180: 0.0, 181: 0.0, 182: 0.0, 183: 0.0, 184: 0.0, 185: 0.0, 186: 0.0, 187: 0.0, 188: 0.0, 189: 0.0, 190: 0.0, 191: 0.0];
buy = [0: 0.0, 1: 0.0, 2: 0.116864583, 3: 1.517864583, 4: 0.0, 5: 0.479664583, 6: 0.0, 7: 1.462964583, 8: 0.0, 9: 0.0, 10: 0.431953472, 11: 1.489664583, 12: 0.403364583, 13: 1.398864583, 14: 2.190564583, 15: 1.419964583, 16: 1.380664583, 17: 0.379664583, 18: 1.371464583, 19: 1.977064583, 20: 1.878764583, 21: 0.768410323, 22: 1.681264583, 23: 0.0, 24: 1.484064583, 25: 1.386964583, 26: 0.939864583, 27: 0.0, 28: 0.127564583, 29: 1.127364583, 30: 0.0, 31: 0.884364583, 32: 1.117564583, 33: 1.122164583, 34: 0.264064583, 35: 0.279864583, 36: 0.0, 37: 0.007964583000000001, 38: 1.140564583, 39: 0.0, 40: 0.0, 41: 0.0, 42: 1.114664583, 43: 0.0, 44: 0.0, 45: 0.0, 46: 0.0, 47: 1.199864583, 48: 0.0, 49: 0.0, 50: 0.0, 51: 1.169564583, 52: 0.0, 53: 0.0, 54: 0.0, 55: 0.0, 56: 0.0, 57: 0.234064583, 58: 0.0, 59: 0.0, 60: 0.0, 61: 0.0, 62: 0.0, 63: 1.380164583, 64: 0.0, 65: 1.148964583, 66: 0.0, 67: 0.0, 68: 0.561564583, 69: 0.458964583, 70: 0.0, 71: 0.718864583, 72: 0.0, 73: 1.132064583, 74: 1.135764583, 75: 1.127364583, 76: 0.0, 77: 0.0, 78: 0.0, 79: 0.0, 80: 1.127864583, 81: 0.0, 82: 1.127564583, 83: 1.119464583, 84: 0.137864583, 85: 0.0, 86: 0.878921594, 87: 0.146564583, 88: 1.136264583, 89: 0.136864583, 90: 1.136564583, 91: 0.0, 92: 0.0, 93: 0.327864583, 94: 1.353764583, 95: 1.353264583, 96: 0.0, 97: 0.0, 98: 0.0, 99: 0.0, 100: 0.0, 101: 0.0, 102: 0.0, 103: 0.303864583, 104: 1.299864583, 105: 0.305864583, 106: 1.308864583, 107: 1.313664583, 108: 0.0, 109: 0.301864583, 110: 0.0, 111: 0.314864583, 112: 0.0, 113: 0.316364583, 114: 0.018064583, 115: 0.0, 116: 1.353864583, 117: 1.369164583, 118: 0.363164583, 119: 0.0, 120: 0.0, 121: 0.0, 122: 0.258764583, 123: 0.0, 124: 0.0, 125: 0.045664583, 126: 0.0, 127: 0.958664583, 128: 0.0, 129: 1.129664583, 130: 0.555564583, 131: 0.296864583, 132: 0.0, 133: 0.0, 134: 0.0, 135: 0.0, 136: 0.990358994, 137: 0.0, 138: 0.0, 139: 0.0, 140: 0.0, 141: 0.0, 142: 0.0, 143: 0.0, 144: 0.0, 145: 0.0, 146: 1.189364583, 147: 0.186864583, 148: 0.0, 149: 0.0, 150: 1.183564583, 151: 1.129364583, 152: 0.0, 153: 1.129664583, 154: 0.0, 155: 0.0, 156: 0.0, 157: 1.905064583, 158: 0.0, 159: 1.211664583, 160: 0.0, 161: 1.127364583, 162: 1.137664583, 163: 0.326464583, 164: 0.127664583, 165: 1.130364583, 166: 1.130164583, 167: 1.133064583, 168: 1.134864583, 169: 0.927564583, 170: 0.128364583, 171: 0.024864583, 172: 0.137164583, 173: 1.122664583, 174: 0.115864583, 175: 0.0, 176: 1.114064583, 177: 0.0, 178: 1.141364583, 179: 1.300164583, 180: 0.711871175, 181: 0.364864583, 182: 0.372364583, 183: 0.0, 184: 0.0, 185: 0.0, 186: 1.256064583, 187: 0.0, 188: 0.0, 189: 0.0, 190: 0.0, 191: 0.422864583];
sell = [0: 0.410035417, 1: 0.407135417, 2: 0.0, 3: 0.0, 4: 0.422735417, 5: 0.0, 6: 0.423035417, 7: 0.0, 8: 0.478435417, 9: 0.164852584, 10: 0.0, 11: 0.0, 12: 0.0, 13: 0.0, 14: 0.0, 15: 0.0, 16: 0.0, 17: 0.0, 18: 0.0, 19: 0.0, 20: 0.0, 21: 0.0, 22: 0.0, 23: 0.317435417, 24: 0.0, 25: 0.0, 26: 0.0, 27: 0.490335417, 28: 0.0, 29: 0.0, 30: 0.021235417, 31: 0.0, 32: 0.0, 33: 0.0, 34: 0.0, 35: 0.0, 36: 1.643435417, 37: 0.0, 38: 0.0, 39: 0.760035417, 40: 1.327435417, 41: 0.430335417, 42: 0.0, 43: 0.612435417, 44: 2.524435417, 45: 0.7191354170000001, 46: 1.780835417, 47: 0.0, 48: 2.795335417, 49: 1.618335417, 50: 1.668878435, 51: 0.0, 52: 2.102035417, 53: 0.489235417, 54: 2.162835417, 55: 0.0, 56: 0.458635417, 57: 0.0, 58: 1.969735417, 59: 1.164035417, 60: 0.825535417, 61: 0.460435417, 62: 0.0, 63: 0.0, 64: 1.096235417, 65: 0.0, 66: 1.876735417, 67: 1.655435417, 68: 0.0, 69: 0.0, 70: 1.234244723, 71: 0.0, 72: 0.769235417, 73: 0.0, 74: 0.0, 75: 0.0, 76: 0.772435417, 77: 0.0, 78: 0.783735417, 79: 0.782735417, 80: 0.0, 81: 0.771035417, 82: 0.0, 83: 0.0, 84: 0.0, 85: 0.755735417, 86: 0.0, 87: 0.0, 88: 0.0, 89: 0.0, 90: 0.0, 91: 0.563981256, 92: 0.755535417, 93: 0.0, 94: 0.0, 95: 0.0, 96: 0.551935417, 97: 0.591335417, 98: 0.560935417, 99: 0.601435417, 100: 0.585135417, 101: 0.585835417, 102: 0.589835417, 103: 0.0, 104: 0.0, 105: 0.0, 106: 0.0, 107: 0.0, 108: 0.587635417, 109: 0.0, 110: 0.593835417, 111: 0.0, 112: 0.584935417, 113: 0.0, 114: 0.0, 115: 0.618835417, 116: 0.0, 117: 0.0, 118: 0.0, 119: 0.590635417, 120: 0.0, 121: 0.633635417, 122: 0.0, 123: 0.6324354170000001, 124: 0.830635417, 125: 0.0, 126: 0.764135417, 127: 0.0, 128: 0.962735417, 129: 0.0, 130: 0.0, 131: 0.0, 132: 0.815535417, 133: 0.764635417, 134: 0.770634921, 135: 0.101635417, 136: 0.0, 137: 0.0, 138: 2.315135417, 139: 0.276935417, 140: 1.445435417, 141: 0.0, 142: 0.643635417, 143: 2.601835417, 144: 2.657735417, 145: 0.789835417, 146: 0.0, 147: 0.0, 148: 0.710635417, 149: 0.766735417, 150: 0.0, 151: 0.0, 152: 1.760535417, 153: 0.0, 154: 2.576335417, 155: 2.524335417, 156: 0.038635417, 157: 0.0, 158: 0.021335417, 159: 0.0, 160: 1.944635417, 161: 0.0, 162: 0.0, 163: 0.0, 164: 0.0, 165: 0.0, 166: 0.0, 167: 0.0, 168: 0.0, 169: 0.0, 170: 0.0, 171: 0.0, 172: 0.0, 173: 0.0, 174: 0.0, 175: 0.783135417, 176: 0.0, 177: 0.0, 178: 0.0, 179: 0.0, 180: 0.0, 181: 0.0, 182: 0.0, 183: 0.0, 184: 0.620135417, 185: 0.650835417, 186: 0.0, 187: 0.648835417, 188: 0.649635417, 189: 0.765135417, 190: 0.763835417, 191: 0.0];
charge = [0: 0.0, 1: 0.0, 2: 0.0, 3: 1.0, 4: 0.0, 5: 0.0, 6: 0.0, 7: 1.0, 8: 0.0, 9: 0.0, 10: 0.000588889, 11: 1.0, 12: 0.0, 13: 1.0, 14: 1.0, 15: 1.0, 16: 1.0, 17: 0.0, 18: 1.0, 19: 1.0, 20: 1.0, 21: 0.0, 22: 1.0, 23: 0.0, 24: 1.0, 25: 1.0, 26: 0.0, 27: 0.0, 28: 0.0, 29: 1.0, 30: 0.0, 31: 1.0, 32: 1.0, 33: 0.0, 34: 0.0, 35: 0.0, 36: 0.0, 37: 1.0, 38: 1.0, 39: 0.0, 40: 0.0, 41: 1.0, 42: 1.0, 43: 1.0, 44: 0.0, 45: 0.0, 46: 0.0, 47: 1.0, 48: 0.0, 49: 0.0, 50: 0.365056981, 51: 1.0, 52: 0.0, 53: 1.0, 54: 0.0, 55: 1.0, 56: 0.0, 57: 1.0, 58: 0.0, 59: 0.0, 60: 0.0, 61: 0.0, 62: 0.0, 63: 1.0, 64: 0.0, 65: 1.0, 66: 0.0, 67: 0.0, 68: 1.0, 69: 1.0, 70: 0.0, 71: 1.0, 72: 0.0, 73: 1.0, 74: 1.0, 75: 1.0, 76: 0.0, 77: 0.0, 78: 0.0, 79: 0.0, 80: 1.0, 81: 0.0, 82: 1.0, 83: 1.0, 84: 0.0, 85: 0.0, 86: 0.732857011, 87: 0.0, 88: 1.0, 89: 0.0, 90: 1.0, 91: 0.0, 92: 0.0, 93: 0.0, 94: 1.0, 95: 1.0, 96: 0.0, 97: 0.0, 98: 0.0, 99: 0.0, 100: 0.0, 101: 0.0, 102: 0.0, 103: 0.0, 104: 1.0, 105: 0.0, 106: 1.0, 107: 1.0, 108: 0.0, 109: 0.0, 110: 0.0, 111: 0.0, 112: 0.0, 113: 0.0, 114: 0.0, 115: 0.0, 116: 1.0, 117: 1.0, 118: 0.0, 119: 0.0, 120: 0.0, 121: 0.0, 122: 0.0, 123: 0.0, 124: 0.0, 125: 0.0, 126: 0.0, 127: 1.0, 128: 0.0, 129: 1.0, 130: 1.0, 131: 1.0, 132: 0.0, 133: 0.0, 134: 0.0, 135: 1.0, 136: 0.862994411, 137: 1.0, 138: 0.0, 139: 0.0, 140: 0.0, 141: 0.0, 142: 1.0, 143: 0.0, 144: 0.0, 145: 1.0, 146: 1.0, 147: 0.0, 148: 0.0, 149: 1.0, 150: 1.0, 151: 1.0, 152: 0.0, 153: 1.0, 154: 0.0, 155: 0.0, 156: 1.0, 157: 1.0, 158: 0.0, 159: 1.0, 160: 0.0, 161: 1.0, 162: 1.0, 163: 1.0, 164: 0.0, 165: 1.0, 166: 1.0, 167: 1.0, 168: 1.0, 169: 1.0, 170: 0.0, 171: 0.0, 172: 0.0, 173: 1.0, 174: 0.0, 175: 0.0, 176: 1.0, 177: 0.0, 178: 1.0, 179: 1.0, 180: 0.356306592, 181: 0.0, 182: 0.0, 183: 0.0, 184: 0.0, 185: 0.0, 186: 1.0, 187: 0.0, 188: 0.0, 189: 0.0, 190: 0.0, 191: 0.0];
discharge = [0: 1.0, 1: 1.0, 2: 1.0, 3: 0.0, 4: 1.0, 5: 0.0, 6: 1.0, 7: 0.0, 8: 1.0, 9: 0.660130186, 10: 0.0, 11: 0.0, 12: 0.0, 13: 0.0, 14: 0.0, 15: 0.0, 16: 0.0, 17: 0.0, 18: 0.0, 19: 0.0, 20: 0.0, 21: 0.013282511, 22: 0.0, 23: 1.0, 24: 0.0, 25: 0.0, 26: 0.0, 27: 1.0, 28: 0.0, 29: 0.0, 30: 0.0, 31: 0.0, 32: 0.0, 33: 0.0, 34: 0.0, 35: 0.0, 36: 1.0, 37: 0.0, 38: 0.0, 39: 1.0, 40: 0.0, 41: 0.0, 42: 0.0, 43: 0.0, 44: 1.0, 45: 1.0, 46: 0.0, 47: 0.0, 48: 1.0, 49: 0.0, 50: 0.0, 51: 0.0, 52: 0.0, 53: 0.0, 54: 1.0, 55: 0.0, 56: 1.0, 57: 0.0, 58: 1.0, 59: 1.0, 60: 0.0, 61: 1.0, 62: 0.0, 63: 0.0, 64: 0.0, 65: 0.0, 66: 1.0, 67: 1.0, 68: 0.0, 69: 0.0, 70: 0.939121451, 71: 0.0, 72: 1.0, 73: 0.0, 74: 0.0, 75: 0.0, 76: 1.0, 77: 0.117738426, 78: 1.0, 79: 1.0, 80: 0.0, 81: 1.0, 82: 0.0, 83: 0.0, 84: 0.0, 85: 1.0, 86: 0.0, 87: 0.0, 88: 0.0, 89: 0.0, 90: 0.0, 91: 0.785384266, 92: 1.0, 93: 0.0, 94: 0.0, 95: 0.0, 96: 1.0, 97: 1.0, 98: 1.0, 99: 1.0, 100: 1.0, 101: 1.0, 102: 1.0, 103: 0.0, 104: 0.0, 105: 0.0, 106: 0.0, 107: 0.0, 108: 1.0, 109: 0.0, 110: 1.0, 111: 0.0, 112: 1.0, 113: 0.0, 114: 1.0, 115: 1.0, 116: 0.0, 117: 0.0, 118: 0.0, 119: 1.0, 120: 0.297071759, 121: 1.0, 122: 0.0, 123: 1.0, 124: 1.0, 125: 0.0, 126: 1.0, 127: 0.0, 128: 1.0, 129: 0.0, 130: 0.0, 131: 0.0, 132: 0.0, 133: 1.0, 134: 1.0, 135: 0.0, 136: 0.0, 137: 0.0, 138: 1.0, 139: 1.0, 140: 0.0, 141: 0.228738426, 142: 0.0, 143: 1.0, 144: 1.0, 145: 0.0, 146: 0.0, 147: 0.0, 148: 1.0, 149: 0.0, 150: 0.0, 151: 0.0, 152: 0.0, 153: 0.0, 154: 1.0, 155: 1.0, 156: 0.0, 157: 0.0, 158: 1.0, 159: 0.0, 160: 1.0, 161: 0.0, 162: 0.0, 163: 0.0, 164: 0.0, 165: 0.0, 166: 0.0, 167: 0.0, 168: 0.0, 169: 0.0, 170: 0.0, 171: 0.0, 172: 0.0, 173: 0.0, 174: 0.0, 175: 1.0, 176: 0.0, 177: 0.13818287, 178: 0.0, 179: 0.0, 180: 0.0, 181: 0.0, 182: 0.0, 183: 0.415960648, 184: 1.0, 185: 1.0, 186: 0.0, 187: 1.0, 188: 1.0, 189: 1.0, 190: 1.0, 191: 0.0];
soc = [0: 6.518496, 1: 5.517192301, 2: 4.516088862, 3: 5.415185645, 4: 4.414102607, 5: 4.413219787, 6: 3.412337143, 7: 4.311654676, 8: 3.310792345, 9: 2.65, 10: 2.65, 11: 3.54947, 12: 3.548760106, 13: 4.448050354, 14: 5.347160744, 15: 6.246091312, 16: 7.144842093, 17: 7.143413125, 18: 8.041984442, 19: 8.940376046000001, 20: 9.838587970000001, 21: 9.823337741, 22: 10.721373074, 23: 9.719228799, 24: 10.617284954, 25: 11.515161497, 26: 11.512858464, 27: 10.510555893, 28: 10.508453781, 29: 11.406352091, 30: 11.40407082, 31: 12.301790006, 32: 13.199329648, 33: 13.196689782, 34: 13.194050444, 35: 13.191411634, 36: 12.188773352, 37: 13.086335597, 38: 13.98371833, 39: 12.980921586, 40: 12.978325402, 41: 13.875729737, 42: 14.772954591, 43: 15.67, 44: 14.666866, 45: 13.663932627, 46: 13.66119984, 47: 14.5584676, 48: 13.555555907, 49: 13.552844796, 50: 13.87868551, 51: 14.775909773, 52: 14.772954591, 53: 15.67, 54: 14.666866, 55: 15.563932627, 56: 14.56081984, 57: 15.457907676, 58: 14.454816095, 59: 13.451925132, 60: 13.449234747, 61: 12.4465449, 62: 12.444055591, 63: 13.341566779, 64: 13.338898466, 65: 14.236230686, 66: 13.23338344, 67: 12.230736764, 68: 13.128290616, 69: 14.025664958, 70: 13.083738374, 71: 13.981121626, 72: 12.978325402, 73: 13.875729737, 74: 14.772954591, 75: 15.67, 76: 14.666866, 77: 14.546194201, 78: 13.543284962, 79: 12.540576305, 80: 13.43806819, 81: 12.435380576, 82: 13.3328935, 83: 14.230226921, 84: 14.227380876, 85: 13.2245354, 86: 13.881461802, 87: 13.87868551, 88: 14.775909773, 89: 14.772954591, 90: 15.67, 91: 14.881481734, 92: 13.878505438, 93: 13.875729737, 94: 14.772954591, 95: 15.67, 96: 14.666866, 97: 13.663932627, 98: 12.66119984, 99: 11.6586676, 100: 10.656335867, 101: 9.6542046, 102: 8.652273759, 103: 8.650543303999999, 104: 9.548813194999999, 105: 9.546903433000001, 106: 10.444994052, 107: 11.342905053, 108: 10.340636472, 109: 10.338568345, 110: 9.336500631, 111: 9.334633330999999, 112: 8.332766403999999, 113: 8.331099850999999, 114: 7.329433631, 115: 6.327967744, 116: 7.226702151, 117: 8.12525681, 118: 8.123631759, 119: 7.122007033, 120: 6.823510872, 121: 5.82214617, 122: 5.820981741, 123: 4.819817544, 124: 3.818853581, 125: 3.81808981, 126: 2.817326192, 127: 3.716762727, 128: 2.716019374, 129: 3.61547617, 130: 4.514753075, 131: 5.413850125, 132: 5.412767355, 133: 4.411684801, 134: 3.410802464, 135: 4.310120304, 136: 5.08595325, 137: 5.984936059, 138: 4.983739072, 139: 3.982742324, 140: 3.981945775, 141: 3.75241096, 142: 4.651660478, 143: 3.650730146, 144: 2.65, 145: 3.54947, 146: 4.448760106, 147: 4.447870354, 148: 3.44698078, 149: 4.346291384, 150: 5.245422125, 151: 6.144373041, 152: 6.143144166, 153: 7.041915538, 154: 6.040507155, 155: 5.039299053, 156: 5.938291193, 157: 6.837103535, 158: 5.835736114, 159: 6.734568967, 160: 5.733222053, 161: 6.632075409, 162: 7.530748994, 163: 8.429242843999999, 164: 8.427556995, 165: 9.325871484, 166: 10.22400631, 167: 11.121961508, 168: 12.019737116, 169: 12.917333169, 170: 12.914749702, 171: 12.912166752, 172: 12.909584319, 173: 13.807002402, 174: 13.804241001, 175: 12.801480153, 176: 13.698919857, 177: 13.557997203, 178: 14.455285603, 179: 15.352394546, 180: 15.67, 181: 15.666866, 182: 15.663732627, 183: 15.244639232, 184: 14.241590304, 185: 13.238741986, 186: 14.136094238, 187: 13.133267019, 188: 12.130640366, 189: 11.128214237, 190: 10.125988595, 191: 10.123963397];
cost = [0: 0.0, 1: 0.0, 2: 0.071392574, 3: 1.045441639, 4: 0.0, 5: 0.293027094, 6: 0.0, 7: 1.011903229, 8: 0.0, 9: 0.0, 10: 0.26394997, 11: 1.028214259, 12: 0.246415424, 13: 0.972744539, 14: 1.456394069, 15: 0.985634529, 16: 0.961626159, 17: 0.231937094, 18: 0.956005879, 19: 1.325966919, 20: 1.265915449, 21: 0.469421866, 22: 1.145262699, 23: 0.0, 24: 1.883621394, 25: 1.768111234, 26: 1.118062908, 27: 0.0, 28: 0.151750828, 29: 1.459291074, 30: 0.0, 31: 1.170218274, 32: 1.447632994, 33: 1.334926988, 34: 0.314131228, 35: 0.332926908, 36: 0.0, 37: 0.127652834, 38: 1.474993794, 39: 0.0, 40: 0.0, 41: 0.118178165, 42: 1.444183154, 43: 0.118178165, 44: 0.0, 45: 0.0, 46: 0.0, 47: 1.545537074, 48: 0.0, 49: 0.0, 50: 0.043141764, 51: 1.509492194, 52: 0.0, 53: 0.118178165, 54: 0.0, 55: 0.118178165, 56: 0.0, 57: 0.261168219, 58: 0.0, 59: 0.0, 60: 0.0, 61: 0.0, 62: 0.0, 63: 1.760021954, 64: 0.0, 65: 1.484986434, 66: 0.0, 67: 0.0, 68: 0.786215394, 69: 0.664162434, 70: 0.0, 71: 0.973339474, 72: 0.0, 73: 1.464882194, 74: 1.469283714, 75: 1.459291074, 76: 0.0, 77: 0.0, 78: 0.0, 79: 0.0, 80: 1.459885874, 81: 0.0, 82: 1.459528994, 83: 1.449893234, 84: 0.164003708, 85: 0.0, 86: 1.132172825, 87: 0.174353228, 88: 0.812322199, 89: 0.08361057399999999, 90: 0.812505469, 91: 0.0, 92: 0.0, 93: 0.200292474, 94: 0.9451929489999999, 95: 0.944887499, 96: 0.0, 97: 0.0, 98: 0.0, 99: 0.0, 100: 0.0, 101: 0.0, 102: 0.0, 103: 0.185630874, 104: 0.912265439, 105: 0.186852674, 106: 0.917763539, 107: 0.9206958589999999, 108: 0.0, 109: 0.184409074, 110: 0.0, 111: 0.192350774, 112: 0.0, 113: 0.193267124, 114: 0.011035654, 115: 0.0, 116: 0.945254039, 117: 0.954600809, 118: 0.221857244, 119: 0.0, 120: 0.0, 121: 0.0, 122: 0.307826348, 123: 0.0, 124: 0.0, 125: 0.054322588, 126: 0.0, 127: 1.258605554, 128: 0.0, 129: 1.462027154, 130: 0.779077794, 131: 0.471328274, 132: 0.0, 133: 0.0, 134: 0.0, 135: 0.118178165, 136: 1.280118156, 137: 0.118178165, 138: 0.0, 139: 0.0, 140: 0.0, 141: 0.0, 142: 0.118178165, 143: 0.0, 144: 0.0, 145: 0.118178165, 146: 1.533046274, 147: 0.222294108, 148: 0.0, 149: 0.118178165, 150: 0.841217769, 151: 0.808106989, 152: 0.0, 153: 0.808290259, 154: 0.0, 155: 0.0, 156: 0.118178165, 157: 2.384442994, 158: 0.0, 159: 1.559574354, 160: 0.0, 161: 1.459291074, 162: 1.471543954, 163: 0.506540434, 164: 0.151869788, 165: 1.462859874, 166: 1.462621954, 167: 1.466071794, 168: 1.468213074, 169: 1.221608994, 170: 0.152702508, 171: 0.029578908, 172: 0.163170988, 173: 1.453699954, 174: 0.137832508, 175: 0.0, 176: 1.443469394, 177: 0.0, 178: 1.475945474, 179: 1.664853954, 180: 0.888949609, 181: 0.434042908, 182: 0.442964908, 183: 0.0, 184: 0.0, 185: 0.0, 186: 0.885508019, 187: 0.0, 188: 0.0, 189: 0.0, 190: 0.0, 191: 0.258327974];
earn = [0: 0.319089561, 1: 0.304333724, 2: 0.0, 3: 0.0, 4: 0.292025626, 5: 0.0, 6: 0.286648798, 7: 0.0, 8: 0.318255239, 9: 0.109346719, 10: 0.0, 11: 0.0, 12: 0.0, 13: 0.0, 14: 0.0, 15: 0.0, 16: 0.0, 17: 0.0, 18: 0.0, 19: 0.0, 20: 0.0, 21: 0.0, 22: 0.0, 23: 0.26109063, 24: 0.0, 25: 0.0, 26: 0.0, 27: 0.440174104, 28: 0.0, 29: 0.0, 30: 0.022084833, 31: 0.0, 32: 0.0, 33: 0.0, 34: 0.0, 35: 0.0, 36: 1.228796661, 37: 0.0, 38: 0.0, 39: 0.518724172, 40: 0.8698684290000001, 41: 0.245549389, 42: 0.0, 43: 0.31662911, 44: 1.229652491, 45: 0.33382266, 46: 0.853198248, 47: 0.0, 48: 1.151957725, 49: 0.674198535, 50: 0.697090522, 51: 0.0, 52: 0.7613572280000001, 53: 0.162964317, 54: 0.681076873, 55: 0.0, 56: 0.146212971, 57: 0.0, 58: 0.632088095, 59: 0.382618441, 60: 0.342266984, 61: 0.187120953, 62: 0.0, 63: 0.0, 64: 0.529810577, 65: 0.0, 66: 0.982283317, 67: 0.958828193, 68: 0.0, 69: 0.0, 70: 0.8259565679999999, 71: 0.0, 72: 0.593926665, 73: 0.0, 74: 0.0, 75: 0.0, 76: 0.784021948, 77: 0.0, 78: 0.851136663, 79: 0.861791694, 80: 0.0, 81: 0.789540267, 82: 0.0, 83: 0.0, 84: 0.0, 85: 0.657111945, 86: 0.0, 87: 0.0, 88: 0.0, 89: 0.0, 90: 0.0, 91: 0.430656087, 92: 0.563100546, 93: 0.0, 94: 0.0, 95: 0.0, 96: 0.384864566, 97: 0.393060651, 98: 0.361859437, 99: 0.384317231, 100: 0.373374909, 101: 0.364331046, 102: 0.362748781, 103: 0.0, 104: 0.0, 105: 0.0, 106: 0.0, 107: 0.0, 108: 0.343825482, 109: 0.0, 110: 0.346265431, 111: 0.0, 112: 0.339788984, 113: 0.0, 114: 0.0, 115: 0.367093169, 116: 0.0, 117: 0.0, 118: 0.0, 119: 0.401691147, 120: 0.0, 121: 0.498671073, 122: 0.0, 123: 0.518533798, 124: 0.716921428, 125: 0.0, 126: 0.656010255, 127: 0.0, 128: 0.7113651989999999, 129: 0.0, 130: 0.0, 131: 0.0, 132: 0.456210512, 133: 0.399598469, 134: 0.396029541, 135: 0.04910007, 136: 0.0, 137: 0.0, 138: 0.815853721, 139: 0.095930428, 140: 0.395760217, 141: 0.0, 142: 0.126281269, 143: 0.367118977, 144: 0.485036714, 145: 0.092568711, 146: 0.0, 147: 0.0, 148: 0.036455597, 149: 0.037723383, 150: 0.0, 151: 0.0, 152: 0.199292609, 153: 0.0, 154: 0.48666976, 155: 0.5328872059999999, 156: 0.010647921, 157: 0.0, 158: 0.007870635000000001, 159: 0.0, 160: 0.947620839, 161: 0.0, 162: 0.0, 163: 0.0, 164: 0.0, 165: 0.0, 166: 0.0, 167: 0.0, 168: 0.0, 169: 0.0, 170: 0.0, 171: 0.0, 172: 0.0, 173: 0.0, 174: 0.0, 175: 0.726671353, 176: 0.0, 177: 0.0, 178: 0.0, 179: 0.0, 180: 0.0, 181: 0.0, 182: 0.0, 183: 0.0, 184: 0.447613744, 185: 0.457602381, 186: 0.0, 187: 0.434200661, 188: 0.419339661, 189: 0.483565583, 190: 0.490993406, 191: 0.0];
total_cost = 91.698639376;
total_earn = 39.519773466;
% _objective = 52.17886591000001;