production = [0: 0.0, 1: 0.0, 2: 0.0, 3: 0.0, 4: 0.0, 5: 0.0, 6: 0.0, 7: 0.0, 8: 0.0, 9: 0.0, 10: 0.0, 11: 0.0, 12: 0.0, 13: 0.0, 14: 0.0, 15: 0.0, 16: 0.0, 17: 0.0, 18: 0.0, 19: 0.0, 20: 0.0003, 21: 0.0, 22: 0.0, 23: 0.0, 24: 0.0013, 25: 0.0016, 26: 0.0, 27: 0.0364, 28: 0.0789, 29: 0.0, 30: 0.0, 31: 0.0, 32: 0.3048, 33: 0.3948, 34: 0.0, 35: 0.4043, 36: 1.0088, 37: 0.0, 38: 0.0, 39: 0.0, 40: 0.0, 41: 1.131064583, 42: 0.0, 43: 1.7736, 44: 1.7834, 45: 0.0, 46: 0.0, 47: 0.0, 48: 2.0546, 49: 1.7649, 50: 2.2048, 51: 1.169564583, 52: 0.155564583, 53: 1.6298, 54: 1.9538, 55: 1.156364583, 56: 2.0053, 57: 1.9691, 58: 0.0, 59: 1.2184, 60: 1.7733, 61: 0.0, 62: 0.0, 63: 0.0, 64: 0.0, 65: 0.0, 66: 1.1252, 67: 0.8975, 68: 0.5787, 69: 0.6837, 70: 0.5309, 71: 0.0, 72: 0.0, 73: 0.1494, 74: 0.0, 75: 0.0549, 76: 0.0464, 77: 0.0, 78: 0.0037, 79: 0.0, 80: 0.0, 81: 0.0, 82: 0.0, 83: 0.0, 84: 0.0, 85: 0.0, 86: 0.0, 87: 0.0, 88: 0.0, 89: 0.0, 90: 0.0, 91: 0.0, 92: 0.0, 93: 0.0, 94: 0.0, 95: 0.0, 96: 0.0, 97: 0.0, 98: 0.0, 99: 0.0, 100: 0.0, 101: 0.0, 102: 0.0, 103: 0.0, 104: 0.0, 105: 0.0, 106: 0.0, 107: 0.0, 108: 0.0, 109: 0.0, 110: 0.0, 111: 0.0, 112: 0.0, 113: 0.0, 114: 0.0, 115: 0.0, 116: 0.0, 117: 0.0, 118: 0.0, 119: 0.0005, 120: 0.0, 121: 0.0, 122: 0.008800000000000001, 123: 0.0325, 124: 0.057, 125: 0.0, 126: 0.0, 127: 0.0, 128: 0.0, 129: 0.3347, 130: 0.5723, 131: 0.0, 132: 0.9507, 133: 0.0, 134: 1.1632, 135: 0.0, 136: 1.338, 137: 1.137864583, 138: 0.0, 139: 0.0, 140: 0.0, 141: 0.0, 142: 1.8447, 143: 0.0, 144: 0.0, 145: 1.9652, 146: 0.0, 147: 0.0, 148: 0.0, 149: 0.0, 150: 1.9552, 151: 0.0, 152: 1.8902, 153: 1.856, 154: 0.0, 155: 1.7477, 156: 1.665, 157: 1.586, 158: 0.0, 159: 1.3905, 160: 0.0, 161: 1.185, 162: 0.0, 163: 0.8117, 164: 0.4507, 165: 0.7083, 166: 0.0, 167: 0.0, 168: 0.2502, 169: 0.1995, 170: 0.1293, 171: 0.0, 172: 0.0445, 173: 0.0135, 174: 0.0, 175: 0.0, 176: 0.0003, 177: 0.0, 178: 0.0, 179: 0.0, 180: 0.0, 181: 0.0, 182: 0.0, 183: 0.0, 184: 0.0, 185: 0.0, 186: 0.0, 187: 0.0, 188: 0.0, 189: 0.0, 190: 0.0, 191: 0.0];
buy = [0: 1.489964583, 1: 1.492864583, 2: 1.016864583, 3: 1.517864583, 4: 1.477264583, 5: 1.479664583, 6: 0.0, 7: 1.462964583, 8: 0.421564583, 9: 0.429264583, 10: 1.431364583, 11: 1.489664583, 12: 0.0, 13: 1.398864583, 14: 2.190564583, 15: 1.419964583, 16: 0.0, 17: 0.379664583, 18: 0.0, 19: 1.977064583, 20: 0.0, 21: 1.780364583, 22: 1.682064583, 23: 0.583664583, 24: 0.484064583, 25: 0.0, 26: 1.948264583, 27: 0.373264583, 28: 0.0, 29: 1.127364583, 30: 0.0, 31: 0.0, 32: 0.0, 33: 1.727364583, 34: 0.264064583, 35: 0.875564583, 36: 0.0, 37: 0.129464583, 38: 0.0, 39: 0.0, 40: 0.0, 41: 0.0, 42: 0.0, 43: 0.0, 44: 0.0, 45: 1.180864583, 46: 0.0, 47: 1.199864583, 48: 0.0, 49: 0.0, 50: 0.0, 51: 0.0, 52: 0.0, 53: 0.0, 54: 0.0, 55: 0.0, 56: 0.0, 57: 0.0, 58: 1.840064583, 59: 0.0, 60: 0.0, 61: 0.0, 62: 0.0, 63: 0.0, 64: 0.0, 65: 1.148964583, 66: 0.0, 67: 0.0, 68: 0.561564583, 69: 0.0, 70: 0.0, 71: 0.0, 72: 1.130764583, 73: 0.0, 74: 1.135764583, 75: 0.0, 76: 1.081164583, 77: 0.0, 78: 1.116264583, 79: 0.0, 80: 1.127864583, 81: 0.128964583, 82: 0.127564583, 83: 0.0, 84: 0.137864583, 85: 0.0, 86: 1.146064583, 87: 0.0, 88: 0.0, 89: 1.136864583, 90: 1.136564583, 91: 0.142864583, 92: 0.0, 93: 1.327864583, 94: 0.353764583, 95: 0.353264583, 96: 1.348064583, 97: 0.308664583, 98: 0.0, 99: 1.298564583, 100: 0.314864583, 101: 1.314164583, 102: 0.310164583, 103: 0.0, 104: 0.0, 105: 1.305864583, 106: 0.375099537, 107: 0.313664583, 108: 0.312364583, 109: 0.0, 110: 0.0, 111: 0.0, 112: 1.315064583, 113: 0.0, 114: 1.918064583, 115: 0.0, 116: 1.086005147, 117: 0.369164583, 118: 1.363164583, 119: 0.309364583, 120: 0.0, 121: 0.0, 122: 0.371887252, 123: 1.235064583, 124: 0.0, 125: 1.130164583, 126: 1.135864583, 127: 1.133864583, 128: 0.0, 129: 0.7949645829999999, 130: 0.0, 131: 1.135164583, 132: 0.184464583, 133: 0.0, 134: 0.0, 135: 0.128664583, 136: 0.0, 137: 0.0, 138: 0.0, 139: 0.623064583, 140: 1.274864583, 141: 0.205864583, 142: 0.0, 143: 1.190864583, 144: 1.182564583, 145: 0.0, 146: 1.189364583, 147: 1.186864583, 148: 0.0, 149: 1.183564583, 150: 0.0, 151: 1.129364583, 152: 0.0, 153: 0.0, 154: 0.121864583, 155: 0.0, 156: 0.0, 157: 0.0, 158: 1.878664583, 159: 0.0, 160: 1.182864583, 161: 0.0, 162: 0.0, 163: 0.0, 164: 0.0, 165: 0.422064583, 166: 0.0, 167: 0.133064583, 168: 0.8846645829999999, 169: 0.0, 170: 0.999064583, 171: 0.0, 172: 0.09266458299999999, 173: 0.122664583, 174: 0.115864583, 175: 0.116864583, 176: 0.114064583, 177: 0.0, 178: 1.141364583, 179: 0.300164583, 180: 1.355564583, 181: 1.364864583, 182: 1.372364583, 183: 1.374364583, 184: 0.0, 185: 1.249164583, 186: 0.0, 187: 0.251164583, 188: 0.0, 189: 1.134864583, 190: 1.136164583, 191: 0.422864583];
sell = [0: 0.0, 1: 0.0, 2: 0.0, 3: 0.0, 4: 0.0, 5: 0.0, 6: 0.423035417, 7: 0.0, 8: 0.0, 9: 0.0, 10: 0.0, 11: 0.0, 12: 0.238743343, 13: 0.0, 14: 0.0, 15: 0.0, 16: 0.519335417, 17: 0.0, 18: 0.240083672, 19: 0.0, 20: 0.021535417, 21: 0.0, 22: 0.0, 23: 0.0, 24: 0.0, 25: 0.514635417, 26: 0.0, 27: 0.0, 28: 0.851335417, 29: 0.0, 30: 0.773235417, 31: 0.781335417, 32: 0.187235417, 33: 0.0, 34: 0.0, 35: 0.0, 36: 1.643435417, 37: 0.0, 38: 0.7594354169999999, 39: 0.760035417, 40: 0.761535417, 41: 0.0, 42: 0.6138926300000001, 43: 2.512435417, 44: 1.624435417, 45: 0.0, 46: 0.717735417, 47: 0.0, 48: 2.795335417, 49: 2.518335417, 50: 2.933935417, 51: 0.0, 52: 0.0, 53: 1.489235417, 54: 2.162835417, 55: 0.0, 56: 2.463935417, 57: 1.665935417, 58: 0.0, 59: 1.164035417, 60: 0.825535417, 61: 0.460435417, 62: 0.0, 63: 0.0, 64: 0.761535417, 65: 0.0, 66: 1.876735417, 67: 0.7554354170000001, 68: 0.0, 69: 0.541035417, 70: 1.289035417, 71: 0.762635417, 72: 0.0, 73: 0.017335417, 74: 0.0, 75: 0.827535417, 76: 0.0, 77: 0.772135417, 78: 0.0, 79: 0.0, 80: 0.0, 81: 0.0, 82: 0.0, 83: 0.780535417, 84: 0.0, 85: 0.755735417, 86: 0.0, 87: 0.7534354170000001, 88: 0.092890691, 89: 0.0, 90: 0.0, 91: 0.0, 92: 0.755535417, 93: 0.0, 94: 0.0, 95: 0.0, 96: 0.0, 97: 0.0, 98: 0.560935417, 99: 0.0, 100: 0.0, 101: 0.0, 102: 0.0, 103: 0.0, 104: 0.6001354169999999, 105: 0.0, 106: 0.0, 107: 0.0, 108: 0.0, 109: 0.5981354169999999, 110: 0.593835417, 111: 0.585135417, 112: 0.0, 113: 0.0, 114: 0.0, 115: 0.618835417, 116: 0.0, 117: 0.0, 118: 0.0, 119: 0.0, 120: 0.632635417, 121: 0.632635417, 122: 0.0, 123: 0.0, 124: 0.830635417, 125: 0.0, 126: 0.0, 127: 0.0, 128: 0.766435417, 129: 0.0, 130: 1.344435417, 131: 0.0, 132: 0.0, 133: 0.764635417, 134: 0.033835417, 135: 0.0, 136: 2.110635417, 137: 0.0, 138: 0.760635417, 139: 0.0, 140: 0.0, 141: 0.0, 142: 0.643635417, 143: 0.0, 144: 0.0, 145: 0.789835417, 146: 0.0, 147: 0.0, 148: 0.710635417, 149: 0.0, 150: 0.771635417, 151: 0.0, 152: 2.660535417, 153: 0.726335417, 154: 0.0, 155: 2.524335417, 156: 1.938635417, 157: 1.580935417, 158: 0.0, 159: 1.178835417, 160: 0.0, 161: 0.057635417, 162: 0.287737348, 163: 0.0, 164: 0.323035417, 165: 0.0, 166: 0.769835417, 167: 0.0, 168: 0.0, 169: 0.972435417, 170: 0.0, 171: 0.772135417, 172: 0.0, 173: 0.0, 174: 0.0, 175: 0.0, 176: 0.0, 177: 0.775635417, 178: 0.0, 179: 0.0, 180: 0.0, 181: 0.0, 182: 0.0, 183: 0.0, 184: 0.620135417, 185: 0.0, 186: 0.643935417, 187: 0.0, 188: 0.649635417, 189: 0.0, 190: 0.0, 191: 0.0];
charge = [0: 1.0, 1: 1.0, 2: 0.0, 3: 1.0, 4: 1.0, 5: 1.0, 6: 0.0, 7: 1.0, 8: 0.0, 9: 0.0, 10: 1.0, 11: 1.0, 12: 0.0, 13: 1.0, 14: 1.0, 15: 1.0, 16: 0.0, 17: 0.0, 18: 0.0, 19: 1.0, 20: 0.0, 21: 1.0, 22: 1.0, 23: 0.0, 24: 0.0, 25: 0.0, 26: 1.0, 27: 0.0, 28: 0.0, 29: 1.0, 30: 0.0, 31: 0.0, 32: 0.0, 33: 1.0, 34: 0.0, 35: 1.0, 36: 0.0, 37: 0.0, 38: 0.0, 39: 0.0, 40: 0.0, 41: 1.0, 42: 0.0, 43: 0.0, 44: 0.0, 45: 1.0, 46: 0.0, 47: 1.0, 48: 0.0, 49: 0.0, 50: 0.0, 51: 1.0, 52: 0.0, 53: 0.0, 54: 0.0, 55: 1.0, 56: 0.0, 57: 0.0, 58: 1.0, 59: 0.0, 60: 0.0, 61: 0.0, 62: 0.0, 63: 0.0, 64: 0.0, 65: 1.0, 66: 0.0, 67: 0.0, 68: 1.0, 69: 0.0, 70: 0.0, 71: 0.0, 72: 1.0, 73: 0.0, 74: 1.0, 75: 0.0, 76: 1.0, 77: 0.0, 78: 1.0, 79: 0.0, 80: 1.0, 81: 0.0, 82: 0.0, 83: 0.0, 84: 0.0, 85: 0.0, 86: 1.0, 87: 0.0, 88: 0.0, 89: 1.0, 90: 1.0, 91: 0.0, 92: 0.0, 93: 1.0, 94: 0.0, 95: 0.0, 96: 1.0, 97: 0.0, 98: 0.0, 99: 1.0, 100: 0.0, 101: 1.0, 102: 0.0, 103: 0.0, 104: 0.0, 105: 1.0, 106: 0.066234954, 107: 0.0, 108: 0.0, 109: 0.0, 110: 0.0, 111: 0.0, 112: 1.0, 113: 0.0, 114: 1.0, 115: 0.0, 116: 0.732140564, 117: 0.0, 118: 1.0, 119: 0.0, 120: 0.0, 121: 0.0, 122: 0.113122669, 123: 1.0, 124: 0.0, 125: 1.0, 126: 1.0, 127: 1.0, 128: 0.0, 129: 1.0, 130: 0.0, 131: 1.0, 132: 1.0, 133: 0.0, 134: 1.0, 135: 0.0, 136: 0.0, 137: 1.0, 138: 0.0, 139: 0.0, 140: 1.0, 141: 0.0, 142: 1.0, 143: 1.0, 144: 1.0, 145: 1.0, 146: 1.0, 147: 1.0, 148: 0.0, 149: 1.0, 150: 1.0, 151: 1.0, 152: 0.0, 153: 1.0, 154: 0.0, 155: 0.0, 156: 0.0, 157: 0.0, 158: 1.0, 159: 0.0, 160: 1.0, 161: 1.0, 162: 0.0, 163: 0.673535417, 164: 0.0, 165: 1.0, 166: 0.0, 167: 0.0, 168: 1.0, 169: 0.0, 170: 1.0, 171: 0.0, 172: 0.0, 173: 0.0, 174: 0.0, 175: 0.0, 176: 0.0, 177: 0.0, 178: 1.0, 179: 0.0, 180: 1.0, 181: 1.0, 182: 1.0, 183: 1.0, 184: 0.0, 185: 1.0, 186: 0.0, 187: 0.0, 188: 0.0, 189: 1.0, 190: 1.0, 191: 0.0];
discharge = [0: 0.0, 1: 0.0, 2: 0.0, 3: 0.0, 4: 0.0, 5: 0.0, 6: 1.0, 7: 0.0, 8: 0.0, 9: 0.0, 10: 0.0, 11: 0.0, 12: 0.713453251, 13: 0.0, 14: 0.0, 15: 0.0, 16: 1.0, 17: 0.0, 18: 0.679498062, 19: 0.0, 20: 1.0, 21: 0.0, 22: 0.0, 23: 0.0, 24: 0.0, 25: 1.0, 26: 0.0, 27: 0.0, 28: 1.0, 29: 0.0, 30: 1.0, 31: 1.0, 32: 0.0, 33: 0.0, 34: 0.0, 35: 0.0, 36: 1.0, 37: 0.0, 38: 1.0, 39: 1.0, 40: 1.0, 41: 0.0, 42: 0.809508015, 43: 1.0, 44: 0.0, 45: 0.0, 46: 1.0, 47: 0.0, 48: 1.0, 49: 1.0, 50: 1.0, 51: 0.0, 52: 0.0, 53: 0.0, 54: 1.0, 55: 0.0, 56: 1.0, 57: 1.0, 58: 0.0, 59: 1.0, 60: 0.0, 61: 1.0, 62: 0.487738426, 63: 0.422405093, 64: 1.0, 65: 0.0, 66: 1.0, 67: 0.0, 68: 0.0, 69: 0.0, 70: 1.0, 71: 1.0, 72: 0.0, 73: 0.0, 74: 0.0, 75: 1.0, 76: 0.0, 77: 1.0, 78: 0.0, 79: 0.132071759, 80: 0.0, 81: 0.0, 82: 0.0, 83: 1.0, 84: 0.0, 85: 1.0, 86: 0.0, 87: 1.0, 88: 0.254616972, 89: 0.0, 90: 0.0, 91: 0.0, 92: 1.0, 93: 0.0, 94: 0.0, 95: 0.0, 96: 0.0, 97: 0.0, 98: 1.0, 99: 0.0, 100: 0.0, 101: 0.0, 102: 0.0, 103: 0.337627315, 104: 1.0, 105: 0.0, 106: 0.0, 107: 0.0, 108: 0.0, 109: 1.0, 110: 1.0, 111: 1.0, 112: 0.0, 113: 0.351516204, 114: 0.0, 115: 1.0, 116: 0.0, 117: 0.0, 118: 0.0, 119: 0.0, 120: 1.0, 121: 1.0, 122: 0.0, 123: 0.0, 124: 1.0, 125: 0.0, 126: 0.0, 127: 0.0, 128: 1.0, 129: 0.0, 130: 1.0, 131: 0.0, 132: 0.0, 133: 1.0, 134: 0.0, 135: 0.0, 136: 1.0, 137: 0.0, 138: 1.0, 139: 0.0, 140: 0.0, 141: 0.0, 142: 0.0, 143: 0.0, 144: 0.0, 145: 0.0, 146: 0.0, 147: 0.0, 148: 1.0, 149: 0.0, 150: 0.0, 151: 0.0, 152: 1.0, 153: 0.0, 154: 0.0, 155: 1.0, 156: 1.0, 157: 1.0, 158: 0.0, 159: 0.0, 160: 0.0, 161: 0.0, 162: 0.472668812, 163: 0.0, 164: 0.0, 165: 0.0, 166: 1.0, 167: 0.0, 168: 0.0, 169: 1.0, 170: 0.0, 171: 1.0, 172: 0.0, 173: 0.0, 174: 0.0, 175: 0.0, 176: 0.0, 177: 1.0, 178: 0.0, 179: 0.0, 180: 0.0, 181: 0.0, 182: 0.0, 183: 0.0, 184: 1.0, 185: 0.0, 186: 1.0, 187: 0.0, 188: 1.0, 189: 0.0, 190: 0.0, 191: 0.0];
soc = [0: 8.418495999999999, 1: 9.316812301000001, 2: 9.314948938000001, 3: 10.213085949, 4: 11.111043331, 5: 12.008821123, 6: 11.006419358, 7: 11.904218075, 8: 11.901837231, 9: 11.899456864, 10: 12.797076972, 11: 13.694517557, 12: 12.978325402, 13: 13.875729737, 14: 14.772954591, 15: 15.67, 16: 14.666866, 17: 14.663932627, 18: 13.981501778, 19: 14.878705478, 20: 13.875729737, 21: 14.772954591, 22: 15.67, 23: 15.666866, 24: 15.663732627, 25: 14.66059988, 26: 15.55766776, 27: 15.554556227, 28: 14.551445316, 29: 15.448535026, 30: 14.445445319, 31: 13.44255623, 32: 13.439867719, 33: 14.337179746, 34: 14.33431231, 35: 15.231445447, 36: 14.228399158, 37: 14.225553478, 38: 13.222708368, 39: 12.220063826, 40: 11.217619813, 41: 12.115376289, 42: 11.303445199, 43: 10.30118451, 44: 10.299124273, 45: 11.197064449, 46: 10.194825036, 47: 11.092786071, 48: 10.090567513, 49: 9.0885494, 50: 8.086731690000001, 51: 8.985114343999999, 52: 8.983317320999999, 53: 8.981520657000001, 54: 7.979724353, 55: 8.878128408, 56: 7.876352783, 57: 6.874777512, 58: 7.773402557, 59: 6.771847876, 60: 6.770493507, 61: 5.769139408, 62: 5.280247154, 63: 4.856786012, 64: 3.855814655, 65: 4.755043492, 66: 3.754092483, 67: 3.753341665, 68: 4.652590996, 69: 4.651660478, 70: 3.650730146, 71: 2.65, 72: 3.54947, 73: 3.548760106, 74: 4.448050354, 75: 3.447160744, 76: 4.346471312, 77: 3.345602017, 78: 4.244932897, 79: 4.112012151, 80: 5.011189749, 81: 5.010187511, 82: 5.009185473, 83: 4.008183636, 84: 4.007382, 85: 3.006580523, 86: 3.905979207, 87: 2.905198011, 88: 2.65, 89: 3.54947, 90: 4.448760106, 91: 4.447870354, 92: 3.44698078, 93: 4.346291384, 94: 4.345422125, 95: 4.344553041, 96: 5.24368413, 97: 5.242635394, 98: 4.241586867, 99: 5.140738549, 100: 5.139710401, 101: 6.038682459, 102: 6.037474723, 103: 5.698639913, 104: 4.697500185, 105: 5.596560685, 106: 5.655052831, 107: 5.653921821, 108: 5.652791036, 109: 4.651660478, 110: 3.650730146, 111: 2.65, 112: 3.54947, 113: 3.197243902, 114: 4.096604454, 115: 3.095785133, 116: 3.754092483, 117: 3.753341665, 118: 4.652590996, 119: 4.651660478, 120: 3.650730146, 121: 2.65, 122: 2.751280402, 123: 3.650730146, 124: 2.65, 125: 3.54947, 126: 4.448760106, 127: 5.347870354, 128: 4.34680078, 129: 5.24593142, 130: 4.244882233, 131: 5.144033257, 132: 6.04300445, 133: 5.041795849, 134: 5.94078749, 135: 5.939599333, 136: 4.938411413, 137: 5.837423731, 138: 4.836256246, 139: 4.835288995, 140: 5.734321937, 141: 5.733175072, 142: 6.632028437, 143: 7.530702032, 144: 8.429195891000001, 145: 9.327510051999999, 146: 10.22564455, 147: 11.123599421, 148: 10.121374701, 149: 11.019350426, 150: 11.917146556, 151: 12.814763127, 152: 11.812200174, 153: 12.709837734, 154: 12.707295767, 155: 11.704754308, 156: 10.702413357, 157: 9.700272873999999, 158: 10.59833282, 159: 10.596213153, 160: 11.49409391, 161: 12.391795092, 162: 11.91664792, 163: 12.520446466, 164: 12.517942376, 165: 13.415438788, 166: 12.4127557, 167: 12.410273149, 168: 13.307791094, 169: 12.305129536, 170: 13.20266851, 171: 12.200027976, 172: 12.197587971, 173: 12.195148453, 174: 12.192709424, 175: 12.190270882, 176: 12.187832828, 177: 11.185395261, 178: 12.083158182, 179: 12.08074155, 180: 12.978325402, 181: 13.875729737, 182: 14.772954591, 183: 15.67, 184: 14.666866, 185: 15.563932627, 186: 14.56081984, 187: 14.557907676, 188: 13.554996095, 189: 14.452285096, 190: 15.349394639, 191: 15.34632476];
cost = [0: 1.028397529, 1: 1.030169139, 2: 0.621202574, 3: 1.045441639, 4: 1.020639099, 5: 1.022105259, 6: 0.0, 7: 1.011903229, 8: 0.257533804, 9: 0.262237734, 10: 0.992598789, 11: 1.028214259, 12: 0.0, 13: 0.972744539, 14: 1.456394069, 15: 0.985634529, 16: 0.0, 17: 0.231937094, 18: 0.0, 19: 1.325966919, 20: 0.0, 21: 1.205802889, 22: 1.145751419, 23: 0.356560694, 24: 0.575843228, 25: 0.0, 26: 2.435833714, 27: 0.444035548, 28: 0.0, 29: 1.459291074, 30: 0.0, 31: 0.0, 32: 0.0, 33: 2.173051074, 34: 0.314131228, 35: 1.159749794, 36: 0.0, 37: 0.154011068, 38: 0.0, 39: 0.0, 40: 0.0, 41: 0.118178165, 42: 0.0, 43: 0.0, 44: 0.0, 45: 1.522934674, 46: 0.0, 47: 1.545537074, 48: 0.0, 49: 0.0, 50: 0.0, 51: 0.118178165, 52: 0.0, 53: 0.0, 54: 0.0, 55: 0.118178165, 56: 0.0, 57: 0.0, 58: 1.242273619, 59: 0.0, 60: 0.0, 61: 0.0, 62: 0.0, 63: 0.0, 64: 0.0, 65: 1.484986434, 66: 0.0, 67: 0.0, 68: 0.786215394, 69: 0.0, 70: 0.0, 71: 0.0, 72: 1.463335714, 73: 0.0, 74: 1.469283714, 75: 0.0, 76: 1.404331554, 77: 0.0, 78: 1.446086514, 79: 0.0, 80: 1.459885874, 81: 0.153416268, 82: 0.151750828, 83: 0.0, 84: 0.164003708, 85: 0.0, 86: 1.481536594, 87: 0.0, 88: 0.0, 89: 0.812688739, 90: 0.812505469, 91: 0.08727597400000001, 92: 0.0, 93: 0.9293706390000001, 94: 0.216114784, 95: 0.215809334, 96: 0.941710819, 97: 0.188563194, 98: 0.0, 99: 0.911471269, 100: 0.192350774, 101: 0.921001309, 102: 0.189479544, 103: 0.0, 104: 0.0, 105: 0.9159308390000001, 106: 0.236975832, 107: 0.191617694, 108: 0.190823524, 109: 0.0, 110: 0.0, 111: 0.0, 112: 0.921551119, 113: 0.0, 114: 1.289923819, 115: 0.0, 116: 0.749963573, 117: 0.225522644, 118: 0.950935409, 119: 0.188990824, 120: 0.0, 121: 0.0, 122: 0.455765705, 123: 1.587410994, 124: 0.0, 125: 1.462621954, 126: 1.469402674, 127: 1.467023474, 128: 0.0, 129: 1.063868034, 130: 0.0, 131: 1.468569954, 132: 0.337617234, 133: 0.0, 134: 0.118178165, 135: 0.153059388, 136: 0.0, 137: 0.118178165, 138: 0.0, 139: 0.741197628, 140: 1.634757074, 141: 0.244896508, 142: 0.118178165, 143: 1.534830674, 144: 1.524956994, 145: 0.118178165, 146: 1.533046274, 147: 1.530072274, 148: 0.0, 149: 0.841217769, 150: 0.118178165, 151: 0.808106989, 152: 0.0, 153: 0.118178165, 154: 0.074447074, 155: 0.0, 156: 0.0, 157: 0.0, 158: 2.353037554, 159: 0.0, 160: 1.525313874, 161: 0.118178165, 162: 0.0, 163: 0.07959718, 164: 0.0, 165: 0.620266194, 166: 0.0, 167: 0.158293628, 168: 1.170575154, 169: 0.0, 170: 1.306665394, 171: 0.0, 172: 0.110233788, 173: 0.145921788, 174: 0.137832508, 175: 0.139022108, 176: 0.135691228, 177: 0.0, 178: 1.475945474, 179: 0.357075788, 180: 1.730757794, 181: 1.741821074, 182: 1.750743074, 183: 1.753122274, 184: 0.0, 185: 0.881292809, 186: 0.0, 187: 0.153436444, 188: 0.0, 189: 0.811466939, 190: 0.812261109, 191: 0.258327974];
earn = [0: 0.0, 1: 0.0, 2: 0.0, 3: 0.0, 4: 0.0, 5: 0.0, 6: 0.286648798, 7: 0.0, 8: 0.0, 9: 0.0, 10: 0.0, 11: 0.0, 12: 0.157188617, 13: 0.0, 14: 0.0, 15: 0.0, 16: 0.354082887, 17: 0.0, 18: 0.171035608, 19: 0.0, 20: 0.015677783, 21: 0.0, 22: 0.0, 23: 0.0, 24: 0.0, 25: 0.471766286, 26: 0.0, 27: 0.0, 28: 0.915185573, 29: 0.0, 30: 0.804164833, 31: 0.785242094, 32: 0.148814709, 33: 0.0, 34: 0.0, 35: 0.0, 36: 1.228796661, 37: 0.0, 38: 0.568741184, 39: 0.518724172, 40: 0.499034159, 41: 0.0, 42: 0.321127235, 43: 1.29892911, 44: 0.791262491, 45: 0.0, 46: 0.343867038, 47: 0.0, 48: 1.151957725, 49: 1.049138535, 50: 1.225504824, 51: 0.0, 52: 0.0, 53: 0.496064317, 54: 0.681076873, 55: 0.0, 56: 0.785502611, 57: 0.508610083, 58: 0.0, 59: 0.382618441, 60: 0.342266984, 61: 0.187120953, 62: 0.0, 63: 0.0, 64: 0.368050067, 65: 0.0, 66: 0.982283317, 67: 0.437548193, 68: 0.0, 69: 0.353783059, 70: 0.862622501, 71: 0.548868709, 72: 0.0, 73: 0.01437106, 74: 0.0, 75: 0.744037093, 76: 0.0, 77: 0.820779948, 78: 0.0, 79: 0.0, 80: 0.0, 81: 0.0, 82: 0.0, 83: 0.7555582830000001, 84: 0.0, 85: 0.657111945, 86: 0.0, 87: 0.631378879, 88: 0.07693207000000001, 89: 0.0, 90: 0.0, 91: 0.0, 92: 0.563100546, 93: 0.0, 94: 0.0, 95: 0.0, 96: 0.0, 97: 0.0, 98: 0.361859437, 99: 0.0, 100: 0.0, 101: 0.0, 102: 0.0, 103: 0.0, 104: 0.363742076, 105: 0.0, 106: 0.0, 107: 0.0, 108: 0.0, 109: 0.346798915, 110: 0.346265431, 111: 0.343591517, 112: 0.0, 113: 0.0, 114: 0.0, 115: 0.367093169, 116: 0.0, 117: 0.0, 118: 0.0, 119: 0.0, 120: 0.470174642, 121: 0.497884073, 122: 0.0, 123: 0.0, 124: 0.716921428, 125: 0.0, 126: 0.0, 127: 0.0, 128: 0.566319129, 129: 0.0, 130: 0.995554426, 131: 0.0, 132: 0.0, 133: 0.399598469, 134: 0.017388021, 135: 0.0, 136: 0.922980868, 137: 0.0, 138: 0.268047921, 139: 0.0, 140: 0.0, 141: 0.0, 142: 0.126281269, 143: 0.0, 144: 0.0, 145: 0.092568711, 146: 0.0, 147: 0.0, 148: 0.036455597, 149: 0.0, 150: 0.037964463, 151: 0.0, 152: 0.301172609, 153: 0.131611978, 154: 0.0, 155: 0.5328872059999999, 156: 0.534287921, 157: 0.491829008, 158: 0.0, 159: 0.467879777, 160: 0.0, 161: 0.02940559, 162: 0.148069639, 163: 0.0, 164: 0.187102113, 165: 0.0, 166: 0.46428774, 167: 0.0, 168: 0.0, 169: 0.691207094, 170: 0.0, 171: 0.575240885, 172: 0.0, 173: 0.0, 174: 0.0, 175: 0.0, 176: 0.0, 177: 0.676664338, 178: 0.0, 179: 0.0, 180: 0.0, 181: 0.0, 182: 0.0, 183: 0.0, 184: 0.447613744, 185: 0.0, 186: 0.439614709, 187: 0.0, 188: 0.419339661, 189: 0.0, 190: 0.0, 191: 0.0];
total_cost = 94.496688503;
total_earn = 38.122279829;
