production = [0.0, 0.0, 0.0, 0.0, 0.0, 0.0, 0.0, 0.0, 0.0, 0.0, 0.0, 0.0, 0.0, 0.0, 0.0, 0.0, 0.0, 0.0, 0.0, 0.0, 0.0, 0.0, 0.0, 0.001441, 0.013403, 0.057124, 0.048615, 0.13255, 0.155992, 0.251131, 0.241433, 0.201438, 0.177338, 0.558712, 0.460456, 0.196002, 0.302191, 0.843172, 0.784363, 0.131307, 0.451748, 1.164236, 0.879509, 0.372018, 0.46442, 0.461229, 0.200768, 0.151489, 1.135124, 0.267868, 0.568779, 0.156767, 0.15698, 0.574188, 0.518235, 0.161187, 0.433644, 0.387772, 0.366991, 0.245521, 0.410838, 0.367669, 0.475401, 0.184861, 0.080211, 0.297359, 0.170565, 0.072251, 0.066653, 0.061703, 0.013318, 0.030887, 0.02376, 0.006677, 0.000336, 6.4e-05, 0.0, 0.0, 0.0, 0.0, 0.0, 0.0, 0.0, 0.0, 0.0, 0.0, 0.0, 0.0, 0.0, 0.0, 0.0, 0.0, 0.0, 0.0, 0.0, 0.0];
buy = [729.724005, 223.666177, 122.464429, 145.774171, 519.187938, 562.315377, 390.76328, 255.001575, 353.755549, 991.148184, 178.754278, 934.835961, 301.207872, 673.5568029999999, 455.687359, 144.472677, 332.173344, 132.387621, 516.656124, 676.274547, 327.019167, 565.760711, 860.27084, 134.645573, 328.473426, 653.589909, 579.4292380000001, 872.137761, 923.900292, 529.018926, 214.297008, 481.023315, 341.37198, 89.706683, 255.74972, 70.36693200000001, 934.97777, 12.191283, 327.815358, 35.817763, 457.799604, 318.999175, 48.83292, 803.004586, 585.53979, 691.828672, 654.776846, 919.351613, 588.369929, 402.809264, 662.038913, 915.9807499999999, 796.721317, 216.583091, 65.978098, 635.590494, 204.635275, 991.857971, 532.429702, 182.048365, 409.45926, 644.217635, 704.7591179999999, 30.573447, 239.962912, 52.574048, 518.341558, 609.175217, 762.422101, 2.743129, 190.400029, 51.593475, 881.740509, 802.114856, 801.8901540000001, 477.438984, 917.897839, 1.067515, 123.864295, 234.783698, 882.130191, 575.7592509999999, 532.353614, 766.499492, 401.668254, 139.126395, 693.110684, 969.2239980000001, 485.825143, 503.961553, 225.379966, 444.702557, 105.140382, 844.840635, 589.323107, 151.498487];
sell = [0.174686, 3.712662, 3.089208, 2.587122, 2.524931, 2.619594, 0.988991, 2.000068, 2.390938, 0.784699, 1.771766, 0.488997, 2.697422, 3.328191, 3.581615, 2.397197, 3.518917, 3.898307, 2.450882, 1.871234, 3.586287, 0.924249, 1.967237, 3.816535, 0.473962, 1.197577, 2.875234, 2.465553, 2.258388, 2.842241, 3.724295, 1.702968, 1.453159, 3.281519, 0.832701, 0.258368, 0.36884, 1.82102, 3.180179, 1.125021, 1.71814, 1.295494, 0.717863, 0.471119, 1.838739, 1.553471, 2.912543, 0.49754, 0.539969, 1.542212, 0.388531, 3.850299, 3.559085, 1.779362, 1.270552, 3.906925, 2.686816, 2.910248, 3.36477, 2.726495, 2.044623, 1.456452, 3.445477, 3.069542, 1.843869, 3.927403, 1.520511, 2.278212, 2.49254, 0.8618400000000001, 3.450549, 1.986834, 1.929397, 3.287424, 0.054818, 2.147396, 3.683416, 2.533329, 2.140879, 0.288847, 2.732101, 3.602544, 2.936926, 2.283789, 0.643325, 0.0725, 3.147866, 1.910812, 1.167278, 0.99816, 1.96726, 2.888797, 0.194866, 1.770844, 2.505479, 3.766655];
charge = [0.804764, 0.619597, 0.613256, 0.805416, 0.938283, 0.375567, 0.034995, 0.064223, 0.545841, 0.692125, 0.167111, 0.227656, 0.970686, 0.6291639999999999, 0.817462, 0.143898, 0.543708, 0.06707, 0.124717, 0.283562, 0.92125, 0.036508, 0.409035, 0.692989, 0.720001, 0.22266, 0.970177, 0.273675, 0.592222, 0.590163, 0.936422, 0.613387, 0.68895, 0.440744, 0.353582, 0.046866, 0.270938, 0.975501, 0.96584, 0.115431, 0.495042, 0.767149, 0.856916, 0.277353, 0.946658, 0.321211, 0.020598, 0.335577, 0.558038, 0.342817, 0.405279, 0.634495, 0.9604549999999999, 0.698835, 0.010502, 0.347315, 0.464289, 0.168609, 0.532293, 0.935101, 0.749888, 0.07481500000000001, 0.052664, 0.340339, 0.41566, 0.287975, 0.697804, 0.73978, 0.565769, 0.269679, 0.549793, 0.880651, 0.773873, 0.818053, 0.60776, 0.385845, 0.73255, 0.63182, 0.835853, 0.19979, 0.493929, 0.32881, 0.356536, 0.787139, 0.5713279999999999, 0.234083, 0.775237, 0.556731, 0.050293, 0.186079, 0.219797, 0.421393, 0.783317, 0.44907, 0.516611, 0.802123];
discharge = [0.33127, 0.119594, 0.847982, 0.207128, 0.13283, 0.169319, 0.98076, 0.131645, 0.663502, 0.81808, 0.423509, 0.831939, 0.919625, 0.12292, 0.973301, 0.651012, 0.400178, 0.647547, 0.915239, 0.01881, 0.587823, 0.226468, 0.980577, 0.715307, 0.059899, 0.009509999999999999, 0.514259, 0.147479, 0.292179, 0.24773, 0.805214, 0.74526, 0.721404, 0.012853, 0.6473, 0.26084, 0.657199, 0.187102, 0.991192, 0.640346, 0.321264, 0.7741440000000001, 0.135565, 0.887504, 0.5727719999999999, 0.269495, 0.381068, 0.292208, 0.7125899999999999, 0.034788, 0.4859, 0.873773, 0.011292, 0.430234, 0.333075, 0.786174, 0.870706, 0.318446, 0.263911, 0.336167, 0.055281, 0.714207, 0.189638, 0.835392, 0.563036, 0.499562, 0.136803, 0.183369, 0.240929, 0.262215, 0.132809, 0.886249, 0.024908, 0.579067, 0.390133, 0.367895, 0.2091, 0.673964, 0.124279, 0.585249, 0.779693, 0.350287, 0.694101, 0.32931, 0.692141, 0.33936, 0.9841569999999999, 0.560931, 0.686147, 0.477733, 0.999752, 0.016493, 0.918607, 0.283535, 0.899227, 0.143064];
soc = [4.358824, 2.930444, 4.20599, 4.847907, 5.914469, 6.956174, 8.880658, 5.857415, 6.352483, 11.044614, 5.216556, 10.326568, 13.664518, 4.60104, 8.364826000000001, 11.85772, 6.034272, 2.781561, 14.920922, 11.19455, 6.188909, 8.712769, 11.419369, 4.189594, 15.285561, 8.747113000000001, 10.020443, 14.087111, 4.107382, 12.950477, 8.154976, 9.416119, 4.920649, 2.734452, 10.730444, 11.327486, 4.764537, 11.596604, 8.843272000000001, 13.448476, 10.681061, 11.805016, 5.06851, 12.44398, 12.969559, 9.806376999999999, 12.585378, 9.716317999999999, 15.62895, 9.032522, 9.227633000000001, 14.388976, 3.873843, 5.778831, 10.610741, 8.316299000000001, 6.656774, 12.558985, 5.450092, 5.470219, 5.526045, 8.229872, 3.363546, 10.642278, 7.278963, 5.966081, 9.544185000000001, 4.817819, 15.413663, 12.160653, 9.721595000000001, 5.155191, 4.606243, 10.481306, 6.908675, 4.272363, 12.75506, 3.918471, 12.123487, 15.188283, 4.511101, 6.302609, 6.156034, 7.121653, 13.563024, 14.806798, 12.457361, 11.060552, 4.704291, 3.483934, 12.771209, 10.201585, 12.778275, 3.70282, 9.259558, 15.262768];
cost = [73.30689099999999, 117.842697, 88.52040599999999, 84.842707, 410.217042, 46.066873, 351.487712, 145.353, 520.13058, 47.498976, 115.46287, 539.24599, 0.9847399999999999, 327.444788, 105.977841, 409.376524, 306.731138, 387.702559, 23.572354, 515.9710240000001, 63.553083, 328.628132, 191.137864, 257.829644, 1075.447816, 22.684363, 700.598642, 8.925089, 850.866113, 291.453514, 1030.965007, 907.948999, 1062.869945, 57.124137, 749.28877, 1135.675865, 901.013948, 873.994858, 436.078275, 0.46855, 1025.09726, 748.787155, 1015.968282, 1120.687434, 124.95068, 954.797473, 902.567144, 824.036357, 1026.960727, 324.607614, 1041.009173, 734.50282, 224.646313, 335.589778, 461.12496, 248.334528, 370.114878, 297.083393, 413.463276, 339.434778, 229.035476, 613.24647, 422.773099, 1107.021706, 153.086195, 842.148883, 452.30337, 950.808655, 738.529911, 776.790107, 522.4089750000001, 957.154823, 215.534378, 988.22507, 735.297838, 265.662234, 266.781111, 571.818966, 518.232259, 978.495914, 294.478028, 532.590695, 389.015671, 381.08245, 123.239374, 626.818597, 558.5037160000001, 146.02917, 79.390123, 121.48455, 76.64553600000001, 257.026813, 490.347735, 261.407727, 245.145742, 245.147893];
earn = [1.327331, 0.08333400000000001, 1.666657, 1.515287, 0.453005, 0.83503, 0.482897, 0.565308, 1.748627, 1.8891, 1.522153, 1.053498, 0.663871, 1.484876, 1.322635, 1.530643, 1.131977, 0.739982, 0.196578, 0.297589, 1.648532, 0.685279, 0.27274, 0.814232, 0.326622, 0.471966, 2.166019, 1.509136, 1.768398, 0.663879, 2.201887, 0.365305, 1.911018, 1.675751, 1.418284, 0.005197, 0.361741, 0.365527, 0.595677, 1.892676, 0.198389, 1.856581, 1.638686, 0.539141, 1.337818, 0.607486, 0.048915, 0.243347, 0.008165, 1.725707, 1.31169, 0.465185, 0.899667, 0.918956, 2.060904, 0.498738, 0.473544, 2.088906, 1.611682, 2.037152, 1.697479, 1.519388, 0.348832, 1.484445, 1.259744, 2.670682, 1.833288, 1.261336, 1.089649, 2.517606, 1.258155, 2.18594, 2.125581, 3.02813, 2.505456, 3.036265, 2.10896, 3.074171, 0.166647, 2.842913, 0.616184, 1.079241, 2.123187, 1.038029, 0.9807670000000001, 0.374836, 0.23995, 0.230422, 1.271492, 2.218073, 2.039732, 1.87695, 0.41314, 1.747678, 0.624379, 1.780536];
total_cost = 51.48744979682913;
total_earn = 21.26196201200686;
% _objective = 30.22548778482227;
