production = [0: 0.0, 1: 0.0, 2: 0.0, 3: 0.0, 4: 0.0, 5: 0.0, 6: 0.0, 7: 0.0, 8: 0.0, 9: 0.0, 10: 0.0, 11: 0.0, 12: 0.0, 13: 0.0, 14: 0.0, 15: 0.0, 16: 0.0, 17: 0.0, 18: 0.0, 19: 0.0, 20: 0.0, 21: 0.0, 22: 0.0, 23: 7.4e-05, 24: 0.001981, 25: 0.021017, 26: 0.03796, 27: 0.008279, 28: 0.067854, 29: 0.034909, 30: 0.08981500000000001, 31: 0.002016, 32: 0.430994, 33: 0.764703, 34: 0.108169, 35: 0.09433, 36: 0.139744, 37: 0.6797800000000001, 38: 0.397989, 39: 1.329651, 40: 1.157617, 41: 0.024826, 42: 0.39639, 43: 0.915408, 44: 0.874208, 45: 0.266545, 46: 0.029763, 47: 0.053236, 48: 0.046856, 49: 0.058924, 50: 0.035795, 51: 0.018367, 52: 0.058402, 53: 0.277046, 54: 0.200177, 55: 0.272193, 56: 1.010438, 57: 1.169754, 58: 0.663382, 59: 1.045616, 60: 0.976286, 61: 0.253941, 62: 0.550387, 63: 0.242713, 64: 0.345955, 65: 0.106293, 66: 0.250825, 67: 0.033205, 68: 0.100431, 69: 0.026601, 70: 0.013881, 71: 0.009216999999999999, 72: 0.003748, 73: 2.3e-05, 74: 0.0, 75: 0.0, 76: 0.0, 77: 0.0, 78: 0.0, 79: 0.0, 80: 0.0, 81: 0.0, 82: 0.0, 83: 0.0, 84: 0.0, 85: 0.0, 86: 0.0, 87: 0.0, 88: 0.0, 89: 0.0, 90: 0.0, 91: 0.0, 92: 0.0, 93: 0.0, 94: 0.0, 95: 0.0];
buy = [0: 179.067738, 1: 753.925474, 2: 610.3023010000001, 3: 964.507121, 4: 763.012161, 5: 515.039361, 6: 916.311236, 7: 411.447818, 8: 851.307307, 9: 605.452988, 10: 561.444842, 11: 461.865588, 12: 152.21891, 13: 687.652287, 14: 561.3622329999999, 15: 215.532756, 16: 575.782457, 17: 164.960118, 18: 655.495874, 19: 455.391088, 20: 309.527571, 21: 540.329145, 22: 57.422038, 23: 402.336267, 24: 443.662595, 25: 326.411753, 26: 602.51477, 27: 789.0618930000001, 28: 115.187392, 29: 175.899913, 30: 428.068109, 31: 329.056893, 32: 559.610666, 33: 362.12737, 34: 417.409466, 35: 719.814196, 36: 586.819795, 37: 702.958887, 38: 141.499652, 39: 204.952983, 40: 42.263295, 41: 984.4977709999999, 42: 411.095289, 43: 260.075777, 44: 132.010982, 45: 907.807511, 46: 805.846531, 47: 385.153263, 48: 305.495555, 49: 767.5835080000001, 50: 804.685979, 51: 668.0475269999999, 52: 485.856575, 53: 955.501714, 54: 505.729553, 55: 635.971503, 56: 79.661395, 57: 954.04417, 58: 843.953973, 59: 413.305882, 60: 32.55311, 61: 272.606556, 62: 590.972428, 63: 92.04577399999999, 64: 3.21676, 65: 210.729636, 66: 303.282955, 67: 467.14001, 68: 328.198673, 69: 672.493346, 70: 237.277812, 71: 74.16788, 72: 845.41965, 73: 513.8475, 74: 652.793954, 75: 908.241743, 76: 171.056188, 77: 449.294763, 78: 598.266345, 79: 309.540874, 80: 209.061866, 81: 830.01171, 82: 931.417402, 83: 840.350021, 84: 812.8093280000001, 85: 790.798011, 86: 698.268002, 87: 83.577383, 88: 224.396006, 89: 168.349042, 90: 647.235911, 91: 580.764448, 92: 463.623964, 93: 138.635042, 94: 181.812748, 95: 406.62568];
sell = [0: 2.412043, 1: 3.618848, 2: 3.756062, 3: 2.246911, 4: 2.831176, 5: 1.240275, 6: 2.114138, 7: 3.333404, 8: 0.027807, 9: 2.478418, 10: 1.506769, 11: 3.797135, 12: 2.518302, 13: 0.718269, 14: 0.733508, 15: 2.427977, 16: 2.874898, 17: 1.156256, 18: 2.571106, 19: 1.139267, 20: 1.685909, 21: 0.411578, 22: 3.741386, 23: 1.25225, 24: 0.851033, 25: 1.504059, 26: 1.607771, 27: 1.385129, 28: 1.536681, 29: 0.308046, 30: 1.837351, 31: 1.12029, 32: 0.31881, 33: 0.81236, 34: 1.433158, 35: 1.893657, 36: 1.980828, 37: 2.005066, 38: 1.065505, 39: 1.25035, 40: 0.1271, 41: 2.575461, 42: 1.64578, 43: 2.36103, 44: 3.358189, 45: 1.701985, 46: 3.740509, 47: 1.21357, 48: 2.585497, 49: 1.454063, 50: 0.742815, 51: 3.816694, 52: 0.703655, 53: 1.033016, 54: 0.394266, 55: 2.433519, 56: 3.327245, 57: 1.737683, 58: 0.44711, 59: 0.671988, 60: 1.765679, 61: 1.07371, 62: 3.225907, 63: 0.300221, 64: 2.47414, 65: 0.424707, 66: 3.157065, 67: 2.34528, 68: 2.369863, 69: 2.177637, 70: 0.821054, 71: 2.843694, 72: 0.261735, 73: 0.614243, 74: 2.666818, 75: 0.297241, 76: 0.872962, 77: 1.880589, 78: 0.911579, 79: 1.295792, 80: 3.603272, 81: 1.510788, 82: 2.224959, 83: 2.06802, 84: 0.67177, 85: 1.01662, 86: 0.061599, 87: 1.375418, 88: 3.535338, 89: 0.749566, 90: 1.824407, 91: 1.806592, 92: 3.868656, 93: 1.310015, 94: 2.601752, 95: 0.645076];
charge = [0: 0.510554, 1: 0.487334, 2: 0.304499, 3: 0.551417, 4: 0.659049, 5: 0.040791, 6: 0.297958, 7: 0.518595, 8: 0.232337, 9: 0.949939, 10: 0.978002, 11: 0.898155, 12: 0.165473, 13: 0.538232, 14: 0.174225, 15: 0.958962, 16: 0.5669459999999999, 17: 0.279661, 18: 0.195538, 19: 0.986998, 20: 0.8517670000000001, 21: 0.673986, 22: 0.439515, 23: 0.65418, 24: 0.020592, 25: 0.07462100000000001, 26: 0.708236, 27: 0.663012, 28: 0.970928, 29: 0.645337, 30: 0.25072, 31: 0.668341, 32: 0.637907, 33: 0.058051, 34: 0.482303, 35: 0.770469, 36: 0.012702, 37: 0.115853, 38: 0.754983, 39: 0.185766, 40: 0.5727139999999999, 41: 0.116183, 42: 0.852482, 43: 0.571072, 44: 0.024287, 45: 0.125024, 46: 0.445043, 47: 0.76031, 48: 0.012943, 49: 0.289069, 50: 0.196636, 51: 0.9997470000000001, 52: 0.490025, 53: 0.133076, 54: 0.146934, 55: 0.137047, 56: 0.214559, 57: 0.529772, 58: 0.819013, 59: 0.067968, 60: 0.221453, 61: 0.073906, 62: 0.657699, 63: 0.865471, 64: 0.652091, 65: 0.929466, 66: 0.04378, 67: 0.575536, 68: 0.839373, 69: 0.203244, 70: 0.12929, 71: 0.040124, 72: 0.003159, 73: 0.765876, 74: 0.13038, 75: 0.8002629999999999, 76: 0.849656, 77: 0.00455, 78: 0.844623, 79: 0.21924, 80: 0.158442, 81: 0.120315, 82: 0.074825, 83: 0.484709, 84: 0.163008, 85: 0.331133, 86: 0.591198, 87: 0.223265, 88: 0.348999, 89: 0.918462, 90: 0.589328, 91: 0.301414, 92: 0.6520590000000001, 93: 0.499996, 94: 0.945406, 95: 0.532237];
discharge = [0: 0.171492, 1: 0.59729, 2: 0.401276, 3: 0.716016, 4: 0.558913, 5: 0.856578, 6: 0.34234, 7: 0.580607, 8: 0.033163, 9: 0.320363, 10: 0.626269, 11: 0.5548, 12: 0.222655, 13: 0.919112, 14: 0.07091, 15: 0.774377, 16: 0.440393, 17: 0.921372, 18: 0.770387, 19: 0.862408, 20: 0.428289, 21: 0.355208, 22: 0.969697, 23: 0.586381, 24: 0.039992, 25: 0.633674, 26: 0.444349, 27: 0.5514210000000001, 28: 0.039472, 29: 0.780343, 30: 0.251112, 31: 0.5857019999999999, 32: 0.146626, 33: 0.190145, 34: 0.305622, 35: 0.215104, 36: 0.13079, 37: 0.23645, 38: 0.117661, 39: 0.151673, 40: 0.415785, 41: 0.374213, 42: 0.966577, 43: 0.39015, 44: 0.70971, 45: 0.742923, 46: 0.767307, 47: 0.216689, 48: 0.576632, 49: 0.796061, 50: 0.872191, 51: 0.055274, 52: 0.813561, 53: 0.397003, 54: 0.5540310000000001, 55: 0.217584, 56: 0.367286, 57: 0.8015600000000001, 58: 0.004407, 59: 0.934034, 60: 0.309849, 61: 0.311028, 62: 0.685408, 63: 0.395484, 64: 0.28457, 65: 0.613289, 66: 0.866183, 67: 0.221186, 68: 0.795522, 69: 0.85798, 70: 0.891692, 71: 0.203816, 72: 0.359245, 73: 0.895477, 74: 0.14397, 75: 0.925673, 76: 0.167875, 77: 0.6714830000000001, 78: 0.59657, 79: 0.64256, 80: 0.612766, 81: 0.621098, 82: 0.363847, 83: 0.217316, 84: 0.6554219999999999, 85: 0.39569, 86: 0.413095, 87: 0.564652, 88: 0.892292, 89: 0.472176, 90: 0.668746, 91: 0.594131, 92: 0.33267, 93: 0.102087, 94: 0.8233549999999999, 95: 0.572974];
soc = [0: 4.377435, 1: 4.119465, 2: 7.215401, 3: 4.60517, 4: 2.81059, 5: 5.565192, 6: 5.529357, 7: 6.030575, 8: 5.768899, 9: 8.495252000000001, 10: 10.573179, 11: 15.044617, 12: 6.930379, 13: 6.874367, 14: 10.764392, 15: 12.03, 16: 14.584654, 17: 2.781224, 18: 9.517495, 19: 5.209175, 20: 6.215297, 21: 7.178419, 22: 3.203864, 23: 10.891059, 24: 3.354628, 25: 10.146809, 26: 12.238376, 27: 12.322852, 28: 8.713285000000001, 29: 8.014151, 30: 7.273054, 31: 11.589548, 32: 3.085252, 33: 13.476848, 34: 11.134983, 35: 6.325969, 36: 7.679728, 37: 10.397524, 38: 6.959014, 39: 10.727916, 40: 3.772689, 41: 14.682136, 42: 12.037616, 43: 4.369962, 44: 10.389586, 45: 4.466521, 46: 3.166302, 47: 10.79071, 48: 5.353045, 49: 5.739376, 50: 5.260052, 51: 15.63803, 52: 11.40742, 53: 11.185542, 54: 12.093155, 55: 3.547506, 56: 4.112488, 57: 6.684365, 58: 4.602871, 59: 12.77143, 60: 4.204972, 61: 10.68185, 62: 8.513574999999999, 63: 10.848271, 64: 10.889563, 65: 5.529847, 66: 7.348443, 67: 8.986636000000001, 68: 9.705396, 69: 2.719825, 70: 9.200517, 71: 15.402789, 72: 4.168392, 73: 7.481184, 74: 5.083101, 75: 5.051336, 76: 6.979371, 77: 9.342402999999999, 78: 3.768932, 79: 5.551665, 80: 7.070075, 81: 12.206337, 82: 3.046552, 83: 4.57361, 84: 5.760319, 85: 11.112977, 86: 7.846675, 87: 11.878698, 88: 13.888035, 89: 14.121939, 90: 14.271351, 91: 6.784951, 92: 13.788789, 93: 6.207342, 94: 7.091917, 95: 9.332535999999999];
cost = [0: 232.871926, 1: 327.936419, 2: 515.172791, 3: 56.343132, 4: 336.423082, 5: 71.862201, 6: 38.75385, 7: 84.898297, 8: 111.453908, 9: 402.939944, 10: 345.238848, 11: 132.944638, 12: 458.931909, 13: 5.945555, 14: 81.24802800000001, 15: 29.696579, 16: 67.704892, 17: 386.102358, 18: 234.179543, 19: 24.294909, 20: 52.130993, 21: 291.03399, 22: 337.075295, 23: 365.531728, 24: 986.288293, 25: 529.876969, 26: 194.512913, 27: 64.613637, 28: 325.780517, 29: 60.431164, 30: 15.319598, 31: 405.639144, 32: 780.042986, 33: 687.50045, 34: 566.161431, 35: 511.749854, 36: 773.5570269999999, 37: 296.719595, 38: 1074.243942, 39: 353.701889, 40: 141.98195, 41: 381.668742, 42: 906.125463, 43: 586.929205, 44: 966.8679990000001, 45: 550.677685, 46: 712.391082, 47: 69.377573, 48: 914.588958, 49: 613.84689, 50: 409.697318, 51: 1163.634968, 52: 389.416935, 53: 49.318632, 54: 13.048614, 55: 558.034239, 56: 288.592823, 57: 29.884958, 58: 294.379064, 59: 137.443033, 60: 37.863118, 61: 615.4320300000001, 62: 501.118133, 63: 957.1681129999999, 64: 264.203313, 65: 1146.712855, 66: 754.855181, 67: 552.334149, 68: 819.903184, 69: 746.659618, 70: 167.469512, 71: 1115.584031, 72: 132.775005, 73: 126.38486, 74: 985.9048, 75: 836.884293, 76: 979.618707, 77: 469.269905, 78: 316.049984, 79: 938.63151, 80: 1184.010102, 81: 397.798225, 82: 387.430008, 83: 857.306568, 84: 256.067747, 85: 370.821267, 86: 1116.477593, 87: 442.983556, 88: 196.51454, 89: 297.783771, 90: 150.93739, 91: 236.318593, 92: 526.940291, 93: 412.527191, 94: 12.173311, 95: 346.968156];
earn = [0: 2.168731, 1: 0.038818, 2: 0.988231, 3: 1.600015, 4: 1.852169, 5: 0.591488, 6: 1.336362, 7: 1.916557, 8: 1.365015, 9: 0.250371, 10: 0.194236, 11: 1.433615, 12: 1.31145, 13: 0.687875, 14: 1.881759, 15: 0.190769, 16: 0.7494420000000001, 17: 1.284683, 18: 0.088378, 19: 1.870657, 20: 0.150471, 21: 1.290396, 22: 1.784375, 23: 1.426866, 24: 1.5746, 25: 2.012861, 26: 0.77711, 27: 0.255657, 28: 2.362234, 29: 2.034936, 30: 0.813378, 31: 1.92011, 32: 2.417662, 33: 2.203862, 34: 0.363873, 35: 1.767224, 36: 0.222035, 37: 1.18905, 38: 0.160904, 39: 0.47977, 40: -0.002765, 41: -0.024459, 42: -0.264777, 43: -0.08110199999999999, 44: -0.032791, 45: -0.105702, 46: -0.094393, 47: -0.059805, 48: -0.113805, 49: -0.089781, 50: -0.044331, 51: -0.029885, 52: -0.072647, 53: -0.020053, 54: -0.02815, 55: -0.001085, 56: 0.005285, 57: 0.013643, 58: 0.049226, 59: 0.001321, 60: 1.050896, 61: 1.327891, 62: 0.578238, 63: 1.839316, 64: 1.991647, 65: 1.245747, 66: 2.702676, 67: 0.274613, 68: 0.698925, 69: 2.889458, 70: 0.768607, 71: 2.15851, 72: 1.097456, 73: 3.439141, 74: 1.929117, 75: 1.942549, 76: 3.4877, 77: 2.51277, 78: 0.970572, 79: 0.593878, 80: 0.381524, 81: 0.929997, 82: 1.059918, 83: 1.685736, 84: 2.402028, 85: 2.412547, 86: 0.5829530000000001, 87: 2.56715, 88: 2.521898, 89: 0.660655, 90: 0.007906, 91: 0.265476, 92: 0.537582, 93: 1.466297, 94: 1.092949, 95: 0.977395];
total_cost = 46.22559375528187;
total_earn = 14.22013810174785;
