production = [0: 0.0, 1: 0.0, 2: 0.0, 3: 0.0, 4: 0.0, 5: 0.0, 6: 0.0, 7: 0.0, 8: 0.0, 9: 0.0, 10: 0.0, 11: 0.0, 12: 0.0, 13: 0.0, 14: 0.0, 15: 0.0, 16: 0.0, 17: 0.0, 18: 0.0, 19: 0.0, 20: 0.0, 21: 0.0, 22: 0.0, 23: 0.000277, 24: 0.002429, 25: 0.014124, 26: 0.043811, 27: 0.07659299999999999, 28: 0.109264, 29: 0.054085, 30: 0.167481, 31: 0.313324, 32: 0.328026, 33: 0.453367, 34: 0.594627, 35: 0.101325, 36: 0.291106, 37: 0.481804, 38: 0.354709, 39: 1.070291, 40: 1.057339, 41: 1.021616, 42: 0.90593, 43: 0.199301, 44: 0.827408, 45: 0.001631, 46: 0.07101499999999999, 47: 0.007041, 48: 0.058858, 49: 0.000141, 50: 0.024344, 51: 0.002144, 52: 0.062009, 53: 0.165823, 54: 0.1922, 55: 0.372822, 56: 0.925396, 57: 0.350626, 58: 0.6553600000000001, 59: 0.238028, 60: 0.309058, 61: 0.489217, 62: 0.080127, 63: 0.216772, 64: 0.181186, 65: 0.025547, 66: 0.213878, 67: 0.139249, 68: 0.091764, 69: 0.066884, 70: 0.029564, 71: 0.002239, 72: 0.002732, 73: 0.000132, 74: 0.0, 75: 0.0, 76: 0.0, 77: 0.0, 78: 0.0, 79: 0.0, 80: 0.0, 81: 0.0, 82: 0.0, 83: 0.0, 84: 0.0, 85: 0.0, 86: 0.0, 87: 0.0, 88: 0.0, 89: 0.0, 90: 0.0, 91: 0.0, 92: 0.0, 93: 0.0, 94: 0.0, 95: 0.0];
buy = [0: 926.837237, 1: 42.581894, 2: 463.107145, 3: 316.54038, 4: 428.533465, 5: 812.133274, 6: 970.863396, 7: 935.494594, 8: 176.602808, 9: 442.210836, 10: 517.4690399999999, 11: 277.111854, 12: 45.219177, 13: 665.848335, 14: 894.6421810000001, 15: 514.850185, 16: 797.512519, 17: 419.886046, 18: 17.828723, 19: 509.845175, 20: 238.961387, 21: 676.567516, 22: 720.4931329999999, 23: 199.417439, 24: 783.754792, 25: 893.612835, 26: 817.996127, 27: 829.40165, 28: 206.223949, 29: 186.861118, 30: 840.377529, 31: 527.205605, 32: 509.195042, 33: 440.003654, 34: 558.273471, 35: 77.59848, 36: 526.362128, 37: 473.599474, 38: 845.830726, 39: 378.555885, 40: 915.949025, 41: 777.098343, 42: 236.35751, 43: 552.23486, 44: 585.165275, 45: 961.40229, 46: 455.199998, 47: 978.13998, 48: 742.039138, 49: 833.611814, 50: 535.850953, 51: 106.982631, 52: 404.570876, 53: 800.343146, 54: 308.023535, 55: 273.350146, 56: 720.5586499999999, 57: 445.034808, 58: 201.090999, 59: 928.050761, 60: 599.603084, 61: 240.522179, 62: 105.367868, 63: 673.923316, 64: 310.248714, 65: 406.872821, 66: 341.948009, 67: 837.6563619999999, 68: 760.8590850000001, 69: 197.565025, 70: 518.166171, 71: 591.01946, 72: 990.167226, 73: 828.44407, 74: 655.87311, 75: 790.043771, 76: 510.364891, 77: 995.331959, 78: 141.311716, 79: 854.569194, 80: 289.349477, 81: 512.329779, 82: 488.519532, 83: 535.207353, 84: 36.612017, 85: 28.322996, 86: 424.594261, 87: 291.619149, 88: 158.320408, 89: 721.864174, 90: 481.892602, 91: 27.036892, 92: 288.468539, 93: 455.729134, 94: 140.380019, 95: 783.420073];
sell = [0: 1.089679, 1: 0.966564, 2: 3.647637, 3: 0.947643, 4: 2.082943, 5: 3.554862, 6: 1.664122, 7: 0.650803, 8: 3.175333, 9: 0.383756, 10: 1.199134, 11: 2.866748, 12: 2.527002, 13: 1.887348, 14: 2.867759, 15: 3.854288, 16: 1.793996, 17: 0.143595, 18: 0.996882, 19: 2.925177, 20: 1.826135, 21: 0.645193, 22: 2.404293, 23: 0.956634, 24: 1.424019, 25: 0.7774990000000001, 26: 3.946721, 27: 0.621046, 28: 3.028633, 29: 0.796576, 30: 2.829791, 31: 2.019893, 32: 3.584632, 33: 2.193499, 34: 0.676131, 35: 2.79474, 36: 2.927524, 37: 0.261339, 38: 0.64994, 39: 3.118795, 40: 3.92881, 41: 2.459144, 42: 1.239195, 43: 0.7256089999999999, 44: 0.754412, 45: 0.506464, 46: 0.202922, 47: 2.590766, 48: 3.591123, 49: 3.604006, 50: 1.316776, 51: 2.355845, 52: 0.477114, 53: 3.666608, 54: 2.564303, 55: 2.992058, 56: 3.770168, 57: 3.045335, 58: 1.989819, 59: 2.083159, 60: 2.670048, 61: 0.678493, 62: 1.196676, 63: 1.434298, 64: 1.593477, 65: 0.675874, 66: 2.930317, 67: 3.026067, 68: 2.276519, 69: 3.10772, 70: 1.47267, 71: 3.296593, 72: 0.231802, 73: 1.403333, 74: 2.445325, 75: 2.747079, 76: 1.816362, 77: 1.45151, 78: 1.520808, 79: 0.076392, 80: 3.045143, 81: 0.461186, 82: 3.908091, 83: 3.47541, 84: 3.827003, 85: 3.46211, 86: 1.496441, 87: 2.657781, 88: 3.143399, 89: 1.500182, 90: 2.608765, 91: 3.344164, 92: 3.018571, 93: 0.570679, 94: 1.019816, 95: 2.738184];
charge = [0: 0.908859, 1: 0.035337, 2: 0.829418, 3: 0.474739, 4: 0.293193, 5: 0.9565709999999999, 6: 0.648917, 7: 0.9155450000000001, 8: 0.105318, 9: 0.379823, 10: 0.488835, 11: 0.223696, 12: 0.694572, 13: 0.588233, 14: 0.838171, 15: 0.054151, 16: 0.246466, 17: 0.363585, 18: 0.117935, 19: 0.238266, 20: 0.542948, 21: 0.8230690000000001, 22: 0.201015, 23: 0.51614, 24: 0.077056, 25: 0.191219, 26: 0.665204, 27: 0.995375, 28: 0.633334, 29: 0.755416, 30: 0.19605, 31: 0.695248, 32: 0.760885, 33: 0.907792, 34: 0.5905319999999999, 35: 0.619932, 36: 0.483786, 37: 0.724456, 38: 0.364703, 39: 0.516877, 40: 0.185912, 41: 0.682486, 42: 0.465712, 43: 0.195505, 44: 0.370794, 45: 0.710158, 46: 0.9486560000000001, 47: 0.484047, 48: 0.9545940000000001, 49: 0.770555, 50: 0.147156, 51: 0.468897, 52: 0.531833, 53: 0.122089, 54: 0.245789, 55: 0.416448, 56: 0.6411249999999999, 57: 0.932154, 58: 0.7209719999999999, 59: 0.5214839999999999, 60: 0.918314, 61: 0.8317, 62: 0.381723, 63: 0.929803, 64: 0.744418, 65: 0.187895, 66: 0.6155659999999999, 67: 0.153867, 68: 0.55125, 69: 0.548308, 70: 0.858783, 71: 0.091179, 72: 0.068388, 73: 0.721576, 74: 0.974348, 75: 0.031854, 76: 0.575917, 77: 0.6695179999999999, 78: 0.406358, 79: 0.921355, 80: 0.020091, 81: 0.963265, 82: 0.047828, 83: 0.667376, 84: 0.426808, 85: 0.70399, 86: 0.333087, 87: 0.254482, 88: 0.937828, 89: 0.619278, 90: 0.754074, 91: 0.128074, 92: 0.6514529999999999, 93: 0.627378, 94: 0.8417519999999999, 95: 0.534444];
discharge = [0: 0.43162, 1: 0.868651, 2: 0.46881, 3: 0.791841, 4: 0.765688, 5: 0.990052, 6: 0.269433, 7: 0.239649, 8: 0.829722, 9: 0.468089, 10: 0.282141, 11: 0.238062, 12: 0.949581, 13: 0.969739, 14: 0.921832, 15: 0.374199, 16: 0.400954, 17: 0.418312, 18: 0.713391, 19: 0.15651, 20: 0.49369, 21: 0.320234, 22: 0.633928, 23: 0.215213, 24: 0.9129620000000001, 25: 0.009565000000000001, 26: 0.674801, 27: 0.168376, 28: 0.070102, 29: 0.20495, 30: 0.053131, 31: 0.641474, 32: 0.097334, 33: 0.371391, 34: 0.692882, 35: 0.08831799999999999, 36: 0.07424, 37: 0.8076410000000001, 38: 0.788231, 39: 0.400878, 40: 0.572499, 41: 0.240628, 42: 0.050813, 43: 0.832082, 44: 0.5458229999999999, 45: 0.224243, 46: 0.48988, 47: 0.891608, 48: 0.258932, 49: 0.174538, 50: 0.986191, 51: 0.709584, 52: 0.373032, 53: 0.608716, 54: 0.462113, 55: 0.222589, 56: 0.336926, 57: 0.301238, 58: 0.358992, 59: 0.916177, 60: 0.719124, 61: 0.110581, 62: 0.942325, 63: 0.676165, 64: 0.215246, 65: 0.418258, 66: 0.5510699999999999, 67: 0.579574, 68: 0.454585, 69: 0.136657, 70: 0.723313, 71: 0.978575, 72: 0.882773, 73: 0.386206, 74: 0.937701, 75: 0.9208809999999999, 76: 0.845121, 77: 0.720291, 78: 0.724374, 79: 0.615384, 80: 0.664707, 81: 0.521641, 82: 0.08301699999999999, 83: 0.913226, 84: 0.658911, 85: 0.395453, 86: 0.188684, 87: 0.890498, 88: 0.284052, 89: 0.063333, 90: 0.795664, 91: 0.833083, 92: 0.456792, 93: 0.637741, 94: 0.477941, 95: 0.900249];
soc = [0: 4.185877, 1: 4.666177, 2: 3.387843, 3: 8.254713000000001, 4: 3.183729, 5: 4.025358, 6: 8.500033999999999, 7: 4.034926, 8: 3.957814, 9: 6.16312, 10: 11.06161, 11: 12.828144, 12: 7.22619, 13: 10.959415, 14: 15.16047, 15: 11.229172, 16: 7.616022, 17: 3.346892, 18: 7.214328, 19: 10.714679, 20: 11.382271, 21: 2.818503, 22: 2.76215, 23: 7.53873, 24: 14.646488, 25: 14.877732, 26: 2.916719, 27: 12.730959, 28: 11.501007, 29: 15.567687, 30: 10.896156, 31: 3.902047, 32: 6.421477, 33: 11.602748, 34: 3.63849, 35: 12.349157, 36: 10.65215, 37: 8.748848000000001, 38: 11.260005, 39: 12.803596, 40: 7.9704, 41: 6.253069, 42: 3.233791, 43: 8.797412, 44: 11.008862, 45: 13.100573, 46: 8.556361000000001, 47: 7.562377, 48: 11.398578, 49: 9.226794, 50: 6.728747, 51: 9.806917, 52: 12.386936, 53: 15.260375, 54: 9.270488, 55: 14.830459, 56: 4.220275, 57: 12.30422, 58: 10.810439, 59: 10.689068, 60: 6.887205, 61: 12.194495, 62: 8.540257, 63: 5.61951, 64: 12.913066, 65: 13.711325, 66: 9.369870000000001, 67: 4.302387, 68: 9.555894, 69: 8.400124999999999, 70: 11.066501, 71: 7.683109, 72: 2.773603, 73: 8.211776, 74: 11.352224, 75: 6.58172, 76: 7.824243, 77: 5.483645, 78: 15.599933, 79: 15.028651, 80: 9.018815999999999, 81: 5.622266, 82: 10.714082, 83: 3.984091, 84: 8.356267000000001, 85: 13.391086, 86: 3.768807, 87: 9.918561, 88: 8.033039, 89: 10.105113, 90: 9.001244, 91: 12.013413, 92: 10.435686, 93: 14.146836, 94: 14.338313, 95: 9.86077];
cost = [0: 259.665408, 1: 334.095954, 2: 567.847677, 3: 461.288858, 4: 390.351127, 5: 195.715588, 6: 1.242858, 7: 211.757504, 8: 570.72505, 9: 555.794203, 10: 424.339197, 11: 373.17966, 12: 316.751325, 13: 306.431486, 14: 191.487034, 15: 525.168346, 16: 54.410645, 17: 206.839487, 18: 72.828611, 19: 428.220936, 20: 383.217803, 21: 572.609604, 22: 439.400472, 23: 105.078829, 24: 1007.502986, 25: 664.426757, 26: 805.3426459999999, 27: 1121.062258, 28: 0.181468, 29: 747.40692, 30: 689.718646, 31: 839.548638, 32: 705.234931, 33: 1161.556977, 34: 712.5900820000001, 35: 505.824095, 36: 277.168941, 37: 700.540611, 38: 119.039157, 39: 433.161946, 40: 313.531834, 41: 893.579575, 42: 858.869398, 43: 475.878573, 44: 634.996138, 45: 1013.128441, 46: 515.619894, 47: 178.235256, 48: 1014.223743, 49: 534.582598, 50: 159.876068, 51: 1094.722276, 52: 213.630731, 53: 281.094234, 54: 253.45915, 55: 508.232784, 56: 165.50175, 57: 232.112391, 58: 565.967663, 59: 506.034384, 60: 778.811237, 61: 284.797089, 62: 266.44741, 63: 697.604682, 64: 131.512857, 65: 620.669234, 66: 88.67272, 67: 1174.922526, 68: 840.738895, 69: 215.570119, 70: 1156.257193, 71: 1121.521004, 72: 576.087621, 73: 191.147396, 74: 184.705424, 75: 16.810546, 76: 255.642233, 77: 142.054108, 78: 59.543959, 79: 992.701118, 80: 740.996304, 81: 613.556555, 82: 777.744188, 83: 854.690309, 84: 264.104975, 85: 201.421834, 86: 121.267912, 87: 248.462554, 88: 217.387851, 89: 164.81011, 90: 251.307672, 91: 199.876497, 92: 247.699043, 93: 363.706143, 94: 43.668202, 95: 104.736927];
earn = [0: 1.879002, 1: 0.484158, 2: 0.466239, 3: 1.979418, 4: 1.650514, 5: 0.826519, 6: 1.208028, 7: 1.163963, 8: 1.984856, 9: 0.059425, 10: 0.533466, 11: 0.670883, 12: 1.497851, 13: 1.84465, 14: 0.016373, 15: 1.933679, 16: 0.721857, 17: 0.391993, 18: 0.027679, 19: 0.608963, 20: 1.477093, 21: 0.683658, 22: 1.686802, 23: 2.258254, 24: 0.550498, 25: 0.99325, 26: 0.61245, 27: 0.907273, 28: 1.549851, 29: 1.404854, 30: 2.307253, 31: 1.469234, 32: 0.239508, 33: 0.268695, 34: 1.132766, 35: 1.286008, 36: 0.833829, 37: 0.073661, 38: 0.5259160000000001, 39: 0.224262, 40: -0.003992, 41: -0.059446, 42: -0.171588, 43: -0.048715, 44: -0.010807, 45: -0.027126, 46: -0.062293, 47: -0.055662, 48: -0.02619, 49: -0.037245, 50: -0.125407, 51: -0.050931, 52: -0.027217, 53: -0.004817, 54: -0.033199, 55: -0.000628, 56: 0.00585, 57: 0.037805, 58: 0.04109, 59: 0.141901, 60: 0.661153, 61: 0.624091, 62: 1.082925, 63: 0.903208, 64: 1.562462, 65: 1.545604, 66: 0.654918, 67: 2.028866, 68: 2.487436, 69: 2.122551, 70: 2.62137, 71: 3.524664, 72: 3.705954, 73: 1.37151, 74: 2.50466, 75: 0.958686, 76: 0.75569, 77: 0.19084, 78: 2.184688, 79: 2.491328, 80: 2.824837, 81: 0.966934, 82: 3.085377, 83: 2.746604, 84: 1.738442, 85: 0.692696, 86: 1.103288, 87: 2.476913, 88: 2.068769, 89: 2.328149, 90: 2.288677, 91: 1.144301, 92: 0.095192, 93: 1.581864, 94: 0.627292, 95: 1.074743];
total_cost = 43.33858186032676;
total_earn = 14.81866424572722;
