production = [0: 0.0, 1: 0.0, 2: 0.0, 3: 0.0, 4: 0.0, 5: 0.0, 6: 0.0, 7: 0.0, 8: 0.0, 9: 0.0, 10: 0.0, 11: 0.0, 12: 0.0, 13: 0.0, 14: 0.0, 15: 0.0, 16: 0.0, 17: 0.0, 18: 0.0, 19: 0.0, 20: 0.0, 21: 0.0, 22: 0.0, 23: 0.000135, 24: 0.004015, 25: 0.023277, 26: 0.000728, 27: 0.043265, 28: 0.009141, 29: 0.134217, 30: 0.01638, 31: 0.16772, 32: 0.613996, 33: 0.47484, 34: 0.795248, 35: 0.112207, 36: 0.837989, 37: 0.184202, 38: 0.246911, 39: 0.821838, 40: 1.434018, 41: 1.096951, 42: 0.348312, 43: 0.783683, 44: 1.038546, 45: 0.292037, 46: 0.113918, 47: 0.036913, 48: 0.00456, 49: 0.039597, 50: 0.036432, 51: 0.040972, 52: 0.059547, 53: 0.021338, 54: 0.254413, 55: 0.350908, 56: 0.468569, 57: 0.109268, 58: 0.285784, 59: 0.826386, 60: 0.101157, 61: 0.679969, 62: 0.102126, 63: 0.282729, 64: 0.166253, 65: 0.284612, 66: 0.050775, 67: 0.108167, 68: 0.122068, 69: 0.017871, 70: 0.038525, 71: 0.000401, 72: 0.004691, 73: 4.1e-05, 74: 0.0, 75: 0.0, 76: 0.0, 77: 0.0, 78: 0.0, 79: 0.0, 80: 0.0, 81: 0.0, 82: 0.0, 83: 0.0, 84: 0.0, 85: 0.0, 86: 0.0, 87: 0.0, 88: 0.0, 89: 0.0, 90: 0.0, 91: 0.0, 92: 0.0, 93: 0.0, 94: 0.0, 95: 0.0];
buy = [0: 747.90056, 1: 187.154768, 2: 777.123662, 3: 818.5566260000001, 4: 659.591986, 5: 281.789373, 6: 555.570685, 7: 899.096089, 8: 847.830697, 9: 380.754706, 10: 390.483644, 11: 367.818887, 12: 129.678841, 13: 823.430123, 14: 526.920285, 15: 123.991884, 16: 130.001436, 17: 568.287268, 18: 714.16925, 19: 19.403782, 20: 294.244562, 21: 341.026612, 22: 912.970641, 23: 374.021431, 24: 949.33987, 25: 912.192534, 26: 535.302972, 27: 971.575556, 28: 331.774975, 29: 73.335582, 30: 119.228069, 31: 127.871477, 32: 378.522158, 33: 527.422938, 34: 82.29575199999999, 35: 865.355476, 36: 499.057864, 37: 600.54069, 38: 604.16332, 39: 88.32074900000001, 40: 471.662183, 41: 481.674355, 42: 524.728684, 43: 979.221888, 44: 768.389595, 45: 565.139353, 46: 847.01354, 47: 853.658236, 48: 572.361394, 49: 203.272397, 50: 955.385974, 51: 13.541806, 52: 135.585013, 53: 867.613797, 54: 143.08352, 55: 915.64284, 56: 639.029864, 57: 294.993584, 58: 97.11460599999999, 59: 418.268831, 60: 302.686894, 61: 425.450074, 62: 595.3673, 63: 197.55014, 64: 452.52748, 65: 226.491268, 66: 327.551788, 67: 314.586631, 68: 847.053558, 69: 657.877836, 70: 856.126898, 71: 827.397646, 72: 528.4097829999999, 73: 184.485488, 74: 400.985874, 75: 729.404936, 76: 178.773778, 77: 383.303752, 78: 114.631131, 79: 91.072889, 80: 19.602493, 81: 528.1558659999999, 82: 912.465767, 83: 360.043452, 84: 562.460899, 85: 303.473991, 86: 60.563407, 87: 568.3853800000001, 88: 157.919585, 89: 861.936976, 90: 75.49854499999999, 91: 686.8969059999999, 92: 559.456181, 93: 407.543197, 94: 377.772918, 95: 189.588585];
sell = [0: 2.891433, 1: 1.324289, 2: 2.934999, 3: 2.098322, 4: 1.673193, 5: 3.346187, 6: 0.287302, 7: 2.982238, 8: 2.816245, 9: 1.73241, 10: 3.51095, 11: 3.22787, 12: 0.542269, 13: 0.009852, 14: 2.247857, 15: 0.375716, 16: 1.658492, 17: 2.84685, 18: 1.077745, 19: 2.962916, 20: 2.248378, 21: 2.993774, 22: 2.603856, 23: 1.758987, 24: 1.998806, 25: 2.858256, 26: 2.651553, 27: 0.230807, 28: 2.846581, 29: 3.035899, 30: 0.834308, 31: 0.20501, 32: 2.243812, 33: 0.496407, 34: 0.496206, 35: 1.947794, 36: 3.800833, 37: 3.337303, 38: 3.539249, 39: 1.866832, 40: 0.355662, 41: 2.784866, 42: 2.562646, 43: 0.380205, 44: 2.04076, 45: 1.571907, 46: 0.543586, 47: 2.083852, 48: 1.865827, 49: 3.254331, 50: 0.51673, 51: 0.035501, 52: 1.326418, 53: 3.536842, 54: 0.09123000000000001, 55: 0.733338, 56: 3.11406, 57: 0.303311, 58: 2.196083, 59: 2.723869, 60: 0.003054, 61: 1.963537, 62: 3.795981, 63: 3.07712, 64: 1.752139, 65: 2.638009, 66: 2.301643, 67: 3.81526, 68: 3.407167, 69: 0.676014, 70: 1.076052, 71: 3.022712, 72: 0.855314, 73: 2.71711, 74: 3.600323, 75: 3.482712, 76: 2.591855, 77: 3.778994, 78: 1.749622, 79: 2.184102, 80: 2.184967, 81: 2.241407, 82: 3.936519, 83: 3.573452, 84: 2.997831, 85: 0.040985, 86: 2.334822, 87: 1.451935, 88: 0.625718, 89: 0.554009, 90: 1.543404, 91: 0.370426, 92: 3.494083, 93: 1.171132, 94: 2.004656, 95: 3.348419];
charge = [0: 0.07017900000000001, 1: 0.800627, 2: 0.617216, 3: 0.323743, 4: 0.739031, 5: 0.584819, 6: 0.848305, 7: 0.380246, 8: 0.301954, 9: 0.875439, 10: 0.107621, 11: 0.966626, 12: 0.515384, 13: 0.979451, 14: 0.577595, 15: 0.326796, 16: 0.080315, 17: 0.809072, 18: 0.315953, 19: 0.498385, 20: 0.738669, 21: 0.041076, 22: 0.507114, 23: 0.09925200000000001, 24: 0.279811, 25: 0.494866, 26: 0.286173, 27: 0.051294, 28: 0.059608, 29: 0.231356, 30: 0.669683, 31: 0.688481, 32: 0.374727, 33: 0.329027, 34: 0.797298, 35: 0.341534, 36: 0.335141, 37: 0.198127, 38: 0.319768, 39: 0.300949, 40: 0.996845, 41: 0.418923, 42: 0.585083, 43: 0.339108, 44: 0.620656, 45: 0.698408, 46: 0.8902600000000001, 47: 0.965305, 48: 0.648474, 49: 0.640004, 50: 0.145252, 51: 0.224133, 52: 0.662592, 53: 0.009192000000000001, 54: 0.441749, 55: 0.330951, 56: 0.884566, 57: 0.367711, 58: 0.438783, 59: 0.735248, 60: 0.088986, 61: 0.572875, 62: 0.501433, 63: 0.338051, 64: 0.458678, 65: 0.739133, 66: 0.8718320000000001, 67: 0.945406, 68: 0.796579, 69: 0.7351569999999999, 70: 0.06843, 71: 0.594478, 72: 0.805209, 73: 0.089597, 74: 0.672451, 75: 0.635144, 76: 0.510888, 77: 0.235452, 78: 0.280603, 79: 0.38482, 80: 0.564111, 81: 0.434417, 82: 0.08506, 83: 0.44777, 84: 0.884211, 85: 0.275778, 86: 0.879914, 87: 0.008227, 88: 0.397734, 89: 0.168533, 90: 0.293324, 91: 0.07526099999999999, 92: 0.733183, 93: 0.495504, 94: 0.166161, 95: 0.269675];
discharge = [0: 0.848496, 1: 0.844917, 2: 0.427528, 3: 0.632853, 4: 0.470031, 5: 0.920446, 6: 0.473363, 7: 0.998017, 8: 0.42123, 9: 0.383456, 10: 0.148584, 11: 0.860046, 12: 0.295727, 13: 0.68287, 14: 0.9701959999999999, 15: 0.429524, 16: 0.685439, 17: 0.472461, 18: 0.382622, 19: 0.418337, 20: 0.450587, 21: 0.202113, 22: 0.7552, 23: 0.419788, 24: 0.832647, 25: 0.304686, 26: 0.872272, 27: 0.218296, 28: 0.029628, 29: 0.369189, 30: 0.9220739999999999, 31: 0.452102, 32: 0.604548, 33: 0.305425, 34: 0.666328, 35: 0.542412, 36: 0.850119, 37: 0.026261, 38: 0.876478, 39: 0.191692, 40: 0.926468, 41: 0.480997, 42: 0.470793, 43: 0.228384, 44: 0.669795, 45: 0.866058, 46: 0.587712, 47: 0.20311, 48: 0.557646, 49: 0.064873, 50: 0.630166, 51: 0.351876, 52: 0.666423, 53: 0.180166, 54: 0.540571, 55: 0.489115, 56: 0.400767, 57: 0.670866, 58: 0.835149, 59: 0.115582, 60: 0.322639, 61: 0.756674, 62: 0.6415729999999999, 63: 0.531043, 64: 0.325946, 65: 0.507821, 66: 0.879248, 67: 0.842815, 68: 0.714792, 69: 0.723672, 70: 0.370933, 71: 0.567061, 72: 0.649467, 73: 0.738308, 74: 0.165962, 75: 0.244781, 76: 0.839052, 77: 0.37893, 78: 0.12559, 79: 0.426342, 80: 0.007237, 81: 0.19491, 82: 0.137217, 83: 0.7323190000000001, 84: 0.732291, 85: 0.2623, 86: 0.457883, 87: 0.110527, 88: 0.249057, 89: 0.7813909999999999, 90: 0.5277809999999999, 91: 0.250135, 92: 0.788505, 93: 0.874123, 94: 0.30403, 95: 0.623161];
soc = [0: 5.263659, 1: 5.983481, 2: 6.363506, 3: 7.113053, 4: 8.678072999999999, 5: 3.340657, 6: 5.5377, 7: 5.985238, 8: 12.94293, 9: 11.181353, 10: 3.707919, 11: 3.881303, 12: 7.109583, 13: 8.561256999999999, 14: 13.161392, 15: 8.887381, 16: 11.46957, 17: 11.484844, 18: 13.217688, 19: 10.325192, 20: 12.096682, 21: 8.572824000000001, 22: 6.764614, 23: 13.504268, 24: 10.193609, 25: 3.736445, 26: 8.043976000000001, 27: 11.001423, 28: 4.21129, 29: 10.45445, 30: 9.455549, 31: 8.532996000000001, 32: 11.040793, 33: 8.839733000000001, 34: 13.860621, 35: 9.106107, 36: 8.051175000000001, 37: 11.654003, 38: 7.622561, 39: 9.296060000000001, 40: 15.221682, 41: 13.450684, 42: 13.960283, 43: 11.420085, 44: 13.933961, 45: 14.269431, 46: 11.380969, 47: 10.563395, 48: 4.259808, 49: 6.558791, 50: 11.543245, 51: 5.646539, 52: 10.803063, 53: 9.140267, 54: 7.318723, 55: 5.66379, 56: 14.789885, 57: 5.227702, 58: 10.484445, 59: 3.878299, 60: 3.059596, 61: 15.500565, 62: 11.719017, 63: 8.269879, 64: 8.113166, 65: 10.403446, 66: 9.691489000000001, 67: 3.360155, 68: 9.199370999999999, 69: 2.705122, 70: 8.227107999999999, 71: 8.562813, 72: 3.881596, 73: 6.094888, 74: 8.888877000000001, 75: 7.659624, 76: 14.631798, 77: 7.891321, 78: 13.412262, 79: 10.702267, 80: 6.491442, 81: 14.812715, 82: 13.885048, 83: 11.674427, 84: 11.482182, 85: 11.010358, 86: 4.498153, 87: 5.320419, 88: 14.16915, 89: 5.677711, 90: 15.088118, 91: 4.283003, 92: 5.370051, 93: 15.496174, 94: 6.799782, 95: 12.831164];
cost = [0: 128.896381, 1: 361.400844, 2: 73.20962299999999, 3: 551.298582, 4: 421.226099, 5: 87.102763, 6: 561.407614, 7: 452.615168, 8: 457.41, 9: 304.166623, 10: 228.318095, 11: 305.466146, 12: 255.694254, 13: 556.734673, 14: 295.050237, 15: 252.008105, 16: 522.4450399999999, 17: 290.748061, 18: 298.629917, 19: 467.880313, 20: 492.955327, 21: 271.254326, 22: 160.560054, 23: 299.207073, 24: 546.62149, 25: 363.699597, 26: 266.799624, 27: 1188.371195, 28: 324.880077, 29: 368.515178, 30: 36.459187, 31: 509.644436, 32: 113.469263, 33: 34.230677, 34: 713.594408, 35: 644.29784, 36: 980.675444, 37: 1174.817669, 38: 711.410947, 39: 836.5602699999999, 40: 775.855034, 41: 311.839254, 42: 956.636486, 43: 194.659731, 44: 1180.528369, 45: 659.387029, 46: 875.682375, 47: 971.471482, 48: 679.293096, 49: 1050.1703, 50: 100.179941, 51: 750.427555, 52: 99.295963, 53: 75.003663, 54: 319.627924, 55: 192.207582, 56: 489.744956, 57: 11.749273, 58: 584.492879, 59: 214.715348, 60: 561.795711, 61: 405.831477, 62: 210.558081, 63: 331.16765, 64: 263.512218, 65: 895.531567, 66: 626.946029, 67: 675.505484, 68: 540.2887919999999, 69: 541.801605, 70: 150.473372, 71: 499.889863, 72: 735.916885, 73: 99.395073, 74: 856.1784, 75: 781.752887, 76: 142.031828, 77: 126.045644, 78: 972.482474, 79: 1163.782479, 80: 492.773956, 81: 555.6157889999999, 82: 717.788454, 83: 976.573165, 84: 1103.231155, 85: 662.775686, 86: 221.878918, 87: 161.771887, 88: 497.688064, 89: 42.527556, 90: 20.968662, 91: 313.188595, 92: 277.777843, 93: 113.082019, 94: 562.977794, 95: 278.686528];
earn = [0: 1.200932, 1: 1.428716, 2: 0.336445, 3: 1.460388, 4: 1.949055, 5: 0.509459, 6: 1.916629, 7: 0.423545, 8: 1.353567, 9: 1.218639, 10: 1.169099, 11: 0.5704939999999999, 12: 0.052438, 13: 1.564453, 14: 0.230304, 15: 0.962233, 16: 1.342673, 17: 0.244531, 18: 0.06322700000000001, 19: 0.342688, 20: 0.918403, 21: 0.901871, 22: 1.109178, 23: 1.596988, 24: 2.100051, 25: 2.604844, 26: 0.463003, 27: 1.243726, 28: 0.626544, 29: 3.035464, 30: 0.412495, 31: 1.924761, 32: 2.097924, 33: 1.357913, 34: 1.324097, 35: 0.8078070000000001, 36: 0.828305, 37: 0.055976, 38: 0.839758, 39: 0.027315, 40: -0.009527000000000001, 41: -0.012487, 42: -0.168927, 43: -0.07134699999999999, 44: -0.08562699999999999, 45: -0.162675, 46: -0.167078, 47: -0.022115, 48: -0.031912, 49: -0.112878, 50: -0.108314, 51: -0.025016, 52: -0.064134, 53: -0.002313, 54: -0.016846, 55: -0.001966, 56: 0.009864, 57: 0.026964, 58: 0.06958499999999999, 59: 0.08085299999999999, 60: 0.17184, 61: 1.101552, 62: 1.612525, 63: 0.519854, 64: 0.449896, 65: 0.870474, 66: 1.736394, 67: 0.483632, 68: 0.038428, 69: 2.146413, 70: 0.686943, 71: 0.927132, 72: 2.386923, 73: 3.59707, 74: 2.012555, 75: 0.400171, 76: 1.345135, 77: 1.174808, 78: 3.71311, 79: 1.616061, 80: 0.018212, 81: 0.317733, 82: 0.007183, 83: 2.474538, 84: 1.431772, 85: 0.867045, 86: 2.455667, 87: 0.803612, 88: 2.572043, 89: 0.32197, 90: 2.423136, 91: 1.275551, 92: 2.27932, 93: 0.113764, 94: 0.677911, 95: 2.335092];
total_cost = 48.21780249574305;
total_earn = 13.89089867317654;
