production = [0: 0.0, 1: 0.0, 2: 0.0, 3: 0.0, 4: 0.0, 5: 0.0, 6: 0.0, 7: 0.0, 8: 0.0, 9: 0.0, 10: 0.0, 11: 0.0, 12: 0.0, 13: 0.0, 14: 0.0, 15: 0.0, 16: 0.0, 17: 0.0, 18: 0.0, 19: 0.0, 20: 0.0, 21: 0.0, 22: 0.0, 23: 0.000102, 24: 0.001203, 25: 0.022837, 26: 0.043018, 27: 0.063092, 28: 0.013246, 29: 0.026522, 30: 0.104482, 31: 0.066479, 32: 0.160377, 33: 0.54384, 34: 0.217168, 35: 0.07166599999999999, 36: 0.257931, 37: 0.338198, 38: 0.205629, 39: 0.707646, 40: 0.413619, 41: 0.488405, 42: 1.037762, 43: 0.9535439999999999, 44: 0.626893, 45: 0.89949, 46: 0.157318, 47: 0.034358, 48: 0.0151, 49: 0.016654, 50: 0.024343, 51: 0.026696, 52: 0.033648, 53: 0.204265, 54: 0.113675, 55: 0.319079, 56: 1.378333, 57: 0.569448, 58: 0.661418, 59: 0.89453, 60: 0.8239570000000001, 61: 0.9033369999999999, 62: 0.267803, 63: 0.548015, 64: 0.054256, 65: 0.096855, 66: 0.197639, 67: 0.086157, 68: 0.08688, 69: 0.032646, 70: 0.013409, 71: 0.006228, 72: 0.00384, 73: 0.00011, 74: 0.0, 75: 0.0, 76: 0.0, 77: 0.0, 78: 0.0, 79: 0.0, 80: 0.0, 81: 0.0, 82: 0.0, 83: 0.0, 84: 0.0, 85: 0.0, 86: 0.0, 87: 0.0, 88: 0.0, 89: 0.0, 90: 0.0, 91: 0.0, 92: 0.0, 93: 0.0, 94: 0.0, 95: 0.0];
buy = [0: 740.427728, 1: 697.4065900000001, 2: 377.679477, 3: 70.422614, 4: 662.8914569999999, 5: 908.926058, 6: 90.206248, 7: 952.456114, 8: 435.592126, 9: 707.1076839999999, 10: 282.185164, 11: 676.577418, 12: 441.944587, 13: 11.734486, 14: 927.722725, 15: 175.474395, 16: 360.295377, 17: 141.731506, 18: 837.0594610000001, 19: 858.118731, 20: 334.602843, 21: 975.046832, 22: 249.275975, 23: 482.897919, 24: 609.798346, 25: 748.687981, 26: 399.888841, 27: 665.511184, 28: 746.986795, 29: 5.750696, 30: 237.398699, 31: 655.617747, 32: 352.069662, 33: 722.759873, 34: 709.298852, 35: 397.265108, 36: 303.351975, 37: 120.536964, 38: 152.796538, 39: 807.27995, 40: 571.264942, 41: 891.233236, 42: 681.935554, 43: 478.878301, 44: 972.743561, 45: 691.2840169999999, 46: 821.563458, 47: 155.707404, 48: 496.440685, 49: 947.1368660000001, 50: 768.439364, 51: 771.608908, 52: 546.619338, 53: 872.382936, 54: 689.133788, 55: 246.802737, 56: 21.191341, 57: 781.128524, 58: 666.518236, 59: 849.745243, 60: 716.294654, 61: 641.320556, 62: 480.989147, 63: 891.098348, 64: 635.710537, 65: 315.568974, 66: 22.499235, 67: 100.428786, 68: 276.967764, 69: 780.764046, 70: 994.727125, 71: 828.367425, 72: 294.424806, 73: 808.646979, 74: 735.778583, 75: 872.5750379999999, 76: 509.908407, 77: 992.115624, 78: 150.77635, 79: 201.235171, 80: 898.715807, 81: 735.159264, 82: 795.9405819999999, 83: 765.654547, 84: 520.6481669999999, 85: 677.129965, 86: 589.089055, 87: 926.936952, 88: 457.21162, 89: 247.343693, 90: 406.4828, 91: 119.67241, 92: 617.73463, 93: 750.96749, 94: 817.67843, 95: 872.592756];
sell = [0: 2.774294, 1: 2.418253, 2: 1.01359, 3: 3.876023, 4: 2.569938, 5: 1.944215, 6: 2.672835, 7: 2.837486, 8: 2.769019, 9: 2.006577, 10: 0.416018, 11: 1.113168, 12: 0.313684, 13: 0.669076, 14: 0.86078, 15: 3.262501, 16: 3.049796, 17: 0.88855, 18: 0.847882, 19: 2.210512, 20: 2.016955, 21: 1.468526, 22: 2.145076, 23: 1.358579, 24: 3.688686, 25: 0.981385, 26: 3.209025, 27: 0.182496, 28: 1.292583, 29: 2.554404, 30: 1.312737, 31: 1.897975, 32: 0.690618, 33: 1.857976, 34: 0.219288, 35: 2.467076, 36: 2.274011, 37: 3.090936, 38: 2.506991, 39: 2.531476, 40: 3.758579, 41: 0.873148, 42: 3.940214, 43: 2.92862, 44: 0.017613, 45: 3.335969, 46: 3.636144, 47: 1.883259, 48: 0.889655, 49: 0.935911, 50: 0.950854, 51: 3.621552, 52: 0.678552, 53: 0.729614, 54: 2.93841, 55: 0.475874, 56: 1.820057, 57: 0.193098, 58: 0.24844, 59: 0.883293, 60: 1.126573, 61: 1.590908, 62: 0.181835, 63: 3.613253, 64: 2.044267, 65: 0.398701, 66: 2.08674, 67: 1.599848, 68: 1.442742, 69: 0.727942, 70: 2.692496, 71: 1.785641, 72: 1.217815, 73: 2.810691, 74: 3.567125, 75: 3.796821, 76: 2.838806, 77: 3.323051, 78: 1.435603, 79: 2.261429, 80: 1.405882, 81: 3.946445, 82: 1.305445, 83: 0.255559, 84: 3.800219, 85: 3.483392, 86: 0.545627, 87: 0.003963, 88: 3.731274, 89: 0.382645, 90: 3.361951, 91: 0.532737, 92: 1.889112, 93: 3.361707, 94: 3.588056, 95: 2.798271];
charge = [0: 0.718441, 1: 0.13647, 2: 0.291156, 3: 0.348409, 4: 0.535577, 5: 0.661272, 6: 0.632155, 7: 0.7153659999999999, 8: 0.591821, 9: 0.793903, 10: 0.067442, 11: 0.11652, 12: 0.714349, 13: 0.548466, 14: 0.953507, 15: 0.855793, 16: 0.525549, 17: 0.347352, 18: 0.065858, 19: 0.564584, 20: 0.698322, 21: 0.175963, 22: 0.622888, 23: 0.365981, 24: 0.33048, 25: 0.131026, 26: 0.188193, 27: 0.577028, 28: 0.214097, 29: 0.568458, 30: 0.864316, 31: 0.089416, 32: 0.5715249999999999, 33: 0.298489, 34: 0.173611, 35: 0.511736, 36: 0.875163, 37: 0.8069, 38: 0.683114, 39: 0.457915, 40: 0.358311, 41: 0.154016, 42: 0.023257, 43: 0.703881, 44: 0.296421, 45: 0.5393559999999999, 46: 0.957252, 47: 0.530074, 48: 0.345157, 49: 0.234654, 50: 0.028501, 51: 0.344036, 52: 0.140154, 53: 0.425409, 54: 0.635896, 55: 0.037561, 56: 0.950599, 57: 0.522916, 58: 0.639053, 59: 0.83866, 60: 0.524604, 61: 0.116927, 62: 0.936186, 63: 0.926322, 64: 0.994428, 65: 0.081744, 66: 0.442026, 67: 0.379624, 68: 0.287356, 69: 0.74113, 70: 0.556816, 71: 0.337597, 72: 0.810331, 73: 0.990159, 74: 0.152414, 75: 0.765271, 76: 0.34156, 77: 0.004214, 78: 0.61937, 79: 0.601287, 80: 0.441838, 81: 0.652431, 82: 0.472784, 83: 0.337863, 84: 0.7863520000000001, 85: 0.329717, 86: 0.319815, 87: 0.16181, 88: 0.196021, 89: 0.357492, 90: 0.283578, 91: 0.544814, 92: 0.123049, 93: 0.108407, 94: 0.886463, 95: 0.853155];
discharge = [0: 0.727241, 1: 0.515819, 2: 0.504869, 3: 0.740716, 4: 0.21957, 5: 0.885706, 6: 0.9547600000000001, 7: 0.793609, 8: 0.05619, 9: 0.088225, 10: 0.151938, 11: 0.943396, 12: 0.552516, 13: 0.815168, 14: 0.525779, 15: 0.260114, 16: 0.835372, 17: 0.035668, 18: 0.545546, 19: 0.1359, 20: 0.598778, 21: 0.98168, 22: 0.467197, 23: 0.397005, 24: 0.319561, 25: 0.253422, 26: 0.904935, 27: 0.103614, 28: 0.888063, 29: 0.265267, 30: 0.189763, 31: 0.760893, 32: 0.5959950000000001, 33: 0.902543, 34: 0.171722, 35: 0.022094, 36: 0.140356, 37: 0.09352199999999999, 38: 0.105019, 39: 0.393619, 40: 0.168491, 41: 0.331992, 42: 0.703833, 43: 0.107612, 44: 0.528654, 45: 0.386117, 46: 0.224908, 47: 0.223643, 48: 0.918953, 49: 0.949384, 50: 0.426004, 51: 0.517774, 52: 0.215997, 53: 0.004398, 54: 0.940061, 55: 0.6729270000000001, 56: 0.832026, 57: 0.403926, 58: 0.199491, 59: 0.219318, 60: 0.580833, 61: 0.717042, 62: 0.487102, 63: 0.092253, 64: 0.968337, 65: 0.569794, 66: 0.757809, 67: 0.8944879999999999, 68: 0.882755, 69: 0.477308, 70: 0.84054, 71: 0.791011, 72: 0.74735, 73: 0.984196, 74: 0.7446739999999999, 75: 0.9506829999999999, 76: 0.791851, 77: 0.509414, 78: 0.628505, 79: 0.460761, 80: 0.286935, 81: 0.58606, 82: 0.96012, 83: 0.999177, 84: 0.560219, 85: 0.972369, 86: 0.44347, 87: 0.5591970000000001, 88: 0.046623, 89: 0.852519, 90: 0.155282, 91: 0.568431, 92: 0.627894, 93: 0.711958, 94: 0.7375159999999999, 95: 0.394129];
soc = [0: 4.474566, 1: 3.613941, 2: 3.073399, 3: 2.770693, 4: 4.163066, 5: 9.770557999999999, 6: 3.624836, 7: 8.733649, 8: 6.04341, 9: 10.966975, 10: 13.768908, 11: 12.551166, 12: 13.105755, 13: 11.074308, 14: 4.44952, 15: 8.540115, 16: 6.780816, 17: 3.160569, 18: 7.519652, 19: 3.469499, 20: 5.635845, 21: 8.169204000000001, 22: 6.929985, 23: 11.705645, 24: 12.61012, 25: 4.51204, 26: 13.879352, 27: 10.189168, 28: 8.726533999999999, 29: 14.816481, 30: 5.372196, 31: 3.337457, 32: 8.699617, 33: 12.500982, 34: 13.610006, 35: 14.114212, 36: 5.298141, 37: 8.61336, 38: 8.417678, 39: 7.556282, 40: 6.852217, 41: 14.755862, 42: 9.78373, 43: 6.872924, 44: 3.276866, 45: 6.331471, 46: 8.980342, 47: 3.551227, 48: 6.575417, 49: 8.730997, 50: 14.242394, 51: 15.450041, 52: 3.66199, 53: 11.033558, 54: 14.795567, 55: 3.25702, 56: 5.438192, 57: 14.411261, 58: 6.511119, 59: 2.653091, 60: 9.207312, 61: 3.193363, 62: 8.840650999999999, 63: 7.772752, 64: 6.088883, 65: 14.600028, 66: 13.504896, 67: 11.591266, 68: 7.0031, 69: 8.081348, 70: 8.090818000000001, 71: 11.937858, 72: 15.34348, 73: 10.074534, 74: 10.967107, 75: 3.673626, 76: 13.417177, 77: 9.957857000000001, 78: 4.983195, 79: 12.304205, 80: 11.28441, 81: 11.408141, 82: 3.859305, 83: 11.409173, 84: 2.9613, 85: 12.682005, 86: 4.66526, 87: 9.279074, 88: 14.133124, 89: 11.527725, 90: 4.78164, 91: 14.90699, 92: 13.419177, 93: 3.852394, 94: 14.772857, 95: 9.055308999999999];
cost = [0: 9.472685999999999, 1: 331.302049, 2: 101.230742, 3: 420.230705, 4: 32.973577, 5: 82.705754, 6: 85.469703, 7: 471.73155, 8: 113.005776, 9: 50.766864, 10: 158.437295, 11: 255.75949, 12: 378.107532, 13: 361.66267, 14: 470.33814, 15: 313.334776, 16: 575.537144, 17: 79.39218200000001, 18: 407.361285, 19: 447.536134, 20: 49.55884, 21: 85.01109, 22: 610.276278, 23: 363.71897, 24: 234.140523, 25: 988.680343, 26: 286.541848, 27: 435.58379, 28: 761.6109, 29: 533.374728, 30: 29.391474, 31: 1089.632929, 32: 805.418569, 33: 557.441173, 34: 1129.834976, 35: 591.0125860000001, 36: 753.477048, 37: 294.363533, 38: 247.073306, 39: 1144.706722, 40: 826.005848, 41: 130.9568, 42: 7.418804, 43: 94.667393, 44: 963.5338, 45: 761.361464, 46: 31.783364, 47: 1009.010231, 48: 651.8095489999999, 49: 745.148635, 50: 342.491441, 51: 1037.321717, 52: 99.21018100000001, 53: 188.849266, 54: 455.779419, 55: 248.216796, 56: 459.321735, 57: 321.250002, 58: 359.467396, 59: 266.144797, 60: 424.937276, 61: 721.7724930000001, 62: 166.017537, 63: 1108.351211, 64: 306.271786, 65: 408.970836, 66: 910.0989510000001, 67: 525.5968319999999, 68: 384.731008, 69: 245.710679, 70: 112.039465, 71: 1132.561456, 72: 945.960592, 73: 679.169414, 74: 395.454366, 75: 652.134532, 76: 510.377006, 77: 1134.356951, 78: 926.637875, 79: 1107.658096, 80: 118.77888, 81: 220.802921, 82: 115.326748, 83: 395.264306, 84: 1083.000456, 85: 109.119402, 86: 773.277881, 87: 359.695209, 88: 252.161777, 89: 91.906182, 90: 118.926445, 91: 542.735802, 92: 97.384345, 93: 75.723794, 94: 360.117695, 95: 79.013791];
earn = [0: 1.373429, 1: 0.488661, 2: 1.176847, 3: 0.48116, 4: 0.534115, 5: 0.039305, 6: 1.592041, 7: 1.61881, 8: 1.805886, 9: 0.801837, 10: 1.990885, 11: 1.036541, 12: 0.207381, 13: 0.537465, 14: 0.653876, 15: 0.531083, 16: 0.8180500000000001, 17: 1.160982, 18: 0.658517, 19: 0.515792, 20: 1.306718, 21: 1.178584, 22: 2.045632, 23: 1.151536, 24: 2.055511, 25: 2.425851, 26: 0.244335, 27: 2.5568, 28: 2.752136, 29: 1.749111, 30: 1.338474, 31: 2.172928, 32: 1.511712, 33: 0.599258, 34: 0.043449, 35: 1.22215, 36: 1.032422, 37: 0.913668, 38: 0.149772, 39: 0.332339, 40: -0.003328, 41: -0.019576, 42: -0.016042, 43: -0.405763, 44: -0.038096, 45: -0.081389, 46: -0.07821599999999999, 47: -0.080386, 48: -0.170143, 49: -0.039497, 50: -0.054137, 51: -0.06177, 52: -0.048298, 53: -0.051031, 54: -0.023834, 55: -0.001729, 56: 0.023345, 57: 0.049157, 58: 0.014171, 59: 0.069885, 60: 0.975816, 61: 1.205707, 62: 1.459492, 63: 0.266171, 64: 1.522621, 65: 1.721429, 66: 1.917955, 67: 0.805399, 68: 0.003161, 69: 1.214824, 70: 3.014792, 71: 2.315506, 72: 0.66727, 73: 3.42879, 74: 1.797714, 75: 0.8684809999999999, 76: 1.862838, 77: 3.225006, 78: 0.394931, 79: 1.14793, 80: 2.747557, 81: 2.563437, 82: 0.71254, 83: 2.51272, 84: 0.296545, 85: 1.19386, 86: 1.381521, 87: 1.95111, 88: 1.280057, 89: 1.961863, 90: 0.453223, 91: 2.378937, 92: 1.415143, 93: 2.21777, 94: 1.649523, 95: 1.906968];
total_cost = 48.21780249574305;
total_earn = 13.89089867317654;
