production = [0: 0.0, 1: 0.0, 2: 0.0, 3: 0.0, 4: 0.0, 5: 0.0, 6: 0.0, 7: 0.0, 8: 0.0, 9: 0.0, 10: 0.0, 11: 0.0, 12: 0.0, 13: 0.0, 14: 0.0, 15: 0.0, 16: 0.0, 17: 0.0, 18: 0.0, 19: 0.0, 20: 0.0, 21: 0.0, 22: 0.0, 23: 0.0, 24: 0.0015, 25: 0.0, 26: 0.0432, 27: 0.075, 28: 0.0, 29: 0.0, 30: 0.2303, 31: 0.0, 32: 0.3045, 33: 0.1725, 34: 0.0, 35: 0.5405, 36: 0.0, 37: 0.583, 38: 1.4868, 39: 1.8858, 40: 1.5822, 41: 2.0848, 42: 1.3142, 43: 0.729, 44: 1.0395, 45: 0.0, 46: 0.0, 47: 1.118008333, 48: 0.0, 49: 1.1145, 50: 0.0, 51: 0.0, 52: 0.0, 53: 0.5545, 54: 1.501, 55: 1.6955, 56: 0.0, 57: 0.0, 58: 0.3528, 59: 0.0, 60: 0.0, 61: 0.2812, 62: 0.2893, 63: 0.0, 64: 0.0, 65: 0.4507, 66: 0.0, 67: 0.099, 68: 0.0, 69: 0.0, 70: 0.058, 71: 0.0307, 72: 0.0, 73: 0.0003, 74: 0.0, 75: 0.0, 76: 0.0, 77: 0.0, 78: 0.0, 79: 0.0, 80: 0.0, 81: 0.0, 82: 0.0, 83: 0.0, 84: 0.0, 85: 0.0, 86: 0.0, 87: 0.0, 88: 0.0, 89: 0.0, 90: 0.0, 91: 0.0, 92: 0.0, 93: 0.0, 94: 0.0, 95: 0.0];
buy = [0: 0.256387133, 1: 1.266908333, 2: 0.0, 3: 0.220597222, 4: 1.219708333, 5: 1.225508333, 6: 1.224008333, 7: 1.228908333, 8: 0.0, 9: 0.0, 10: 1.233708333, 11: 0.0, 12: 1.226208333, 13: 0.233408333, 14: 1.230208333, 15: 1.228208333, 16: 0.0, 17: 0.545208333, 18: 0.0, 19: 0.106908333, 20: 0.0, 21: 0.0, 22: 1.378708333, 23: 1.375208333, 24: 1.193508333, 25: 0.0, 26: 0.236308333, 27: 0.160908333, 28: 1.177991373, 29: 0.231408333, 30: 0.0, 31: 1.215508333, 32: 0.0, 33: 0.057208333, 34: 1.226208333, 35: 0.6802083330000001, 36: 1.218508333, 37: 0.0, 38: 0.0, 39: 0.0, 40: 0.0, 41: 0.0, 42: 0.0, 43: 0.0, 44: 0.0, 45: 1.110008333, 46: 0.0, 47: 0.0, 48: 0.0, 49: 0.0, 50: 0.115208333, 51: 0.118008333, 52: 0.0, 53: 0.0, 54: 0.367708333, 55: 0.189708333, 56: 0.0, 57: 0.0, 58: 1.099908333, 59: 1.418208333, 60: 0.0, 61: 0.0, 62: 0.557053337, 63: 1.131708333, 64: 1.121508333, 65: 0.0, 66: 0.0, 67: 1.044208333, 68: 1.130908333, 69: 0.0, 70: 1.086408333, 71: 0.0, 72: 1.341008333, 73: 0.0, 74: 0.108908333, 75: 0.0, 76: 1.094508333, 77: 0.085408333, 78: 0.087208333, 79: 0.0, 80: 0.0, 81: 0.112008333, 82: 0.0, 83: 1.103208333, 84: 1.113508333, 85: 1.113508333, 86: 0.0, 87: 0.105008333, 88: 0.0, 89: 1.292208333, 90: 0.349208333, 91: 0.0, 92: 0.343508333, 93: 1.356508333, 94: 0.0, 95: 1.321208333];
sell = [0: 0.0, 1: 0.0, 2: 0.580175762, 3: 0.0, 4: 0.0, 5: 0.0, 6: 0.0, 7: 0.0, 8: 0.6715916669999999, 9: 0.671291667, 10: 0.0, 11: 0.672991667, 12: 0.0, 13: 0.0, 14: 0.0, 15: 0.0, 16: 0.389291667, 17: 0.0, 18: 0.326991667, 19: 0.0, 20: 0.793091667, 21: 0.728991667, 22: 0.0, 23: 0.0, 24: 0.0, 25: 0.620791667, 26: 0.0, 27: 0.0, 28: 0.0, 29: 0.0, 30: 0.895891667, 31: 0.0, 32: 0.075591667, 33: 0.0, 34: 0.0, 35: 0.0, 36: 0.0, 37: 0.484091667, 38: 2.289291667, 39: 1.786091667, 40: 2.383791667, 41: 0.986791667, 42: 1.217991667, 43: 1.531791667, 44: 1.808591667, 45: 0.0, 46: 0.788791667, 47: 0.0, 48: 0.786091667, 49: 0.0, 50: 0.0, 51: 0.0, 52: 0.764991667, 53: 0.667491667, 54: 0.0, 55: 0.0, 56: 0.453791667, 57: 0.265554369, 58: 0.0, 59: 0.0, 60: 0.776291667, 61: 0.153491667, 62: 0.0, 63: 0.0, 64: 0.0, 65: 1.230491667, 66: 0.762791667, 67: 0.0, 68: 0.0, 69: 0.767791667, 70: 0.0, 71: 0.806991667, 72: 0.0, 73: 0.800391667, 74: 0.0, 75: 0.0, 76: 0.0, 77: 0.0, 78: 0.0, 79: 0.0, 80: 0.787491667, 81: 0.0, 82: 0.795491667, 83: 0.0, 84: 0.0, 85: 0.0, 86: 0.750791667, 87: 0.0, 88: 0.779791667, 89: 0.0, 90: 0.0, 91: 0.556491667, 92: 0.0, 93: 0.0, 94: 0.542491667, 95: 0.0];
charge = [0: 0.0, 1: 1.0, 2: 0.0, 3: 0.000588889, 4: 1.0, 5: 1.0, 6: 1.0, 7: 1.0, 8: 0.0, 9: 0.0, 10: 1.0, 11: 0.0, 12: 1.0, 13: 0.0, 14: 1.0, 15: 1.0, 16: 0.0, 17: 0.0, 18: 0.0, 19: 0.0, 20: 0.0, 21: 0.0, 22: 1.0, 23: 1.0, 24: 0.0, 25: 0.0, 26: 0.0, 27: 0.0, 28: 0.945083039, 29: 0.0, 30: 0.0, 31: 1.0, 32: 0.0, 33: 0.0, 34: 1.0, 35: 1.0, 36: 1.0, 37: 0.0, 38: 0.0, 39: 0.0, 40: 0.0, 41: 1.0, 42: 0.0, 43: 0.0, 44: 0.0, 45: 1.0, 46: 0.0, 47: 1.0, 48: 0.0, 49: 0.997091667, 50: 0.0, 51: 0.0, 52: 0.0, 53: 0.0, 54: 1.0, 55: 1.0, 56: 0.0, 57: 0.0, 58: 1.0, 59: 1.0, 60: 0.0, 61: 0.0, 62: 0.721345004, 63: 1.0, 64: 1.0, 65: 0.0, 66: 0.0, 67: 1.0, 68: 1.0, 69: 0.0, 70: 1.0, 71: 0.0, 72: 1.0, 73: 0.0, 74: 0.0, 75: 0.0, 76: 1.0, 77: 0.0, 78: 0.0, 79: 0.0, 80: 0.0, 81: 0.0, 82: 0.0, 83: 1.0, 84: 1.0, 85: 1.0, 86: 0.0, 87: 0.0, 88: 0.0, 89: 1.0, 90: 0.0, 91: 0.0, 92: 0.0, 93: 1.0, 94: 0.0, 95: 1.0];
discharge = [0: 0.009468000000000001, 1: 0.0, 2: 0.898760106, 3: 0.0, 4: 0.0, 5: 0.0, 6: 0.0, 7: 0.0, 8: 1.0, 9: 1.0, 10: 0.0, 11: 1.0, 12: 0.0, 13: 0.0, 14: 0.0, 15: 0.0, 16: 1.0, 17: 0.0, 18: 1.0, 19: 0.0, 20: 1.0, 21: 1.0, 22: 0.0, 23: 0.0, 24: 0.0, 25: 1.0, 26: 0.0, 27: 0.0, 28: 0.0, 29: 0.0, 30: 1.0, 31: 0.0, 32: 0.0, 33: 0.0, 34: 0.0, 35: 0.0, 36: 0.0, 37: 0.0, 38: 1.0, 39: 0.0, 40: 1.0, 41: 0.0, 42: 0.0, 43: 1.0, 44: 1.0, 45: 0.0, 46: 1.0, 47: 0.0, 48: 1.0, 49: 0.0, 50: 0.0, 51: 0.0, 52: 1.0, 53: 1.0, 54: 0.0, 55: 0.0, 56: 1.0, 57: 0.79718078, 58: 0.0, 59: 0.0, 60: 1.0, 61: 0.0, 62: 0.0, 63: 0.0, 64: 0.0, 65: 1.0, 66: 1.0, 67: 0.0, 68: 0.0, 69: 1.0, 70: 0.0, 71: 1.0, 72: 0.0, 73: 1.0, 74: 0.0, 75: 0.119898148, 76: 0.0, 77: 0.0, 78: 0.0, 79: 0.105009259, 80: 1.0, 81: 0.0, 82: 1.0, 83: 0.0, 84: 0.0, 85: 0.0, 86: 1.0, 87: 0.0, 88: 1.0, 89: 0.0, 90: 0.0, 91: 1.0, 92: 0.0, 93: 0.0, 94: 1.0, 95: 0.0];
soc = [0: 2.65, 1: 3.54947, 2: 2.65, 3: 2.65, 4: 3.54947, 5: 4.448760106, 6: 5.347870354, 7: 6.24680078, 8: 5.24555142, 9: 4.244502309, 10: 5.143653409, 11: 4.142624678, 12: 5.041796153, 13: 5.040787794, 14: 5.939779637, 15: 6.838591681, 16: 5.837223962, 17: 5.836056518, 18: 4.834889306, 19: 4.833922328, 20: 3.832955544, 21: 2.832188953, 22: 3.731622515, 23: 4.630876191, 24: 4.629950015, 25: 3.629024025, 26: 3.62829822, 27: 3.627572561, 28: 4.477421782, 29: 4.476526297, 30: 3.475630992, 31: 4.374935866, 32: 4.374060879, 33: 4.373186067, 34: 5.272311429, 35: 6.171256967, 36: 7.070022716, 37: 7.068608711, 38: 6.067194989, 39: 6.06598155, 40: 5.064768354, 41: 5.9637554, 42: 5.962562649, 43: 4.961370137, 44: 3.960377863, 45: 4.859585787, 46: 3.85861387, 47: 4.757842147, 48: 3.756890579, 49: 4.653521701, 50: 4.652590996, 51: 4.651660478, 52: 3.650730146, 53: 2.65, 54: 3.54947, 55: 4.448760106, 56: 3.447870354, 57: 2.65, 58: 3.54947, 59: 4.448760106, 60: 3.447870354, 61: 3.44718078, 62: 4.095701847, 63: 4.994882707, 64: 5.89388373, 65: 4.892704954, 66: 3.891726413, 67: 4.790948067, 68: 5.689989878, 69: 4.68885188, 70: 5.587914109, 71: 4.586796526, 72: 5.485879167, 73: 4.484781991, 74: 4.483885035, 75: 4.36309011, 76: 5.262217492, 77: 5.261165048, 78: 5.260112815, 79: 5.154051533, 80: 4.153020723, 81: 4.152190119, 82: 3.151359681, 83: 4.050729409, 84: 4.949919263, 85: 5.848929279, 86: 4.847759493, 87: 4.846789942, 88: 3.845820584, 89: 4.745051419, 90: 4.744102409, 91: 3.743153589, 92: 3.742404958, 93: 4.641656477, 94: 3.640728146, 95: 4.54];
cost = [0: 0.1566269, 1: 0.892132466, 2: 0.0, 3: 0.134832437, 4: 0.863297986, 5: 0.866841206, 6: 0.865924856, 7: 0.868918266, 8: 0.0, 9: 0.0, 10: 0.871850586, 11: 0.0, 12: 0.867268836, 13: 0.142589151, 14: 0.869712436, 15: 0.868490636, 16: 0.0, 17: 0.333067771, 18: 0.0, 19: 0.065310301, 20: 0.0, 21: 0.0, 22: 0.960431086, 23: 0.958292936, 24: 1.419797513, 25: 0.0, 26: 0.281112393, 27: 0.191416553, 28: 1.513026717, 29: 0.275283353, 30: 0.0, 31: 1.564146879, 32: 0.0, 33: 0.068055033, 34: 1.576875599, 35: 0.927353999, 36: 1.567715679, 37: 0.0, 38: 0.0, 39: 0.0, 40: 0.0, 41: 0.118178165, 42: 0.0, 43: 0.0, 44: 0.0, 45: 1.438644079, 46: 0.0, 47: 0.118178165, 48: 0.0, 49: 0.117834464, 50: 0.137051833, 51: 0.140382713, 52: 0.0, 53: 0.0, 54: 0.342811186, 55: 0.234070986, 56: 0.0, 57: 0.0, 58: 0.790112166, 59: 0.984561636, 60: 0.0, 61: 0.0, 62: 0.747917879, 63: 1.464458399, 64: 1.452324479, 65: 0.0, 66: 0.0, 67: 1.360368399, 68: 1.463506719, 69: 0.0, 70: 1.410569519, 71: 0.0, 72: 1.713441679, 73: 0.0, 74: 0.129557353, 75: 0.0, 76: 1.420205279, 77: 0.101601753, 78: 0.103743033, 79: 0.0, 80: 0.0, 81: 0.133245113, 82: 0.0, 83: 1.430554799, 84: 1.442807679, 85: 1.442807679, 86: 0.0, 87: 0.124917913, 88: 0.0, 89: 0.907588236, 90: 0.213331371, 91: 0.0, 92: 0.209849241, 93: 0.946869106, 94: 0.0, 95: 0.9253043359999999];
earn = [0: 0.0, 1: 0.0, 2: 0.43780063, 3: 0.0, 4: 0.0, 5: 0.0, 6: 0.0, 7: 0.0, 8: 0.456480856, 9: 0.456276946, 10: 0.0, 11: 0.457432436, 12: 0.0, 13: 0.0, 14: 0.0, 15: 0.0, 16: 0.274178121, 17: 0.0, 18: 0.231412002, 19: 0.0, 20: 0.576101787, 21: 0.529904043, 22: 0.0, 23: 0.0, 24: 0.0, 25: 0.473291567, 26: 0.0, 27: 0.0, 28: 0.0, 29: 0.0, 30: 0.594244943, 31: 0.0, 32: 0.044674675, 33: 0.0, 34: 0.0, 35: 0.0, 36: 0.0, 37: 0.1568457, 38: 0.558129308, 39: 0.390975466, 40: 0.375685567, 41: 0.152557992, 42: 0.149691176, 43: 0.155017317, 44: 0.069811638, 45: 0.0, 46: 0.004890508, 47: 0.0, 48: -0.031993931, 49: 0.0, 50: 0.0, 51: 0.0, 52: -0.009791892999999999, 53: -0.003671204, 54: 0.0, 55: 0.0, 56: 0.058085333, 57: 0.04742801, 58: 0.0, 59: 0.0, 60: 0.294602688, 61: 0.07052942099999999, 62: 0.0, 63: 0.0, 64: 0.0, 65: 0.775332799, 66: 0.51534205, 67: 0.0, 68: 0.0, 69: 0.601027317, 70: 0.0, 71: 0.669480287, 72: 0.0, 73: 0.728356417, 74: 0.0, 75: 0.0, 76: 0.0, 77: 0.0, 78: 0.0, 79: 0.0, 80: 0.635427026, 81: 0.0, 82: 0.598607479, 83: 0.0, 84: 0.0, 85: 0.0, 86: 0.514667688, 87: 0.0, 88: 0.506162771, 89: 0.0, 90: 0.0, 91: 0.339014723, 92: 0.0, 93: 0.0, 94: 0.311281718, 95: 0.0];
total_cost = 43.537166934;
total_earn = 13.165291374;
% _objective = 30.37187556;