production = [0: 0.0, 1: 0.0, 2: 0.0, 3: 0.0, 4: 0.0, 5: 0.0, 6: 0.0, 7: 0.0, 8: 0.0, 9: 0.0, 10: 0.0, 11: 0.0, 12: 0.0, 13: 0.0, 14: 0.0, 15: 0.0, 16: 0.0, 17: 0.0, 18: 0.0, 19: 0.0, 20: 0.0, 21: 0.0, 22: 0.0, 23: 0.0003, 24: 0.0, 25: 0.0, 26: 0.0432, 27: 0.0, 28: 0.0, 29: 0.0, 30: 0.2303, 31: 0.2167, 32: 0.3045, 33: 0.0, 34: 0.3673, 35: 0.0, 36: 0.4495, 37: 0.583, 38: 0.0, 39: 1.8858, 40: 1.5822, 41: 2.0848, 42: 0.0, 43: 0.0, 44: 1.0395, 45: 0.0, 46: 0.0, 47: 1.813, 48: 2.108, 49: 0.0, 50: 0.0, 51: 1.8787, 52: 1.1298, 53: 0.0, 54: 0.0, 55: 1.6955, 56: 0.63, 57: 0.0, 58: 0.0, 59: 0.3365, 60: 1.2377, 61: 0.0, 62: 0.2893, 63: 0.0, 64: 0.0, 65: 0.4507, 66: 0.0, 67: 0.099, 68: 0.0, 69: 0.0828, 70: 0.0, 71: 0.0, 72: 0.0107, 73: 0.0, 74: 0.0, 75: 0.0, 76: 0.0, 77: 0.0, 78: 0.0, 79: 0.0, 80: 0.0, 81: 0.0, 82: 0.0, 83: 0.0, 84: 0.0, 85: 0.0, 86: 0.0, 87: 0.0, 88: 0.0, 89: 0.0, 90: 0.0, 91: 0.0, 92: 0.0, 93: 0.0, 94: 0.0, 95: 0.0];
buy = [0: 1.264908333, 1: 1.266908333, 2: 1.228708333, 3: 0.0, 4: 0.0, 5: 1.225508333, 6: 1.224008333, 7: 1.228908333, 8: 1.228408333, 9: 1.228708333, 10: 0.233708333, 11: 1.227008333, 12: 0.0, 13: 1.233408333, 14: 1.230208333, 15: 0.0, 16: 1.510708333, 17: 0.0, 18: 0.0, 19: 1.106908333, 20: 1.106908333, 21: 1.171008333, 22: 0.378708333, 23: 1.374908333, 24: 2.195008333, 25: 1.279208333, 26: 0.236308333, 27: 0.0, 28: 0.0, 29: 1.231408333, 30: 0.0, 31: 0.0, 32: 0.0, 33: 0.0, 34: 0.0, 35: 1.220708333, 36: 0.769008333, 37: 0.0, 38: 1.097508333, 39: 0.0, 40: 0.0, 41: 0.0, 42: 0.09620833299999999, 43: 0.0, 44: 0.0, 45: 1.110008333, 46: 0.111208333, 47: 0.0, 48: 0.0, 49: 0.07388747499999999, 50: 1.115208333, 51: 0.0, 52: 0.0, 53: 1.787008333, 54: 0.0, 55: 0.0, 56: 0.0, 57: 0.451908333, 58: 0.0, 59: 1.081708333, 60: 0.0, 61: 1.127708333, 62: 0.0, 63: 1.131708333, 64: 0.121508333, 65: 0.0, 66: 0.137208333, 67: 1.044208333, 68: 1.130908333, 69: 1.049408333, 70: 1.144408333, 71: 1.123708333, 72: 1.330308333, 73: 0.0, 74: 1.108908333, 75: 1.107908333, 76: 0.094508333, 77: 0.0, 78: 0.0, 79: 1.094508333, 80: 0.112508333, 81: 1.112008333, 82: 0.0, 83: 1.103208333, 84: 0.113508333, 85: 0.0, 86: 0.149208333, 87: 0.0, 88: 1.120208333, 89: 0.0, 90: 1.349208333, 91: 1.343508333, 92: 0.0, 93: 0.0, 94: 0.0, 95: 1.321208333];
sell = [0: 0.0, 1: 0.0, 2: 0.0, 3: 0.679991667, 4: 0.680291667, 5: 0.0, 6: 0.0, 7: 0.0, 8: 0.0, 9: 0.0, 10: 0.0, 11: 0.0, 12: 0.673791667, 13: 0.0, 14: 0.0, 15: 0.671791667, 16: 0.0, 17: 0.354791667, 18: 0.326991667, 19: 0.0, 20: 0.0, 21: 0.0, 22: 0.0, 23: 0.0, 24: 0.0, 25: 0.0, 26: 0.0, 27: 0.664091667, 28: 0.667091667, 29: 0.0, 30: 0.895891667, 31: 0.001191667, 32: 0.975591667, 33: 0.670291667, 34: 1.041091667, 35: 0.0, 36: 0.0, 37: 0.484091667, 38: 0.0, 39: 1.786091667, 40: 1.483791667, 41: 0.986791667, 42: 0.0, 43: 0.802791667, 44: 1.808591667, 45: 0.0, 46: 0.0, 47: 2.594991667, 48: 2.894091667, 49: 0.0, 50: 0.0, 51: 0.760691667, 52: 0.994791667, 53: 0.0, 54: 0.031291667, 55: 0.810291667, 56: 1.083791667, 57: 0.0, 58: 0.447291667, 59: 0.0, 60: 1.113991667, 61: 0.0, 62: 1.064291667, 63: 0.0, 64: 0.0, 65: 0.330491667, 66: 0.0, 67: 0.0, 68: 0.0, 69: 0.0, 70: 0.0, 71: 0.0, 72: 0.0, 73: 0.800091667, 74: 0.0, 75: 0.0, 76: 0.0, 77: 0.814591667, 78: 0.8127916670000001, 79: 0.0, 80: 0.0, 81: 0.0, 82: 0.795491667, 83: 0.0, 84: 0.0, 85: 0.7864916669999999, 86: 0.0, 87: 0.794991667, 88: 0.0, 89: 0.025625286, 90: 0.0, 91: 0.0, 92: 0.556491667, 93: 0.543491667, 94: 0.542491667, 95: 0.0];
charge = [0: 1.0, 1: 1.0, 2: 1.0, 3: 0.0, 4: 0.0, 5: 1.0, 6: 1.0, 7: 1.0, 8: 1.0, 9: 1.0, 10: 0.0, 11: 1.0, 12: 0.0, 13: 1.0, 14: 1.0, 15: 0.0, 16: 1.0, 17: 0.0, 18: 0.0, 19: 1.0, 20: 1.0, 21: 1.0, 22: 0.0, 23: 1.0, 24: 1.0, 25: 1.0, 26: 0.0, 27: 0.0, 28: 0.0, 29: 1.0, 30: 0.0, 31: 0.0, 32: 0.0, 33: 0.0, 34: 0.0, 35: 1.0, 36: 1.0, 37: 0.0, 38: 1.0, 39: 0.0, 40: 0.0, 41: 1.0, 42: 0.0, 43: 0.0, 44: 0.0, 45: 1.0, 46: 0.0, 47: 0.0, 48: 0.0, 49: 0.0, 50: 1.0, 51: 1.0, 52: 0.0, 53: 1.0, 54: 0.0, 55: 0.0, 56: 0.0, 57: 0.0, 58: 0.0, 59: 1.0, 60: 0.0, 61: 1.0, 62: 0.0, 63: 1.0, 64: 0.0, 65: 0.0, 66: 0.0, 67: 1.0, 68: 1.0, 69: 1.0, 70: 1.0, 71: 1.0, 72: 1.0, 73: 0.0, 74: 1.0, 75: 1.0, 76: 0.0, 77: 0.0, 78: 0.0, 79: 1.0, 80: 0.0, 81: 1.0, 82: 0.0, 83: 1.0, 84: 0.0, 85: 0.0, 86: 0.0, 87: 0.0, 88: 1.0, 89: 0.0, 90: 1.0, 91: 1.0, 92: 0.0, 93: 0.0, 94: 0.0, 95: 1.0];
discharge = [0: 0.0, 1: 0.0, 2: 0.0, 3: 1.0, 4: 1.0, 5: 0.0, 6: 0.0, 7: 0.0, 8: 0.0, 9: 0.0, 10: 0.0, 11: 0.0, 12: 1.0, 13: 0.0, 14: 0.0, 15: 1.0, 16: 0.0, 17: 1.0, 18: 1.0, 19: 0.0, 20: 0.0, 21: 0.0, 22: 0.0, 23: 0.0, 24: 0.0, 25: 0.0, 26: 0.0, 27: 1.0, 28: 1.0, 29: 0.0, 30: 1.0, 31: 0.0, 32: 1.0, 33: 1.0, 34: 1.0, 35: 0.0, 36: 0.0, 37: 0.0, 38: 0.0, 39: 0.0, 40: 0.0, 41: 0.0, 42: 0.0, 43: 1.0, 44: 1.0, 45: 0.0, 46: 0.0, 47: 1.0, 48: 1.0, 49: 0.048356509, 50: 0.0, 51: 0.0, 52: 0.0, 53: 0.0, 54: 1.0, 55: 0.0, 56: 1.0, 57: 0.0, 58: 1.0, 59: 0.0, 60: 0.0, 61: 0.0, 62: 1.0, 63: 0.0, 64: 0.0, 65: 0.0, 66: 0.0, 67: 0.0, 68: 0.0, 69: 0.0, 70: 0.0, 71: 0.0, 72: 0.0, 73: 1.0, 74: 0.0, 75: 0.0, 76: 0.0, 77: 1.0, 78: 1.0, 79: 0.0, 80: 0.0, 81: 0.0, 82: 1.0, 83: 0.0, 84: 0.0, 85: 1.0, 86: 0.0, 87: 1.0, 88: 0.0, 89: 0.353148466, 90: 0.0, 91: 0.0, 92: 1.0, 93: 1.0, 94: 1.0, 95: 0.0];
soc = [0: 3.559468, 1: 4.458756106, 2: 5.357864355, 3: 4.356792782, 4: 3.355921424, 5: 4.255250239, 6: 5.154399189, 7: 6.05336831, 8: 6.952157636, 9: 7.850767204, 10: 7.849197051, 11: 8.747627211999999, 12: 7.745877686, 13: 8.644328510999999, 14: 9.542599644999999, 15: 8.540691125, 16: 9.438982986999999, 17: 8.437095190000001, 18: 7.435407771, 19: 8.333920689999999, 20: 9.232253905, 21: 10.130407455, 22: 10.128381373, 23: 11.026355697, 24: 11.924150426, 25: 12.821765596, 26: 12.819201242, 27: 11.816637402, 28: 10.814274075, 29: 11.71211122, 30: 10.709768798, 31: 10.707626844, 32: 9.705485318999999, 33: 8.703544222, 34: 7.701803513, 35: 8.600263152, 36: 9.498543099000001, 37: 9.496643390999999, 38: 10.394744062, 39: 10.392665113, 40: 10.39058658, 41: 11.288508463, 42: 11.286250761, 43: 10.283993511, 44: 9.281936712, 45: 10.180080325, 46: 10.178044309, 47: 9.176008700000001, 48: 8.174173498, 49: 8.124182155, 50: 9.022557318, 51: 9.920752807, 52: 9.918768655999999, 53: 10.816784903, 54: 9.814621546, 55: 9.812658621000001, 56: 8.81069609, 57: 8.80893395, 58: 7.807172164, 59: 8.705610729, 60: 8.703869607, 61: 9.602128833, 62: 8.600208407, 63: 9.498488366, 64: 9.496588667999999, 65: 9.49468935, 66: 9.492790412, 67: 10.390891854, 68: 11.288813676, 69: 12.186555913, 70: 13.084118602, 71: 13.981501778, 72: 14.878705478, 73: 13.875729737, 74: 14.772954591, 75: 15.67, 76: 15.666866, 77: 14.663732627, 78: 13.66079988, 79: 14.55806772, 80: 14.555156107, 81: 15.452245076, 82: 14.449154627, 83: 15.346264796, 84: 15.343195543, 85: 14.340126904, 86: 14.337258878, 87: 13.334391426, 88: 14.231724548, 89: 13.875729737, 90: 14.772954591, 91: 15.67, 92: 14.666866, 93: 13.663932627, 94: 12.66119984, 95: 13.5586676];
cost = [0: 0.890910666, 1: 0.892132466, 2: 0.868796086, 3: 0.0, 4: 0.0, 5: 0.866841206, 6: 0.865924856, 7: 0.868918266, 8: 0.868612816, 9: 0.868796086, 10: 0.142772421, 11: 0.867757556, 12: 0.0, 13: 0.871667316, 14: 0.869712436, 15: 0.0, 16: 1.041069886, 17: 0.0, 18: 0.0, 19: 0.794388466, 20: 0.794388466, 21: 0.833547156, 22: 0.231352921, 23: 0.958109666, 24: 2.729360079, 25: 1.639924399, 26: 0.281112393, 27: 0.0, 28: 0.0, 29: 1.583061519, 30: 0.0, 31: 0.0, 32: 0.0, 33: 0.0, 34: 0.0, 35: 1.570332799, 36: 1.032990479, 37: 0.0, 38: 1.423774079, 39: 0.0, 40: 0.0, 41: 0.118178165, 42: 0.114449433, 43: 0.0, 44: 0.0, 45: 1.438644079, 46: 0.132293433, 47: 0.0, 48: 0.0, 49: 0.08789654099999999, 50: 1.444829999, 51: 0.118178165, 52: 0.0, 53: 1.209861556, 54: 0.0, 55: 0.0, 56: 0.0, 57: 0.276070801, 58: 0.0, 59: 0.778993786, 60: 0.0, 61: 1.459699999, 62: 0.0, 63: 1.464458399, 64: 0.144546313, 65: 0.0, 66: 0.163223033, 67: 1.360368399, 68: 1.463506719, 69: 1.366554319, 70: 1.479566319, 71: 1.454941599, 72: 1.700712959, 73: 0.0, 74: 1.437335519, 75: 1.436145919, 76: 0.112427113, 77: 0.0, 78: 0.0, 79: 1.420205279, 80: 0.133839913, 81: 1.441023279, 82: 0.0, 83: 1.430554799, 84: 0.135029513, 85: 0.0, 86: 0.177498233, 87: 0.0, 88: 0.802513436, 89: 0.0, 90: 0.942409536, 91: 0.938927406, 92: 0.0, 93: 0.0, 94: 0.0, 95: 0.9253043359999999];
earn = [0: 0.0, 1: 0.0, 2: 0.0, 3: 0.498433892, 4: 0.4816465, 5: 0.0, 6: 0.0, 7: 0.0, 8: 0.0, 9: 0.0, 10: 0.0, 11: 0.0, 12: 0.458313092, 13: 0.0, 14: 0.0, 15: 0.457624483, 16: 0.0, 17: 0.250092646, 18: 0.231412002, 19: 0.0, 20: 0.0, 21: 0.0, 22: 0.0, 23: 0.0, 24: 0.0, 25: 0.0, 26: 0.0, 27: 0.498600023, 28: 0.502386734, 29: 0.0, 30: 0.594244943, 31: 0.000699985, 32: 0.576574675, 33: 0.362024529, 34: 0.528354021, 35: 0.0, 36: 0.0, 37: 0.1568457, 38: 0.0, 39: 0.390975466, 40: 0.233845567, 41: 0.152557992, 42: 0.0, 43: 0.081242517, 44: 0.069811638, 45: 0.0, 46: 0.0, 47: 0.004411486, 48: -0.117789531, 49: 0.0, 50: 0.0, 51: 7.606900000000001e-05, 52: -0.012733333, 53: 0.0, 54: 0.000344208, 55: 0.024794925, 56: 0.138725333, 57: 0.0, 58: 0.095630958, 59: 0.0, 60: 0.422759838, 61: 0.0, 62: 0.529485104, 63: 0.0, 64: 0.0, 65: 0.208242799, 66: 0.0, 67: 0.0, 68: 0.0, 69: 0.0, 70: 0.0, 71: 0.0, 72: 0.0, 73: 0.728083417, 74: 0.0, 75: 0.0, 76: 0.0, 77: 0.721076543, 78: 0.692335942, 79: 0.0, 80: 0.0, 81: 0.0, 82: 0.598607479, 83: 0.0, 84: 0.0, 85: 0.547319551, 86: 0.0, 87: 0.538129859, 88: 0.0, 89: 0.01630537, 90: 0.0, 91: 0.0, 92: 0.330222155, 93: 0.310333742, 94: 0.311281718, 95: 0.0];
total_cost = 53.766442785;
total_earn = 12.613330036;
% _objective = 41.153112749;