production = [0.0, 0.0, 0.0, 0.0, 0.0, 0.0, 0.0, 0.0, 0.0, 0.0, 0.0, 0.0, 0.0, 0.0, 0.0, 0.0, 0.0, 0.0, 0.0, 0.0, 0.0, 0.0, 0.0, 0.0003, 0.0, 0.008500000000000001, 0.0, 0.0, 0.1205, 0.0, 0.0, 0.2167, 0.3045, 0.0, 0.0, 0.0, 0.4495, 0.0, 0.0, 0.0, 1.5822, 0.0, 1.3142, 0.729, 0.0, 2.017, 2.0035, 1.813, 2.108, 0.0, 0.5305, 1.8787, 0.0, 0.5545, 0.0, 1.6955, 0.0, 0.0, 0.3528, 0.3365, 0.0, 0.0, 0.0, 0.0, 0.275, 0.4507, 0.0, 0.0, 0.0, 0.0, 0.0, 0.0, 0.0, 0.0, 0.0, 0.0, 0.0, 0.0, 0.0, 0.0, 0.0, 0.0, 0.0, 0.0, 0.0, 0.0, 0.0, 0.0, 0.0, 0.0, 0.0, 0.0, 0.0, 0.0, 0.0, 0.0];
buy = [1.264908333, 1.266908333, 0.0, 0.220008333, 0.0, 0.451799288, 1.224008333, 0.0, 1.228408333, 0.0, 0.233708333, 1.227008333, 1.226208333, 1.233408333, 1.230208333, 1.228208333, 1.510708333, 1.545208333, 0.0, 0.106908333, 1.106908333, 1.171008333, 1.378708333, 1.374908333, 2.195008333, 0.0, 0.0, 1.235908333, 0.112408333, 0.0, 0.0, 0.998808333, 0.0, 1.229708333, 0.226208333, 1.220708333, 0.0, 0.0, 1.097508333, 1.099708333, 0.0, 0.0, 0.0, 0.368208333, 0.914290134, 0.0, 0.0, 0.0, 0.0, 1.117408333, 0.584708333, 0.0, 1.135008333, 0.232508333, 0.072327961, 0.0, 0.446208333, 1.451908333, 0.099908333, 0.0, 0.123708333, 0.0, 0.125008333, 1.131708333, 0.8465083329999999, 0.0, 0.137208333, 0.143208333, 0.0, 0.972453044, 0.0, 0.0, 1.341008333, 0.0, 1.108908333, 1.107908333, 1.094508333, 1.085408333, 0.087208333, 0.0, 0.112508333, 0.0, 0.0, 1.103208333, 0.0, 0.0, 0.0, 0.0, 0.0, 0.292208333, 1.349208333, 0.0, 0.343508333, 0.0, 1.357508333, 1.321208333];
sell = [0.0, 0.0, 0.497055192, 0.0, 0.680291667, 0.0, 0.0, 0.671091667, 0.0, 0.671291667, 0.0, 0.0, 0.0, 0.0, 0.0, 0.0, 0.0, 0.0, 0.326991667, 0.0, 0.0, 0.0, 0.0, 0.0, 0.0, 0.6292916670000001, 0.620491667, 0.0, 0.0, 0.6685916669999999, 0.6655916670000001, 0.0, 0.075591667, 0.0, 0.0, 0.0, 1.130991667, 0.801091667, 0.0, 0.0, 0.483791667, 0.801991667, 2.117991667, 0.0, 0.0, 2.806991667, 0.892291667, 2.594991667, 0.994091667, 0.0, 0.0, 0.760691667, 0.0, 0.0, 0.0, 0.810291667, 0.0, 0.0, 0.0, 0.818291667, 0.0, 0.772291667, 0.0, 0.0, 0.0, 1.230491667, 0.0, 0.0, 0.769091667, 0.0, 0.755591667, 0.776291667, 0.0, 0.800091667, 0.0, 0.0, 0.0, 0.0, 0.0, 0.805491667, 0.0, 0.787991667, 0.795491667, 0.0, 0.7864916669999999, 0.7864916669999999, 0.750791667, 0.794991667, 0.779791667, 0.0, 0.0, 0.556491667, 0.0, 0.543491667, 0.0, 0.0];
charge = [1.0, 1.0, 0.0, 0.0, 0.0, 0.226290954, 1.0, 0.0, 1.0, 0.0, 0.0, 1.0, 1.0, 1.0, 1.0, 1.0, 1.0, 1.0, 0.0, 0.0, 1.0, 1.0, 1.0, 1.0, 1.0, 0.0, 0.0, 1.0, 0.0, 0.0, 0.0, 1.0, 0.0, 1.0, 0.0, 1.0, 0.0, 0.0, 1.0, 1.0, 1.0, 0.0, 0.0, 1.0, 0.7833818, 0.0, 1.0, 0.0, 1.0, 1.0, 1.0, 1.0, 1.0, 0.0, 0.0, 0.0, 0.0, 1.0, 0.0, 0.0, 0.0, 0.0, 0.0, 1.0, 1.0, 0.0, 0.0, 0.0, 0.0, 0.84024471, 0.0, 0.0, 1.0, 0.0, 1.0, 1.0, 1.0, 1.0, 0.0, 0.0, 0.0, 0.0, 0.0, 1.0, 0.0, 0.0, 0.0, 0.0, 0.0, 0.0, 1.0, 0.0, 0.0, 0.0, 1.0, 1.0];
discharge = [0.0, 0.0, 0.806403917, 0.0, 1.0, 0.0, 0.0, 1.0, 0.0, 1.0, 0.0, 0.0, 0.0, 0.0, 0.0, 0.0, 0.0, 0.0, 1.0, 0.0, 0.0, 0.0, 0.0, 0.0, 0.0, 1.0, 1.0, 0.0, 0.0, 1.0, 1.0, 0.0, 0.0, 0.0, 0.0, 0.0, 1.0, 1.0, 0.0, 0.0, 0.0, 1.0, 1.0, 0.0, 0.0, 1.0, 0.0, 1.0, 0.0, 0.0, 0.0, 0.0, 0.0, 0.0, 0.884867081, 0.0, 0.0, 0.0, 0.0, 1.0, 0.0, 1.0, 0.0, 0.0, 0.0, 1.0, 0.0, 0.0, 1.0, 0.0, 1.0, 1.0, 0.0, 1.0, 0.0, 0.0, 0.0, 0.0, 0.0, 1.0, 0.0, 1.0, 1.0, 0.0, 1.0, 1.0, 1.0, 1.0, 1.0, 0.0, 0.0, 1.0, 0.0, 1.0, 0.0, 0.0];
soc = [3.559468, 4.458756106, 3.651460438, 3.650730146, 2.65, 2.853131859, 3.752561232, 2.75181072, 3.651260358, 2.650530106, 2.65, 3.54947, 4.448760106, 5.347870354, 6.24680078, 7.14555142, 8.044122309, 8.942513484999999, 7.940724982, 7.939136837, 8.83754901, 9.7357815, 10.633834344, 11.531707577, 12.429401235, 11.426915355, 10.424629972, 11.322545046, 11.320280537, 10.318016481, 9.315952877999999, 10.214089687, 10.212046869, 11.11000446, 11.107782459, 12.005560902, 11.00315979, 10.000959158, 10.898958966, 11.796779175, 12.694419819, 11.691880935, 10.689542559, 11.58740465, 12.29013079, 11.287672763, 12.185415229, 11.182978146, 12.08074155, 12.978325402, 13.875729737, 14.772954591, 15.67, 15.666866, 14.778865546, 14.775909773, 14.772954591, 15.67, 15.666866, 14.663732627, 14.66079988, 13.65786772, 13.655136147, 14.55240512, 15.449494639, 14.44640474, 14.443515459, 14.440626756, 13.43773863, 14.191271322, 13.188433068, 12.185795381, 13.083358222, 12.08074155, 12.978325402, 13.875729737, 14.772954591, 15.67, 15.666866, 14.663732627, 14.66079988, 13.65786772, 12.655136147, 13.55260512, 12.549894599, 11.54738462, 10.545075143, 9.542966128, 8.541057534, 8.539349323, 9.437641452999999, 8.435753925, 8.434066774, 7.432379961, 8.330893485000001, 9.229227306];
cost = [0.890910666, 0.892132466, 0.0, 0.134403091, 0.0, 0.302746835, 0.865924856, 0.0, 0.868612816, 0.0, 0.142772421, 0.867757556, 0.867268836, 0.871667316, 0.869712436, 0.868490636, 1.041069886, 1.062145936, 0.0, 0.065310301, 0.794388466, 0.833547156, 0.960431086, 0.958109666, 2.729360079, 0.0, 0.0, 1.588414719, 0.133720953, 0.0, 0.0, 1.306360559, 0.0, 1.581039199, 0.269097433, 1.570332799, 0.0, 0.0, 1.423774079, 1.426391199, 0.118178165, 0.0, 0.0, 0.556198799, 1.180218167, 0.0, 0.118178165, 0.0, 0.118178165, 1.447447119, 0.813747199, 0.118178165, 0.811554756, 0.142039341, 0.044185151, 0.0, 0.272588671, 1.005148966, 0.061034001, 0.0, 0.147163433, 0.0, 0.148709913, 1.464458399, 1.125184479, 0.0, 0.163223033, 0.170360633, 0.0, 1.256128719, 0.0, 0.0, 1.713441679, 0.0, 1.437335519, 1.436145919, 1.420205279, 1.409379919, 0.103743033, 0.0, 0.133839913, 0.0, 0.0, 1.430554799, 0.0, 0.0, 0.0, 0.0, 0.0, 0.178510071, 0.942409536, 0.0, 0.209849241, 0.0, 0.947480006, 0.9253043359999999];
earn = [0.0, 0.0, 0.375077848, 0.0, 0.4816465, 0.0, 0.0, 0.470905023, 0.0, 0.456276946, 0.0, 0.0, 0.0, 0.0, 0.0, 0.0, 0.0, 0.0, 0.231412002, 0.0, 0.0, 0.0, 0.0, 0.0, 0.0, 0.479771967, 0.465865143, 0.0, 0.0, 0.499103679, 0.441486953, 0.0, 0.044674675, 0.0, 0.0, 0.0, 0.450700179, 0.2595537, 0.0, 0.0, 0.076245567, 0.123987912, 0.260301176, 0.0, 0.0, 0.022455933, 0.005532208, 0.004411486, -0.040459531, 0.0, 0.0, 7.606900000000001e-05, 0.0, 0.0, 0.0, 0.024794925, 0.0, 0.0, 0.0, 0.238777508, 0.0, 0.354868021, 0.0, 0.0, 0.0, 0.775332799, 0.0, 0.0, 0.568820197, 0.0, 0.614522703, 0.644011567, 0.0, 0.728083417, 0.0, 0.0, 0.0, 0.0, 0.0, 0.663644584, 0.0, 0.614475902, 0.598607479, 0.0, 0.549993623, 0.547319551, 0.514667688, 0.538129859, 0.506162771, 0.0, 0.0, 0.339014723, 0.0, 0.310333742, 0.0, 0.0];
total_cost = 49.756196139;
total_earn = 14.240586491;
% _objective = 35.51560964799999;