production = [0: 0.0, 1: 0.0, 2: 0.0, 3: 0.0, 4: 0.0, 5: 0.0, 6: 0.0, 7: 0.0, 8: 0.0, 9: 0.0, 10: 0.0, 11: 0.0, 12: 0.0, 13: 0.0, 14: 0.0, 15: 0.0, 16: 0.0, 17: 0.0, 18: 0.0, 19: 0.0, 20: 0.0, 21: 0.0, 22: 0.0, 23: 0.0003, 24: 0.0015, 25: 0.0, 26: 0.0432, 27: 0.075, 28: 0.0, 29: 0.0, 30: 0.2303, 31: 0.0, 32: 0.3045, 33: 0.1725, 34: 0.3673, 35: 0.0, 36: 0.0, 37: 0.0, 38: 0.0, 39: 1.8858, 40: 0.0, 41: 1.098008333, 42: 1.3142, 43: 0.729, 44: 1.0395, 45: 2.017, 46: 0.0, 47: 1.813, 48: 0.0, 49: 1.1145, 50: 0.5305, 51: 0.0, 52: 0.0, 53: 0.5545, 54: 0.0, 55: 0.0, 56: 0.0, 57: 0.4012, 58: 0.3528, 59: 0.3365, 60: 1.2377, 61: 0.0, 62: 0.2893, 63: 0.0, 64: 0.0, 65: 0.4507, 66: 0.3412, 67: 0.0, 68: 0.115, 69: 0.0, 70: 0.058, 71: 0.0307, 72: 0.0107, 73: 0.0, 74: 0.0, 75: 0.0, 76: 0.0, 77: 0.0, 78: 0.0, 79: 0.0, 80: 0.0, 81: 0.0, 82: 0.0, 83: 0.0, 84: 0.0, 85: 0.0, 86: 0.0, 87: 0.0, 88: 0.0, 89: 0.0, 90: 0.0, 91: 0.0, 92: 0.0, 93: 0.0, 94: 0.0, 95: 0.0];
buy = [0: 1.264908333, 1: 1.266908333, 2: 1.116955179, 3: 0.220008333, 4: 1.219708333, 5: 0.0, 6: 1.224008333, 7: 1.228908333, 8: 1.228408333, 9: 1.228708333, 10: 1.233708333, 11: 0.0, 12: 1.226208333, 13: 0.233408333, 14: 1.230208333, 15: 1.228208333, 16: 1.510708333, 17: 1.545208333, 18: 0.573008333, 19: 0.0, 20: 0.0, 21: 0.0, 22: 1.378708333, 23: 0.374908333, 24: 1.193508333, 25: 0.0, 26: 0.236308333, 27: 0.0, 28: 0.0, 29: 1.231408333, 30: 1.004108333, 31: 0.215508333, 32: 0.924408333, 33: 0.057208333, 34: 0.858908333, 35: 0.0, 36: 0.0, 37: 0.0, 38: 1.097508333, 39: 0.0, 40: 0.098408333, 41: 0.0, 42: 0.0, 43: 0.0, 44: 0.09140833299999999, 45: 0.0, 46: 1.111208333, 47: 0.0, 48: 0.113908333, 49: 0.0, 50: 0.0, 51: 1.118008333, 52: 0.135008333, 53: 1.232508333, 54: 0.8687083330000001, 55: 0.0, 56: 0.0, 57: 1.050708333, 58: 1.099908333, 59: 0.0, 60: 0.0, 61: 1.127708333, 62: 0.0, 63: 0.0, 64: 1.121508333, 65: 0.0, 66: 0.796008333, 67: 1.143208333, 68: 1.015908333, 69: 1.132208333, 70: 0.086408333, 71: 0.0, 72: 1.330308333, 73: 0.0, 74: 0.108908333, 75: 0.0, 76: 0.0, 77: 0.085408333, 78: 1.087208333, 79: 1.094508333, 80: 0.0, 81: 0.112008333, 82: 0.104508333, 83: 1.103208333, 84: 0.113508333, 85: 1.113508333, 86: 0.0, 87: 1.105008333, 88: 0.0, 89: 0.0, 90: 0.0, 91: 1.343508333, 92: 0.0, 93: 0.356508333, 94: 1.357508333, 95: 1.321208333];
sell = [0: 0.0, 1: 0.0, 2: 0.0, 3: 0.0, 4: 0.0, 5: 0.674491667, 6: 0.0, 7: 0.0, 8: 0.0, 9: 0.0, 10: 0.0, 11: 0.0, 12: 0.0, 13: 0.0, 14: 0.0, 15: 0.0, 16: 0.0, 17: 0.0, 18: 0.0, 19: 0.793091667, 20: 0.793091667, 21: 0.728991667, 22: 0.0, 23: 0.0, 24: 0.0, 25: 0.620791667, 26: 0.0, 27: 0.739091667, 28: 0.667091667, 29: 0.0, 30: 0.0, 31: 0.0, 32: 0.0, 33: 0.0, 34: 0.0, 35: 0.679291667, 36: 0.681491667, 37: 0.801091667, 38: 0.0, 39: 1.786091667, 40: 0.0, 41: 0.0, 42: 0.217991667, 43: 1.531791667, 44: 0.0, 45: 1.906991667, 46: 0.0, 47: 2.594991667, 48: 0.0, 49: 0.0, 50: 1.315291667, 51: 0.0, 52: 0.0, 53: 0.0, 54: 0.0, 55: 0.0, 56: 0.453791667, 57: 0.0, 58: 0.0, 59: 0.818291667, 60: 1.113991667, 61: 0.0, 62: 0.164291667, 63: 0.768291667, 64: 0.0, 65: 1.230491667, 66: 0.0, 67: 0.0, 68: 0.0, 69: 0.0, 70: 0.0, 71: 0.806991667, 72: 0.0, 73: 0.800091667, 74: 0.0, 75: 0.792091667, 76: 0.805491667, 77: 0.0, 78: 0.0, 79: 0.0, 80: 0.787491667, 81: 0.0, 82: 0.0, 83: 0.0, 84: 0.0, 85: 0.0, 86: 0.750791667, 87: 0.0, 88: 0.779791667, 89: 0.607791667, 90: 0.550791667, 91: 0.0, 92: 0.556491667, 93: 0.0, 94: 0.0, 95: 0.0];
charge = [0: 1.0, 1: 1.0, 2: 0.888246846, 3: 0.0, 4: 1.0, 5: 0.0, 6: 1.0, 7: 1.0, 8: 1.0, 9: 1.0, 10: 1.0, 11: 0.0, 12: 1.0, 13: 0.0, 14: 1.0, 15: 1.0, 16: 1.0, 17: 1.0, 18: 0.0, 19: 0.0, 20: 0.0, 21: 0.0, 22: 1.0, 23: 0.0, 24: 0.0, 25: 0.0, 26: 0.0, 27: 0.0, 28: 0.0, 29: 1.0, 30: 1.0, 31: 0.0, 32: 1.0, 33: 0.0, 34: 1.0, 35: 0.0, 36: 0.0, 37: 0.0, 38: 1.0, 39: 0.0, 40: 0.0, 41: 1.0, 42: 1.0, 43: 0.0, 44: 1.0, 45: 0.0, 46: 1.0, 47: 0.0, 48: 0.0, 49: 0.997091667, 50: 0.0, 51: 1.0, 52: 0.0, 53: 1.0, 54: 0.0, 55: 0.0, 56: 0.0, 57: 1.0, 58: 1.0, 59: 0.0, 60: 0.0, 61: 1.0, 62: 0.0, 63: 0.0, 64: 1.0, 65: 0.0, 66: 1.0, 67: 1.0, 68: 1.0, 69: 1.0, 70: 0.0, 71: 0.0, 72: 1.0, 73: 0.0, 74: 0.0, 75: 0.0, 76: 0.0, 77: 0.0, 78: 1.0, 79: 1.0, 80: 0.0, 81: 0.0, 82: 0.0, 83: 1.0, 84: 0.0, 85: 1.0, 86: 0.0, 87: 1.0, 88: 0.0, 89: 0.0, 90: 0.0, 91: 1.0, 92: 0.0, 93: 0.0, 94: 1.0, 95: 1.0];
discharge = [0: 0.0, 1: 0.0, 2: 0.0, 3: 0.0, 4: 0.0, 5: 1.0, 6: 0.0, 7: 0.0, 8: 0.0, 9: 0.0, 10: 0.0, 11: 0.252231481, 12: 0.0, 13: 0.0, 14: 0.0, 15: 0.0, 16: 0.0, 17: 0.0, 18: 0.0, 19: 1.0, 20: 1.0, 21: 1.0, 22: 0.0, 23: 0.0, 24: 0.0, 25: 1.0, 26: 0.0, 27: 1.0, 28: 1.0, 29: 0.0, 30: 0.0, 31: 0.0, 32: 0.0, 33: 0.0, 34: 0.0, 35: 1.0, 36: 1.0, 37: 1.0, 38: 0.0, 39: 0.0, 40: 0.0, 41: 0.0, 42: 0.0, 43: 1.0, 44: 0.0, 45: 0.0, 46: 0.0, 47: 1.0, 48: 0.0, 49: 0.0, 50: 1.0, 51: 0.0, 52: 0.0, 53: 0.0, 54: 0.0, 55: 0.983564815, 56: 1.0, 57: 0.0, 58: 0.0, 59: 1.0, 60: 0.0, 61: 0.0, 62: 0.0, 63: 1.0, 64: 0.0, 65: 1.0, 66: 0.0, 67: 0.0, 68: 0.0, 69: 0.0, 70: 0.0, 71: 1.0, 72: 0.0, 73: 1.0, 74: 0.0, 75: 1.0, 76: 1.0, 77: 0.0, 78: 0.0, 79: 0.0, 80: 1.0, 81: 0.0, 82: 0.0, 83: 0.0, 84: 0.0, 85: 0.0, 86: 1.0, 87: 0.0, 88: 1.0, 89: 1.0, 90: 1.0, 91: 0.0, 92: 1.0, 93: 0.0, 94: 0.0, 95: 0.0];
soc = [0: 3.559468, 1: 4.458756106, 2: 5.257286517, 3: 5.256235059, 4: 6.155183812, 5: 5.153952776, 6: 6.052921985, 7: 6.951711401, 8: 7.850321058, 9: 8.748750994, 10: 9.647001244, 11: 9.392840361999999, 12: 10.290961794, 13: 10.288903602, 14: 11.186845821, 15: 12.084608452, 16: 12.98219153, 17: 13.879595092, 18: 13.876819173, 19: 12.874043809, 20: 11.871469, 21: 10.869094707, 22: 11.766920888, 23: 11.764567503, 24: 11.76221459, 25: 10.759862147, 26: 10.757710175, 27: 9.755558633, 28: 8.753607520999999, 29: 9.651856799000001, 30: 10.549926428, 31: 10.547816443, 32: 11.445706879, 33: 11.443417738, 34: 12.341129054, 35: 11.338660829, 36: 10.336393096, 37: 9.334325818, 38: 10.232458953, 39: 10.230412461, 40: 10.228366378, 41: 11.126320705, 42: 12.024095441, 43: 11.021690622, 44: 11.919486284, 45: 11.917102387, 46: 12.814718966, 47: 11.812156022, 48: 11.809793591, 49: 12.704814132, 50: 11.70227317, 51: 12.599932715, 52: 12.597412728, 53: 13.494893246, 54: 13.492194267, 55: 12.505931013, 56: 11.503429827, 57: 12.401129141, 58: 13.298648915, 59: 12.295989186, 60: 12.293529988, 61: 13.191071282, 62: 13.188433068, 63: 12.185795381, 64: 13.083358222, 65: 12.08074155, 66: 12.978325402, 67: 13.875729737, 68: 14.772954591, 69: 15.67, 70: 15.666866, 71: 14.663732627, 72: 15.56079988, 73: 14.55768772, 74: 14.554776183, 75: 13.551865228, 76: 12.549154854, 77: 12.546645024, 78: 13.444135694, 79: 14.341446867, 80: 13.338578578, 81: 13.335910862, 82: 13.33324368, 83: 14.230577031, 84: 14.227730916, 85: 15.12488537, 86: 14.121860393, 87: 15.019036021, 88: 14.016032213, 89: 13.013229007, 90: 12.010626361, 91: 12.908224236, 92: 11.905642591, 93: 11.903261463, 94: 12.80088081, 95: 13.698320634];
cost = [0: 0.890910666, 1: 0.892132466, 2: 0.787319302, 3: 0.134403091, 4: 0.863297986, 5: 0.0, 6: 0.865924856, 7: 0.868918266, 8: 0.868612816, 9: 0.868796086, 10: 0.871850586, 11: 0.0, 12: 0.867268836, 13: 0.142589151, 14: 0.869712436, 15: 0.868490636, 16: 1.041069886, 17: 1.062145936, 18: 0.350050791, 19: 0.0, 20: 0.0, 21: 0.0, 22: 0.960431086, 23: 0.229031501, 24: 1.419797513, 25: 0.0, 26: 0.281112393, 27: 0.0, 28: 0.0, 29: 1.583061519, 30: 1.312665439, 31: 0.256368713, 32: 1.217854319, 33: 0.068055033, 34: 1.139935519, 35: 0.0, 36: 0.0, 37: 0.0, 38: 1.423774079, 39: 0.0, 40: 0.117066553, 41: 0.118178165, 42: 0.118178165, 43: 0.0, 44: 0.226917519, 45: 0.0, 46: 1.440071599, 47: 0.0, 48: 0.135505353, 49: 0.117834464, 50: 0.0, 51: 1.448160879, 52: 0.082476591, 53: 0.871117506, 54: 0.530693921, 55: 0.0, 56: 0.0, 57: 0.760055886, 58: 0.790112166, 59: 0.0, 60: 0.0, 61: 1.459699999, 62: 0.0, 63: 0.0, 64: 1.452324479, 65: 0.0, 66: 1.065109679, 67: 1.478138799, 68: 1.326702719, 69: 1.465053199, 70: 0.102791353, 71: 0.0, 72: 1.700712959, 73: 0.0, 74: 0.129557353, 75: 0.0, 76: 0.0, 77: 0.101601753, 78: 1.411521199, 79: 1.420205279, 80: 0.0, 81: 0.133245113, 82: 0.124323113, 83: 1.430554799, 84: 0.135029513, 85: 1.442807679, 86: 0.0, 87: 1.432696079, 88: 0.0, 89: 0.0, 90: 0.0, 91: 0.938927406, 92: 0.0, 93: 0.217790941, 94: 0.947480006, 95: 0.9253043359999999];
earn = [0: 0.0, 1: 0.0, 2: 0.0, 3: 0.0, 4: 0.0, 5: 0.494807087, 6: 0.0, 7: 0.0, 8: 0.0, 9: 0.0, 10: 0.0, 11: 0.0, 12: 0.0, 13: 0.0, 14: 0.0, 15: 0.0, 16: 0.0, 17: 0.0, 18: 0.0, 19: 0.561191663, 20: 0.576101787, 21: 0.529904043, 22: 0.0, 23: 0.0, 24: 0.0, 25: 0.473291567, 26: 0.0, 27: 0.554910023, 28: 0.502386734, 29: 0.0, 30: 0.0, 31: 0.0, 32: 0.0, 33: 0.0, 34: 0.0, 35: 0.291959558, 36: 0.271574429, 37: 0.2595537, 38: 0.0, 39: 0.390975466, 40: 0.0, 41: 0.0, 42: 0.026791176, 43: 0.155017317, 44: 0.0, 45: 0.015255933, 46: 0.0, 47: 0.004411486, 48: 0.0, 49: 0.0, 50: -0.017756437, 51: 0.0, 52: 0.0, 53: 0.0, 54: 0.0, 55: 0.0, 56: 0.058085333, 57: 0.0, 58: 0.0, 59: 0.238777508, 60: 0.422759838, 61: 0.0, 62: 0.081735104, 63: 0.415031158, 64: 0.0, 65: 0.775332799, 66: 0.0, 67: 0.0, 68: 0.0, 69: 0.0, 70: 0.0, 71: 0.669480287, 72: 0.0, 73: 0.728083417, 74: 0.0, 75: 0.717476632, 76: 0.75297361, 77: 0.0, 78: 0.0, 79: 0.0, 80: 0.635427026, 81: 0.0, 82: 0.0, 83: 0.0, 84: 0.0, 85: 0.0, 86: 0.514667688, 87: 0.0, 88: 0.506162771, 89: 0.386737838, 90: 0.346778433, 91: 0.0, 92: 0.330222155, 93: 0.0, 94: 0.0, 95: 0.0];
total_cost = 50.603527432;
total_earn = 12.670107127;
% _objective = 37.933420305;