loc = [D01: C13, D02: C11, D03: C17, D04: C17, D05: C15, D06: C09, D07: C17, D08: C18, D09: C14, D10: C12, D11: C19, D12: C08, D13: C02, D14: C06, D15: C14, D16: C16, D17: C04, D18: C12, D19: C04, D20: C08, D21: C12, D22: C01, D23: C15, D24: C04, D25: C03, D26: C02, D27: C05, D28: C07, D29: C03, D30: C01, D31: C11, D32: C08, D33: C01, D34: C20, D35: C19, D36: C20, D37: C13, D38: C05, D39: C03, D40: C11, D41: C07, D42: C16, D43: C16, D44: C13, D45: C19, D46: C05, D47: C18, D48: C20, D49: C07, D50: C06, D51: C02, D52: C15, D53: C06, D54: C14, D55: C20];
