loc = [D01: C16, D02: C14, D03: C15, D04: C01, D05: C16, D06: C11, D07: C09, D08: C20, D09: C19, D10: C20, D11: C01, D12: C14, D13: C18, D14: C08, D15: C19, D16: C02, D17: C11, D18: C15, D19: C17, D20: C07, D21: C14, D22: C03, D23: C10, D24: C11, D25: C06, D26: C04, D27: C01, D28: C17, D29: C07, D30: C02, D31: C05, D32: C19, D33: C16, D34: C15, D35: C08, D36: C03, D37: C04, D38: C09, D39: C04, D40: C05, D41: C13, D42: C18, D43: C09, D44: C06, D45: C17, D46: C07, D47: C10, D48: C04, D49: C05, D50: C10, D51: C06, D52: C08, D53: C02, D54: C03, D55: C07];
