production = [0: 0.0, 1: 0.0, 2: 0.0, 3: 0.0, 4: 0.0, 5: 0.0, 6: 0.0, 7: 0.0, 8: 0.0, 9: 0.0, 10: 0.0, 11: 0.0, 12: 0.0, 13: 0.0, 14: 0.0, 15: 0.0, 16: 0.0, 17: 0.0, 18: 0.0, 19: 0.0, 20: 0.0, 21: 0.0, 22: 0.0, 23: 0.0, 24: 0.0003, 25: 0.0, 26: 0.0005, 27: 0.0013, 28: 0.005, 29: 0.0115, 30: 0.0, 31: 0.0, 32: 0.0418, 33: 0.1114, 34: 0.2727, 35: 0.2315, 36: 0.19, 37: 0.0, 38: 0.2213, 39: 0.1955, 40: 0.0, 41: 0.0, 42: 0.1576, 43: 0.1764, 44: 0.0, 45: 0.0, 46: 0.0, 47: 0.09054791700000001, 48: 0.0, 49: 0.0, 50: 0.0, 51: 0.0, 52: 0.3745, 53: 0.0, 54: 0.416, 55: 0.3855, 56: 0.0, 57: 0.4416, 58: 0.0, 59: 0.642, 60: 0.0, 61: 0.672, 62: 0.7237, 63: 0.0, 64: 0.0, 65: 0.0, 66: 0.1717, 67: 0.2714, 68: 0.0, 69: 0.0, 70: 0.0, 71: 0.1733, 72: 0.0, 73: 0.0, 74: 0.0545, 75: 0.0324, 76: 0.0217, 77: 0.0, 78: 0.0, 79: 0.0, 80: 0.0, 81: 0.0, 82: 0.0, 83: 0.0, 84: 0.0, 85: 0.0, 86: 0.0, 87: 0.0, 88: 0.0, 89: 0.0, 90: 0.0, 91: 0.0, 92: 0.0, 93: 0.0, 94: 0.0, 95: 0.0, 96: 0.0, 97: 0.0, 98: 0.0, 99: 0.0, 100: 0.0, 101: 0.0, 102: 0.0, 103: 0.0, 104: 0.0, 105: 0.0, 106: 0.0, 107: 0.0, 108: 0.0, 109: 0.0, 110: 0.0, 111: 0.0, 112: 0.0, 113: 0.0, 114: 0.0, 115: 0.0, 116: 0.0, 117: 0.0, 118: 0.0, 119: 0.0, 120: 0.0, 121: 0.0, 122: 0.007, 123: 0.0245, 124: 0.0, 125: 0.0, 126: 0.1013, 127: 0.0, 128: 0.2055, 129: 0.2868, 130: 0.0, 131: 0.2577, 132: 0.0, 133: 0.5417, 134: 0.7758, 135: 0.0, 136: 0.0, 137: 0.0, 138: 0.0, 139: 0.0, 140: 0.0, 141: 0.0, 142: 1.5045, 143: 0.7145, 144: 0.8625, 145: 0.5285, 146: 0.0, 147: 0.8139999999999999, 148: 0.0, 149: 0.0, 150: 0.7698, 151: 0.0, 152: 0.0, 153: 0.9573, 154: 1.403319162, 155: 0.0, 156: 0.5467, 157: 0.1737, 158: 0.0, 159: 0.3668, 160: 0.4075, 161: 0.0, 162: 0.4733, 163: 0.3395, 164: 0.0, 165: 0.0, 166: 0.1737, 167: 0.1215, 168: 0.0, 169: 0.0, 170: 0.0, 171: 0.0123, 172: 0.005, 173: 0.0, 174: 0.0, 175: 0.0, 176: 0.0, 177: 0.0, 178: 0.0, 179: 0.0, 180: 0.0, 181: 0.0, 182: 0.0, 183: 0.0, 184: 0.0, 185: 0.0, 186: 0.0, 187: 0.0, 188: 0.0, 189: 0.0, 190: 0.0, 191: 0.0];
buy = [0: 0.0, 1: 1.234647917, 2: 1.230947917, 3: 0.242447917, 4: 0.0, 5: 1.218947917, 6: 0.0, 7: 0.0, 8: 0.0, 9: 0.0, 10: 1.217747917, 11: 0.219547917, 12: 0.0, 13: 0.0, 14: 0.219247917, 15: 0.0, 16: 0.0, 17: 1.100747917, 18: 1.100447917, 19: 1.098147917, 20: 0.0, 21: 0.0, 22: 0.0, 23: 1.099447917, 24: 0.09884791699999999, 25: 1.089247917, 26: 0.0, 27: 1.096847917, 28: 0.367361413, 29: 1.080347917, 30: 0.0, 31: 0.083247917, 32: 1.049547917, 33: 0.0, 34: 0.0, 35: 0.0, 36: 0.0, 37: 0.0, 38: 0.0, 39: 0.0, 40: 1.084747917, 41: 0.084547917, 42: 0.932947917, 43: 0.0, 44: 0.092647917, 45: 1.084747917, 46: 0.081947917, 47: 0.0, 48: 0.0, 49: 0.0, 50: 0.0, 51: 0.082747917, 52: 0.36944521, 53: 1.091847917, 54: 0.666147917, 55: 0.861647917, 56: 0.0, 57: 1.375547917, 58: 1.559247917, 59: 1.177747917, 60: 1.431647917, 61: 0.770047917, 62: 0.733747917, 63: 1.414447917, 64: 0.0, 65: 0.0, 66: 0.0, 67: 0.0, 68: 1.191047917, 69: 0.0, 70: 0.125247917, 71: 0.952247917, 72: 1.137547917, 73: 0.0, 74: 0.158147917, 75: 0.143247917, 76: 1.119247917, 77: 1.140647917, 78: 1.146947917, 79: 0.0, 80: 1.404247917, 81: 1.259947917, 82: 1.264647917, 83: 0.0, 84: 0.0, 85: 0.205647917, 86: 0.0, 87: 0.0, 88: 0.212947917, 89: 0.0, 90: 0.0, 91: 1.212947917, 92: 1.224947917, 93: 0.224147917, 94: 1.225747917, 95: 0.0, 96: 0.206447917, 97: 0.204247917, 98: 1.214447917, 99: 1.214147917, 100: 0.0, 101: 0.205947917, 102: 0.211147917, 103: 0.214647917, 104: 0.213147917, 105: 1.204947917, 106: 0.205447917, 107: 0.0, 108: 1.214947917, 109: 1.213947917, 110: 0.207447917, 111: 1.206947917, 112: 1.216947917, 113: 1.215147917, 114: 0.220447917, 115: 0.211947917, 116: 0.0, 117: 1.215647917, 118: 1.222447917, 119: 0.221130139, 120: 0.0, 121: 1.207447917, 122: 0.0, 123: 0.188147917, 124: 0.203947917, 125: 1.069947917, 126: 0.0, 127: 0.077247917, 128: 0.003147917, 129: 0.0, 130: 1.203247917, 131: 0.0, 132: 0.0, 133: 0.546947917, 134: 0.0, 135: 0.0, 136: 0.089447917, 137: 1.088647917, 138: 0.0, 139: 1.082747917, 140: 0.0, 141: 0.088947917, 142: 0.0, 143: 0.0, 144: 0.0, 145: 0.0, 146: 0.0, 147: 0.0, 148: 0.0, 149: 0.0, 150: 0.0, 151: 0.0, 152: 1.093647917, 153: 0.0, 154: 0.0, 155: 0.0, 156: 0.0, 157: 1.260747917, 158: 0.433647917, 159: 1.065347917, 160: 0.0, 161: 0.0, 162: 0.0, 163: 0.740147917, 164: 0.080147917, 165: 1.089947917, 166: 0.0, 167: 0.0, 168: 0.0, 169: 1.086947917, 170: 0.08914791699999999, 171: 0.075347917, 172: 1.073647917, 173: 1.072147917, 174: 1.071447917, 175: 0.07994791699999999, 176: 0.0, 177: 0.0, 178: 0.0, 179: 0.0, 180: 1.094647917, 181: 0.09644791699999999, 182: 0.0, 183: 0.0, 184: 1.088947917, 185: 1.099747917, 186: 1.098947917, 187: 1.089947917, 188: 1.088947917, 189: 0.0, 190: 1.367947917, 191: 0.372647917];
sell = [0: 0.640052083, 1: 0.0, 2: 0.0, 3: 0.0, 4: 0.680552083, 5: 0.0, 6: 0.689952083, 7: 0.687552083, 8: 0.685852083, 9: 0.684052083, 10: 0.0, 11: 0.0, 12: 0.678752083, 13: 0.678452083, 14: 0.0, 15: 0.6873520829999999, 16: 0.805552083, 17: 0.0, 18: 0.0, 19: 0.0, 20: 0.809952083, 21: 0.809152083, 22: 0.800852083, 23: 0.0, 24: 0.0, 25: 0.0, 26: 0.809452083, 27: 0.0, 28: 0.0, 29: 0.0, 30: 0.814652083, 31: 0.0, 32: 0.0, 33: 0.9182520830000001, 34: 0.178552083, 35: 1.047252083, 36: 0.104452083, 37: 0.806552083, 38: 1.028152083, 39: 1.010152083, 40: 0.0, 41: 0.0, 42: 0.0, 43: 0.983552083, 44: 0.0, 45: 0.0, 46: 0.0, 47: 0.0, 48: 0.807652083, 49: 0.818052083, 50: 0.0, 51: 0.0, 52: 0.0, 53: 0.0, 54: 0.0, 55: 0.0, 56: 0.636652083, 57: 0.0, 58: 0.0, 59: 0.0, 60: 0.0, 61: 0.0, 62: 0.0, 63: 0.0, 64: 0.814952083, 65: 0.809152083, 66: 0.897352083, 67: 0.091852083, 68: 0.0, 69: 0.733552083, 70: 0.0, 71: 0.0, 72: 0.0, 73: 0.703752083, 74: 0.0, 75: 0.0, 76: 0.0, 77: 0.0, 78: 0.0, 79: 0.790452083, 80: 0.0, 81: 0.0, 82: 0.0, 83: 0.637752083, 84: 0.674052083, 85: 0.0, 86: 0.695952083, 87: 0.682052083, 88: 0.0, 89: 0.692252083, 90: 0.649952083, 91: 0.0, 92: 0.0, 93: 0.0, 94: 0.0, 95: 0.0, 96: 0.0, 97: 0.0, 98: 0.0, 99: 0.0, 100: 0.692552083, 101: 0.0, 102: 0.0, 103: 0.0, 104: 0.0, 105: 0.0, 106: 0.0, 107: 0.684852083, 108: 0.0, 109: 0.0, 110: 0.0, 111: 0.0, 112: 0.0, 113: 0.0, 114: 0.0, 115: 0.0, 116: 0.685552083, 117: 0.0, 118: 0.0, 119: 0.0, 120: 0.6903520829999999, 121: 0.0, 122: 0.694552083, 123: 0.0, 124: 0.0, 125: 0.0, 126: 0.922352083, 127: 0.0, 128: 0.0, 129: 0.982852083, 130: 0.0, 131: 0.043052083, 132: 0.810852083, 133: 0.0, 134: 1.595352083, 135: 0.0, 136: 0.0, 137: 0.0, 138: 0.819052083, 139: 0.0, 140: 0.816552083, 141: 0.0, 142: 2.314252083, 143: 0.627352083, 144: 1.683052083, 145: 1.348552083, 146: 0.811052083, 147: 0.724852083, 148: 0.819552083, 149: 0.816752083, 150: 1.576552083, 151: 0.806752083, 152: 0.0, 153: 1.165052083, 154: 0.0, 155: 0.111052083, 156: 0.0, 157: 0.0, 158: 0.0, 159: 0.0, 160: 1.218852083, 161: 0.810252083, 162: 0.383552083, 163: 0.0, 164: 0.0, 165: 0.0, 166: 0.983252083, 167: 0.030752083, 168: 0.817252083, 169: 0.0, 170: 0.0, 171: 0.0, 172: 0.0, 173: 0.0, 174: 0.0, 175: 0.0, 176: 0.821352083, 177: 0.828852083, 178: 0.8285520830000001, 179: 0.0, 180: 0.0, 181: 0.0, 182: 0.814552083, 183: 0.813552083, 184: 0.0, 185: 0.0, 186: 0.0, 187: 0.0, 188: 0.0, 189: 0.634052083, 190: 0.0, 191: 0.0];
charge = [0: 0.0, 1: 1.0, 2: 1.0, 3: 0.0, 4: 0.0, 5: 1.0, 6: 0.0, 7: 0.0, 8: 0.0, 9: 0.0, 10: 1.0, 11: 0.0, 12: 0.0, 13: 0.0, 14: 0.0, 15: 0.0, 16: 0.0, 17: 1.0, 18: 1.0, 19: 1.0, 20: 0.0, 21: 0.0, 22: 0.0, 23: 1.0, 24: 0.0, 25: 1.0, 26: 0.0, 27: 1.0, 28: 0.274213496, 29: 1.0, 30: 0.0, 31: 0.0, 32: 1.0, 33: 0.0, 34: 0.0, 35: 0.0, 36: 0.0, 37: 0.0, 38: 0.0, 39: 0.0, 40: 1.0, 41: 0.0, 42: 1.0, 43: 0.0, 44: 0.0, 45: 1.0, 46: 0.0, 47: 0.0, 48: 0.0, 49: 0.0, 50: 0.0, 51: 0.0, 52: 0.652597294, 53: 1.0, 54: 1.0, 55: 1.0, 56: 0.0, 57: 1.0, 58: 1.0, 59: 1.0, 60: 1.0, 61: 1.0, 62: 1.0, 63: 1.0, 64: 0.0, 65: 0.0, 66: 0.0, 67: 0.0, 68: 1.0, 69: 0.0, 70: 0.0, 71: 1.0, 72: 1.0, 73: 0.0, 74: 0.0, 75: 0.0, 76: 1.0, 77: 1.0, 78: 1.0, 79: 0.0, 80: 1.0, 81: 1.0, 82: 1.0, 83: 0.0, 84: 0.0, 85: 0.0, 86: 0.0, 87: 0.0, 88: 0.0, 89: 0.0, 90: 0.0, 91: 1.0, 92: 1.0, 93: 0.0, 94: 1.0, 95: 0.0, 96: 0.0, 97: 0.0, 98: 1.0, 99: 1.0, 100: 0.0, 101: 0.0, 102: 0.0, 103: 0.0, 104: 0.0, 105: 1.0, 106: 0.0, 107: 0.0, 108: 1.0, 109: 1.0, 110: 0.0, 111: 1.0, 112: 1.0, 113: 1.0, 114: 0.0, 115: 0.0, 116: 0.0, 117: 1.0, 118: 1.0, 119: 0.003482222, 120: 0.0, 121: 1.0, 122: 0.0, 123: 0.0, 124: 0.0, 125: 1.0, 126: 0.0, 127: 0.0, 128: 0.0, 129: 0.0, 130: 1.0, 131: 0.0, 132: 0.0, 133: 1.0, 134: 0.0, 135: 0.0, 136: 0.0, 137: 1.0, 138: 0.0, 139: 1.0, 140: 0.0, 141: 0.0, 142: 0.0, 143: 0.0, 144: 0.0, 145: 0.0, 146: 0.0, 147: 0.0, 148: 0.0, 149: 0.0, 150: 0.0, 151: 0.0, 152: 1.0, 153: 0.0, 154: 0.829871245, 155: 0.0, 156: 0.454752083, 157: 1.0, 158: 0.0, 159: 1.0, 160: 0.0, 161: 0.0, 162: 0.0, 163: 1.0, 164: 0.0, 165: 1.0, 166: 0.0, 167: 0.0, 168: 0.0, 169: 1.0, 170: 0.0, 171: 0.0, 172: 1.0, 173: 1.0, 174: 1.0, 175: 0.0, 176: 0.0, 177: 0.0, 178: 0.0, 179: 0.0, 180: 1.0, 181: 0.0, 182: 0.0, 183: 0.0, 184: 1.0, 185: 1.0, 186: 1.0, 187: 1.0, 188: 1.0, 189: 0.0, 190: 1.0, 191: 0.0];
discharge = [0: 1.0, 1: 0.0, 2: 0.0, 3: 0.0, 4: 1.0, 5: 0.0, 6: 1.0, 7: 1.0, 8: 1.0, 9: 1.0, 10: 0.0, 11: 0.0, 12: 1.0, 13: 1.0, 14: 0.0, 15: 1.0, 16: 1.0, 17: 0.0, 18: 0.0, 19: 0.0, 20: 1.0, 21: 1.0, 22: 1.0, 23: 0.0, 24: 0.0, 25: 0.0, 26: 1.0, 27: 0.0, 28: 0.0, 29: 0.0, 30: 1.0, 31: 0.0, 32: 0.0, 33: 1.0, 34: 0.0, 35: 1.0, 36: 0.0, 37: 1.0, 38: 1.0, 39: 1.0, 40: 0.0, 41: 0.0, 42: 0.0, 43: 1.0, 44: 0.0, 45: 0.0, 46: 0.0, 47: 0.0, 48: 1.0, 49: 1.0, 50: 0.09160879600000001, 51: 0.0, 52: 0.0, 53: 0.0, 54: 0.0, 55: 0.0, 56: 1.0, 57: 0.0, 58: 0.0, 59: 0.0, 60: 0.0, 61: 0.0, 62: 0.0, 63: 0.0, 64: 1.0, 65: 1.0, 66: 1.0, 67: 0.0, 68: 0.0, 69: 1.0, 70: 0.0, 71: 0.0, 72: 0.0, 73: 1.0, 74: 0.0, 75: 0.0, 76: 0.0, 77: 0.0, 78: 0.0, 79: 1.0, 80: 0.0, 81: 0.0, 82: 0.0, 83: 1.0, 84: 1.0, 85: 0.0, 86: 1.0, 87: 1.0, 88: 0.0, 89: 1.0, 90: 1.0, 91: 0.0, 92: 0.0, 93: 0.0, 94: 0.0, 95: 0.235164352, 96: 0.0, 97: 0.0, 98: 0.0, 99: 0.0, 100: 1.0, 101: 0.0, 102: 0.0, 103: 0.0, 104: 0.0, 105: 0.0, 106: 0.0, 107: 1.0, 108: 0.0, 109: 0.0, 110: 0.0, 111: 0.0, 112: 0.0, 113: 0.0, 114: 0.0, 115: 0.0, 116: 1.0, 117: 0.0, 118: 0.0, 119: 0.0, 120: 1.0, 121: 0.0, 122: 1.0, 123: 0.0, 124: 0.0, 125: 0.0, 126: 1.0, 127: 0.0, 128: 0.0, 129: 1.0, 130: 0.0, 131: 0.0, 132: 1.0, 133: 0.0, 134: 1.0, 135: 0.08994213, 136: 0.0, 137: 0.0, 138: 1.0, 139: 0.0, 140: 1.0, 141: 0.0, 142: 1.0, 143: 0.0, 144: 1.0, 145: 1.0, 146: 1.0, 147: 0.0, 148: 1.0, 149: 1.0, 150: 1.0, 151: 1.0, 152: 0.0, 153: 1.0, 154: 0.0, 155: 1.0, 156: 0.0, 157: 0.0, 158: 0.0, 159: 0.0, 160: 1.0, 161: 1.0, 162: 0.0, 163: 0.0, 164: 0.0, 165: 0.0, 166: 1.0, 167: 0.0, 168: 1.0, 169: 0.0, 170: 0.0, 171: 0.0, 172: 0.0, 173: 0.0, 174: 0.0, 175: 0.0, 176: 1.0, 177: 1.0, 178: 1.0, 179: 0.097386574, 180: 0.0, 181: 0.0, 182: 1.0, 183: 1.0, 184: 0.0, 185: 0.0, 186: 0.0, 187: 0.0, 188: 0.0, 189: 1.0, 190: 0.0, 191: 0.0];
soc = [0: 11.067586, 1: 11.965372483, 2: 12.862979408, 3: 12.860406812, 4: 11.857834731, 5: 12.755463164, 6: 11.752912071, 7: 10.750561489, 8: 9.748411377, 9: 8.746461694000001, 10: 9.644712402, 11: 9.64278346, 12: 8.640854902999999, 13: 7.639126732, 14: 7.637598907, 15: 6.636071387, 16: 5.634744173, 17: 6.533617224, 18: 7.4323105, 19: 8.330824037999999, 20: 7.329157873, 21: 6.327692042, 22: 5.326426503, 23: 6.225361218, 24: 6.224116146, 25: 7.122871323, 26: 6.121446748, 27: 7.020222459, 28: 7.265610561, 29: 8.164157439, 30: 7.162524607, 31: 7.161092102, 32: 8.059659884, 33: 7.058047952, 34: 7.056636342, 35: 6.055225015, 36: 6.05401397, 37: 5.052803167, 38: 4.051792607, 39: 3.050982248, 40: 3.950372052, 41: 3.949581977, 42: 4.848792061, 43: 3.847822303, 44: 3.847052738, 45: 4.746283328, 46: 4.745334071, 47: 4.744385004, 48: 3.743436127, 49: 2.74268744, 50: 2.650530106, 51: 2.65, 52: 3.236807564, 53: 4.136160203, 54: 5.035332971, 55: 5.934325904, 56: 4.933139039, 57: 5.832152411, 58: 6.730985981, 59: 7.629639783, 60: 8.528113855000001, 61: 9.426408233, 62: 10.324522951, 63: 11.222458046, 64: 10.220213555, 65: 9.218169511999999, 66: 8.216325877999999, 67: 8.214682613000001, 68: 9.113039677, 69: 8.111217069, 70: 8.109594825, 71: 9.007972905999999, 72: 9.906171312, 73: 8.904190077000001, 74: 8.902409239000001, 75: 8.900628758, 76: 9.798848632, 77: 10.696888862, 78: 11.594749484, 79: 10.592430534, 80: 11.490312048, 81: 12.388013986, 82: 13.285536383, 83: 12.282879276, 84: 11.2804227, 85: 11.278166615, 86: 10.275910982, 87: 9.2738558, 88: 9.272001029, 89: 8.270146628999999, 90: 7.268492599, 91: 8.167038901, 92: 9.065405493, 93: 9.063592412, 94: 9.961779693, 95: 9.724622986, 96: 9.722678061, 97: 9.720733525, 98: 10.618789379, 99: 11.516665621, 100: 10.514362288, 101: 10.512259415, 102: 10.510156963, 103: 10.508054932, 104: 10.505953321, 105: 11.40385213, 106: 11.40157136, 107: 10.399291046, 108: 11.297211187, 109: 12.194951745, 110: 12.192512755, 111: 13.090074252, 112: 13.987456237, 113: 14.884658746, 114: 14.881681814, 115: 14.878705478, 116: 13.875729737, 117: 14.772954591, 118: 15.67, 119: 15.67, 120: 14.666866, 121: 15.563932627, 122: 14.56081984, 123: 14.557907676, 124: 14.554996095, 125: 15.452085096, 126: 14.448994679, 127: 14.44610488, 128: 14.443215659, 129: 13.440327015, 130: 14.33763895, 131: 14.334771422, 132: 13.331904468, 133: 14.229238087, 134: 13.22639224, 135: 13.133804831, 136: 13.13117807, 137: 14.028551835, 138: 13.025746124, 139: 13.923140975, 140: 12.920356347, 141: 12.917772276, 142: 11.915188721, 143: 11.912805684, 144: 10.910423122, 145: 9.908241038, 146: 8.906259390000001, 147: 8.904478138, 148: 7.902697242, 149: 6.901116703, 150: 5.899736479, 151: 4.898556532, 152: 5.797576821, 153: 4.796417305, 154: 5.542342142, 155: 4.541233674, 156: 4.949602302, 157: 5.848612382, 158: 5.847442659, 159: 6.746273171, 160: 5.744923916, 161: 4.743774931, 162: 4.742826176, 163: 5.641877611, 164: 5.640749236, 165: 6.539621086, 166: 5.538313161, 167: 5.537205499, 168: 4.536098058, 169: 5.435190838, 170: 5.4341038, 171: 5.433016979, 172: 6.331930376, 173: 7.23066399, 174: 8.129217857, 175: 8.127592012999999, 176: 7.125966495, 177: 6.124541302, 178: 5.123316393, 179: 5.024905156, 180: 5.923900175, 181: 5.922715395, 182: 4.921530852, 183: 3.920546546, 184: 4.819762436, 185: 5.718798484, 186: 6.617654724, 187: 7.516331193, 188: 8.414827926999999, 189: 7.413144961, 190: 8.311662331999999, 191: 8.31];
cost = [0: 0.0, 1: 0.872424578, 2: 0.870164248, 3: 0.148111432, 4: 0.0, 5: 0.8628334479999999, 6: 0.0, 7: 0.0, 8: 0.0, 9: 0.0, 10: 0.862100368, 11: 0.134121822, 12: 0.0, 13: 0.0, 14: 0.133938552, 15: 0.0, 16: 0.0, 17: 0.790625068, 18: 0.790441798, 19: 0.789036728, 20: 0.0, 21: 0.0, 22: 0.0, 23: 0.7898308979999999, 24: 0.117589482, 25: 1.413947487, 26: 0.0, 27: 1.422988447, 28: 0.469419184, 29: 1.403360047, 30: 0.0, 31: 0.099031722, 32: 1.366720367, 33: 0.0, 34: 0.0, 35: 0.0, 36: 0.0, 37: 0.0, 38: 0.0, 39: 0.0, 40: 1.408594287, 41: 0.100578202, 42: 1.228013007, 43: 0.0, 44: 0.110213962, 45: 1.408594287, 46: 0.097485242, 47: 0.0, 48: 0.0, 49: 0.0, 50: 0.0, 51: 0.098436922, 52: 0.30281683, 53: 0.785188058, 54: 0.525127928, 55: 0.644558878, 56: 0.0, 57: 0.958500388, 58: 1.070722718, 59: 0.837664368, 60: 1.821266527, 61: 1.034227167, 62: 0.991044687, 63: 1.800805407, 64: 0.0, 65: 0.0, 66: 0.0, 67: 0.0, 68: 1.535048767, 69: 0.0, 70: 0.148994922, 71: 1.250972287, 72: 1.471405167, 73: 0.0, 74: 0.188132762, 75: 0.170407722, 76: 1.449635487, 77: 1.475092927, 78: 1.482587407, 79: 0.0, 80: 1.788671487, 81: 1.617012207, 82: 1.622603327, 83: 0.0, 84: 0.0, 85: 0.244638762, 86: 0.0, 87: 0.0, 88: 0.130089882, 89: 0.0, 90: 0.0, 91: 0.859168048, 92: 0.866498848, 93: 0.136931962, 94: 0.866987568, 95: 0.0, 96: 0.126119032, 97: 0.124775052, 98: 0.860084398, 99: 0.859901128, 100: 0.0, 101: 0.125813582, 102: 0.128990262, 103: 0.131128412, 104: 0.130212062, 105: 0.854280848, 106: 0.125508132, 107: 0.0, 108: 0.860389848, 109: 0.859778948, 110: 0.126729932, 111: 0.855502648, 112: 0.861611648, 113: 0.860512028, 114: 0.134671632, 115: 0.129478982, 116: 0.0, 117: 0.860817478, 118: 0.864971598, 119: 0.135499924, 120: 0.0, 121: 1.554558207, 122: 0.0, 123: 0.223820762, 124: 0.242616442, 125: 1.390988207, 126: 0.0, 127: 0.09189412199999999, 128: 0.003744762, 129: 0.0, 130: 1.549561887, 131: 0.0, 132: 0.0, 133: 0.768827407, 134: 0.0, 135: 0.0, 136: 0.106407242, 137: 1.413233727, 138: 0.0, 139: 1.406215087, 140: 0.0, 141: 0.105812442, 142: 0.0, 143: 0.0, 144: 0.0, 145: 0.0, 146: 0.0, 147: 0.0, 148: 0.0, 149: 0.0, 150: 0.0, 151: 0.0, 152: 0.786287678, 153: 0.0, 154: 0.09807266100000001, 155: 0.0, 156: 0.053741767, 157: 1.617963887, 158: 0.5158675619999999, 159: 1.385516047, 160: 0.0, 161: 0.0, 162: 0.0, 163: 0.998658127, 164: 0.095343962, 165: 1.414780207, 166: 0.0, 167: 0.0, 168: 0.0, 169: 1.411211407, 170: 0.106050362, 171: 0.089633882, 172: 1.395389727, 173: 1.393605327, 174: 1.392772607, 175: 0.095106042, 176: 0.0, 177: 0.0, 178: 0.0, 179: 0.0, 180: 1.420371327, 181: 0.114734442, 182: 0.0, 183: 0.0, 184: 0.783416448, 185: 0.790014168, 186: 0.789525448, 187: 0.784027348, 188: 0.783416448, 189: 0.0, 190: 0.953857548, 191: 0.227650612];
earn = [0: 0.408673255, 1: 0.0, 2: 0.0, 3: 0.0, 4: 0.393427159, 5: 0.0, 6: 0.389408956, 7: 0.388123151, 8: 0.387232086, 9: 0.386284211, 10: 0.0, 11: 0.0, 12: 0.376300155, 13: 0.376337371, 14: 0.0, 15: 0.384161079, 16: 0.465125773, 17: 0.0, 18: 0.0, 19: 0.0, 20: 0.454221128, 21: 0.457332758, 22: 0.449438189, 23: 0.0, 24: 0.0, 25: 0.0, 26: 0.463654153, 27: 0.0, 28: 0.0, 29: 0.0, 30: 0.471439161, 31: 0.0, 32: 0.0, 33: 0.55995012, 34: 0.101274742, 35: 0.579130402, 36: 0.057647105, 37: 0.453604892, 38: 0.532171518, 39: 0.525077053, 40: 0.0, 41: 0.0, 42: 0.0, 43: 0.410829705, 44: 0.0, 45: 0.0, 46: 0.0, 47: 0.0, 48: 0.133989481, 49: 0.133424295, 50: 0.0, 51: 0.0, 52: 0.0, 53: 0.0, 54: 0.0, 55: 0.0, 56: 0.07798988, 57: 0.0, 58: 0.0, 59: 0.0, 60: 0.0, 61: 0.0, 62: 0.0, 63: 0.0, 64: 0.263392513, 65: 0.281827671, 66: 0.400129294, 67: 0.040396546, 68: 0.0, 69: 0.402133252, 70: 0.0, 71: 0.0, 72: 0.0, 73: 0.425699635, 74: 0.0, 75: 0.0, 76: 0.0, 77: 0.0, 78: 0.0, 79: 0.625959005, 80: 0.0, 81: 0.0, 82: 0.0, 83: 0.472574294, 84: 0.495293471, 85: 0.0, 86: 0.465104777, 87: 0.441696929, 88: 0.0, 89: 0.456471024, 90: 0.408884856, 91: 0.0, 92: 0.0, 93: 0.0, 94: 0.0, 95: 0.0, 96: 0.0, 97: 0.0, 98: 0.0, 99: 0.0, 100: 0.338242438, 101: 0.0, 102: 0.0, 103: 0.0, 104: 0.0, 105: 0.0, 106: 0.0, 107: 0.252025567, 108: 0.0, 109: 0.0, 110: 0.0, 111: 0.0, 112: 0.0, 113: 0.0, 114: 0.0, 115: 0.0, 116: 0.324677467, 117: 0.0, 118: 0.0, 119: 0.0, 120: 0.420562489, 121: 0.0, 122: 0.500702597, 123: 0.0, 124: 0.0, 125: 0.0, 126: 0.837218986, 127: 0.0, 128: 0.0, 129: 0.673450248, 130: 0.0, 131: 0.026687986, 132: 0.460969409, 133: 0.0, 134: 0.875369688, 135: 0.0, 136: 0.0, 137: 0.0, 138: 0.376354432, 139: 0.0, 140: 0.329723731, 141: 0.0, 142: 0.831973624, 143: 0.205081396, 144: 0.607750107, 145: 0.45931684, 146: 0.266917241, 147: 0.22948817, 148: 0.31282303, 149: 0.312325997, 150: 0.593571859, 151: 0.300434476, 152: 0.0, 153: 0.497127724, 154: 0.0, 155: 0.052283321, 156: 0.0, 157: 0.0, 158: 0.0, 159: 0.0, 160: 0.671831268, 161: 0.441911486, 162: 0.211068711, 163: 0.0, 164: 0.0, 165: 0.0, 166: 0.647373172, 167: 0.020809935, 168: 0.673333991, 169: 0.0, 170: 0.0, 171: 0.0, 172: 0.0, 173: 0.0, 174: 0.0, 175: 0.0, 176: 0.803282338, 177: 0.803323439, 178: 0.767073519, 179: 0.0, 180: 0.0, 181: 0.0, 182: 0.58273056, 183: 0.555574718, 184: 0.0, 185: 0.0, 186: 0.0, 187: 0.0, 188: 0.0, 189: 0.370286417, 190: 0.0, 191: 0.0];
total_cost = 84.236876979;
total_earn = 31.629489421;
% _objective = 52.607387558;