production = [0: 0.0, 1: 0.0, 2: 0.0, 3: 0.0, 4: 0.0, 5: 0.0, 6: 0.0, 7: 0.0, 8: 0.0, 9: 0.0, 10: 0.0, 11: 0.0, 12: 0.0, 13: 0.0, 14: 0.0, 15: 0.0, 16: 0.0, 17: 0.0, 18: 0.0, 19: 0.0, 20: 0.0, 21: 0.0, 22: 0.0, 23: 0.0, 24: 0.0, 25: 0.0, 26: 0.0, 27: 0.0013, 28: 0.005, 29: 0.0115, 30: 0.0253, 31: 0.0264, 32: 0.0418, 33: 0.0, 34: 0.0, 35: 0.0, 36: 0.19, 37: 0.0, 38: 0.0, 39: 0.0, 40: 0.0, 41: 0.0, 42: 0.1576, 43: 0.1764, 44: 0.0, 45: 0.0, 46: 0.4666, 47: 0.2952, 48: 0.303, 49: 0.4985, 50: 0.0, 51: 0.4995, 52: 0.0, 53: 0.0, 54: 0.416, 55: 0.3855, 56: 0.0, 57: 0.4416, 58: 0.0, 59: 0.0, 60: 0.6201, 61: 0.0, 62: 0.7237, 63: 0.0, 64: 0.3842, 65: 0.2889, 66: 0.1717, 67: 0.0, 68: 0.1931, 69: 0.1649, 70: 0.0, 71: 0.1733, 72: 0.0, 73: 0.0, 74: 0.0, 75: 0.0, 76: 0.0217, 77: 0.001, 78: 0.001, 79: 0.0, 80: 0.0, 81: 0.0, 82: 0.0, 83: 0.0, 84: 0.0, 85: 0.0, 86: 0.0, 87: 0.0, 88: 0.0, 89: 0.0, 90: 0.0, 91: 0.0, 92: 0.0, 93: 0.0, 94: 0.0, 95: 0.0, 96: 0.0, 97: 0.0, 98: 0.0, 99: 0.0, 100: 0.0, 101: 0.0, 102: 0.0, 103: 0.0, 104: 0.0, 105: 0.0, 106: 0.0, 107: 0.0, 108: 0.0, 109: 0.0, 110: 0.0, 111: 0.0, 112: 0.0, 113: 0.0, 114: 0.0, 115: 0.0, 116: 0.0, 117: 0.0, 118: 0.0, 119: 0.0, 120: 0.0, 121: 0.0003, 122: 0.007, 123: 0.0, 124: 0.0563, 125: 0.0, 126: 0.1013, 127: 0.0, 128: 0.2055, 129: 0.0, 130: 0.2943, 131: 0.2577, 132: 0.0, 133: 0.0, 134: 0.7758, 135: 0.0, 136: 0.0, 137: 0.0, 138: 0.0, 139: 1.2277, 140: 1.185, 141: 0.0, 142: 0.0, 143: 0.7145, 144: 0.8625, 145: 0.5285, 146: 0.0, 147: 0.0, 148: 0.5285, 149: 1.1767, 150: 0.0, 151: 0.6765, 152: 0.6987, 153: 0.0, 154: 2.2612, 155: 0.0, 156: 0.5467, 157: 0.0, 158: 0.2918, 159: 0.3668, 160: 0.4075, 161: 0.303, 162: 0.4733, 163: 0.0, 164: 0.0, 165: 0.0, 166: 0.0, 167: 0.1215, 168: 0.0, 169: 0.0, 170: 0.0248, 171: 0.0123, 172: 0.005, 173: 0.0, 174: 0.0, 175: 0.0, 176: 0.0, 177: 0.0, 178: 0.0, 179: 0.0, 180: 0.0, 181: 0.0, 182: 0.0, 183: 0.0, 184: 0.0, 185: 0.0, 186: 0.0, 187: 0.0, 188: 0.0, 189: 0.0, 190: 0.0, 191: 0.0];
buy = [0: 1.259947917, 1: 0.234647917, 2: 1.230947917, 3: 0.0, 4: 1.219447917, 5: 0.218947917, 6: 1.210047917, 7: 0.0, 8: 1.214147917, 9: 1.215947917, 10: 0.0, 11: 0.219547917, 12: 0.0, 13: 0.221547917, 14: 1.219247917, 15: 0.212647917, 16: 0.0, 17: 0.0, 18: 0.100447917, 19: 0.098147917, 20: 1.090047917, 21: 1.090847917, 22: 0.102630139, 23: 0.0, 24: 0.099147917, 25: 1.089247917, 26: 0.09104791700000001, 27: 0.0, 28: 0.338802898, 29: 1.080347917, 30: 0.0, 31: 0.0, 32: 0.0, 33: 1.093147917, 34: 1.094147917, 35: 1.084247917, 36: 0.0, 37: 0.09344791700000001, 38: 0.0, 39: 1.085347917, 40: 0.08474791700000001, 41: 0.0, 42: 0.0, 43: 0.9164479169999999, 44: 0.092647917, 45: 0.0, 46: 0.0, 47: 0.0, 48: 0.0, 49: 0.0, 50: 1.082447917, 51: 0.583247917, 52: 0.0, 53: 0.0, 54: 0.666147917, 55: 0.0, 56: 1.263347917, 57: 1.375547917, 58: 0.0, 59: 0.0, 60: 0.811547917, 61: 0.0, 62: 0.0, 63: 1.414447917, 64: 0.0, 65: 0.0, 66: 0.0, 67: 1.179547917, 68: 0.997947917, 69: 0.0, 70: 0.0, 71: 0.952247917, 72: 0.0, 73: 0.0, 74: 0.212647917, 75: 1.175647917, 76: 1.119247917, 77: 1.139647917, 78: 0.145947917, 79: 0.0, 80: 1.404247917, 81: 0.0, 82: 1.264647917, 83: 0.262247917, 84: 0.225947917, 85: 1.205647917, 86: 1.204047917, 87: 1.217947917, 88: 0.0, 89: 0.207747917, 90: 1.250047917, 91: 1.212947917, 92: 0.228430139, 93: 0.0, 94: 1.225747917, 95: 0.211647917, 96: 0.0, 97: 0.0, 98: 1.214447917, 99: 0.0, 100: 1.207447917, 101: 0.0, 102: 0.0, 103: 0.214647917, 104: 0.0, 105: 1.204947917, 106: 1.205447917, 107: 1.215147917, 108: 0.0, 109: 0.0, 110: 0.0, 111: 0.0, 112: 0.216947917, 113: 1.215147917, 114: 0.220447917, 115: 1.211947917, 116: 1.214447917, 117: 0.0, 118: 0.0, 119: 0.217647917, 120: 0.209647917, 121: 0.207147917, 122: 1.205447917, 123: 0.212647917, 124: 1.147647917, 125: 0.069947917, 126: 0.977647917, 127: 1.077247917, 128: 1.003147917, 129: 0.0, 130: 0.0, 131: 0.0, 132: 0.0, 133: 0.08864791700000001, 134: 0.0, 135: 0.08094791699999999, 136: 1.089447917, 137: 1.088647917, 138: 0.0, 139: 0.0, 140: 0.0, 141: 1.088947917, 142: 1.090247917, 143: 0.0, 144: 0.216947917, 145: 0.551447917, 146: 0.088947917, 147: 0.0, 148: 0.551947917, 149: 0.0, 150: 1.093247917, 151: 0.0, 152: 0.0, 153: 0.0, 154: 0.0, 155: 1.788947917, 156: 0.0, 157: 0.0, 158: 0.0, 159: 0.5487814050000001, 160: 0.681147917, 161: 0.0, 162: 0.616447917, 163: 0.0, 164: 0.0, 165: 0.0, 166: 0.0, 167: 0.0, 168: 1.082747917, 169: 0.086947917, 170: 0.0, 171: 1.075347917, 172: 1.073647917, 173: 0.07214791700000001, 174: 0.071447917, 175: 0.07994791699999999, 176: 0.0, 177: 1.071147917, 178: 0.0, 179: 1.087647917, 180: 0.0, 181: 1.096447917, 182: 0.0, 183: 0.0, 184: 0.0, 185: 0.09974791700000001, 186: 0.0, 187: 1.089947917, 188: 1.088947917, 189: 0.265947917, 190: 0.0, 191: 0.0];
sell = [0: 0.0, 1: 0.0, 2: 0.0, 3: 0.657552083, 4: 0.0, 5: 0.0, 6: 0.0, 7: 0.483155567, 8: 0.0, 9: 0.0, 10: 0.280091926, 11: 0.0, 12: 0.678752083, 13: 0.0, 14: 0.0, 15: 0.0, 16: 0.805552083, 17: 0.0, 18: 0.0, 19: 0.0, 20: 0.0, 21: 0.0, 22: 0.0, 23: 0.800552083, 24: 0.0, 25: 0.0, 26: 0.0, 27: 0.803152083, 28: 0.0, 29: 0.0, 30: 0.839952083, 31: 0.843152083, 32: 0.850452083, 33: 0.0, 34: 0.0, 35: 0.0, 36: 0.104452083, 37: 0.0, 38: 0.806852083, 39: 0.0, 40: 0.0, 41: 0.815452083, 42: 0.967052083, 43: 0.0, 44: 0.0, 45: 0.815252083, 46: 0.384652083, 47: 1.104652083, 48: 1.110652083, 49: 0.959175386, 50: 0.0, 51: 0.0, 52: 0.808652083, 53: 0.808152083, 54: 0.0, 55: 0.138352083, 56: 0.0, 57: 0.0, 58: 0.0, 59: 0.080252083, 60: 0.0, 61: 0.457952083, 62: 0.266252083, 63: 0.0, 64: 0.299152083, 65: 1.098052083, 66: 0.897352083, 67: 0.0, 68: 0.0, 69: 0.898452083, 70: 0.774752083, 71: 0.0, 72: 0.762452083, 73: 0.703752083, 74: 0.0, 75: 0.0, 76: 0.0, 77: 0.0, 78: 0.0, 79: 0.0, 80: 0.0, 81: 0.640052083, 82: 0.0, 83: 0.0, 84: 0.0, 85: 0.0, 86: 0.0, 87: 0.0, 88: 0.687052083, 89: 0.0, 90: 0.0, 91: 0.0, 92: 0.0, 93: 0.675852083, 94: 0.0, 95: 0.0, 96: 0.693552083, 97: 0.695752083, 98: 0.0, 99: 0.685852083, 100: 0.0, 101: 0.694052083, 102: 0.688852083, 103: 0.0, 104: 0.686852083, 105: 0.0, 106: 0.0, 107: 0.0, 108: 0.685052083, 109: 0.686052083, 110: 0.692552083, 111: 0.693052083, 112: 0.0, 113: 0.0, 114: 0.0, 115: 0.0, 116: 0.0, 117: 0.6843520830000001, 118: 0.272139645, 119: 0.0, 120: 0.0, 121: 0.0, 122: 0.0, 123: 0.0, 124: 0.0, 125: 0.0, 126: 0.0, 127: 0.0, 128: 0.0, 129: 0.696052083, 130: 0.991052083, 131: 0.943052083, 132: 0.810852083, 133: 0.0, 134: 0.695352083, 135: 0.0, 136: 0.0, 137: 0.0, 138: 0.819052083, 139: 0.144952083, 140: 2.001552083, 141: 0.0, 142: 0.0, 143: 1.527352083, 144: 0.0, 145: 0.0, 146: 0.0, 147: 0.810852083, 148: 0.0, 149: 1.093452083, 150: 0.0, 151: 1.483252083, 152: 0.605052083, 153: 0.207752083, 154: 0.687752083, 155: 0.0, 156: 0.454752083, 157: 0.465552083, 158: 0.758152083, 159: 0.0, 160: 0.0, 161: 0.213252083, 162: 0.0, 163: 0.820352083, 164: 0.819852083, 165: 0.810052083, 166: 0.809552083, 167: 0.930752083, 168: 0.0, 169: 0.0, 170: 0.835652083, 171: 0.0, 172: 0.0, 173: 0.0, 174: 0.0, 175: 0.0, 176: 0.364954611, 177: 0.0, 178: 0.8285520830000001, 179: 0.0, 180: 0.8053520830000001, 181: 0.0, 182: 0.814552083, 183: 0.813552083, 184: 0.811052083, 185: 0.0, 186: 0.801052083, 187: 0.0, 188: 0.0, 189: 0.0, 190: 0.532052083, 191: 0.527352083];
charge = [0: 1.0, 1: 0.0, 2: 1.0, 3: 0.0, 4: 1.0, 5: 0.0, 6: 1.0, 7: 0.0, 8: 1.0, 9: 1.0, 10: 0.0, 11: 0.0, 12: 0.0, 13: 0.0, 14: 1.0, 15: 0.0, 16: 0.0, 17: 0.0, 18: 0.0, 19: 0.0, 20: 1.0, 21: 1.0, 22: 0.003482222, 23: 0.0, 24: 0.0, 25: 1.0, 26: 0.0, 27: 0.0, 28: 0.245654982, 29: 1.0, 30: 0.0, 31: 0.0, 32: 0.0, 33: 1.0, 34: 1.0, 35: 1.0, 36: 0.0, 37: 0.0, 38: 0.0, 39: 1.0, 40: 0.0, 41: 0.0, 42: 0.0, 43: 1.0, 44: 0.0, 45: 0.0, 46: 0.0, 47: 0.0, 48: 0.0, 49: 0.0, 50: 1.0, 51: 1.0, 52: 0.0, 53: 0.0, 54: 1.0, 55: 0.0, 56: 1.0, 57: 1.0, 58: 0.0, 59: 0.0, 60: 1.0, 61: 0.0, 62: 0.0, 63: 1.0, 64: 0.0, 65: 0.0, 66: 0.0, 67: 1.0, 68: 1.0, 69: 0.0, 70: 0.0, 71: 1.0, 72: 0.0, 73: 0.0, 74: 0.0, 75: 1.0, 76: 1.0, 77: 1.0, 78: 0.0, 79: 0.0, 80: 1.0, 81: 0.0, 82: 1.0, 83: 0.0, 84: 0.0, 85: 1.0, 86: 1.0, 87: 1.0, 88: 0.0, 89: 0.0, 90: 1.0, 91: 1.0, 92: 0.003482222, 93: 0.0, 94: 1.0, 95: 0.0, 96: 0.0, 97: 0.0, 98: 1.0, 99: 0.0, 100: 1.0, 101: 0.0, 102: 0.0, 103: 0.0, 104: 0.0, 105: 1.0, 106: 1.0, 107: 1.0, 108: 0.0, 109: 0.0, 110: 0.0, 111: 0.0, 112: 0.0, 113: 1.0, 114: 0.0, 115: 1.0, 116: 1.0, 117: 0.0, 118: 0.0, 119: 0.0, 120: 0.0, 121: 0.0, 122: 1.0, 123: 0.0, 124: 1.0, 125: 0.0, 126: 1.0, 127: 1.0, 128: 1.0, 129: 0.0, 130: 0.0, 131: 0.0, 132: 0.0, 133: 0.0, 134: 0.0, 135: 0.0, 136: 1.0, 137: 1.0, 138: 0.0, 139: 1.0, 140: 0.0, 141: 1.0, 142: 1.0, 143: 0.0, 144: 1.0, 145: 1.0, 146: 0.0, 147: 0.0, 148: 1.0, 149: 0.0, 150: 1.0, 151: 0.0, 152: 0.0, 153: 0.0, 154: 1.0, 155: 1.0, 156: 0.0, 157: 0.0, 158: 0.0, 159: 0.483433488, 160: 1.0, 161: 0.0, 162: 1.0, 163: 0.0, 164: 0.0, 165: 0.0, 166: 0.0, 167: 0.0, 168: 1.0, 169: 0.0, 170: 0.0, 171: 1.0, 172: 1.0, 173: 0.0, 174: 0.0, 175: 0.0, 176: 0.0, 177: 1.0, 178: 0.0, 179: 1.0, 180: 0.0, 181: 1.0, 182: 0.0, 183: 0.0, 184: 0.0, 185: 0.0, 186: 0.0, 187: 1.0, 188: 1.0, 189: 0.0, 190: 0.0, 191: 0.0];
discharge = [0: 0.0, 1: 0.0, 2: 0.0, 3: 1.0, 4: 0.0, 5: 0.0, 6: 0.0, 7: 0.77289276, 8: 0.0, 9: 0.0, 10: 0.5531553809999999, 11: 0.0, 12: 1.0, 13: 0.0, 14: 0.0, 15: 0.0, 16: 1.0, 17: 0.11194213, 18: 0.0, 19: 0.0, 20: 0.0, 21: 0.0, 22: 0.0, 23: 1.0, 24: 0.0, 25: 0.0, 26: 0.0, 27: 1.0, 28: 0.0, 29: 0.0, 30: 1.0, 31: 1.0, 32: 1.0, 33: 0.0, 34: 0.0, 35: 0.0, 36: 0.0, 37: 0.0, 38: 1.0, 39: 0.0, 40: 0.0, 41: 1.0, 42: 1.0, 43: 0.0, 44: 0.0, 45: 1.0, 46: 0.0, 47: 1.0, 48: 1.0, 49: 0.602914781, 50: 0.0, 51: 0.0, 52: 1.0, 53: 1.0, 54: 0.0, 55: 0.0, 56: 0.0, 57: 0.0, 58: 0.621386574, 59: 1.0, 60: 0.0, 61: 1.0, 62: 0.0, 63: 0.0, 64: 0.0, 65: 1.0, 66: 1.0, 67: 0.0, 68: 0.0, 69: 1.0, 70: 1.0, 71: 0.0, 72: 1.0, 73: 1.0, 74: 0.0, 75: 0.0, 76: 0.0, 77: 0.0, 78: 0.0, 79: 0.121719907, 80: 0.0, 81: 1.0, 82: 0.0, 83: 0.0, 84: 0.0, 85: 0.0, 86: 0.0, 87: 0.0, 88: 1.0, 89: 0.0, 90: 0.0, 91: 0.0, 92: 0.0, 93: 1.0, 94: 0.0, 95: 0.0, 96: 1.0, 97: 1.0, 98: 0.0, 99: 1.0, 100: 0.0, 101: 1.0, 102: 1.0, 103: 0.0, 104: 1.0, 105: 0.0, 106: 0.0, 107: 0.0, 108: 1.0, 109: 1.0, 110: 1.0, 111: 1.0, 112: 0.0, 113: 0.0, 114: 0.0, 115: 0.0, 116: 0.0, 117: 1.0, 118: 0.549541735, 119: 0.0, 120: 0.0, 121: 0.0, 122: 0.0, 123: 0.0, 124: 0.0, 125: 0.0, 126: 0.0, 127: 0.0, 128: 0.0, 129: 1.0, 130: 1.0, 131: 1.0, 132: 1.0, 133: 0.0, 134: 0.0, 135: 0.0, 136: 0.0, 137: 0.0, 138: 1.0, 139: 0.0, 140: 1.0, 141: 0.0, 142: 0.0, 143: 1.0, 144: 0.0, 145: 0.0, 146: 0.0, 147: 1.0, 148: 0.0, 149: 0.0, 150: 0.0, 151: 1.0, 152: 0.0, 153: 1.0, 154: 0.0, 155: 0.0, 156: 0.0, 157: 1.0, 158: 1.0, 159: 0.0, 160: 0.0, 161: 0.0, 162: 0.0, 163: 1.0, 164: 1.0, 165: 1.0, 166: 1.0, 167: 1.0, 168: 0.0, 169: 0.0, 170: 1.0, 171: 0.0, 172: 0.0, 173: 0.0, 174: 0.0, 175: 0.0, 176: 0.492891698, 177: 0.0, 178: 1.0, 179: 0.0, 180: 1.0, 181: 0.0, 182: 1.0, 183: 1.0, 184: 1.0, 185: 0.0, 186: 1.0, 187: 0.0, 188: 0.0, 189: 0.0, 190: 1.0, 191: 1.0];
soc = [0: 12.967586, 1: 12.964992483, 2: 13.862399484, 3: 12.859627004, 4: 13.757055079, 5: 13.754303668, 6: 14.651552807, 7: 13.875729737, 8: 14.772954591, 9: 15.67, 10: 15.113710619, 11: 15.110687877, 12: 14.10766574, 13: 14.104844207, 14: 15.002023238, 15: 14.999022833, 16: 13.996023029, 17: 13.881281694, 18: 13.878505438, 19: 13.875729737, 20: 14.772954591, 21: 15.67, 22: 15.67, 23: 14.666866, 24: 14.663932627, 25: 15.56099984, 26: 15.55788764, 27: 14.554776063, 28: 14.772954591, 29: 15.67, 30: 14.666866, 31: 13.663932627, 32: 12.66119984, 33: 13.5586676, 34: 14.455955867, 35: 15.353064676, 36: 15.349994063, 37: 15.346924064, 38: 14.343854679, 39: 15.240985908, 40: 15.237937711, 41: 14.234890123, 42: 13.232043145, 43: 14.129396737, 44: 14.126570857, 45: 13.123745543, 46: 13.121120794, 47: 12.11849657, 48: 11.116072871, 49: 10.510934875, 50: 11.408832688, 51: 12.306550921, 52: 11.304089611, 53: 10.301828793, 54: 11.199768428, 55: 11.197528474, 56: 12.095288968, 57: 12.99286991, 58: 12.368884762, 59: 11.366410985, 60: 12.264137703, 61: 11.261684876, 62: 11.259432539, 63: 12.157180652, 64: 12.154749216, 65: 11.152318266, 66: 10.150087803, 67: 11.048057785, 68: 11.945848173, 69: 10.943459004, 70: 9.941270312, 71: 10.839282058, 72: 9.837114202, 73: 8.835146779, 74: 8.833379749000001, 75: 9.731613073, 76: 10.629666751, 77: 11.527540817, 78: 11.525235309, 79: 11.401210355, 80: 12.298930113, 81: 11.296470327, 82: 12.194211033, 83: 12.19177219, 84: 12.189333836, 85: 13.086895969, 86: 13.98427859, 87: 14.881481734, 88: 13.878505438, 89: 13.875729737, 90: 14.772954591, 91: 15.67, 92: 15.67, 93: 14.666866, 94: 15.563932627, 95: 15.56081984, 96: 14.557707676, 97: 13.554796135, 98: 14.452085176, 99: 13.449194759, 100: 14.34650492, 101: 13.343635619, 102: 12.340966891, 103: 12.338498698, 104: 11.336030998, 105: 12.233763792, 106: 13.131317039, 107: 14.028690776, 108: 13.025885038, 109: 12.023279861, 110: 11.020875205, 111: 10.01867103, 112: 10.016666667, 113: 10.914663962, 114: 10.912481029, 115: 11.810298533, 116: 12.707936508, 117: 11.705394886, 118: 11.153512072, 119: 11.15128137, 120: 11.149051114, 121: 11.146821303, 122: 12.044591939, 123: 12.042183021, 124: 12.939774584, 125: 12.937186629, 126: 13.834599192, 127: 14.731832272, 128: 15.628885906, 129: 14.625760128, 130: 13.622834976, 131: 12.620110409, 132: 11.617586387, 133: 11.61526287, 134: 11.612939817, 135: 11.610617229, 136: 12.508295106, 137: 13.405793447, 138: 12.403112288, 139: 13.300631666, 140: 12.297971539, 141: 13.195511945, 142: 14.092872843, 143: 13.090054268, 144: 13.987436257, 145: 14.88463877, 146: 14.881661842, 147: 13.87868551, 148: 14.775909773, 149: 14.772954591, 150: 15.67, 151: 14.666866, 152: 14.663932627, 153: 13.66099984, 154: 14.55826764, 155: 15.455355987, 156: 15.452264916, 157: 14.449174463, 158: 13.446284628, 159: 13.87868551, 160: 14.775909773, 161: 14.772954591, 162: 15.67, 163: 14.666866, 164: 13.663932627, 165: 12.66119984, 166: 11.6586676, 167: 10.656335867, 168: 11.5542046, 169: 11.551893759, 170: 10.54958338, 171: 11.447473463, 172: 12.345183969, 173: 12.342714932, 174: 12.340246389, 175: 12.33777834, 176: 11.842419086, 177: 12.740050602, 178: 11.737502592, 179: 12.635155092, 180: 11.632628061, 181: 12.530301535, 182: 11.527795475, 183: 10.525489916, 184: 9.523384818, 185: 9.521480141, 186: 8.519575845, 187: 9.41787193, 188: 10.315988355, 189: 10.313925158, 190: 9.311862372, 191: 8.31];
cost = [0: 0.887880348, 1: 0.143346412, 2: 0.870164248, 3: 0.0, 4: 0.863138898, 5: 0.133755282, 6: 0.857396438, 7: 0.0, 8: 0.859901128, 9: 0.861000748, 10: 0.0, 11: 0.134121822, 12: 0.0, 13: 0.135343622, 14: 0.863016718, 15: 0.129906612, 16: 0.0, 17: 0.0, 18: 0.061363632, 19: 0.059958562, 20: 0.7840884380000001, 21: 0.7845771580000001, 22: 0.06310827400000001, 23: 0.0, 24: 0.117946362, 25: 1.413947487, 26: 0.108310602, 27: 0.0, 28: 0.432070983, 29: 1.403360047, 30: 0.0, 31: 0.0, 32: 0.0, 33: 1.418586927, 34: 1.419776527, 35: 1.407999487, 36: 0.0, 37: 0.111165642, 38: 0.0, 39: 1.409308047, 40: 0.100816122, 41: 0.0, 42: 0.0, 43: 1.208384607, 44: 0.110213962, 45: 0.0, 46: 0.0, 47: 0.0, 48: 0.0, 49: 0.0, 50: 1.405858207, 51: 0.812009887, 52: 0.0, 53: 0.0, 54: 0.525127928, 55: 0.0, 56: 0.889957408, 57: 0.958500388, 58: 0.0, 59: 0.0, 60: 1.083595567, 61: 0.0, 62: 0.0, 63: 1.800805407, 64: 0.0, 65: 0.0, 66: 0.0, 67: 1.521368367, 68: 1.305337007, 69: 0.0, 70: 0.0, 71: 1.250972287, 72: 0.0, 73: 0.0, 74: 0.252965962, 75: 1.516728927, 76: 1.449635487, 77: 1.473903327, 78: 0.173619642, 79: 0.0, 80: 1.788671487, 81: 0.0, 82: 1.622603327, 83: 0.311970122, 84: 0.268787642, 85: 1.552416927, 86: 1.550513567, 87: 1.567049007, 88: 0.0, 89: 0.126913202, 90: 0.881832438, 91: 0.859168048, 92: 0.139959494, 93: 0.0, 94: 0.866987568, 95: 0.129295712, 96: 0.0, 97: 0.0, 98: 0.860084398, 99: 0.0, 100: 0.855808098, 101: 0.0, 102: 0.0, 103: 0.131128412, 104: 0.0, 105: 0.854280848, 106: 0.854586298, 107: 0.860512028, 108: 0.0, 109: 0.0, 110: 0.0, 111: 0.0, 112: 0.132533482, 113: 0.860512028, 114: 0.134671632, 115: 0.858557148, 116: 0.860084398, 117: 0.0, 118: 0.0, 119: 0.132961112, 120: 0.249397162, 121: 0.246423162, 122: 1.552179007, 123: 0.252965962, 124: 1.483420127, 125: 0.083210042, 126: 1.281188127, 127: 1.399672287, 128: 1.311522927, 129: 0.0, 130: 0.0, 131: 0.0, 132: 0.0, 133: 0.105455562, 134: 0.0, 135: 0.096295642, 136: 1.414185407, 137: 1.413233727, 138: 0.0, 139: 0.118178165, 140: 0.0, 141: 1.413590607, 142: 1.415137087, 143: 0.0, 144: 0.376259407, 145: 0.774180607, 146: 0.105812442, 147: 0.0, 148: 0.455363148, 149: 0.0, 150: 0.786043318, 151: 0.0, 152: 0.0, 153: 0.0, 154: 0.118178165, 155: 1.211046448, 156: 0.0, 157: 0.0, 158: 0.0, 159: 0.709961642, 160: 0.928471727, 161: 0.0, 162: 0.851504607, 163: 0.0, 164: 0.0, 165: 0.0, 166: 0.0, 167: 0.0, 168: 1.406215087, 169: 0.103433242, 170: 0.0, 171: 1.397412047, 172: 1.395389727, 173: 0.085827162, 174: 0.084994442, 175: 0.095106042, 176: 0.0, 177: 1.392415727, 178: 0.0, 179: 1.412044127, 180: 0.0, 181: 1.422512607, 182: 0.0, 183: 0.0, 184: 0.0, 185: 0.060936002, 186: 0.0, 187: 0.784027348, 188: 0.783416448, 189: 0.162467582, 190: 0.0, 191: 0.0];
earn = [0: 0.0, 1: 0.0, 2: 0.0, 3: 0.388481771, 4: 0.0, 5: 0.0, 6: 0.0, 7: 0.272741318, 8: 0.0, 9: 0.0, 10: 0.15819592, 11: 0.0, 12: 0.376300155, 13: 0.0, 14: 0.0, 15: 0.0, 16: 0.465125773, 17: 0.0, 18: 0.0, 19: 0.0, 20: 0.0, 21: 0.0, 22: 0.0, 23: 0.448709443, 24: 0.0, 25: 0.0, 26: 0.0, 27: 0.469362078, 28: 0.0, 29: 0.0, 30: 0.486080271, 31: 0.485318339, 32: 0.513332878, 33: 0.0, 34: 0.0, 35: 0.0, 36: 0.057647105, 37: 0.0, 38: 0.417626638, 39: 0.0, 40: 0.0, 41: 0.364425536, 42: 0.404904707, 43: 0.0, 44: 0.0, 45: 0.250526965, 46: 0.106971744, 47: 0.318802591, 48: 0.184257181, 49: 0.156441506, 50: 0.0, 51: 0.0, 52: 0.072536092, 53: 0.092210153, 54: 0.0, 55: 0.013655351, 56: 0.0, 57: 0.0, 58: 0.0, 59: 0.004750923, 60: 0.0, 61: 0.044100786, 62: 0.019383152, 63: 0.0, 64: 0.09668595300000001, 65: 0.382451541, 66: 0.400129294, 67: 0.0, 68: 0.0, 69: 0.492531432, 70: 0.440833935, 71: 0.0, 72: 0.453887725, 73: 0.425699635, 74: 0.0, 75: 0.0, 76: 0.0, 77: 0.0, 78: 0.0, 79: 0.0, 80: 0.0, 81: 0.497960521, 82: 0.0, 83: 0.0, 84: 0.0, 85: 0.0, 86: 0.0, 87: 0.0, 88: 0.482173152, 89: 0.0, 90: 0.0, 91: 0.0, 92: 0.0, 93: 0.37955853, 94: 0.0, 95: 0.0, 96: 0.358635782, 97: 0.358660199, 98: 0.0, 99: 0.340594145, 100: 0.0, 101: 0.312254032, 102: 0.292831021, 103: 0.0, 104: 0.284356762, 105: 0.0, 106: 0.0, 107: 0.0, 108: 0.254839375, 109: 0.266805655, 110: 0.275150943, 111: 0.280062347, 112: 0.0, 113: 0.0, 114: 0.0, 115: 0.0, 116: 0.0, 117: 0.349567044, 118: 0.144043514, 119: 0.0, 120: 0.0, 121: 0.0, 122: 0.0, 123: 0.0, 124: 0.0, 125: 0.0, 126: 0.0, 127: 0.0, 128: 0.0, 129: 0.476934888, 130: 0.6694556820000001, 131: 0.584597986, 132: 0.460969409, 133: 0.0, 134: 0.381539688, 135: 0.0, 136: 0.0, 137: 0.0, 138: 0.376354432, 139: 0.058894031, 140: 0.808226731, 141: 0.0, 142: 0.0, 143: 0.499291396, 144: 0.0, 145: 0.0, 146: 0.0, 147: 0.25671577, 148: 0.0, 149: 0.418136077, 150: 0.0, 151: 0.552363076, 152: 0.252004193, 153: 0.08864781400000001, 154: 0.323587355, 155: 0.0, 156: 0.232651166, 157: 0.243157853, 158: 0.39651354, 159: 0.0, 160: 0.0, 161: 0.116307686, 162: 0.0, 163: 0.462678575, 164: 0.513391375, 165: 0.507416625, 166: 0.533009092, 167: 0.629839935, 168: 0.0, 169: 0.0, 170: 0.667101058, 171: 0.0, 172: 0.0, 173: 0.0, 174: 0.0, 175: 0.0, 176: 0.35692561, 177: 0.0, 178: 0.767073519, 179: 0.0, 180: 0.58758488, 181: 0.0, 182: 0.58273056, 183: 0.555574718, 184: 0.558652675, 185: 0.0, 186: 0.508427757, 187: 0.0, 188: 0.0, 189: 0.0, 190: 0.309069055, 191: 0.302911037];
total_cost = 85.375303457;
total_earn = 29.180336154;
% _objective = 56.194967303;