production = [0: 0.0, 1: 0.0, 2: 0.0, 3: 0.0, 4: 0.0, 5: 0.0, 6: 0.0, 7: 0.0, 8: 0.0, 9: 0.0, 10: 0.0, 11: 0.0, 12: 0.0, 13: 0.0, 14: 0.0, 15: 0.0, 16: 0.0, 17: 0.0, 18: 0.0, 19: 0.0, 20: 0.0, 21: 0.0, 22: 0.0, 23: 0.000144, 24: 0.001162, 25: 0.007927, 26: 0.003937, 27: 0.020107, 28: 0.09646399999999999, 29: 0.109894, 30: 0.045437, 31: 0.073959, 32: 0.012584, 33: 0.150591, 34: 0.008815999999999999, 35: 0.413106, 36: 0.129572, 37: 0.326006, 38: 0.756974, 39: 0.721095, 40: 1.378, 41: 0.79114, 42: 0.090724, 43: 0.121883, 44: 0.585669, 45: 0.130997, 46: 1.062591, 47: 0.079744, 48: 1.309308, 49: 0.93111, 50: 0.071174, 51: 0.774345, 52: 0.396187, 53: 0.267556, 54: 0.90543, 55: 1.592346, 56: 0.079013, 57: 0.389634, 58: 0.239992, 59: 0.253823, 60: 0.653724, 61: 0.100114, 62: 0.126591, 63: 0.732771, 64: 0.267127, 65: 0.293647, 66: 0.26088, 67: 0.076789, 68: 0.005018, 69: 0.009346999999999999, 70: 0.012922, 71: 0.023797, 72: 0.009983000000000001, 73: 5.7e-05, 74: 0.0, 75: 0.0, 76: 0.0, 77: 0.0, 78: 0.0, 79: 0.0, 80: 0.0, 81: 0.0, 82: 0.0, 83: 0.0, 84: 0.0, 85: 0.0, 86: 0.0, 87: 0.0, 88: 0.0, 89: 0.0, 90: 0.0, 91: 0.0, 92: 0.0, 93: 0.0, 94: 0.0, 95: 0.0];
buy = [0: 39.02687, 1: 208.535274, 2: 191.805169, 3: 429.309619, 4: 36.232187, 5: 967.5891789999999, 6: 365.913041, 7: 333.507047, 8: 802.053818, 9: 157.20216, 10: 236.473253, 11: 367.183514, 12: 255.56762, 13: 614.768158, 14: 440.176436, 15: 24.975432, 16: 324.824999, 17: 907.845862, 18: 340.400821, 19: 707.240813, 20: 795.16365, 21: 492.365537, 22: 590.240966, 23: 730.388461, 24: 791.330527, 25: 931.660193, 26: 419.54049, 27: 444.154533, 28: 605.493746, 29: 461.607538, 30: 906.484495, 31: 467.243894, 32: 145.990618, 33: 15.255271, 34: 576.840425, 35: 113.119031, 36: 776.972815, 37: 131.143172, 38: 769.106631, 39: 607.534532, 40: 945.272373, 41: 299.91808, 42: 159.112698, 43: 625.937936, 44: 457.9176, 45: 257.909446, 46: 792.758438, 47: 289.317532, 48: 387.652982, 49: 882.8616500000001, 50: 187.329916, 51: 907.77842, 52: 841.725539, 53: 153.208936, 54: 221.127335, 55: 565.8250829999999, 56: 291.367283, 57: 878.492622, 58: 97.76920200000001, 59: 148.161395, 60: 617.038065, 61: 761.68724, 62: 681.249614, 63: 129.762632, 64: 958.932604, 65: 987.525414, 66: 248.192191, 67: 545.87955, 68: 416.902283, 69: 856.103547, 70: 282.959258, 71: 534.465101, 72: 552.904242, 73: 985.296009, 74: 585.29958, 75: 580.615399, 76: 402.687702, 77: 407.212918, 78: 622.429389, 79: 440.822079, 80: 182.39311, 81: 217.3514, 82: 708.537634, 83: 438.390386, 84: 308.584692, 85: 882.235363, 86: 793.044925, 87: 206.978961, 88: 285.144883, 89: 688.612471, 90: 963.367258, 91: 631.627383, 92: 496.94497, 93: 297.645333, 94: 492.373095, 95: 86.62201];
sell = [0: 1.812938, 1: 2.664185, 2: 1.806555, 3: 1.111831, 4: 1.476163, 5: 2.236838, 6: 3.246029, 7: 2.294694, 8: 3.353262, 9: 2.325398, 10: 2.008145, 11: 1.340759, 12: 2.767017, 13: 1.007001, 14: 2.616498, 15: 1.482139, 16: 0.06877800000000001, 17: 3.57451, 18: 3.556545, 19: 2.19625, 20: 1.135969, 21: 1.125194, 22: 2.353364, 23: 0.923191, 24: 1.861065, 25: 0.455097, 26: 0.177342, 27: 2.023391, 28: 2.809571, 29: 1.102651, 30: 3.737224, 31: 0.574924, 32: 3.080671, 33: 3.13701, 34: 3.714259, 35: 3.02331, 36: 0.382036, 37: 2.385417, 38: 0.340535, 39: 3.593351, 40: 1.905582, 41: 0.613144, 42: 2.551919, 43: 1.316525, 44: 3.412677, 45: 0.7327, 46: 2.9004, 47: 0.012687, 48: 1.020826, 49: 0.139173, 50: 3.345784, 51: 1.061677, 52: 0.8546859999999999, 53: 2.596717, 54: 0.474776, 55: 1.258242, 56: 0.111601, 57: 2.945523, 58: 1.662667, 59: 0.005537, 60: 2.227574, 61: 3.423657, 62: 2.861644, 63: 3.604312, 64: 3.350912, 65: 0.891492, 66: 3.116413, 67: 2.075628, 68: 0.943582, 69: 2.26854, 70: 1.258703, 71: 0.86339, 72: 3.488777, 73: 1.699068, 74: 1.825175, 75: 2.815004, 76: 1.742047, 77: 0.093636, 78: 3.759878, 79: 1.799566, 80: 1.016578, 81: 3.829068, 82: 3.185763, 83: 0.928422, 84: 0.821537, 85: 2.192338, 86: 3.289398, 87: 1.151945, 88: 1.997122, 89: 0.223845, 90: 1.213425, 91: 0.165111, 92: 1.735658, 93: 1.78905, 94: 0.246536, 95: 1.322561];
charge = [0: 0.318748, 1: 0.345741, 2: 0.487918, 3: 0.227795, 4: 0.527146, 5: 0.2172, 6: 0.639979, 7: 0.8942369999999999, 8: 0.932535, 9: 0.483746, 10: 0.607524, 11: 0.808581, 12: 0.527718, 13: 0.29072, 14: 0.586678, 15: 0.821915, 16: 0.510388, 17: 0.249799, 18: 0.164022, 19: 0.649966, 20: 0.675185, 21: 0.402046, 22: 0.234843, 23: 0.115555, 24: 0.565483, 25: 0.932988, 26: 0.764953, 27: 0.360248, 28: 0.323538, 29: 0.104478, 30: 0.275287, 31: 0.332708, 32: 0.640889, 33: 0.958085, 34: 0.55239, 35: 0.270457, 36: 0.276538, 37: 0.745946, 38: 0.180373, 39: 0.575886, 40: 0.559208, 41: 0.526044, 42: 0.158714, 43: 0.977661, 44: 0.713157, 45: 0.208558, 46: 0.188389, 47: 0.488195, 48: 0.085259, 49: 0.231565, 50: 0.5990760000000001, 51: 0.06851, 52: 0.021099, 53: 0.003362, 54: 0.252507, 55: 0.436381, 56: 0.471961, 57: 0.220109, 58: 0.786736, 59: 0.28572, 60: 0.926444, 61: 0.398934, 62: 0.064475, 63: 0.259598, 64: 0.811599, 65: 0.389063, 66: 0.818338, 67: 0.188347, 68: 0.085217, 69: 0.875175, 70: 0.935633, 71: 0.354208, 72: 0.278073, 73: 0.750149, 74: 0.567147, 75: 0.444249, 76: 0.875324, 77: 0.120889, 78: 0.28347, 79: 0.192208, 80: 0.199829, 81: 0.824947, 82: 0.503654, 83: 0.398557, 84: 0.15355, 85: 0.083245, 86: 0.58967, 87: 0.221132, 88: 0.8889860000000001, 89: 0.761925, 90: 0.146649, 91: 0.819519, 92: 0.842548, 93: 0.768374, 94: 0.338988, 95: 0.453814];
discharge = [0: 0.101047, 1: 0.192346, 2: 0.039216, 3: 0.723684, 4: 0.807225, 5: 0.772524, 6: 0.467689, 7: 0.926705, 8: 0.387571, 9: 0.220041, 10: 0.279027, 11: 0.050654, 12: 0.352655, 13: 0.946661, 14: 0.86009, 15: 0.380581, 16: 0.607324, 17: 0.646755, 18: 0.06668499999999999, 19: 0.328239, 20: 0.966618, 21: 0.402497, 22: 0.6534140000000001, 23: 0.269103, 24: 0.939937, 25: 0.932422, 26: 0.515867, 27: 0.080951, 28: 0.901586, 29: 0.596428, 30: 0.907311, 31: 0.866048, 32: 0.027073, 33: 0.6377620000000001, 34: 0.116001, 35: 0.323131, 36: 0.740278, 37: 0.111924, 38: 0.347709, 39: 0.347338, 40: 0.330606, 41: 0.782366, 42: 0.500117, 43: 0.428844, 44: 0.209976, 45: 0.562157, 46: 0.840645, 47: 0.25092, 48: 0.909367, 49: 0.9623119999999999, 50: 0.472976, 51: 0.056364, 52: 0.358154, 53: 0.556263, 54: 0.809175, 55: 0.998566, 56: 0.895717, 57: 0.394768, 58: 0.256331, 59: 0.559548, 60: 0.832703, 61: 0.463936, 62: 0.683284, 63: 0.952319, 64: 0.422695, 65: 0.706376, 66: 0.640146, 67: 0.370464, 68: 0.047954, 69: 0.163544, 70: 0.291202, 71: 0.792988, 72: 0.046854, 73: 0.887091, 74: 0.577955, 75: 0.393858, 76: 0.05959, 77: 0.060003, 78: 0.265003, 79: 0.817495, 80: 0.8512380000000001, 81: 0.686495, 82: 0.824035, 83: 0.951257, 84: 0.73139, 85: 0.252477, 86: 0.331123, 87: 0.745607, 88: 0.7474690000000001, 89: 0.697251, 90: 0.770782, 91: 0.478632, 92: 0.972468, 93: 0.581352, 94: 0.826841, 95: 0.021171];
soc = [0: 2.94812, 1: 2.937907, 2: 3.667174, 3: 5.137835, 4: 6.107963, 5: 6.427399, 6: 4.732095, 7: 5.343806, 8: 7.451137, 9: 6.989108, 10: 6.1585, 11: 6.932559, 12: 11.65107, 13: 7.211665, 14: 3.375904, 15: 14.61034, 16: 8.327355000000001, 17: 6.120037, 18: 9.838015, 19: 8.556072, 20: 5.132278, 21: 14.342557, 22: 13.205929, 23: 14.344796, 24: 3.906517, 25: 8.675936999999999, 26: 15.580073, 27: 11.092204, 28: 7.261585, 29: 12.73256, 30: 13.878156, 31: 5.817745, 32: 15.17113, 33: 5.73857, 34: 15.127951, 35: 11.448308, 36: 13.113993, 37: 3.300786, 38: 9.659789, 39: 9.822803, 40: 10.144108, 41: 9.277374, 42: 14.585081, 43: 10.374124, 44: 6.646215, 45: 3.865987, 46: 10.814484, 47: 10.34813, 48: 8.627641000000001, 49: 7.170407, 50: 3.184866, 51: 5.809894, 52: 2.680954, 53: 4.007514, 54: 10.498834, 55: 4.956929, 56: 6.566679, 57: 12.546381, 58: 12.896012, 59: 11.982275, 60: 4.480541, 61: 13.239017, 62: 6.984022, 63: 10.26284, 64: 3.302601, 65: 13.522266, 66: 7.55158, 67: 14.958798, 68: 14.556302, 69: 14.623715, 70: 2.786379, 71: 7.671073, 72: 6.472106, 73: 11.98689, 74: 7.554016, 75: 2.948439, 76: 5.661571, 77: 3.086182, 78: 10.976659, 79: 6.844936, 80: 6.393451, 81: 14.028281, 82: 8.497629, 83: 5.740876, 84: 7.5309, 85: 9.241486999999999, 86: 4.884108, 87: 15.634571, 88: 4.139849, 89: 13.799285, 90: 3.467283, 91: 10.649247, 92: 2.774886, 93: 7.346437, 94: 6.471186, 95: 10.119958];
cost = [0: 294.120643, 1: 380.253817, 2: 494.988699, 3: 352.673131, 4: 344.563004, 5: 113.191545, 6: 194.620433, 7: 536.08406, 8: 525.345633, 9: 488.557832, 10: 324.794894, 11: 601.162703, 12: 359.421033, 13: 310.948738, 14: 97.679782, 15: 302.818335, 16: 145.412268, 17: 307.914097, 18: 333.490988, 19: 426.274933, 20: 202.466503, 21: 30.64749, 22: 430.734615, 23: 510.769663, 24: 755.582932, 25: 306.502582, 26: 1027.061831, 27: 846.445746, 28: 1123.373448, 29: 714.993709, 30: 1004.559881, 31: 409.145138, 32: 359.181631, 33: 445.523846, 34: 634.996159, 35: 900.463391, 36: 125.143886, 37: 446.637276, 38: 867.05321, 39: 249.908769, 40: 607.246901, 41: 722.121188, 42: 207.465832, 43: 931.953625, 44: 167.368716, 45: 1121.814002, 46: 655.88897, 47: 25.497672, 48: 1131.446974, 49: 402.807832, 50: 655.986275, 51: 817.401046, 52: 28.168603, 53: 0.175608, 54: 262.164349, 55: 444.643416, 56: 204.016555, 57: 490.374017, 58: 218.362916, 59: 557.872758, 60: 989.552014, 61: 1147.125913, 62: 1157.461565, 63: 433.372284, 64: 547.196762, 65: 523.799351, 66: 539.448794, 67: 16.981284, 68: 562.817172, 69: 1170.32702, 70: 561.341977, 71: 1021.409835, 72: 766.151098, 73: 131.769654, 74: 23.486786, 75: 35.240096, 76: 1174.719514, 77: 320.53064, 78: 1147.842529, 79: 454.911594, 80: 1171.622132, 81: 334.752584, 82: 1070.314645, 83: 488.057411, 84: 1073.459588, 85: 445.696991, 86: 692.385228, 87: 547.6466359999999, 88: 248.914097, 89: 600.531881, 90: 207.560624, 91: 46.488006, 92: 62.803627, 93: 598.266249, 94: 330.698131, 95: 217.537228];
earn = [0: 1.404773, 1: 1.229842, 2: 1.035395, 3: 1.620928, 4: 1.11071, 5: 0.361909, 6: 2.366287, 7: 1.395119, 8: 2.125434, 9: 1.336618, 10: 2.38121, 11: 0.660367, 12: 1.547309, 13: 1.488889, 14: 0.209772, 15: 1.854222, 16: 1.86778, 17: 2.160887, 18: 2.064375, 19: 1.303181, 20: 2.552806, 21: 1.431785, 22: 1.633192, 23: 0.737086, 24: 1.476111, 25: 0.489392, 26: 2.404632, 27: 0.688862, 28: 2.285855, 29: 1.330393, 30: 0.5292750000000001, 31: 1.698007, 32: 1.415589, 33: 0.472902, 34: 1.699284, 35: 0.7492, 36: 0.771455, 37: 0.715236, 38: 0.117079, 39: 0.639381, 40: 0.362026, 41: 0.216183, 42: 0.398896, 43: 0.309468, 44: 0.139233, 45: 0.022687, 46: 0.005878, 47: 0.002324, 48: -0.01309, 49: -0.020763, 50: -0.042145, 51: 0.00011, 52: -0.048535, 53: -0.004889, 54: 0.02113, 55: 0.047356, 56: 0.206985, 57: 0.211709, 58: 0.601826, 59: 0.642316, 60: 0.555907, 61: 0.055357, 62: 1.752645, 63: 0.885667, 64: 0.895666, 65: 2.410601, 66: 2.01397, 67: 1.178852, 68: 2.734879, 69: 1.440511, 70: 2.523878, 71: 1.947393, 72: 2.556967, 73: 2.013904, 74: 2.150384, 75: 1.140989, 76: 2.221795, 77: 1.382678, 78: 2.623188, 79: 2.184027, 80: 2.83377, 81: 2.7505, 82: 0.712165, 83: 0.612739, 84: 0.745366, 85: 1.944064, 86: 1.493093, 87: 1.616775, 88: 0.737473, 89: 2.470036, 90: 0.171149, 91: 0.132794, 92: 1.163314, 93: 1.097046, 94: 1.91836, 95: 1.542994];
total_cost = 53.28161748271895;
total_earn = 12.75441778066667;
