production = [0: 0.0, 1: 0.0, 2: 0.0, 3: 0.0, 4: 0.0, 5: 0.0, 6: 0.0, 7: 0.0, 8: 0.0, 9: 0.0, 10: 0.0, 11: 0.0, 12: 0.0, 13: 0.0, 14: 0.0, 15: 0.0, 16: 0.0, 17: 0.0, 18: 0.0, 19: 0.0, 20: 0.0, 21: 0.0, 22: 0.0, 23: 0.000155, 24: 0.000781, 25: 0.000807, 26: 0.01538, 27: 0.066381, 28: 0.013253, 29: 0.010394, 30: 0.029105, 31: 0.20395, 32: 0.298525, 33: 0.07223300000000001, 34: 0.283411, 35: 0.099999, 36: 0.297855, 37: 0.253082, 38: 0.38339, 39: 1.430936, 40: 1.181712, 41: 0.807903, 42: 0.674919, 43: 0.097484, 44: 0.495787, 45: 0.447858, 46: 1.95875, 47: 0.641605, 48: 0.096665, 49: 0.933271, 50: 0.523651, 51: 0.936677, 52: 0.932969, 53: 0.285346, 54: 1.031282, 55: 0.965604, 56: 0.272861, 57: 0.239351, 58: 0.135835, 59: 0.317291, 60: 0.20274, 61: 0.108365, 62: 0.177237, 63: 0.569844, 64: 0.07221900000000001, 65: 0.237477, 66: 0.202048, 67: 0.041846, 68: 0.082552, 69: 0.021708, 70: 0.000873, 71: 0.015991, 72: 0.008038, 73: 0.000256, 74: 0.0, 75: 0.0, 76: 0.0, 77: 0.0, 78: 0.0, 79: 0.0, 80: 0.0, 81: 0.0, 82: 0.0, 83: 0.0, 84: 0.0, 85: 0.0, 86: 0.0, 87: 0.0, 88: 0.0, 89: 0.0, 90: 0.0, 91: 0.0, 92: 0.0, 93: 0.0, 94: 0.0, 95: 0.0];
buy = [0: 913.262807, 1: 531.487202, 2: 702.760172, 3: 904.494443, 4: 630.440377, 5: 637.760529, 6: 739.800743, 7: 415.655991, 8: 468.410067, 9: 965.977905, 10: 484.846747, 11: 605.415114, 12: 540.51557, 13: 553.900023, 14: 492.358655, 15: 337.637368, 16: 434.686234, 17: 898.26805, 18: 193.889382, 19: 380.482102, 20: 231.044745, 21: 145.544706, 22: 901.951505, 23: 21.993305, 24: 761.108256, 25: 805.7405690000001, 26: 214.075546, 27: 652.960723, 28: 165.111434, 29: 893.364548, 30: 978.508966, 31: 569.117294, 32: 599.439353, 33: 249.826942, 34: 176.886771, 35: 516.2877, 36: 629.538525, 37: 162.178356, 38: 347.56238, 39: 307.219011, 40: 342.335408, 41: 437.812832, 42: 798.737768, 43: 917.334033, 44: 760.955681, 45: 894.6488890000001, 46: 401.157877, 47: 104.918416, 48: 314.123303, 49: 124.373523, 50: 140.174861, 51: 867.073323, 52: 231.624739, 53: 720.181403, 54: 434.071426, 55: 810.363717, 56: 956.62411, 57: 174.816615, 58: 785.734412, 59: 99.431274, 60: 503.037195, 61: 368.216448, 62: 502.814883, 63: 139.487592, 64: 748.705558, 65: 386.765869, 66: 635.282249, 67: 718.017815, 68: 655.149983, 69: 416.644456, 70: 59.032025, 71: 545.472641, 72: 549.281959, 73: 123.660192, 74: 311.991436, 75: 895.126384, 76: 665.576459, 77: 515.502624, 78: 822.600131, 79: 135.694547, 80: 300.747402, 81: 174.691044, 82: 412.895323, 83: 828.019261, 84: 993.213899, 85: 32.150695, 86: 641.972039, 87: 930.9236540000001, 88: 846.580741, 89: 756.618511, 90: 152.668783, 91: 441.138042, 92: 485.301572, 93: 492.479247, 94: 252.610489, 95: 352.150909];
sell = [0: 1.065275, 1: 1.587984, 2: 2.358816, 3: 3.061495, 4: 3.318715, 5: 1.1457, 6: 2.570735, 7: 2.661312, 8: 3.286962, 9: 0.791175, 10: 2.176018, 11: 2.780851, 12: 3.304381, 13: 3.658017, 14: 0.903332, 15: 0.667297, 16: 0.358875, 17: 1.831719, 18: 1.188273, 19: 0.230304, 20: 1.330735, 21: 1.02855, 22: 3.204953, 23: 1.755236, 24: 0.078609, 25: 3.073137, 26: 1.896892, 27: 0.53645, 28: 3.439369, 29: 0.224504, 30: 0.48126, 31: 2.963899, 32: 0.930471, 33: 1.679341, 34: 2.195754, 35: 3.904207, 36: 1.95636, 37: 2.445783, 38: 3.531674, 39: 0.908345, 40: 1.691515, 41: 2.303376, 42: 2.582165, 43: 2.213699, 44: 1.70346, 45: 0.522221, 46: 2.589585, 47: 2.6657, 48: 2.5394, 49: 2.425184, 50: 3.644018, 51: 3.319177, 52: 0.59309, 53: 3.346555, 54: 0.763505, 55: 3.215374, 56: 2.108112, 57: 2.779018, 58: 0.794028, 59: 3.612842, 60: 1.788177, 61: 2.59957, 62: 2.020013, 63: 1.775562, 64: 0.625771, 65: 2.130029, 66: 1.260226, 67: 3.888931, 68: 0.454332, 69: 3.623374, 70: 3.610134, 71: 2.67982, 72: 2.862069, 73: 2.021784, 74: 0.498649, 75: 3.519998, 76: 1.55076, 77: 0.162293, 78: 1.062557, 79: 0.6644679999999999, 80: 2.975925, 81: 1.686549, 82: 3.165885, 83: 3.315883, 84: 3.991344, 85: 3.729332, 86: 3.650707, 87: 2.853387, 88: 0.043846, 89: 3.7153, 90: 1.214101, 91: 2.452468, 92: 2.440581, 93: 0.053933, 94: 2.328712, 95: 3.790283];
charge = [0: 0.995478, 1: 0.6619429999999999, 2: 0.537595, 3: 0.337267, 4: 0.183911, 5: 0.959182, 6: 0.867278, 7: 0.438357, 8: 0.6822279999999999, 9: 0.558161, 10: 0.85697, 11: 0.191303, 12: 0.612235, 13: 0.562738, 14: 0.927351, 15: 0.380128, 16: 0.854171, 17: 0.193397, 18: 0.8331229999999999, 19: 0.273583, 20: 0.107566, 21: 0.571282, 22: 0.341246, 23: 0.988298, 24: 0.550323, 25: 0.7547509999999999, 26: 0.777367, 27: 0.325627, 28: 0.24854, 29: 0.9618679999999999, 30: 0.023279, 31: 0.567157, 32: 0.892389, 33: 0.787155, 34: 0.088892, 35: 0.356318, 36: 0.6662, 37: 0.195781, 38: 0.025746, 39: 0.138793, 40: 0.995911, 41: 0.54628, 42: 0.358861, 43: 0.359555, 44: 0.7101420000000001, 45: 0.270023, 46: 0.904744, 47: 0.134455, 48: 0.420871, 49: 0.48542, 50: 0.05621, 51: 0.458379, 52: 0.876468, 53: 0.853363, 54: 0.757402, 55: 0.125791, 56: 0.680713, 57: 0.476637, 58: 0.717424, 59: 0.850167, 60: 0.234499, 61: 0.978218, 62: 0.052796, 63: 0.6354610000000001, 64: 0.5461240000000001, 65: 0.767301, 66: 0.819289, 67: 0.995905, 68: 0.30393, 69: 0.336673, 70: 0.709776, 71: 0.229849, 72: 0.35661, 73: 0.260055, 74: 0.243721, 75: 0.371257, 76: 0.098867, 77: 0.518625, 78: 0.844593, 79: 0.06848799999999999, 80: 0.661076, 81: 0.140383, 82: 0.410765, 83: 0.097607, 84: 0.5288890000000001, 85: 0.610389, 86: 0.998505, 87: 0.046007, 88: 0.983212, 89: 0.502059, 90: 0.079125, 91: 0.8657859999999999, 92: 0.678218, 93: 0.371979, 94: 0.08228100000000001, 95: 0.048359];
discharge = [0: 0.979425, 1: 0.391087, 2: 0.915628, 3: 0.020185, 4: 0.010639, 5: 0.076976, 6: 0.270869, 7: 0.638171, 8: 0.593974, 9: 0.08859400000000001, 10: 0.424995, 11: 0.147551, 12: 0.074141, 13: 0.219507, 14: 0.538254, 15: 0.646062, 16: 0.331429, 17: 0.850231, 18: 0.351467, 19: 0.160426, 20: 0.155056, 21: 0.905929, 22: 0.215399, 23: 0.085355, 24: 0.52047, 25: 0.893089, 26: 0.203771, 27: 0.12623, 28: 0.390928, 29: 0.858181, 30: 0.783895, 31: 0.090532, 32: 0.621523, 33: 0.691817, 34: 0.204581, 35: 0.129697, 36: 0.7220490000000001, 37: 0.174962, 38: 0.014713, 39: 0.841687, 40: 0.179913, 41: 0.488596, 42: 0.609494, 43: 0.380783, 44: 0.591118, 45: 0.575535, 46: 0.006274, 47: 0.749155, 48: 0.656065, 49: 0.166946, 50: 0.978305, 51: 0.458153, 52: 0.445363, 53: 0.398641, 54: 0.558683, 55: 0.45158, 56: 0.725653, 57: 0.641288, 58: 0.420563, 59: 0.703561, 60: 0.507508, 61: 0.949562, 62: 0.664839, 63: 0.178551, 64: 0.14705, 65: 0.8531339999999999, 66: 0.364019, 67: 0.587237, 68: 0.312893, 69: 0.401239, 70: 0.690648, 71: 0.956328, 72: 0.754615, 73: 0.646293, 74: 0.760761, 75: 0.548785, 76: 0.691034, 77: 0.677119, 78: 0.979457, 79: 0.933731, 80: 0.774603, 81: 0.008229999999999999, 82: 0.592781, 83: 0.146075, 84: 0.10528, 85: 0.697338, 86: 0.659784, 87: 0.752741, 88: 0.932185, 89: 0.100206, 90: 0.049952, 91: 0.799362, 92: 0.971664, 93: 0.78306, 94: 0.8126100000000001, 95: 0.294377];
soc = [0: 3.130066, 1: 2.959817, 2: 3.706668, 3: 5.652071, 4: 6.16079, 5: 6.445706, 6: 6.39935, 7: 6.72455, 8: 8.231214, 9: 6.641263, 10: 11.32674, 11: 5.55567, 12: 9.905013, 13: 9.997496999999999, 14: 8.852518, 15: 11.924606, 16: 3.016778, 17: 9.507357000000001, 18: 4.16615, 19: 14.0189, 20: 9.775937000000001, 21: 11.214993, 22: 14.069568, 23: 14.948049, 24: 11.539626, 25: 4.799111, 26: 13.534892, 27: 12.608888, 28: 2.874964, 29: 9.239207, 30: 5.047343, 31: 10.362683, 32: 7.704265, 33: 5.819463, 34: 5.75295, 35: 5.823459, 36: 6.328461, 37: 13.145566, 38: 9.478552000000001, 39: 4.464431, 40: 14.302002, 41: 13.852059, 42: 11.817297, 43: 13.904567, 44: 5.707008, 45: 12.94816, 46: 11.766288, 47: 12.379577, 48: 13.027991, 49: 12.550614, 50: 3.265908, 51: 2.806618, 52: 3.360753, 53: 4.865495, 54: 11.91014, 55: 6.123516, 56: 6.957294, 57: 14.396138, 58: 7.732455, 59: 11.784003, 60: 7.807275, 61: 10.975876, 62: 8.991463, 63: 15.100089, 64: 10.586763, 65: 10.601507, 66: 3.50754, 67: 11.313982, 68: 5.971017, 69: 5.488941, 70: 2.961122, 71: 10.998979, 72: 8.454834, 73: 13.218836, 74: 12.854022, 75: 2.827384, 76: 2.973198, 77: 5.634198, 78: 14.785492, 79: 7.417187, 80: 11.628176, 81: 6.370385, 82: 11.999993, 83: 6.626929, 84: 8.578735, 85: 7.203377, 86: 14.285575, 87: 13.507952, 88: 7.546319, 89: 9.225713000000001, 90: 3.792263, 91: 13.931894, 92: 8.359862, 93: 12.990451, 94: 7.55448, 95: 6.857936];
cost = [0: 214.579709, 1: 33.674938, 2: 387.054988, 3: 175.591122, 4: 55.084012, 5: 361.181066, 6: 477.445798, 7: 274.494305, 8: 602.4483750000001, 9: 239.228215, 10: 120.941115, 11: 232.799905, 12: 73.09017799999999, 13: 526.14854, 14: 350.770652, 15: 312.163162, 16: 278.60001, 17: 197.225086, 18: 475.742867, 19: 500.895544, 20: 25.694487, 21: 326.942311, 22: 55.453569, 23: 434.788176, 24: 22.187465, 25: 720.015728, 26: 20.120195, 27: 883.249718, 28: 1164.340637, 29: 1106.297709, 30: 728.805833, 31: 450.42763, 32: 531.293528, 33: 83.231498, 34: 287.277684, 35: 1069.894944, 36: 1188.000355, 37: 907.846283, 38: 967.402045, 39: 793.537207, 40: 790.7022930000001, 41: 207.677096, 42: 938.541874, 43: 1147.888364, 44: 497.67086, 45: 428.053457, 46: 547.748072, 47: 647.762196, 48: 453.238373, 49: 246.814159, 50: 420.310696, 51: 87.227142, 52: 56.722867, 53: 425.400986, 54: 172.815472, 55: 299.76063, 56: 357.991999, 57: 406.143678, 58: 471.865189, 59: 555.956369, 60: 146.464244, 61: 710.920987, 62: 578.711636, 63: 457.454267, 64: 704.720515, 65: 74.330618, 66: 137.820356, 67: 1112.241911, 68: 272.050259, 69: 329.578159, 70: 363.520551, 71: 135.686774, 72: 946.978471, 73: 573.94499, 74: 278.531272, 75: 915.5397, 76: 341.710856, 77: 127.950457, 78: 282.943868, 79: 331.248314, 80: 131.939092, 81: 355.463262, 82: 110.281683, 83: 608.435985, 84: 555.026712, 85: 285.159566, 86: 244.295012, 87: 1175.690565, 88: 307.623373, 89: 493.616242, 90: 539.9312159999999, 91: 411.813809, 92: 502.97255, 93: 212.593937, 94: 399.855961, 95: 375.008139];
earn = [0: 0.187903, 1: 2.89477, 2: 0.806415, 3: 2.838216, 4: 1.338886, 5: 1.253234, 6: 0.827865, 7: 1.882504, 8: 2.687921, 9: 1.92871, 10: 0.701222, 11: 2.589813, 12: 0.864464, 13: 0.723807, 14: 0.919787, 15: 2.128476, 16: 2.26446, 17: 0.379348, 18: 1.406701, 19: 0.257075, 20: 2.702837, 21: 1.47088, 22: 2.823329, 23: 2.666319, 24: 2.259223, 25: 2.505077, 26: 0.998116, 27: 0.488434, 28: 0.965798, 29: 0.08822199999999999, 30: 2.626976, 31: 0.841349, 32: 1.146469, 33: 1.662885, 34: 1.647144, 35: 0.338605, 36: 0.018795, 37: 1.276504, 38: 0.622911, 39: 0.31934, 40: 0.166289, 41: 0.007908999999999999, 42: 0.167885, 43: 0.279207, 44: 0.08348700000000001, 45: 0.027081, 46: 0.000513, 47: 0.004049, 48: -0.026206, 49: -0.00327, 50: -0.036266, 51: 8.8e-05, 52: -0.010222, 53: -0.019612, 54: 0.007336, 55: 0.049088, 56: 0.483466, 57: 0.144772, 58: 0.755377, 59: 0.929352, 60: 0.163163, 61: 1.742028, 62: 1.46324, 63: 1.339873, 64: 0.35824, 65: 0.274835, 66: 2.000887, 67: 0.917696, 68: 2.942976, 69: 2.466059, 70: 0.62071, 71: 1.555211, 72: 2.150682, 73: 1.508093, 74: 3.313098, 75: 1.725422, 76: 1.992849, 77: 2.393671, 78: 3.26177, 79: 0.8602109999999999, 80: 1.949531, 81: 2.577291, 82: 1.822453, 83: 2.903812, 84: 0.107002, 85: 2.425383, 86: 1.64654, 87: 1.408389, 88: 2.586508, 89: 0.494971, 90: 0.369849, 91: 1.953892, 92: 0.923619, 93: 1.396154, 94: 0.792516, 95: 0.9825430000000001];
total_cost = 53.28161748271895;
total_earn = 12.75441778066667;
