production = [0: 0.0, 1: 0.0, 2: 0.0, 3: 0.0, 4: 0.0, 5: 0.0, 6: 0.0, 7: 0.0, 8: 0.0, 9: 0.0, 10: 0.0, 11: 0.0, 12: 0.0, 13: 0.0, 14: 0.0, 15: 0.0, 16: 0.0, 17: 0.0, 18: 0.0, 19: 0.0, 20: 0.0, 21: 0.0, 22: 0.0, 23: 0.000262, 24: 1.7e-05, 25: 0.000118, 26: 0.019202, 27: 0.06137, 28: 0.03726, 29: 0.07402400000000001, 30: 0.118065, 31: 0.179576, 32: 0.191088, 33: 0.042843, 34: 0.351687, 35: 0.067227, 36: 0.324995, 37: 0.483087, 38: 0.669048, 39: 1.213587, 40: 0.720549, 41: 0.855845, 42: 0.594155, 43: 0.036172, 44: 0.153124, 45: 0.058388, 46: 0.114772, 47: 1.712295, 48: 0.475762, 49: 0.386577, 50: 0.070728, 51: 1.853481, 52: 0.468647, 53: 0.16262, 54: 0.955603, 55: 0.30286, 56: 0.047237, 57: 0.08615100000000001, 58: 0.07066, 59: 0.291543, 60: 1.154402, 61: 0.036687, 62: 0.251128, 63: 0.366479, 64: 0.066819, 65: 0.30798, 66: 0.200557, 67: 0.06829200000000001, 68: 0.058154, 69: 0.07011100000000001, 70: 0.04653, 71: 0.01078, 72: 0.006922, 73: 9.500000000000001e-05, 74: 0.0, 75: 0.0, 76: 0.0, 77: 0.0, 78: 0.0, 79: 0.0, 80: 0.0, 81: 0.0, 82: 0.0, 83: 0.0, 84: 0.0, 85: 0.0, 86: 0.0, 87: 0.0, 88: 0.0, 89: 0.0, 90: 0.0, 91: 0.0, 92: 0.0, 93: 0.0, 94: 0.0, 95: 0.0];
buy = [0: 89.188187, 1: 300.578314, 2: 275.948121, 3: 578.084932, 4: 476.896537, 5: 325.319863, 6: 418.563704, 7: 502.530703, 8: 891.663995, 9: 51.277038, 10: 403.404061, 11: 362.836091, 12: 362.746928, 13: 602.275677, 14: 405.625967, 15: 948.274557, 16: 34.414678, 17: 487.458452, 18: 968.737538, 19: 149.826483, 20: 82.027918, 21: 829.7807790000001, 22: 441.016048, 23: 862.226013, 24: 830.2471399999999, 25: 782.347976, 26: 162.59348, 27: 24.201376, 28: 59.721011, 29: 517.727987, 30: 172.216621, 31: 379.65735, 32: 974.3859619999999, 33: 82.827839, 34: 909.9302259999999, 35: 181.552436, 36: 82.185683, 37: 340.415686, 38: 497.665129, 39: 791.560927, 40: 510.692614, 41: 530.561425, 42: 777.544114, 43: 411.396108, 44: 200.752089, 45: 934.954018, 46: 41.608329, 47: 604.2947799999999, 48: 348.046167, 49: 880.827694, 50: 433.725296, 51: 822.809863, 52: 240.828211, 53: 185.164961, 54: 42.228041, 55: 203.524845, 56: 980.676677, 57: 393.228576, 58: 262.741393, 59: 162.230574, 60: 46.367018, 61: 336.970081, 62: 683.492898, 63: 549.477674, 64: 244.54148, 65: 494.228784, 66: 707.811823, 67: 395.910979, 68: 1.387876, 69: 400.948974, 70: 920.080344, 71: 26.144753, 72: 944.03559, 73: 95.538821, 74: 297.068681, 75: 290.258479, 76: 849.271343, 77: 879.959614, 78: 916.806227, 79: 50.864924, 80: 22.502001, 81: 194.079777, 82: 188.038937, 83: 110.180381, 84: 101.269554, 85: 366.864419, 86: 830.948791, 87: 58.291521, 88: 710.704159, 89: 198.592799, 90: 273.290053, 91: 288.556394, 92: 235.457043, 93: 823.640173, 94: 692.736397, 95: 392.709826];
sell = [0: 0.31053, 1: 1.270006, 2: 3.697926, 3: 3.388379, 4: 2.562015, 5: 3.087021, 6: 2.661308, 7: 1.604769, 8: 1.654537, 9: 2.215213, 10: 1.476031, 11: 2.484678, 12: 0.388616, 13: 2.805863, 14: 3.336655, 15: 2.632238, 16: 3.129383, 17: 0.042112, 18: 0.256136, 19: 1.37271, 20: 1.349298, 21: 3.105452, 22: 2.353948, 23: 0.420389, 24: 1.832815, 25: 1.985619, 26: 0.659635, 27: 2.728334, 28: 0.237421, 29: 0.88354, 30: 0.023562, 31: 0.234191, 32: 2.875506, 33: 0.572332, 34: 2.65779, 35: 3.435203, 36: 2.877566, 37: 3.886626, 38: 2.958719, 39: 2.837977, 40: 0.161186, 41: 0.962863, 42: 1.336548, 43: 2.368634, 44: 3.056065, 45: 1.215658, 46: 2.266493, 47: 2.664048, 48: 0.219815, 49: 1.518283, 50: 3.702896, 51: 2.906611, 52: 1.490801, 53: 1.03463, 54: 3.754216, 55: 2.015228, 56: 3.130964, 57: 0.360719, 58: 3.684207, 59: 1.934696, 60: 1.144931, 61: 3.154365, 62: 0.322122, 63: 1.665863, 64: 2.638503, 65: 0.90416, 66: 0.339135, 67: 3.918414, 68: 0.593087, 69: 3.64165, 70: 1.124907, 71: 2.21121, 72: 3.492521, 73: 3.38702, 74: 2.362375, 75: 1.339544, 76: 0.173538, 77: 1.255327, 78: 2.045913, 79: 1.056227, 80: 3.390613, 81: 3.52922, 82: 0.693105, 83: 3.275364, 84: 0.836517, 85: 1.07118, 86: 2.326277, 87: 0.346878, 88: 0.750409, 89: 2.253784, 90: 3.314078, 91: 2.787278, 92: 3.622089, 93: 3.358708, 94: 0.239564, 95: 2.414631];
charge = [0: 0.997758, 1: 0.921414, 2: 0.348865, 3: 0.532237, 4: 0.304559, 5: 0.021559, 6: 0.990522, 7: 0.907897, 8: 0.727461, 9: 0.027043, 10: 0.228733, 11: 0.302645, 12: 0.444644, 13: 0.449779, 14: 0.108219, 15: 0.859038, 16: 0.043108, 17: 0.502369, 18: 0.435805, 19: 0.043006, 20: 0.178262, 21: 0.507568, 22: 0.384355, 23: 0.594648, 24: 0.23588, 25: 0.662956, 26: 0.619193, 27: 0.00051, 28: 0.046226, 29: 0.25289, 30: 0.934183, 31: 0.379235, 32: 0.350301, 33: 0.543865, 34: 0.194148, 35: 0.939512, 36: 0.512416, 37: 0.7981780000000001, 38: 0.218004, 39: 0.620988, 40: 0.891159, 41: 0.183337, 42: 0.514616, 43: 0.260366, 44: 0.852927, 45: 0.125982, 46: 0.900003, 47: 0.684631, 48: 0.40801, 49: 0.006923, 50: 0.189884, 51: 0.501448, 52: 0.5428770000000001, 53: 0.374132, 54: 0.136892, 55: 0.266581, 56: 0.947875, 57: 0.267604, 58: 0.4146, 59: 0.419543, 60: 0.561913, 61: 0.7743139999999999, 62: 0.743938, 63: 0.880654, 64: 0.739016, 65: 0.438114, 66: 0.614947, 67: 0.415426, 68: 0.140492, 69: 0.901383, 70: 0.28538, 71: 0.08829099999999999, 72: 0.722558, 73: 0.233823, 74: 0.51068, 75: 0.763265, 76: 0.9722229999999999, 77: 0.238891, 78: 0.114622, 79: 0.543387, 80: 0.234205, 81: 0.506657, 82: 0.028736, 83: 0.315875, 84: 0.485912, 85: 0.418353, 86: 0.926233, 87: 0.042195, 88: 0.38322, 89: 0.343035, 90: 0.035134, 91: 0.341594, 92: 0.06765400000000001, 93: 0.829456, 94: 0.08065, 95: 0.422373];
discharge = [0: 0.877713, 1: 0.526269, 2: 0.880628, 3: 0.124168, 4: 0.283835, 5: 0.310983, 6: 0.670611, 7: 0.338301, 8: 0.554445, 9: 0.405896, 10: 0.087391, 11: 0.786788, 12: 0.793922, 13: 0.039792, 14: 0.048759, 15: 0.336407, 16: 0.976089, 17: 0.310371, 18: 0.711896, 19: 0.370074, 20: 0.82886, 21: 0.959458, 22: 0.630955, 23: 0.836734, 24: 0.035645, 25: 0.7391450000000001, 26: 0.506938, 27: 0.386842, 28: 0.475005, 29: 0.749618, 30: 0.069437, 31: 0.287105, 32: 0.095156, 33: 0.221881, 34: 0.514415, 35: 0.445814, 36: 0.601996, 37: 0.162182, 38: 0.659813, 39: 0.96795, 40: 0.033111, 41: 0.158182, 42: 0.566195, 43: 0.210793, 44: 0.681073, 45: 0.096141, 46: 0.563944, 47: 0.781612, 48: 0.678582, 49: 0.5467689999999999, 50: 0.996547, 51: 0.790616, 52: 0.388325, 53: 0.476352, 54: 0.832405, 55: 0.882227, 56: 0.23255, 57: 0.73427, 58: 0.275239, 59: 0.097398, 60: 0.688739, 61: 0.8514620000000001, 62: 0.400633, 63: 0.179747, 64: 0.915312, 65: 0.6140949999999999, 66: 0.022639, 67: 0.32783, 68: 0.434445, 69: 0.412414, 70: 0.430735, 71: 0.478833, 72: 0.579053, 73: 0.337081, 74: 0.644745, 75: 0.847032, 76: 0.381522, 77: 0.8672800000000001, 78: 0.9272899999999999, 79: 0.707672, 80: 0.161029, 81: 0.09315, 82: 0.531477, 83: 0.305507, 84: 0.092407, 85: 0.604923, 86: 0.99415, 87: 0.084374, 88: 0.985412, 89: 0.63902, 90: 0.9879790000000001, 91: 0.772502, 92: 0.542638, 93: 0.035509, 94: 0.227626, 95: 0.26436];
soc = [0: 3.288763, 1: 3.632836, 2: 3.383253, 3: 3.937958, 4: 5.944004, 5: 5.474761, 6: 8.594265999999999, 7: 5.973557, 8: 10.246116, 9: 3.170963, 10: 11.21854, 11: 4.33421, 12: 12.980459, 13: 15.117725, 14: 8.24471, 15: 7.559479, 16: 6.456102, 17: 4.966645, 18: 7.697172, 19: 13.245793, 20: 5.411093, 21: 12.861297, 22: 11.400402, 23: 13.063507, 24: 13.999621, 25: 4.548595, 26: 14.770876, 27: 9.121922, 28: 10.760944, 29: 13.529626, 30: 4.933343, 31: 2.739013, 32: 9.810479000000001, 33: 4.883323, 34: 3.563361, 35: 6.407774, 36: 10.76375, 37: 8.324676999999999, 38: 4.953244, 39: 10.987081, 40: 7.096429, 41: 11.429867, 42: 7.630047, 43: 6.261317, 44: 6.662891, 45: 6.335964, 46: 9.264780999999999, 47: 13.825477, 48: 11.790659, 49: 9.509816000000001, 50: 5.244059, 51: 13.739608, 52: 13.440694, 53: 13.609684, 54: 10.793187, 55: 10.617624, 56: 5.656792, 57: 11.574959, 58: 7.322365, 59: 11.85979, 60: 14.148658, 61: 12.456959, 62: 8.726467, 63: 8.362767, 64: 6.693982, 65: 10.73574, 66: 4.135163, 67: 13.500468, 68: 11.476526, 69: 5.221272, 70: 14.062543, 71: 5.848747, 72: 2.817673, 73: 8.476558000000001, 74: 3.242705, 75: 10.435557, 76: 12.270457, 77: 5.27879, 78: 13.021048, 79: 9.624623, 80: 8.662716, 81: 15.604542, 82: 5.314092, 83: 15.370964, 84: 6.747939, 85: 3.728492, 86: 15.51946, 87: 9.556499000000001, 88: 12.189045, 89: 7.707627, 90: 12.436194, 91: 12.436946, 92: 13.763058, 93: 3.528266, 94: 3.040591, 95: 9.840112];
cost = [0: 55.290096, 1: 585.612355, 2: 58.046126, 3: 113.845322, 4: 248.070797, 5: 128.505796, 6: 406.839296, 7: 437.495403, 8: 314.685187, 9: 452.708229, 10: 498.535839, 11: 152.051026, 12: 184.248384, 13: 466.253323, 14: 231.517249, 15: 478.966804, 16: 41.011844, 17: 173.690303, 18: 379.234821, 19: 76.244957, 20: 495.983797, 21: 227.778974, 22: 114.331529, 23: 111.737143, 24: 155.838264, 25: 643.668995, 26: 1115.307558, 27: 502.598369, 28: 512.557161, 29: 659.985987, 30: 864.686653, 31: 85.349996, 32: 776.56926, 33: 314.315965, 34: 1050.967912, 35: 1050.997213, 36: 57.646881, 37: 406.284901, 38: 1012.195278, 39: 374.87489, 40: 633.305289, 41: 90.01709099999999, 42: 937.658936, 43: 1073.965479, 44: 1136.494617, 45: 123.940491, 46: 933.663728, 47: 1126.26786, 48: 359.018568, 49: 88.540684, 50: 243.740282, 51: 362.061705, 52: 80.195628, 53: 498.626542, 54: 598.194895, 55: 536.3928560000001, 56: 466.100466, 57: 456.27621, 58: 167.35311, 59: 327.792455, 60: 258.45115, 61: 858.4224830000001, 62: 415.012519, 63: 137.603784, 64: 1166.561189, 65: 477.984143, 66: 264.775844, 67: 634.517831, 68: 748.280365, 69: 863.250578, 70: 372.789072, 71: 920.479362, 72: 315.670486, 73: 208.491307, 74: 657.469872, 75: 349.632368, 76: 265.536076, 77: 267.21602, 78: 1098.933278, 79: 976.085696, 80: 699.430464, 81: 92.359905, 82: 474.834601, 83: 789.925123, 84: 281.861802, 85: 339.640332, 86: 385.913133, 87: 36.393995, 88: 609.337073, 89: 152.107727, 90: 123.198932, 91: 125.711415, 92: 569.4028479999999, 93: 46.839619, 94: 589.5245159999999, 95: 178.786495];
earn = [0: 0.827739, 1: 0.954972, 2: 2.418869, 3: 0.926436, 4: 0.002122, 5: 2.889003, 6: 1.624712, 7: 2.577576, 8: 0.907322, 9: 2.361393, 10: 1.92482, 11: 0.006185, 12: 0.186429, 13: 2.568897, 14: 1.928001, 15: 1.928795, 16: 0.636935, 17: 2.27576, 18: 0.455024, 19: 0.407665, 20: 2.187746, 21: 2.427189, 22: 0.504585, 23: 2.320206, 24: 2.82055, 25: 0.650515, 26: 2.091654, 27: 2.685352, 28: 0.43251, 29: 2.659905, 30: 2.344262, 31: 0.498457, 32: 2.208066, 33: 0.284639, 34: 1.857039, 35: 1.569361, 36: 0.455897, 37: 0.661045, 38: 0.589104, 39: 0.138947, 40: 0.334805, 41: 0.380079, 42: 0.227727, 43: 0.239677, 44: 0.058448, 45: 0.021143, 46: 0.013232, 47: 0.002136, 48: -0.134016, 49: -0.163107, 50: -0.037226, 51: 0.000389, 52: -0.001313, 53: -0.014974, 54: 0.028406, 55: 0.052391, 56: 0.046998, 57: 0.044464, 58: 0.162811, 59: 0.642421, 60: 1.086353, 61: 1.35061, 62: 1.857105, 63: 0.028103, 64: 1.92498, 65: 1.084436, 66: 2.060997, 67: 2.324521, 68: 1.196086, 69: 0.709116, 70: 2.082149, 71: 1.069425, 72: 2.679966, 73: 0.365538, 74: 1.453934, 75: 2.168452, 76: 3.621392, 77: 2.151068, 78: 1.684803, 79: 1.885204, 80: 0.087464, 81: 0.9887359999999999, 82: 0.8204399999999999, 83: 0.933497, 84: 2.002288, 85: 2.543275, 86: 1.79445, 87: 1.939406, 88: 2.141521, 89: 0.081668, 90: 0.517332, 91: 0.278767, 92: 0.750936, 93: 0.259393, 94: 1.146595, 95: 0.181804];
total_cost = 49.99489810258413;
total_earn = 12.45474341346478;
