production = [0: 0.0, 1: 0.0, 2: 0.0, 3: 0.0, 4: 0.0, 5: 0.0, 6: 0.0, 7: 0.0, 8: 0.0, 9: 0.0, 10: 0.0, 11: 0.0, 12: 0.0, 13: 0.0, 14: 0.0, 15: 0.0, 16: 0.0, 17: 0.0, 18: 0.0, 19: 0.0, 20: 0.0, 21: 0.0, 22: 0.0, 23: 0.000285, 24: 0.00066, 25: 0.003507, 26: 0.013973, 27: 0.032332, 28: 0.015125, 29: 0.018795, 30: 0.200759, 31: 0.140505, 32: 0.252019, 33: 0.147722, 34: 0.292614, 35: 0.132093, 36: 0.39132, 37: 0.405776, 38: 0.329548, 39: 0.000135, 40: 1.547738, 41: 1.754671, 42: 0.89093, 43: 0.548051, 44: 0.846742, 45: 0.478312, 46: 1.337029, 47: 0.983367, 48: 1.504801, 49: 0.822855, 50: 0.412136, 51: 0.434941, 52: 0.320302, 53: 0.527968, 54: 1.178691, 55: 1.023382, 56: 0.544207, 57: 0.246347, 58: 0.068902, 59: 0.296974, 60: 0.512772, 61: 0.069421, 62: 0.126082, 63: 0.832645, 64: 0.243165, 65: 0.372796, 66: 0.235075, 67: 0.011932, 68: 0.068692, 69: 0.040419, 70: 0.041946, 71: 0.010834, 72: 0.001368, 73: 0.000156, 74: 0.0, 75: 0.0, 76: 0.0, 77: 0.0, 78: 0.0, 79: 0.0, 80: 0.0, 81: 0.0, 82: 0.0, 83: 0.0, 84: 0.0, 85: 0.0, 86: 0.0, 87: 0.0, 88: 0.0, 89: 0.0, 90: 0.0, 91: 0.0, 92: 0.0, 93: 0.0, 94: 0.0, 95: 0.0];
buy = [0: 74.736644, 1: 260.362712, 2: 656.176776, 3: 211.054772, 4: 263.370712, 5: 918.514615, 6: 595.226037, 7: 958.944873, 8: 746.686951, 9: 568.5893160000001, 10: 677.424319, 11: 774.572541, 12: 954.83458, 13: 20.558355, 14: 391.700459, 15: 759.02333, 16: 39.727332, 17: 896.259647, 18: 696.84686, 19: 433.917338, 20: 456.535745, 21: 171.28197, 22: 78.300596, 23: 697.8634929999999, 24: 179.255539, 25: 263.520444, 26: 570.328806, 27: 2.116395, 28: 214.300076, 29: 111.228875, 30: 632.996879, 31: 695.082023, 32: 151.634876, 33: 81.31424800000001, 34: 640.23205, 35: 52.304946, 36: 133.591079, 37: 234.700942, 38: 456.910379, 39: 913.900692, 40: 291.345032, 41: 260.266077, 42: 688.868528, 43: 680.92022, 44: 241.986974, 45: 597.156467, 46: 124.682633, 47: 340.550085, 48: 620.8176120000001, 49: 337.031168, 50: 201.402072, 51: 983.87946, 52: 394.382825, 53: 422.586369, 54: 321.642819, 55: 834.253011, 56: 933.484573, 57: 379.619823, 58: 892.107422, 59: 989.875599, 60: 826.5614870000001, 61: 608.038165, 62: 102.559155, 63: 62.585572, 64: 636.088073, 65: 722.872398, 66: 780.166589, 67: 760.248632, 68: 4.685488, 69: 784.239526, 70: 811.248915, 71: 571.020255, 72: 455.188012, 73: 819.883177, 74: 696.334964, 75: 57.328329, 76: 217.179492, 77: 520.617115, 78: 744.505941, 79: 728.85938, 80: 872.3700669999999, 81: 980.686562, 82: 512.439482, 83: 580.0980929999999, 84: 98.245344, 85: 360.077723, 86: 667.660661, 87: 439.274548, 88: 724.316212, 89: 40.475039, 90: 544.06966, 91: 645.519485, 92: 505.817313, 93: 390.469755, 94: 681.075989, 95: 135.334503];
sell = [0: 2.301447, 1: 3.75948, 2: 2.206162, 3: 2.84769, 4: 2.854915, 5: 3.683053, 6: 0.075741, 7: 3.0787, 8: 3.688241, 9: 0.909575, 10: 3.038983, 11: 1.923254, 12: 1.084922, 13: 2.321365, 14: 1.012124, 15: 0.39923, 16: 2.02269, 17: 2.785849, 18: 2.619976, 19: 2.405988, 20: 3.271559, 21: 2.526508, 22: 3.7094, 23: 3.605376, 24: 0.901898, 25: 3.167301, 26: 0.6827800000000001, 27: 2.362615, 28: 2.074581, 29: 2.19425, 30: 0.83146, 31: 3.071451, 32: 2.021982, 33: 2.484776, 34: 0.610891, 35: 3.124971, 36: 0.685316, 37: 2.178304, 38: 3.974222, 39: 0.614754, 40: 3.250205, 41: 1.441654, 42: 1.151153, 43: 1.31129, 44: 3.358275, 45: 3.774425, 46: 3.395639, 47: 0.515951, 48: 1.930433, 49: 2.038277, 50: 0.126133, 51: 3.343865, 52: 1.273377, 53: 1.688368, 54: 2.447618, 55: 0.745305, 56: 0.213484, 57: 3.498232, 58: 0.380338, 59: 2.694657, 60: 1.76239, 61: 1.615494, 62: 3.786341, 63: 1.725314, 64: 3.991926, 65: 0.926723, 66: 3.319403, 67: 2.395325, 68: 0.710757, 69: 0.256052, 70: 1.665109, 71: 3.938283, 72: 1.995804, 73: 2.381651, 74: 0.042407, 75: 1.870702, 76: 3.943469, 77: 3.180861, 78: 3.105242, 79: 0.028874, 80: 1.970547, 81: 0.122103, 82: 3.414761, 83: 2.270016, 84: 0.132047, 85: 2.84049, 86: 3.922849, 87: 2.687657, 88: 2.249364, 89: 3.530039, 90: 0.469234, 91: 0.955629, 92: 3.435657, 93: 0.247664, 94: 3.90723, 95: 2.283957];
charge = [0: 0.532955, 1: 0.969903, 2: 0.626167, 3: 0.625718, 4: 0.2737, 5: 0.029461, 6: 0.678543, 7: 0.601108, 8: 0.802003, 9: 0.079587, 10: 0.448515, 11: 0.058477, 12: 0.672304, 13: 0.885002, 14: 0.176388, 15: 0.879037, 16: 0.900955, 17: 0.626503, 18: 0.811905, 19: 0.728775, 20: 0.02765, 21: 0.202805, 22: 0.395104, 23: 0.483899, 24: 0.09364599999999999, 25: 0.629624, 26: 0.93745, 27: 0.749812, 28: 0.146144, 29: 0.159209, 30: 0.9219079999999999, 31: 0.149029, 32: 0.402957, 33: 0.703726, 34: 0.391566, 35: 0.73287, 36: 0.678783, 37: 0.450903, 38: 0.804493, 39: 0.056983, 40: 0.6845869999999999, 41: 0.903402, 42: 0.781429, 43: 0.195832, 44: 0.011254, 45: 0.211082, 46: 0.263771, 47: 0.268387, 48: 0.602875, 49: 0.529528, 50: 0.447494, 51: 0.305022, 52: 0.664517, 53: 0.455848, 54: 0.345084, 55: 0.244114, 56: 0.643979, 57: 0.714153, 58: 0.985163, 59: 0.07710400000000001, 60: 0.308725, 61: 0.991388, 62: 0.9309770000000001, 63: 0.262074, 64: 0.721597, 65: 0.329126, 66: 0.307999, 67: 0.522675, 68: 0.865227, 69: 0.494035, 70: 0.282442, 71: 0.31906, 72: 0.363893, 73: 0.595901, 74: 0.018153, 75: 0.209703, 76: 0.849169, 77: 0.820434, 78: 0.451608, 79: 0.264546, 80: 0.014403, 81: 0.873018, 82: 0.49708, 83: 0.70852, 84: 0.503974, 85: 0.822357, 86: 0.092014, 87: 0.31409, 88: 0.384194, 89: 0.821695, 90: 0.464062, 91: 0.217325, 92: 0.067742, 93: 0.8246790000000001, 94: 0.24298, 95: 0.028505];
discharge = [0: 0.851073, 1: 0.975618, 2: 0.048217, 3: 0.040733, 4: 0.512194, 5: 0.585325, 6: 0.78982, 7: 0.817264, 8: 0.499793, 9: 0.07518900000000001, 10: 0.526038, 11: 0.943892, 12: 0.818342, 13: 0.610681, 14: 0.682989, 15: 0.792334, 16: 0.434232, 17: 0.87341, 18: 0.7881320000000001, 19: 0.322026, 20: 0.752755, 21: 0.79459, 22: 0.240108, 23: 0.859012, 24: 0.119022, 25: 0.793953, 26: 0.815064, 27: 0.049474, 28: 0.527676, 29: 0.542615, 30: 0.826391, 31: 0.122294, 32: 0.028728, 33: 0.148306, 34: 0.438596, 35: 0.464311, 36: 0.6389010000000001, 37: 0.69355, 38: 0.127857, 39: 0.7011849999999999, 40: 0.236577, 41: 0.284135, 42: 0.717427, 43: 0.40696, 44: 0.162083, 45: 0.552241, 46: 0.309752, 47: 0.358956, 48: 0.273379, 49: 0.476409, 50: 0.603931, 51: 0.161495, 52: 0.363296, 53: 0.001372, 54: 0.5007779999999999, 55: 0.353001, 56: 0.723004, 57: 0.473669, 58: 0.02758, 59: 0.296536, 60: 0.512501, 61: 0.036566, 62: 0.820174, 63: 0.249915, 64: 0.029753, 65: 0.311712, 66: 0.598816, 67: 0.669755, 68: 0.695114, 69: 0.135882, 70: 0.209957, 71: 0.538911, 72: 0.127171, 73: 0.113317, 74: 0.990179, 75: 0.276099, 76: 0.122091, 77: 0.103798, 78: 0.96022, 79: 0.754741, 80: 0.444249, 81: 0.320992, 82: 0.459199, 83: 0.742518, 84: 0.9216, 85: 0.7966490000000001, 86: 0.488238, 87: 0.312029, 88: 0.301723, 89: 0.336132, 90: 0.403317, 91: 0.352736, 92: 0.452171, 93: 0.696093, 94: 0.693565, 95: 0.900203];
soc = [0: 2.789791, 1: 3.323391, 2: 2.75609, 3: 2.974762, 4: 6.819244, 5: 5.697487, 6: 3.405064, 7: 9.347619, 8: 6.994509, 9: 6.056673, 10: 3.010103, 11: 6.930079, 12: 9.181252000000001, 13: 3.668555, 14: 14.428357, 15: 9.079753999999999, 16: 7.797491, 17: 5.950206, 18: 7.20901, 19: 4.280071, 20: 3.477155, 21: 10.552683, 22: 4.289285, 23: 5.293229, 24: 5.647729, 25: 15.563277, 26: 12.295183, 27: 12.386122, 28: 15.592052, 29: 11.191338, 30: 9.016126999999999, 31: 4.537817, 32: 14.874256, 33: 10.652404, 34: 4.124494, 35: 4.897238, 36: 14.841068, 37: 12.004715, 38: 9.736454, 39: 12.600183, 40: 9.790302000000001, 41: 10.290113, 42: 8.81512, 43: 12.974805, 44: 7.434912, 45: 6.604954, 46: 6.220463, 47: 11.470159, 48: 11.937156, 49: 12.127598, 50: 2.881689, 51: 4.762872, 52: 6.683725, 53: 4.174178, 54: 4.591884, 55: 15.614741, 56: 8.497799000000001, 57: 10.225806, 58: 14.707204, 59: 4.126641, 60: 3.24564, 61: 11.661897, 62: 13.828739, 63: 9.066895000000001, 64: 15.096668, 65: 10.469897, 66: 13.321574, 67: 12.148748, 68: 14.369733, 69: 7.08664, 70: 4.044739, 71: 15.049458, 72: 11.664721, 73: 12.057652, 74: 11.890207, 75: 9.800151, 76: 10.239177, 77: 13.637964, 78: 6.176459, 79: 4.580042, 80: 8.471556, 81: 6.510093, 82: 7.275684, 83: 4.105049, 84: 6.630996, 85: 11.481948, 86: 5.721716, 87: 13.862049, 88: 13.988967, 89: 11.388694, 90: 15.029062, 91: 7.030431, 92: 2.726905, 93: 8.553278000000001, 94: 5.367903, 95: 9.850201999999999];
cost = [0: 175.54485, 1: 520.338381, 2: 223.802642, 3: 115.993361, 4: 591.433116, 5: 144.732326, 6: 51.18833, 7: 482.46213, 8: 117.191917, 9: 6.823683, 10: 438.577121, 11: 154.726397, 12: 565.240422, 13: 50.349774, 14: 289.119849, 15: 514.1383970000001, 16: 234.695327, 17: 309.003, 18: 51.816464, 19: 547.761934, 20: 547.220059, 21: 116.537337, 22: 41.505806, 23: 524.176993, 24: 958.130181, 25: 1033.644141, 26: 283.011798, 27: 914.1199810000001, 28: 792.599706, 29: 255.905321, 30: 431.750695, 31: 895.622263, 32: 338.276086, 33: 1030.644661, 34: 763.064608, 35: 1181.118273, 36: 870.507199, 37: 445.246512, 38: 327.523355, 39: 794.086058, 40: 34.299201, 41: 993.521372, 42: 315.585918, 43: 552.794863, 44: 207.521576, 45: 154.260301, 46: 1124.991714, 47: 186.884597, 48: 210.041397, 49: 935.049838, 50: 420.947337, 51: 112.887175, 52: 177.095975, 53: 326.931754, 54: 103.561701, 55: 317.856429, 56: 188.789753, 57: 260.43431, 58: 575.713441, 59: 362.789231, 60: 429.847815, 61: 823.267533, 62: 668.697989, 63: 604.632547, 64: 466.364263, 65: 1115.516355, 66: 1089.701593, 67: 225.33454, 68: 119.746763, 69: 583.89813, 70: 997.626174, 71: 283.106536, 72: 79.81214900000001, 73: 502.790796, 74: 31.962622, 75: 367.286539, 76: 590.129034, 77: 830.766853, 78: 1000.36604, 79: 1131.678037, 80: 452.501593, 81: 754.380107, 82: 1083.560635, 83: 138.318645, 84: 814.028064, 85: 879.448401, 86: 941.99445, 87: 1180.107909, 88: 335.603615, 89: 507.894664, 90: 193.310176, 91: 179.885369, 92: 415.920955, 93: 244.479978, 94: 62.889955, 95: 132.190486];
earn = [0: 3.102202, 1: 0.223756, 2: 0.65805, 3: 2.535069, 4: 1.359094, 5: 1.800534, 6: 1.131849, 7: 0.5473209999999999, 8: 1.510891, 9: 2.046448, 10: 1.296055, 11: 0.798412, 12: 1.544463, 13: 2.324739, 14: 1.172432, 15: 1.321967, 16: 0.886512, 17: 0.998015, 18: 2.313866, 19: 0.846897, 20: 2.546883, 21: 0.979587, 22: 0.523605, 23: 0.654806, 24: 2.542793, 25: 2.402373, 26: 0.565324, 27: 1.712812, 28: 1.609167, 29: 1.719811, 30: 0.594464, 31: 2.100318, 32: 1.55834, 33: 0.158534, 34: 0.779487, 35: 1.431598, 36: 0.5251130000000001, 37: 1.231928, 38: 0.498153, 39: 0.133499, 40: 0.505593, 41: 0.361543, 42: 0.335474, 43: 0.394255, 44: 0.042343, 45: 0.027557, 46: 0.009332999999999999, 47: 0.00558, 48: -0.056779, 49: -0.010735, 50: -0.011034, 51: 5.6e-05, 52: -0.010321, 53: -0.009721, 54: 0.036818, 55: 0.033974, 56: 0.06014, 57: 0.146894, 58: 0.512896, 59: 1.085884, 60: 0.155553, 61: 1.729809, 62: 1.717796, 63: 0.58479, 64: 2.119174, 65: 0.621488, 66: 1.872054, 67: 1.069347, 68: 0.09288399999999999, 69: 1.990858, 70: 2.159431, 71: 2.771209, 72: 2.494869, 73: 0.481568, 74: 1.506392, 75: 1.368341, 76: 0.155806, 77: 3.525569, 78: 0.182092, 79: 2.033808, 80: 0.386274, 81: 2.864539, 82: 1.653268, 83: 2.32523, 84: 0.637344, 85: 0.368475, 86: 1.777837, 87: 0.618267, 88: 0.838195, 89: 0.105825, 90: 0.508593, 91: 0.009734, 92: 0.532492, 93: 0.178092, 94: 1.177951, 95: 0.182215];
total_cost = 49.54736996773165;
total_earn = 12.45087928499999;
