production = [0: 0.0, 1: 0.0, 2: 0.0, 3: 0.0, 4: 0.0, 5: 0.0, 6: 0.0, 7: 0.0, 8: 0.0, 9: 0.0, 10: 0.0, 11: 0.0, 12: 0.0, 13: 0.0, 14: 0.0, 15: 0.0, 16: 0.0, 17: 0.0, 18: 0.0, 19: 0.0, 20: 0.0, 21: 0.0, 22: 0.0, 23: 0.0, 24: 0.0003, 25: 0.0, 26: 0.0, 27: 0.0, 28: 0.0, 29: 0.0, 30: 0.0853, 31: 0.1445, 32: 0.0, 33: 0.1415, 34: 0.0, 35: 0.0, 36: 0.0, 37: 0.272, 38: 0.0, 39: 0.6142, 40: 0.0, 41: 0.0, 42: 0.0, 43: 0.0, 44: 0.792, 45: 0.0, 46: 0.703, 47: 0.8758, 48: 0.0, 49: 0.9323, 50: 2.9007, 51: 0.0, 52: 0.5258, 53: 0.8808, 54: 0.0, 55: 0.0, 56: 0.0, 57: 0.7702, 58: 0.0, 59: 0.0, 60: 0.6175, 61: 0.0, 62: 0.0, 63: 0.0, 64: 0.7192, 65: 0.0, 66: 0.0, 67: 0.9183, 68: 0.8155, 69: 0.0, 70: 0.5403, 71: 0.0, 72: 0.2018, 73: 0.0, 74: 0.0, 75: 0.0732, 76: 0.042, 77: 0.0203, 78: 0.003, 79: 0.0, 80: 0.0, 81: 0.0, 82: 0.0, 83: 0.0, 84: 0.0, 85: 0.0, 86: 0.0, 87: 0.0, 88: 0.0, 89: 0.0, 90: 0.0, 91: 0.0, 92: 0.0, 93: 0.0, 94: 0.0, 95: 0.0];
buy = [0: 1.364908333, 1: 0.0, 2: 0.0, 3: 1.267208333, 4: 1.265208333, 5: 1.246008333, 6: 1.246008333, 7: 1.238508333, 8: 1.241208333, 9: 1.226908333, 10: 1.227408333, 11: 0.0, 12: 1.218508333, 13: 0.221208333, 14: 0.232408333, 15: 0.0, 16: 0.0, 17: 1.224908333, 18: 0.219508333, 19: 0.294208333, 20: 1.111208333, 21: 1.104208333, 22: 1.101708333, 23: 0.0, 24: 1.110608333, 25: 0.0, 26: 1.109708333, 27: 0.0, 28: 1.096208333, 29: 0.104408333, 30: 0.0, 31: 0.959708333, 32: 0.0, 33: 0.0, 34: 0.105208333, 35: 1.104708333, 36: 0.0, 37: 0.0, 38: 1.096208333, 39: 0.0, 40: 0.0, 41: 0.102908333, 42: 0.09720833299999999, 43: 1.103408333, 44: 0.0, 45: 0.104208333, 46: 0.0, 47: 0.0, 48: 1.646708333, 49: 0.196408333, 50: 0.0, 51: 1.616508333, 52: 1.102708333, 53: 0.756108333, 54: 0.136408333, 55: 0.0, 56: 0.162708333, 57: 0.0, 58: 0.014208333, 59: 0.8909083330000001, 60: 0.0, 61: 1.430408333, 62: 0.0, 63: 0.0, 64: 0.0, 65: 1.175208333, 66: 0.0, 67: 0.226408333, 68: 0.0, 69: 1.631208333, 70: 0.0, 71: 1.135008333, 72: 0.0, 73: 1.146508333, 74: 1.143208333, 75: 0.0, 76: 1.077708333, 77: 0.09190833299999999, 78: 0.101708333, 79: 1.093708333, 80: 0.0, 81: 0.0, 82: 0.0, 83: 0.0, 84: 0.190708333, 85: 0.0, 86: 1.148508333, 87: 0.171708333, 88: 1.375208333, 89: 0.351208333, 90: 1.319408333, 91: 1.279508333, 92: 0.0, 93: 0.0, 94: 0.248208333, 95: 1.110229588];
sell = [0: 0.0, 1: 0.560491667, 2: 0.306545113, 3: 0.0, 4: 0.0, 5: 0.0, 6: 0.0, 7: 0.0, 8: 0.0, 9: 0.0, 10: 0.0, 11: 0.672791667, 12: 0.0, 13: 0.0, 14: 0.0, 15: 0.6695916669999999, 16: 0.670291667, 17: 0.0, 18: 0.0, 19: 0.0, 20: 0.0, 21: 0.0, 22: 0.0, 23: 0.799491667, 24: 0.0, 25: 0.788091667, 26: 0.0, 27: 0.803091667, 28: 0.0, 29: 0.0, 30: 0.878791667, 31: 0.0, 32: 0.804791667, 33: 0.944591667, 34: 0.0, 35: 0.0, 36: 0.0, 37: 1.075591667, 38: 0.0, 39: 1.409991667, 40: 0.795291667, 41: 0.0, 42: 0.0, 43: 0.0, 44: 1.588291667, 45: 0.0, 46: 1.497991667, 47: 0.7723916669999999, 48: 0.0, 49: 0.0, 50: 3.668491667, 51: 0.0, 52: 0.0, 53: 0.0, 54: 0.0, 55: 0.495791667, 56: 0.0, 57: 0.888991667, 58: 0.0, 59: 0.0, 60: 0.191091667, 61: 0.0, 62: 0.0, 63: 0.430991667, 64: 0.549291667, 65: 0.0, 66: 0.744591667, 67: 0.0, 68: 0.565491667, 69: 0.0, 70: 1.253791667, 71: 0.0, 72: 0.939091667, 73: 0.0, 74: 0.0, 75: 0.779991667, 76: 0.0, 77: 0.0, 78: 0.0, 79: 0.0, 80: 0.805791667, 81: 0.725291667, 82: 0.747291667, 83: 0.745091667, 84: 0.0, 85: 0.710791667, 86: 0.0, 87: 0.0, 88: 0.0, 89: 0.0, 90: 0.0, 91: 0.0, 92: 0.644091667, 93: 0.657291667, 94: 0.0, 95: 0.0];
charge = [0: 1.0, 1: 0.0, 2: 0.0, 3: 1.0, 4: 1.0, 5: 1.0, 6: 1.0, 7: 1.0, 8: 1.0, 9: 1.0, 10: 1.0, 11: 0.0, 12: 1.0, 13: 0.0, 14: 0.0, 15: 0.0, 16: 0.0, 17: 1.0, 18: 0.0, 19: 0.0, 20: 1.0, 21: 1.0, 22: 1.0, 23: 0.0, 24: 1.0, 25: 0.0, 26: 1.0, 27: 0.0, 28: 1.0, 29: 0.0, 30: 0.0, 31: 1.0, 32: 0.0, 33: 0.0, 34: 0.0, 35: 1.0, 36: 0.0, 37: 0.0, 38: 1.0, 39: 0.0, 40: 0.0, 41: 0.0, 42: 0.0, 43: 1.0, 44: 0.0, 45: 0.0, 46: 0.0, 47: 0.0, 48: 1.0, 49: 1.0, 50: 0.0, 51: 1.0, 52: 1.0, 53: 1.0, 54: 0.0, 55: 0.0, 56: 0.0, 57: 0.0, 58: 0.0, 59: 0.0, 60: 0.0, 61: 1.0, 62: 0.0, 63: 0.0, 64: 0.0, 65: 1.0, 66: 0.0, 67: 1.0, 68: 0.0, 69: 1.0, 70: 0.0, 71: 1.0, 72: 0.0, 73: 1.0, 74: 1.0, 75: 0.0, 76: 1.0, 77: 0.0, 78: 0.0, 79: 1.0, 80: 0.0, 81: 0.0, 82: 0.0, 83: 0.0, 84: 0.0, 85: 0.0, 86: 1.0, 87: 0.0, 88: 1.0, 89: 0.0, 90: 1.0, 91: 1.0, 92: 0.0, 93: 0.0, 94: 0.0, 95: 0.878321255];
discharge = [0: 0.0, 1: 1.0, 2: 0.706392719, 3: 0.0, 4: 0.0, 5: 0.0, 6: 0.0, 7: 0.0, 8: 0.0, 9: 0.0, 10: 0.0, 11: 1.0, 12: 0.0, 13: 0.0, 14: 0.0, 15: 1.0, 16: 1.0, 17: 0.0, 18: 0.0, 19: 0.0, 20: 0.0, 21: 0.0, 22: 0.0, 23: 1.0, 24: 0.0, 25: 1.0, 26: 0.0, 27: 1.0, 28: 0.0, 29: 0.0, 30: 1.0, 31: 0.0, 32: 1.0, 33: 1.0, 34: 0.0, 35: 0.0, 36: 0.114675926, 37: 1.0, 38: 0.0, 39: 1.0, 40: 1.0, 41: 0.0, 42: 0.0, 43: 0.0, 44: 1.0, 45: 0.0, 46: 1.0, 47: 0.0, 48: 0.0, 49: 0.0, 50: 1.0, 51: 0.0, 52: 0.0, 53: 0.0, 54: 0.0, 55: 1.0, 56: 0.0, 57: 1.0, 58: 1.0, 59: 0.0, 60: 0.0, 61: 0.0, 62: 0.480453704, 63: 1.0, 64: 0.0, 65: 0.0, 66: 1.0, 67: 0.0, 68: 1.0, 69: 0.0, 70: 1.0, 71: 0.0, 72: 1.0, 73: 0.0, 74: 0.0, 75: 1.0, 76: 0.0, 77: 0.0, 78: 0.0, 79: 0.0, 80: 1.0, 81: 1.0, 82: 1.0, 83: 1.0, 84: 0.0, 85: 1.0, 86: 0.0, 87: 0.0, 88: 0.0, 89: 0.0, 90: 0.0, 91: 0.0, 92: 1.0, 93: 1.0, 94: 0.0, 95: 0.0];
soc = [0: 8.728434, 1: 7.726688313, 2: 7.018750257, 3: 7.917346507, 4: 8.815763038, 5: 9.713999885, 6: 10.612057085, 7: 11.509934674, 8: 12.407632687, 9: 13.30515116, 10: 14.20249013, 11: 13.199649632, 12: 14.097009702, 13: 14.0941903, 14: 14.091371462, 15: 13.088553188, 16: 12.085935477, 17: 12.98351829, 18: 12.980921586, 19: 12.978325402, 20: 13.875729737, 21: 14.772954591, 22: 15.67, 23: 14.666866, 24: 15.563932627, 25: 14.56081984, 26: 15.457907676, 27: 14.454816095, 28: 15.351925132, 29: 15.348854747, 30: 14.345784976, 31: 15.242915819, 32: 14.239867235, 33: 13.237019262, 34: 13.234371858, 35: 14.131724984, 36: 14.014222713, 37: 13.011419868, 38: 13.908817584, 39: 12.906035821, 40: 11.903454614, 41: 11.901073923, 42: 11.898693708, 43: 12.796313969, 44: 11.793754706, 45: 11.791395955, 46: 10.789037676, 47: 10.786879869, 48: 11.684722493, 49: 12.582385548, 50: 11.579869071, 51: 12.477553097, 52: 13.375057587, 53: 14.272382575, 54: 14.269528099, 55: 13.266674193, 56: 13.264020858, 57: 12.261368054, 58: 11.25891578, 59: 11.256663997, 60: 11.254412664, 61: 12.152161782, 62: 11.669277646, 63: 10.66694379, 64: 10.664810402, 65: 11.56267744, 66: 10.560364904, 67: 11.458252831, 68: 10.45596118, 69: 11.353869988, 70: 10.351599214, 71: 11.249528894, 72: 10.247278989, 73: 11.145229533, 74: 12.043000487, 75: 11.040591887, 76: 11.938383768, 77: 11.935996092, 78: 11.933608892, 79: 12.831222171, 80: 11.828655926, 81: 10.826290195, 82: 9.824124937000001, 83: 8.822160112000001, 84: 8.820395680000001, 85: 7.818631601, 86: 8.717067875, 87: 8.715324461, 88: 9.613581396000001, 89: 9.61165868, 90: 10.509736348, 91: 11.407634401, 92: 10.405352874, 93: 9.403271803000001, 94: 9.401391149, 95: 10.19];
cost = [0: 0.952000666, 1: 0.0, 2: 0.0, 3: 0.892315736, 4: 0.891093936, 5: 0.879364656, 6: 0.879364656, 7: 0.874782906, 8: 0.876432336, 9: 0.8676964660000001, 10: 0.868001916, 11: 0.0, 12: 0.862564906, 13: 0.135136171, 14: 0.141978251, 15: 0.0, 16: 0.0, 17: 0.866474666, 18: 0.134097641, 19: 0.179731871, 20: 0.797015336, 21: 0.792739036, 22: 0.791211786, 23: 0.0, 24: 1.439357839, 25: 0.0, 26: 1.438287199, 27: 0.0, 28: 1.422227599, 29: 0.124204153, 30: 0.0, 31: 1.259847199, 32: 0.0, 33: 0.0, 34: 0.125155833, 35: 1.432339199, 36: 0.0, 37: 0.0, 38: 1.422227599, 39: 0.0, 40: 0.0, 41: 0.122419753, 42: 0.115639033, 43: 1.430792719, 44: 0.0, 45: 0.123966233, 46: 0.0, 47: 0.0, 48: 2.077102399, 49: 0.351825519, 50: 0.0, 51: 2.041176479, 52: 0.7918226860000001, 53: 0.580084746, 54: 0.083331851, 55: 0.0, 56: 0.099398521, 57: 0.0, 58: 0.008679871, 59: 0.544255901, 60: 0.0, 61: 1.819791919, 62: 0.0, 63: 0.0, 64: 0.0, 65: 1.516205999, 66: 0.0, 67: 0.387513519, 68: 0.0, 69: 2.058663599, 70: 0.0, 71: 1.468384079, 72: 0.0, 73: 1.482064479, 74: 1.478138799, 75: 0.0, 76: 1.400219999, 77: 0.109334153, 78: 0.120992233, 79: 1.419253599, 80: 0.0, 81: 0.0, 82: 0.0, 83: 0.0, 84: 0.226866633, 85: 0.0, 86: 1.484443679, 87: 0.204264233, 88: 0.958292936, 89: 0.214553171, 90: 0.924204716, 91: 0.899829806, 92: 0.0, 93: 0.0, 94: 0.151630471, 95: 0.78203765];
earn = [0: 0.0, 1: 0.376538302, 2: 0.20201323, 3: 0.0, 4: 0.0, 5: 0.0, 6: 0.0, 7: 0.0, 8: 0.0, 9: 0.0, 10: 0.0, 11: 0.392506658, 12: 0.0, 13: 0.0, 14: 0.0, 15: 0.391041533, 16: 0.396142375, 17: 0.0, 18: 0.0, 19: 0.0, 20: 0.0, 21: 0.0, 22: 0.0, 23: 0.495604884, 24: 0.0, 25: 0.526839279, 26: 0.0, 27: 0.5467448070000001, 28: 0.0, 29: 0.0, 30: 0.592217704, 31: 0.0, 32: 0.568665792, 33: 0.6198410519999999, 34: 0.0, 35: 0.0, 36: 0.0, 37: 0.569525788, 38: 0.0, 39: 0.67510401, 40: 0.404723929, 41: 0.0, 42: 0.0, 43: 0.0, 44: 0.386431363, 45: 0.0, 46: 0.28042404, 47: 0.110992683, 48: 0.0, 49: 0.0, 50: 0.156277745, 51: 0.0, 52: 0.0, 53: 0.0, 54: 0.0, 55: 0.001587302, 56: 0.0, 57: 0.002666975, 58: 0.0, 59: 0.0, 60: 0.009535474, 61: 0.0, 62: 0.0, 63: 0.032108879, 64: 0.102717542, 65: 0.0, 66: 0.242960261, 67: 0.0, 68: 0.285742939, 69: 0.0, 70: 0.656359938, 71: 0.0, 72: 0.534530977, 73: 0.0, 74: 0.0, 75: 0.516978477, 76: 0.0, 77: 0.0, 78: 0.0, 79: 0.0, 80: 0.718846746, 81: 0.622227721, 82: 0.623315979, 83: 0.581842083, 84: 0.0, 85: 0.4367104, 86: 0.0, 87: 0.0, 88: 0.0, 89: 0.0, 90: 0.0, 91: 0.0, 92: 0.396245193, 93: 0.356449271, 94: 0.0, 95: 0.0];
total_cost = 48.822830941;
total_earn = 13.812460559;
% _objective = 35.010370382;