production = [0: 0.0, 1: 0.0, 2: 0.0, 3: 0.0, 4: 0.0, 5: 0.0, 6: 0.0, 7: 0.0, 8: 0.0, 9: 0.0, 10: 0.0, 11: 0.0, 12: 0.0, 13: 0.0, 14: 0.0, 15: 0.0, 16: 0.0, 17: 0.0, 18: 0.0, 19: 0.0, 20: 0.0, 21: 0.0, 22: 0.0, 23: 0.0, 24: 0.0, 25: 0.0003, 26: 0.0, 27: 0.0, 28: 0.0, 29: 0.046, 30: 0.0853, 31: 0.0, 32: 0.0, 33: 0.1415, 34: 0.0, 35: 0.0, 36: 0.3543, 37: 0.0, 38: 0.179, 39: 0.6142, 40: 0.0, 41: 0.0, 42: 0.4637, 43: 1.0877, 44: 0.792, 45: 0.0, 46: 0.703, 47: 0.8758, 48: 0.8087, 49: 0.9323, 50: 2.9007, 51: 0.6262, 52: 0.0, 53: 0.0, 54: 2.2435, 55: 0.0, 56: 0.6835, 57: 0.0, 58: 0.6315, 59: 0.0, 60: 0.0, 61: 0.0, 62: 0.0, 63: 0.6342, 64: 0.7192, 65: 1.277, 66: 0.863, 67: 0.0, 68: 0.8155, 69: 0.0, 70: 0.0, 71: 0.0, 72: 0.0, 73: 0.225, 74: 0.0, 75: 0.0732, 76: 0.042, 77: 0.0203, 78: 0.003, 79: 0.0, 80: 0.0, 81: 0.0, 82: 0.0, 83: 0.0, 84: 0.0, 85: 0.0, 86: 0.0, 87: 0.0, 88: 0.0, 89: 0.0, 90: 0.0, 91: 0.0, 92: 0.0, 93: 0.0, 94: 0.0, 95: 0.0];
buy = [0: 0.0, 1: 0.0, 2: 0.0, 3: 0.267208333, 4: 0.0, 5: 0.0, 6: 0.246008333, 7: 0.238508333, 8: 1.241208333, 9: 1.226908333, 10: 1.227408333, 11: 1.227208333, 12: 1.218508333, 13: 1.221208333, 14: 1.232408333, 15: 0.230408333, 16: 0.0, 17: 0.0, 18: 1.219508333, 19: 0.0, 20: 0.111208333, 21: 0.0, 22: 0.101708333, 23: 1.100508333, 24: 1.110908333, 25: 1.111608333, 26: 1.109708333, 27: 1.096908333, 28: 0.09620833299999999, 29: 0.0, 30: 0.0, 31: 1.104208333, 32: 0.09520833300000001, 33: 0.0, 34: 0.105208333, 35: 1.104708333, 36: 0.0, 37: 0.0, 38: 0.0, 39: 0.0, 40: 0.104708333, 41: 1.102908333, 42: 0.633508333, 43: 0.0, 44: 0.311708333, 45: 0.0, 46: 0.402008333, 47: 0.227608333, 48: 0.0, 49: 0.0, 50: 0.0, 51: 0.0, 52: 0.628508333, 53: 1.636908333, 54: 0.0, 55: 1.404208333, 56: 0.0, 57: 0.781208333, 58: 0.0, 59: 0.0, 60: 0.0, 61: 1.430408333, 62: 1.432408333, 63: 0.834808333, 64: 0.0, 65: 0.0, 66: 0.292408333, 67: 0.0, 68: 0.334508333, 69: 0.631208333, 70: 1.186508333, 71: 1.135008333, 72: 0.0, 73: 0.0, 74: 1.143208333, 75: 0.120008333, 76: 0.0, 77: 0.09190833299999999, 78: 0.0, 79: 0.0, 80: 0.0, 81: 1.174708333, 82: 1.152708333, 83: 0.154908333, 84: 1.190708333, 85: 0.189208333, 86: 0.148508333, 87: 1.171708333, 88: 0.0, 89: 0.0, 90: 1.319408333, 91: 1.279508333, 92: 1.255908333, 93: 0.0, 94: 1.248208333, 95: 1.231908333];
sell = [0: 0.535091667, 1: 0.560491667, 2: 0.5707916669999999, 3: 0.0, 4: 0.634791667, 5: 0.653991667, 6: 0.0, 7: 0.0, 8: 0.0, 9: 0.0, 10: 0.0, 11: 0.0, 12: 0.0, 13: 0.0, 14: 0.0, 15: 0.0, 16: 0.670291667, 17: 0.675091667, 18: 0.0, 19: 0.605791667, 20: 0.0, 21: 0.795791667, 22: 0.0, 23: 0.0, 24: 0.0, 25: 0.0, 26: 0.0, 27: 0.0, 28: 0.0, 29: 0.401102694, 30: 0.878791667, 31: 0.0, 32: 0.0, 33: 0.044591667, 34: 0.0, 35: 0.0, 36: 1.151091667, 37: 0.803591667, 38: 0.982791667, 39: 1.409991667, 40: 0.0, 41: 0.0, 42: 0.0, 43: 1.884291667, 44: 0.0, 45: 0.795791667, 46: 0.0, 47: 0.0, 48: 0.161991667, 49: 1.703591667, 50: 2.768491667, 51: 0.909691667, 52: 0.0, 53: 0.0, 54: 3.007091667, 55: 0.0, 56: 1.420791667, 57: 0.0, 58: 0.617291667, 59: 0.009091666999999999, 60: 0.473591667, 61: 0.0, 62: 0.0, 63: 0.0, 64: 0.549291667, 65: 0.101791667, 66: 0.0, 67: 0.7552916670000001, 68: 0.0, 69: 0.0, 70: 0.0, 71: 0.0, 72: 0.737291667, 73: 0.978491667, 74: 0.0, 75: 0.0, 76: 0.0, 77: 0.0, 78: 0.798291667, 79: 0.806291667, 80: 0.805791667, 81: 0.0, 82: 0.0, 83: 0.0, 84: 0.0, 85: 0.0, 86: 0.0, 87: 0.0, 88: 0.524791667, 89: 0.548791667, 90: 0.0, 91: 0.0, 92: 0.0, 93: 0.657291667, 94: 0.0, 95: 0.0];
charge = [0: 0.0, 1: 0.0, 2: 0.0, 3: 0.0, 4: 0.0, 5: 0.0, 6: 0.0, 7: 0.0, 8: 1.0, 9: 1.0, 10: 1.0, 11: 1.0, 12: 1.0, 13: 1.0, 14: 1.0, 15: 0.0, 16: 0.0, 17: 0.0, 18: 1.0, 19: 0.0, 20: 0.0, 21: 0.0, 22: 0.0, 23: 1.0, 24: 1.0, 25: 1.0, 26: 1.0, 27: 1.0, 28: 0.0, 29: 0.0, 30: 0.0, 31: 1.0, 32: 0.0, 33: 0.0, 34: 0.0, 35: 1.0, 36: 0.0, 37: 0.0, 38: 0.0, 39: 0.0, 40: 0.0, 41: 1.0, 42: 1.0, 43: 0.0, 44: 1.0, 45: 0.0, 46: 1.0, 47: 1.0, 48: 0.0, 49: 0.0, 50: 0.0, 51: 0.0, 52: 0.0, 53: 1.0, 54: 0.0, 55: 1.0, 56: 0.0, 57: 0.0, 58: 0.0, 59: 0.0, 60: 0.0, 61: 1.0, 62: 1.0, 63: 1.0, 64: 0.0, 65: 1.0, 66: 1.0, 67: 0.0, 68: 0.0, 69: 0.0, 70: 1.0, 71: 1.0, 72: 0.0, 73: 0.0, 74: 1.0, 75: 0.0, 76: 0.0, 77: 0.0, 78: 0.0, 79: 0.0, 80: 0.0, 81: 1.0, 82: 1.0, 83: 0.0, 84: 1.0, 85: 0.0, 86: 0.0, 87: 1.0, 88: 0.0, 89: 0.0, 90: 1.0, 91: 1.0, 92: 1.0, 93: 0.0, 94: 1.0, 95: 1.0];
discharge = [0: 1.0, 1: 1.0, 2: 1.0, 3: 0.0, 4: 1.0, 5: 1.0, 6: 0.0, 7: 0.0, 8: 0.0, 9: 0.0, 10: 0.0, 11: 0.0, 12: 0.0, 13: 0.0, 14: 0.0, 15: 0.0, 16: 1.0, 17: 1.0, 18: 0.0, 19: 1.0, 20: 0.0, 21: 1.0, 22: 0.0, 23: 0.0, 24: 0.0, 25: 0.0, 26: 0.0, 27: 0.0, 28: 0.0, 29: 0.510567808, 30: 1.0, 31: 0.0, 32: 0.0, 33: 0.0, 34: 0.0, 35: 0.0, 36: 1.0, 37: 1.0, 38: 1.0, 39: 1.0, 40: 0.0, 41: 0.0, 42: 0.0, 43: 1.0, 44: 0.0, 45: 1.0, 46: 0.0, 47: 0.0, 48: 0.0, 49: 1.0, 50: 0.0, 51: 1.0, 52: 0.0, 53: 0.0, 54: 1.0, 55: 0.0, 56: 1.0, 57: 0.0, 58: 1.0, 59: 1.0, 60: 1.0, 61: 0.0, 62: 0.0, 63: 0.0, 64: 0.0, 65: 0.0, 66: 0.0, 67: 1.0, 68: 0.0, 69: 0.0, 70: 0.0, 71: 0.0, 72: 1.0, 73: 1.0, 74: 0.0, 75: 0.0, 76: 0.086342593, 77: 0.0, 78: 1.0, 79: 1.0, 80: 1.0, 81: 0.0, 82: 0.0, 83: 0.0, 84: 0.0, 85: 0.0, 86: 0.0, 87: 0.0, 88: 1.0, 89: 1.0, 90: 0.0, 91: 0.0, 92: 0.0, 93: 1.0, 94: 0.0, 95: 0.0];
soc = [0: 6.828434, 1: 5.827068313, 2: 4.8259029, 3: 4.824937719, 4: 3.823972731, 5: 2.823207937, 6: 2.822643295, 7: 2.822078767, 8: 3.721514351, 9: 4.620770048, 10: 5.519845894, 11: 6.418741925, 12: 7.317458176, 13: 8.215994685, 14: 9.114351486, 15: 9.112528616000001, 16: 8.110706110000001, 17: 7.109083969, 18: 8.007662152, 19: 7.006060619, 20: 7.004659407, 21: 6.003258475, 22: 6.002057824, 23: 6.900857412, 24: 7.799477241, 25: 8.697917345, 26: 9.596177762, 27: 10.494258526, 28: 10.492159674, 29: 9.979493434, 30: 8.977497536, 31: 9.875702036, 32: 9.873726896000001, 33: 9.871752150000001, 34: 9.8697778, 35: 10.767803844, 36: 9.765650282999999, 37: 8.763697153000001, 38: 7.761944414, 39: 6.760392025, 40: 6.759039947, 41: 7.657688139, 42: 8.556156601, 43: 7.55444537, 44: 8.452934481, 45: 7.451243894, 46: 8.349753645, 47: 9.248083694, 48: 9.246234078000001, 49: 8.244384831, 50: 8.242735954, 51: 7.241087407, 52: 7.239639189, 53: 8.138191260999999, 54: 7.136563623, 55: 8.03513631, 56: 7.033529283, 57: 7.032122577, 58: 6.030716153, 59: 5.029510009, 60: 4.028504107, 61: 4.927698407, 62: 5.826712867, 63: 6.725547524, 64: 6.724202415, 65: 7.622857574, 66: 8.521333003000001, 67: 7.519628736, 68: 7.51812481, 69: 7.516621186, 70: 8.415117861000001, 71: 9.313434837999999, 72: 8.311572151, 73: 7.309909836, 74: 8.208447853999999, 75: 8.206806165, 76: 8.118822210999999, 77: 8.117198446, 78: 7.115575007, 79: 6.114151892, 80: 5.112929061, 81: 6.011906476, 82: 6.910704094, 83: 6.909321953, 84: 7.807940089, 85: 7.806378501, 86: 7.804817225, 87: 8.703256262, 88: 7.701515611, 89: 6.699975308, 90: 7.598635313, 91: 8.497115585, 92: 9.395416162, 93: 8.393537079, 94: 9.291858372, 95: 10.19];
cost = [0: 0.0, 1: 0.0, 2: 0.0, 3: 0.163237571, 4: 0.0, 5: 0.0, 6: 0.150286491, 7: 0.145704741, 8: 0.876432336, 9: 0.8676964660000001, 10: 0.868001916, 11: 0.867879736, 12: 0.862564906, 13: 0.864214336, 14: 0.8710564159999999, 15: 0.140756451, 16: 0.0, 17: 0.0, 18: 0.863175806, 19: 0.0, 20: 0.067937171, 21: 0.0, 22: 0.062133621, 23: 0.790478706, 24: 1.439714719, 25: 1.440547439, 26: 1.438287199, 27: 1.423060319, 28: 0.114449433, 29: 0.0, 30: 0.0, 31: 1.431744399, 32: 0.113259833, 33: 0.0, 34: 0.125155833, 35: 1.432339199, 36: 0.0, 37: 0.0, 38: 0.0, 39: 0.0, 40: 0.124561033, 41: 1.430197919, 42: 0.871799679, 43: 0.0, 44: 0.488986399, 45: 0.0, 46: 0.596407279, 47: 0.388941039, 48: 0.0, 49: 0.0, 50: 0.0, 51: 0.0, 52: 0.383955741, 53: 1.118165466, 54: 0.0, 55: 0.976009036, 56: 0.0, 57: 0.477240171, 58: 0.0, 59: 0.0, 60: 0.0, 61: 1.819791919, 62: 1.822171119, 63: 1.111266159, 64: 0.0, 65: 0.118178165, 66: 0.466027119, 67: 0.0, 68: 0.397931113, 69: 0.750885433, 70: 1.529648479, 71: 1.468384079, 72: 0.0, 73: 0.0, 74: 1.478138799, 75: 0.142761913, 76: 0.0, 77: 0.109334153, 78: 0.0, 79: 0.0, 80: 0.0, 81: 1.515611199, 82: 1.489439999, 83: 0.184278953, 84: 1.534644799, 85: 0.225082233, 86: 0.176665513, 87: 1.512042399, 88: 0.0, 89: 0.0, 90: 0.924204716, 91: 0.899829806, 92: 0.885412566, 93: 0.0, 94: 0.880708636, 95: 0.870750966];
earn = [0: 0.36664481, 1: 0.376538302, 2: 0.376151708, 3: 0.0, 4: 0.389317729, 5: 0.39945811, 6: 0.0, 7: 0.0, 8: 0.0, 9: 0.0, 10: 0.0, 11: 0.0, 12: 0.0, 13: 0.0, 14: 0.0, 15: 0.0, 16: 0.396142375, 17: 0.400261849, 18: 0.0, 19: 0.35547855, 20: 0.0, 21: 0.485592075, 22: 0.0, 23: 0.0, 24: 0.0, 25: 0.0, 26: 0.0, 27: 0.0, 28: 0.0, 29: 0.270864649, 30: 0.592217704, 31: 0.0, 32: 0.0, 33: 0.029261052, 34: 0.0, 35: 0.0, 36: 0.714597707, 37: 0.425501788, 38: 0.519601954, 39: 0.67510401, 40: 0.0, 41: 0.0, 42: 0.0, 43: 0.571128804, 44: 0.0, 45: 0.171413525, 46: 0.0, 47: 0.0, 48: 0.019228411, 49: 0.128961889, 50: 0.117937745, 51: 0.011644053, 52: 0.0, 53: 0.0, 54: 0.036385809, 55: 0.0, 56: 0.008382671, 57: 0.0, 58: 0.004012396, 59: 0.000118192, 60: 0.023632224, 61: 0.0, 62: 0.0, 63: 0.0, 64: 0.102717542, 65: 0.023249217, 66: 0.0, 67: 0.28550025, 68: 0.0, 69: 0.0, 70: 0.0, 71: 0.0, 72: 0.419666417, 73: 0.579169218, 74: 0.0, 75: 0.0, 76: 0.0, 77: 0.0, 78: 0.652284121, 79: 0.737837504, 80: 0.718846746, 81: 0.0, 82: 0.0, 83: 0.0, 84: 0.0, 85: 0.0, 86: 0.0, 87: 0.0, 88: 0.293201104, 89: 0.299750008, 90: 0.0, 91: 0.0, 92: 0.0, 93: 0.356449271, 94: 0.0, 95: 0.0];
total_cost = 46.589569041;
total_earn = 12.334251488;
