production = [0: 0.0, 1: 0.0, 2: 0.0, 3: 0.0, 4: 0.0, 5: 0.0, 6: 0.0, 7: 0.0, 8: 0.0, 9: 0.0, 10: 0.0, 11: 0.0, 12: 0.0, 13: 0.0, 14: 0.0, 15: 0.0, 16: 0.0, 17: 0.0, 18: 0.0, 19: 0.0, 20: 0.0, 21: 0.0, 22: 0.0, 23: 0.0003, 24: 0.0003, 25: 0.0003, 26: 0.0035, 27: 0.0, 28: 0.0, 29: 0.0, 30: 0.0, 31: 0.1445, 32: 0.0, 33: 0.1415, 34: 0.0, 35: 0.0, 36: 0.0, 37: 0.272, 38: 0.179, 39: 0.0, 40: 0.0, 41: 0.0, 42: 0.4637, 43: 1.0877, 44: 0.792, 45: 0.0, 46: 0.703, 47: 0.0, 48: 0.8087, 49: 0.9323, 50: 0.0, 51: 0.0, 52: 0.5258, 53: 0.0, 54: 0.0, 55: 0.0, 56: 0.6835, 57: 0.7702, 58: 0.0, 59: 0.0, 60: 0.0, 61: 0.6887, 62: 0.6565, 63: 0.6342, 64: 0.0, 65: 0.0, 66: 0.0, 67: 0.0, 68: 0.8155, 69: 0.6222, 70: 0.0, 71: 0.4245, 72: 0.0, 73: 0.0, 74: 0.0823, 75: 0.0732, 76: 0.042, 77: 0.0, 78: 0.0, 79: 0.0, 80: 0.0, 81: 0.0, 82: 0.0, 83: 0.0, 84: 0.0, 85: 0.0, 86: 0.0, 87: 0.0, 88: 0.0, 89: 0.0, 90: 0.0, 91: 0.0, 92: 0.0, 93: 0.0, 94: 0.0, 95: 0.0];
buy = [0: 1.364908333, 1: 0.339508333, 2: 0.329208333, 3: 1.267208333, 4: 1.265208333, 5: 1.246008333, 6: 0.246008333, 7: 0.0, 8: 0.241208333, 9: 1.226908333, 10: 0.0, 11: 1.227208333, 12: 1.218508333, 13: 0.0, 14: 1.232408333, 15: 1.230408333, 16: 0.0, 17: 0.0, 18: 1.219508333, 19: 0.0, 20: 0.0, 21: 1.104208333, 22: 0.0, 23: 0.100208333, 24: 0.0, 25: 0.111608333, 26: 1.106208333, 27: 1.096908333, 28: 0.0, 29: 0.0, 30: 0.0, 31: 0.959708333, 32: 1.095208333, 33: 0.9554083330000001, 34: 0.0, 35: 0.0, 36: 0.0, 37: 0.0, 38: 0.0, 39: 1.104208333, 40: 0.104708333, 41: 0.0, 42: 0.633508333, 43: 0.0, 44: 0.311708333, 45: 0.0, 46: 0.402008333, 47: 0.103408333, 48: 0.0, 49: 0.0, 50: 0.132208333, 51: 1.616508333, 52: 0.0, 53: 0.0, 54: 1.136408333, 55: 1.404208333, 56: 0.0, 57: 0.0, 58: 0.014208333, 59: 0.8909083330000001, 60: 1.426408333, 61: 0.7417083330000001, 62: 0.775908333, 63: 0.0, 64: 0.0, 65: 0.175208333, 66: 1.155408333, 67: 0.144708333, 68: 0.0, 69: 1.009008333, 70: 1.186507937, 71: 0.0, 72: 0.0, 73: 0.146508333, 74: 0.0, 75: 0.0, 76: 0.0, 77: 1.112208333, 78: 0.104708333, 79: 0.0, 80: 1.094208333, 81: 1.174708333, 82: 1.152708333, 83: 0.154908333, 84: 1.190708333, 85: 1.189208333, 86: 0.148508333, 87: 1.171708333, 88: 0.0, 89: 1.351208333, 90: 1.319408333, 91: 0.0, 92: 0.0, 93: 1.242708333, 94: 1.248208333, 95: 1.231908333];
sell = [0: 0.0, 1: 0.0, 2: 0.0, 3: 0.0, 4: 0.0, 5: 0.0, 6: 0.0, 7: 0.6614916669999999, 8: 0.0, 9: 0.0, 10: 0.6725916669999999, 11: 0.0, 12: 0.0, 13: 0.678791667, 14: 0.0, 15: 0.0, 16: 0.670291667, 17: 0.675091667, 18: 0.0, 19: 0.605791667, 20: 0.788791667, 21: 0.0, 22: 0.798291667, 23: 0.0, 24: 0.789391667, 25: 0.0, 26: 0.0, 27: 0.0, 28: 0.0, 29: 0.7955916669999999, 30: 0.0, 31: 0.0, 32: 0.0, 33: 0.0, 34: 0.794791667, 35: 0.795291667, 36: 0.796791667, 37: 0.0, 38: 0.982791667, 39: 0.0, 40: 0.0, 41: 0.797091667, 42: 0.0, 43: 1.884291667, 44: 0.0, 45: 0.795791667, 46: 0.0, 47: 0.0, 48: 1.061991667, 49: 0.874087753, 50: 0.0, 51: 0.0, 52: 0.797291667, 53: 0.263091667, 54: 0.0, 55: 0.0, 56: 1.420791667, 57: 0.888991667, 58: 0.0, 59: 0.0, 60: 0.0, 61: 0.0, 62: 0.0, 63: 1.065191667, 64: 0.7300916670000001, 65: 0.0, 66: 0.0, 67: 0.0, 68: 0.565491667, 69: 0.0, 70: 0.0, 71: 1.189491667, 72: 0.737291667, 73: 0.0, 74: 0.839091667, 75: 0.779991667, 76: 0.822291667, 77: 0.0, 78: 0.0, 79: 0.117772416, 80: 0.0, 81: 0.0, 82: 0.0, 83: 0.0, 84: 0.0, 85: 0.0, 86: 0.0, 87: 0.0, 88: 0.524791667, 89: 0.0, 90: 0.0, 91: 0.620491667, 92: 0.644091667, 93: 0.0, 94: 0.0, 95: 0.0];
charge = [0: 1.0, 1: 0.0, 2: 0.0, 3: 1.0, 4: 1.0, 5: 1.0, 6: 0.0, 7: 0.0, 8: 0.0, 9: 1.0, 10: 0.0, 11: 1.0, 12: 1.0, 13: 0.0, 14: 1.0, 15: 1.0, 16: 0.0, 17: 0.0, 18: 1.0, 19: 0.0, 20: 0.0, 21: 1.0, 22: 0.0, 23: 0.0, 24: 0.0, 25: 0.0, 26: 1.0, 27: 1.0, 28: 0.0, 29: 0.0, 30: 0.0, 31: 1.0, 32: 1.0, 33: 1.0, 34: 0.0, 35: 0.0, 36: 0.0, 37: 0.175591667, 38: 0.0, 39: 1.0, 40: 0.0, 41: 0.0, 42: 1.0, 43: 0.0, 44: 1.0, 45: 0.0, 46: 1.0, 47: 0.0, 48: 0.0, 49: 0.0, 50: 0.0, 51: 1.0, 52: 0.0, 53: 0.0, 54: 1.0, 55: 1.0, 56: 0.0, 57: 0.0, 58: 0.0, 59: 0.0, 60: 1.0, 61: 1.0, 62: 1.0, 63: 0.0, 64: 0.0, 65: 0.0, 66: 1.0, 67: 0.0, 68: 0.0, 69: 1.0, 70: 1.0, 71: 0.0, 72: 0.0, 73: 0.0, 74: 0.0, 75: 0.0, 76: 0.0, 77: 1.0, 78: 0.0, 79: 0.0, 80: 1.0, 81: 1.0, 82: 1.0, 83: 0.0, 84: 1.0, 85: 1.0, 86: 0.0, 87: 1.0, 88: 0.0, 89: 1.0, 90: 1.0, 91: 0.0, 92: 0.0, 93: 1.0, 94: 1.0, 95: 1.0];
discharge = [0: 0.0, 1: 0.0, 2: 0.0, 3: 0.0, 4: 0.0, 5: 0.0, 6: 0.0, 7: 1.0, 8: 0.0, 9: 0.0, 10: 1.0, 11: 0.0, 12: 0.0, 13: 1.0, 14: 0.0, 15: 0.0, 16: 1.0, 17: 1.0, 18: 0.0, 19: 1.0, 20: 1.0, 21: 0.0, 22: 1.0, 23: 0.0, 24: 1.0, 25: 0.0, 26: 0.0, 27: 0.0, 28: 0.106898148, 29: 1.0, 30: 0.118342593, 31: 0.0, 32: 0.0, 33: 0.0, 34: 1.0, 35: 1.0, 36: 1.0, 37: 0.0, 38: 1.0, 39: 0.0, 40: 0.0, 41: 1.0, 42: 0.0, 43: 1.0, 44: 0.0, 45: 1.0, 46: 0.0, 47: 0.0, 48: 1.0, 49: 0.078328985, 50: 0.0, 51: 0.0, 52: 1.0, 53: 1.0, 54: 0.0, 55: 0.0, 56: 1.0, 57: 1.0, 58: 1.0, 59: 0.0, 60: 0.0, 61: 0.0, 62: 0.0, 63: 1.0, 64: 1.0, 65: 0.0, 66: 0.0, 67: 0.0, 68: 1.0, 69: 0.0, 70: 0.0, 71: 1.0, 72: 1.0, 73: 0.0, 74: 1.0, 75: 1.0, 76: 1.0, 77: 0.0, 78: 0.0, 79: 0.23497861, 80: 0.0, 81: 0.0, 82: 0.0, 83: 0.0, 84: 0.0, 85: 0.0, 86: 0.0, 87: 0.0, 88: 1.0, 89: 0.0, 90: 0.0, 91: 1.0, 92: 1.0, 93: 0.0, 94: 0.0, 95: 0.0];
soc = [0: 8.728434, 1: 8.726688313, 2: 8.724942975999999, 3: 9.623197986999999, 4: 10.521273347, 5: 11.419169093, 6: 11.416885259, 7: 10.414601882, 8: 10.412518961, 9: 11.310436458, 10: 10.30817437, 11: 11.206112735, 12: 12.103871513, 13: 11.101450739, 14: 11.999230448, 15: 12.896830602, 16: 11.894251236, 17: 10.891872386, 18: 11.789694012, 19: 10.787336073, 20: 9.785178606000001, 21: 10.68322157, 22: 9.681084925, 23: 9.679148709, 24: 8.677212879000001, 25: 8.675477436, 26: 9.573742341000001, 27: 10.471827592, 28: 10.362835079, 29: 9.360762512000001, 30: 9.240547766000001, 31: 10.138699657, 32: 11.036671917, 33: 11.934464583, 34: 10.93207769, 35: 9.929891273999999, 36: 8.927905296, 37: 9.084152215, 38: 8.082335384, 39: 8.980718917000001, 40: 8.978922774000001, 41: 7.977126989, 42: 8.875531563999999, 43: 7.873756457, 44: 8.772181706, 45: 7.77042727, 46: 8.668873184000001, 47: 8.667139410000001, 48: 7.665405982, 49: 7.585543915, 50: 7.584026807, 51: 8.482510001, 52: 7.480813499, 53: 6.479317337, 54: 7.378021473, 55: 8.276545869, 56: 7.27489056, 57: 6.273435582, 58: 5.272180894, 59: 5.271126458, 60: 6.170072233, 61: 7.068838219, 62: 7.967424451, 63: 6.965830966, 64: 5.9644378, 65: 5.963244912, 66: 6.862052263, 67: 6.860679853, 68: 5.859307717, 69: 6.758135855, 70: 7.656784228, 71: 6.655252871, 72: 5.653921821, 73: 5.652791036, 74: 4.651660478, 75: 3.650730146, 76: 2.65, 77: 3.54947, 78: 3.548760106, 79: 3.313071744, 80: 4.21240913, 81: 5.111566648, 82: 6.010544334, 83: 6.009342226, 84: 6.908140357, 85: 7.806758729, 86: 7.805197377, 87: 8.703636338000001, 88: 7.701895611, 89: 8.600355231, 90: 9.498635159999999, 91: 8.496735433, 92: 7.495036086, 93: 8.393537079, 94: 9.291858372, 95: 10.19];
cost = [0: 0.952000666, 1: 0.207405641, 2: 0.201113371, 3: 0.892315736, 4: 0.891093936, 5: 0.879365079, 6: 0.150286491, 7: 0.0, 8: 0.147354171, 9: 0.8676964660000001, 10: 0.0, 11: 0.867879736, 12: 0.862564906, 13: 0.0, 14: 0.8710564159999999, 15: 0.869834616, 16: 0.0, 17: 0.0, 18: 0.863175806, 19: 0.0, 20: 0.0, 21: 0.792739036, 22: 0.0, 23: 0.061217271, 24: 0.0, 25: 0.132769273, 26: 1.434123599, 27: 1.423060319, 28: 0.0, 29: 0.0, 30: 0.0, 31: 1.259847199, 32: 1.421037999, 33: 1.254731919, 34: 0.0, 35: 0.0, 36: 0.0, 37: 0.020751101, 38: 0.0, 39: 1.431744399, 40: 0.124561033, 41: 0.0, 42: 0.871799679, 43: 0.0, 44: 0.488986399, 45: 0.0, 46: 0.596407279, 47: 0.123014553, 48: 0.0, 49: 0.0, 50: 0.157275033, 51: 2.041176479, 52: 0.0, 53: 0.0, 54: 0.812410016, 55: 0.976009036, 56: 0.0, 57: 0.0, 58: 0.008679871, 59: 0.544255901, 60: 1.815033519, 61: 1.000514399, 62: 1.041198719, 63: 0.0, 64: 0.0, 65: 0.208427833, 66: 1.492651919, 67: 0.172145033, 68: 0.0, 69: 1.318494479, 70: 1.529648056, 71: 0.0, 72: 0.0, 73: 0.174286313, 74: 0.0, 75: 0.0, 76: 0.0, 77: 1.441261199, 78: 0.124561033, 79: 0.0, 80: 1.419848399, 81: 1.515611199, 82: 1.489439999, 83: 0.184278953, 84: 1.534644799, 85: 1.532860399, 86: 0.176665513, 87: 1.512042399, 88: 0.0, 89: 0.943631336, 90: 0.924204716, 91: 0.0, 92: 0.0, 93: 0.877348686, 94: 0.880708636, 95: 0.870750966];
earn = [0: 0.0, 1: 0.0, 2: 0.0, 3: 0.0, 4: 0.0, 5: 0.0, 6: 0.0, 7: 0.390280083, 8: 0.0, 9: 0.0, 10: 0.38983413, 11: 0.0, 12: 0.0, 13: 0.392273704, 14: 0.0, 15: 0.0, 16: 0.396142375, 17: 0.400261849, 18: 0.0, 19: 0.35547855, 20: 0.476272408, 21: 0.0, 22: 0.483205946, 23: 0.0, 24: 0.511367922, 25: 0.0, 26: 0.0, 27: 0.0, 28: 0.0, 29: 0.537263053, 30: 0.0, 31: 0.0, 32: 0.0, 33: 0.0, 34: 0.5088256249999999, 35: 0.461189638, 36: 0.494648267, 37: 0.0, 38: 0.519601954, 39: 0.0, 40: 0.0, 41: 0.32903944, 42: 0.0, 43: 0.571128804, 44: 0.0, 45: 0.171413525, 46: 0.0, 47: 0.0, 48: 0.126058411, 49: 0.06616844299999999, 50: 0.0, 51: 0.0, 52: 0.038030813, 53: 0.006156345, 54: 0.0, 55: 0.0, 56: 0.008382671, 57: 0.002666975, 58: 0.0, 59: 0.0, 60: 0.0, 61: 0.0, 62: 0.0, 63: 0.079356779, 64: 0.136527142, 65: 0.0, 66: 0.0, 67: 0.0, 68: 0.285742939, 69: 0.0, 70: 0.0, 71: 0.633642211, 72: 0.419666417, 73: 0.0, 74: 0.525858748, 75: 0.516978477, 76: 0.616636521, 77: 0.0, 78: 0.0, 79: 0.107773538, 80: 0.0, 81: 0.0, 82: 0.0, 83: 0.0, 84: 0.0, 85: 0.0, 86: 0.0, 87: 0.0, 88: 0.293201104, 89: 0.0, 90: 0.0, 91: 0.335872139, 92: 0.396245193, 93: 0.0, 94: 0.0, 95: 0.0];
total_cost = 49.679998933;
total_earn = 11.983192136;
% _objective = 37.696806797;