production = [0: 0.0, 1: 0.0, 2: 0.0, 3: 0.0, 4: 0.0, 5: 0.0, 6: 0.0, 7: 0.0, 8: 0.0, 9: 0.0, 10: 0.0, 11: 0.0, 12: 0.0, 13: 0.0, 14: 0.0, 15: 0.0, 16: 0.0, 17: 0.0, 18: 0.0, 19: 0.0, 20: 0.0, 21: 0.000146, 22: 0.000332, 23: 0.004732, 24: 0.027766, 25: 0.029974, 26: 0.050637, 27: 0.129522, 28: 0.051059, 29: 0.227089, 30: 0.236542, 31: 0.167717, 32: 0.028531, 33: 0.477134, 34: 0.938138, 35: 0.966048, 36: 0.6438120000000001, 37: 0.439445, 38: 0.949739, 39: 0.826809, 40: 0.106491, 41: 1.559275, 42: 1.098361, 43: 0.679379, 44: 0.554623, 45: 1.841864, 46: 1.02799, 47: 1.541715, 48: 1.227961, 49: 1.066374, 50: 0.333798, 51: 0.337871, 52: 0.823403, 53: 0.50191, 54: 0.340985, 55: 1.588356, 56: 0.63513, 57: 0.032275, 58: 0.126116, 59: 0.961529, 60: 0.101204, 61: 0.531579, 62: 0.003698, 63: 0.336148, 64: 0.31175, 65: 0.239805, 66: 0.044543, 67: 0.289961, 68: 0.137722, 69: 0.015243, 70: 0.074282, 71: 0.038668, 72: 0.023626, 73: 0.00358, 74: 0.00019, 75: 0.0, 76: 0.0, 77: 0.0, 78: 0.0, 79: 0.0, 80: 0.0, 81: 0.0, 82: 0.0, 83: 0.0, 84: 0.0, 85: 0.0, 86: 0.0, 87: 0.0, 88: 0.0, 89: 0.0, 90: 0.0, 91: 0.0, 92: 0.0, 93: 0.0, 94: 0.0, 95: 0.0];
buy = [0: 17.410991, 1: 942.161263, 2: 516.087901, 3: 345.143515, 4: 184.696472, 5: 23.274249, 6: 688.563938, 7: 633.093235, 8: 933.564565, 9: 634.343093, 10: 36.459085, 11: 617.221953, 12: 776.710022, 13: 408.659496, 14: 509.499903, 15: 837.926413, 16: 394.064327, 17: 270.741738, 18: 964.99571, 19: 135.448578, 20: 550.706322, 21: 22.594423, 22: 332.41775, 23: 93.54332700000001, 24: 242.65887, 25: 102.833564, 26: 668.190623, 27: 423.450461, 28: 996.930174, 29: 761.1373160000001, 30: 977.725455, 31: 692.988512, 32: 793.769688, 33: 88.02152700000001, 34: 177.211233, 35: 664.18224, 36: 769.634234, 37: 551.0816589999999, 38: 129.877954, 39: 765.948388, 40: 478.985753, 41: 12.563625, 42: 283.766299, 43: 60.232063, 44: 383.439, 45: 532.689867, 46: 586.728578, 47: 645.833943, 48: 282.391421, 49: 502.241126, 50: 593.658824, 51: 75.84601000000001, 52: 331.262351, 53: 662.628832, 54: 298.097518, 55: 713.247222, 56: 752.9773709999999, 57: 215.870726, 58: 671.505161, 59: 113.675758, 60: 790.850935, 61: 992.24925, 62: 278.668645, 63: 132.723062, 64: 683.120307, 65: 589.772489, 66: 322.581043, 67: 199.40371, 68: 767.19728, 69: 473.204987, 70: 390.567347, 71: 251.701911, 72: 289.172787, 73: 832.745602, 74: 13.358378, 75: 762.597158, 76: 603.633375, 77: 24.667534, 78: 763.490844, 79: 264.778491, 80: 934.9828, 81: 687.53386, 82: 995.550795, 83: 614.901022, 84: 493.094713, 85: 526.468756, 86: 695.305143, 87: 836.7112959999999, 88: 14.57416, 89: 959.89809, 90: 393.878973, 91: 201.54319, 92: 429.072779, 93: 130.413484, 94: 172.093423, 95: 608.502733];
sell = [0: 2.472063, 1: 3.295605, 2: 1.261647, 3: 3.023406, 4: 3.875899, 5: 1.225282, 6: 2.211605, 7: 2.465797, 8: 1.70547, 9: 0.442691, 10: 3.66621, 11: 3.59656, 12: 1.116652, 13: 1.551064, 14: 0.610038, 15: 2.483575, 16: 1.878862, 17: 2.907059, 18: 2.11585, 19: 2.512527, 20: 3.523169, 21: 3.663437, 22: 2.05847, 23: 1.354033, 24: 3.479241, 25: 3.893083, 26: 0.881841, 27: 1.676363, 28: 2.124209, 29: 2.646187, 30: 0.020544, 31: 2.334177, 32: 2.326292, 33: 0.401214, 34: 0.769754, 35: 3.64, 36: 2.40829, 37: 3.960058, 38: 3.256371, 39: 1.550251, 40: 1.827712, 41: 0.454133, 42: 2.460585, 43: 0.241913, 44: 1.658636, 45: 2.42996, 46: 0.926805, 47: 3.773621, 48: 0.851226, 49: 1.485764, 50: 1.818932, 51: 3.602827, 52: 3.685063, 53: 0.027923, 54: 1.181965, 55: 2.509313, 56: 3.688408, 57: 3.393637, 58: 3.329733, 59: 0.464771, 60: 3.340204, 61: 0.806414, 62: 1.436261, 63: 0.5581970000000001, 64: 2.262242, 65: 0.491657, 66: 2.500639, 67: 3.31203, 68: 0.586166, 69: 3.196191, 70: 1.492029, 71: 2.021597, 72: 2.266822, 73: 0.8727, 74: 2.745918, 75: 0.599501, 76: 3.610103, 77: 2.069491, 78: 2.596041, 79: 0.665622, 80: 1.143622, 81: 0.113979, 82: 3.909663, 83: 3.824207, 84: 2.007582, 85: 3.690028, 86: 1.275188, 87: 1.9058, 88: 2.578523, 89: 0.273644, 90: 3.915594, 91: 3.722896, 92: 3.047022, 93: 2.347558, 94: 2.304339, 95: 0.5584480000000001];
charge = [0: 0.6846179999999999, 1: 0.759494, 2: 0.257412, 3: 0.784718, 4: 0.00326, 5: 0.802368, 6: 0.781389, 7: 0.512423, 8: 0.885774, 9: 0.946348, 10: 0.501954, 11: 0.36767, 12: 0.233818, 13: 0.728695, 14: 0.834251, 15: 0.44895, 16: 0.565291, 17: 0.149229, 18: 0.352769, 19: 0.230055, 20: 0.298795, 21: 0.371967, 22: 0.962431, 23: 0.240635, 24: 0.80443, 25: 0.5955240000000001, 26: 0.850538, 27: 0.253092, 28: 0.108494, 29: 0.592919, 30: 0.705662, 31: 0.239985, 32: 0.907595, 33: 0.310673, 34: 0.189564, 35: 0.569251, 36: 0.100146, 37: 0.178391, 38: 0.769307, 39: 0.007551, 40: 0.251139, 41: 0.624489, 42: 0.638348, 43: 0.311584, 44: 0.608215, 45: 0.36522, 46: 0.407171, 47: 0.570388, 48: 0.333477, 49: 0.214601, 50: 0.769726, 51: 0.662032, 52: 0.681162, 53: 0.501749, 54: 0.73944, 55: 0.450248, 56: 0.559327, 57: 0.296819, 58: 0.31756, 59: 0.517432, 60: 0.340074, 61: 0.770025, 62: 0.8445, 63: 0.305012, 64: 0.266808, 65: 0.796719, 66: 0.846176, 67: 0.749902, 68: 0.106632, 69: 0.512892, 70: 0.33524, 71: 0.469595, 72: 0.045449, 73: 0.519421, 74: 0.781494, 75: 0.330601, 76: 0.099536, 77: 0.979348, 78: 0.302823, 79: 0.102007, 80: 0.499519, 81: 0.601027, 82: 0.720068, 83: 0.054293, 84: 0.348501, 85: 0.80474, 86: 0.218827, 87: 0.034991, 88: 0.979405, 89: 0.320216, 90: 0.430851, 91: 0.8318950000000001, 92: 0.221182, 93: 0.410941, 94: 0.050801, 95: 0.906149];
discharge = [0: 0.984322, 1: 0.975324, 2: 0.947747, 3: 0.018722, 4: 0.624909, 5: 0.529911, 6: 0.808718, 7: 0.46018, 8: 0.578006, 9: 0.618438, 10: 0.8767, 11: 0.127311, 12: 0.635625, 13: 0.375424, 14: 0.117265, 15: 0.576457, 16: 0.268164, 17: 0.426858, 18: 0.926424, 19: 0.832066, 20: 0.850522, 21: 0.150242, 22: 0.801821, 23: 0.064718, 24: 0.580358, 25: 0.623906, 26: 0.06356199999999999, 27: 0.07108, 28: 0.899643, 29: 0.36645, 30: 0.288574, 31: 0.008846, 32: 0.971932, 33: 0.502648, 34: 0.874257, 35: 0.989435, 36: 0.973804, 37: 0.155115, 38: 0.080623, 39: 0.522235, 40: 0.944598, 41: 0.585012, 42: 0.36694, 43: 0.5229780000000001, 44: 0.7371180000000001, 45: 0.902932, 46: 0.508081, 47: 0.007122, 48: 0.767886, 49: 0.354083, 50: 0.980538, 51: 0.8263, 52: 0.86249, 53: 0.8370880000000001, 54: 0.328233, 55: 0.520433, 56: 0.416835, 57: 0.63756, 58: 0.708554, 59: 0.487219, 60: 0.397733, 61: 0.563717, 62: 0.517855, 63: 0.140369, 64: 0.904967, 65: 0.799172, 66: 0.132868, 67: 0.37958, 68: 0.427293, 69: 0.667864, 70: 0.30008, 71: 0.512988, 72: 0.525566, 73: 0.780529, 74: 0.410193, 75: 0.14517, 76: 0.121393, 77: 0.175995, 78: 0.626503, 79: 0.186916, 80: 0.729657, 81: 0.816716, 82: 0.017936, 83: 0.762018, 84: 0.87577, 85: 0.541151, 86: 0.992489, 87: 0.933964, 88: 0.533072, 89: 0.337935, 90: 0.138512, 91: 0.551343, 92: 0.219578, 93: 0.268102, 94: 0.88162, 95: 0.024685];
soc = [0: 8.628431000000001, 1: 9.288971, 2: 9.900064, 3: 9.050098, 4: 11.641432, 5: 14.018318, 6: 7.645885, 7: 15.21491, 8: 15.569146, 9: 10.17465, 10: 3.606961, 11: 15.230783, 12: 9.082316, 13: 10.8259, 14: 4.227568, 15: 5.167175, 16: 2.721574, 17: 15.669876, 18: 14.628823, 19: 14.072844, 20: 10.865615, 21: 9.85378, 22: 6.402048, 23: 7.342247, 24: 15.510984, 25: 13.690325, 26: 4.981282, 27: 13.23028, 28: 7.146218, 29: 15.566446, 30: 14.871182, 31: 7.806723, 32: 4.129278, 33: 8.020818999999999, 34: 3.209206, 35: 14.261488, 36: 12.437086, 37: 7.904294, 38: 10.758724, 39: 8.644097, 40: 9.81597, 41: 15.13098, 42: 7.483964, 43: 15.534817, 44: 4.503533, 45: 7.545918, 46: 8.757149, 47: 11.381368, 48: 12.425104, 49: 12.826111, 50: 10.764609, 51: 7.808722, 52: 7.432506, 53: 10.483012, 54: 8.760956, 55: 5.649103, 56: 7.916671, 57: 6.87423, 58: 6.845016, 59: 15.012216, 60: 7.275691, 61: 5.244045, 62: 4.209008, 63: 4.716154, 64: 14.950882, 65: 6.228441, 66: 3.763085, 67: 3.123505, 68: 15.335032, 69: 8.142056999999999, 70: 8.255311000000001, 71: 3.726053, 72: 15.483489, 73: 6.527463, 74: 11.528952, 75: 6.78572, 76: 4.620803, 77: 14.876664, 78: 12.061411, 79: 11.936626, 80: 10.928944, 81: 6.929792, 82: 6.477685, 83: 8.455261999999999, 84: 14.909581, 85: 5.108292, 86: 12.046466, 87: 8.187728, 88: 6.253524, 89: 12.085243, 90: 10.386703, 91: 12.79957, 92: 6.447809, 93: 4.782569, 94: 2.823141, 95: 13.880233];
cost = [0: 535.1515900000001, 1: 398.1108, 2: 148.624148, 3: 354.949474, 4: 34.239758, 5: 420.536844, 6: 573.092519, 7: 494.8787, 8: 5.449508, 9: 216.212258, 10: 297.552259, 11: 191.086271, 12: 199.670733, 13: 192.772074, 14: 118.157856, 15: 227.820896, 16: 318.461448, 17: 2.816421, 18: 135.244019, 19: 286.229484, 20: 133.866311, 21: 440.164085, 22: 264.313044, 23: 297.512856, 24: 901.833485, 25: 1036.910983, 26: 111.193107, 27: 372.910931, 28: 121.840411, 29: 842.724743, 30: 970.130754, 31: 304.582936, 32: 49.180194, 33: 910.727123, 34: 1164.481009, 35: 595.458337, 36: 215.150302, 37: 1038.930417, 38: 1119.393736, 39: 727.554309, 40: 820.509158, 41: 806.4297, 42: 1118.65314, 43: 408.814743, 44: 653.169328, 45: 926.941699, 46: 130.238433, 47: 295.807187, 48: 224.767621, 49: 469.657656, 50: 82.374702, 51: 533.605673, 52: 433.546187, 53: 564.16695, 54: 49.916912, 55: 199.213745, 56: 506.339347, 57: 415.850985, 58: 427.020631, 59: 254.193556, 60: 1059.532929, 61: 491.219604, 62: 163.017929, 63: 672.2065710000001, 64: 377.746595, 65: 963.4489620000001, 66: 1123.740123, 67: 453.609913, 68: 484.557013, 69: 623.121293, 70: 797.567674, 71: 471.5467, 72: 1028.893039, 73: 1106.403419, 74: 693.285794, 75: 998.169455, 76: 505.470284, 77: 565.812102, 78: 952.244611, 79: 20.462265, 80: 911.644366, 81: 823.769401, 82: 1071.690409, 83: 1031.525923, 84: 327.97403, 85: 1039.438436, 86: 878.246676, 87: 26.290079, 88: 467.219185, 89: 111.258801, 90: 4.432456, 91: 329.540186, 92: 134.72633, 93: 530.130842, 94: 152.933422, 95: 199.111927];
earn = [0: 1.731545, 1: 1.456725, 2: 1.975838, 3: 0.362681, 4: 1.064779, 5: 2.067779, 6: 1.293447, 7: 1.209957, 8: 2.207691, 9: 1.344651, 10: 1.844029, 11: 1.769558, 12: 1.729561, 13: 1.264558, 14: 0.980427, 15: 0.330905, 16: 2.261625, 17: 0.972159, 18: 0.7028450000000001, 19: 0.725762, 20: 0.952332, 21: 1.22121, 22: 2.807477, 23: 1.15559, 24: 1.61499, 25: 1.841291, 26: 0.9939170000000001, 27: 2.160748, 28: 1.152799, 29: 1.940167, 30: 2.826879, 31: 0.381622, 32: 1.192224, 33: 0.471622, 34: 1.563421, 35: 2.208939, 36: 1.667844, 37: 1.016935, 38: 1.227378, 39: 1.356615, 40: 0.871547, 41: 0.199894, 42: 1.115965, 43: 0.233694, 44: 0.382153, 45: 0.202088, 46: 0.8191349999999999, 47: 0.447509, 48: 0.303515, 49: 0.447655, 50: 0.822231, 51: 0.113917, 52: 0.560272, 53: 0.104707, 54: 0.883865, 55: 0.952833, 56: 0.45456, 57: 0.559554, 58: 0.521477, 59: 1.399547, 60: 0.115692, 61: 0.354123, 62: 1.417327, 63: 1.468822, 64: 1.309929, 65: 0.935398, 66: 1.923118, 67: 1.30144, 68: 0.196833, 69: 2.376132, 70: 1.071513, 71: 2.881597, 72: 1.886571, 73: 0.453268, 74: 0.471011, 75: 0.099607, 76: 2.280829, 77: 0.093639, 78: 0.446619, 79: 0.428359, 80: 2.194873, 81: 1.275641, 82: 0.854091, 83: 1.793573, 84: 0.383711, 85: 0.71184, 86: 2.237318, 87: 0.951215, 88: 0.481912, 89: 1.664437, 90: 0.272817, 91: 1.385046, 92: 0.368975, 93: 0.032803, 94: 1.634713, 95: 2.195206];
total_cost = 46.4067216043662;
total_earn = 20.26958123100002;
