production = [0: 0.0, 1: 0.0, 2: 0.0, 3: 0.0, 4: 0.0, 5: 0.0, 6: 0.0, 7: 0.0, 8: 0.0, 9: 0.0, 10: 0.0, 11: 0.0, 12: 0.0, 13: 0.0, 14: 0.0, 15: 0.0, 16: 0.0, 17: 0.0, 18: 0.0, 19: 0.0, 20: 0.0, 21: 5.5e-05, 22: 0.000225, 23: 0.005074, 24: 0.023343, 25: 0.001316, 26: 0.084227, 27: 0.07831399999999999, 28: 0.046581, 29: 0.092324, 30: 0.259355, 31: 0.682704, 32: 0.272961, 33: 0.170045, 34: 0.943573, 35: 0.213011, 36: 0.199239, 37: 1.407694, 38: 0.01266, 39: 0.5875050000000001, 40: 0.117882, 41: 0.087233, 42: 1.257011, 43: 1.031665, 44: 1.654302, 45: 1.404244, 46: 1.916123, 47: 0.043914, 48: 0.338413, 49: 1.412797, 50: 1.62585, 51: 0.041251, 52: 0.008259000000000001, 53: 0.421058, 54: 1.569331, 55: 1.350142, 56: 0.47637, 57: 1.42627, 58: 0.457172, 59: 1.113225, 60: 1.161597, 61: 0.8157140000000001, 62: 0.9691689999999999, 63: 0.3428, 64: 0.484936, 65: 0.261608, 66: 0.214324, 67: 0.201901, 68: 0.144458, 69: 0.06268899999999999, 70: 0.091262, 71: 0.023661, 72: 0.005267, 73: 0.002161, 74: 0.000471, 75: 0.0, 76: 0.0, 77: 0.0, 78: 0.0, 79: 0.0, 80: 0.0, 81: 0.0, 82: 0.0, 83: 0.0, 84: 0.0, 85: 0.0, 86: 0.0, 87: 0.0, 88: 0.0, 89: 0.0, 90: 0.0, 91: 0.0, 92: 0.0, 93: 0.0, 94: 0.0, 95: 0.0];
buy = [0: 595.48323, 1: 415.679776, 2: 1.942613, 3: 721.065205, 4: 944.4134780000001, 5: 628.247797, 6: 321.090212, 7: 227.734532, 8: 230.743031, 9: 411.870401, 10: 294.521131, 11: 157.116266, 12: 709.934062, 13: 276.264872, 14: 660.042653, 15: 618.657956, 16: 62.186578, 17: 172.710091, 18: 720.715696, 19: 400.083106, 20: 173.180105, 21: 962.546659, 22: 564.11893, 23: 391.012182, 24: 756.251049, 25: 644.749634, 26: 469.432249, 27: 622.89905, 28: 492.350079, 29: 435.819891, 30: 512.551812, 31: 176.124884, 32: 207.561623, 33: 134.968603, 34: 37.019388, 35: 400.3324, 36: 82.816439, 37: 142.928279, 38: 828.673166, 39: 588.845733, 40: 196.876158, 41: 820.01822, 42: 593.409158, 43: 103.194326, 44: 464.123238, 45: 128.661035, 46: 207.92937, 47: 659.251182, 48: 874.448533, 49: 698.362257, 50: 846.240244, 51: 397.109029, 52: 40.155572, 53: 924.126968, 54: 498.747519, 55: 45.521662, 56: 602.607111, 57: 364.103222, 58: 137.496184, 59: 168.449724, 60: 677.704854, 61: 136.764832, 62: 708.407888, 63: 623.720869, 64: 310.29219, 65: 823.872286, 66: 210.231261, 67: 610.003191, 68: 292.853086, 69: 862.780904, 70: 557.954289, 71: 408.324045, 72: 941.451135, 73: 805.314627, 74: 201.947148, 75: 195.848706, 76: 88.247798, 77: 171.820752, 78: 978.036518, 79: 907.039844, 80: 474.41041, 81: 251.01768, 82: 284.715605, 83: 460.070079, 84: 562.150622, 85: 801.43404, 86: 396.029631, 87: 317.067014, 88: 36.307736, 89: 364.164513, 90: 255.107038, 91: 772.935262, 92: 912.30588, 93: 701.331415, 94: 335.689692, 95: 209.574302];
sell = [0: 2.778719, 1: 3.856717, 2: 3.570097, 3: 0.173798, 4: 3.073278, 5: 2.633732, 6: 1.680197, 7: 0.67853, 8: 1.534294, 9: 3.315411, 10: 2.730224, 11: 0.7962089999999999, 12: 3.774471, 13: 0.574443, 14: 3.634093, 15: 0.804799, 16: 3.353773, 17: 0.31529, 18: 2.924381, 19: 2.142978, 20: 1.5605, 21: 1.278156, 22: 2.327594, 23: 1.687771, 24: 1.693229, 25: 1.427116, 26: 1.769306, 27: 1.606334, 28: 2.161593, 29: 1.526397, 30: 2.816618, 31: 3.382333, 32: 1.293674, 33: 0.900129, 34: 0.19486, 35: 0.473066, 36: 0.9381389999999999, 37: 1.629637, 38: 0.845149, 39: 0.336311, 40: 1.097707, 41: 0.284115, 42: 0.012302, 43: 0.158284, 44: 1.729456, 45: 1.522476, 46: 0.105054, 47: 2.827723, 48: 1.634617, 49: 0.597299, 50: 3.665644, 51: 3.662049, 52: 3.297421, 53: 3.554372, 54: 0.18589, 55: 2.026488, 56: 0.187073, 57: 1.020401, 58: 3.556572, 59: 0.337009, 60: 0.779138, 61: 0.469713, 62: 2.189456, 63: 1.22668, 64: 2.529502, 65: 0.887858, 66: 1.969409, 67: 2.205663, 68: 3.665149, 69: 2.055698, 70: 3.549898, 71: 2.067284, 72: 0.110044, 73: 3.982595, 74: 0.701149, 75: 2.874218, 76: 0.671945, 77: 3.763297, 78: 3.181999, 79: 0.217295, 80: 1.707264, 81: 2.774154, 82: 0.258013, 83: 2.138586, 84: 3.470248, 85: 2.516348, 86: 3.468067, 87: 0.941492, 88: 3.465518, 89: 0.884524, 90: 1.507936, 91: 2.30529, 92: 0.648856, 93: 0.070344, 94: 3.165384, 95: 0.974307];
charge = [0: 0.016006, 1: 0.693149, 2: 0.666462, 3: 0.960124, 4: 0.146983, 5: 0.409318, 6: 0.830885, 7: 0.239673, 8: 0.678879, 9: 0.570527, 10: 0.161744, 11: 0.204904, 12: 0.301838, 13: 0.240244, 14: 0.53051, 15: 0.079425, 16: 0.333649, 17: 0.370251, 18: 0.086738, 19: 0.789598, 20: 0.493179, 21: 0.670741, 22: 0.321097, 23: 0.544169, 24: 0.801473, 25: 0.769701, 26: 0.974762, 27: 0.619682, 28: 0.288554, 29: 0.9870679999999999, 30: 0.66661, 31: 0.096444, 32: 0.485075, 33: 0.116731, 34: 0.773102, 35: 0.002116, 36: 0.511243, 37: 0.436491, 38: 0.41969, 39: 0.869143, 40: 0.344715, 41: 0.307801, 42: 0.887939, 43: 0.94351, 44: 0.553966, 45: 0.139633, 46: 0.649786, 47: 0.551449, 48: 0.349414, 49: 0.423062, 50: 0.700353, 51: 0.082431, 52: 0.628097, 53: 0.201251, 54: 0.335946, 55: 0.320054, 56: 0.477592, 57: 0.145428, 58: 0.805888, 59: 0.816885, 60: 0.527173, 61: 0.359352, 62: 0.048313, 63: 0.461326, 64: 0.03611, 65: 0.7690900000000001, 66: 0.5735479999999999, 67: 0.70744, 68: 0.229339, 69: 0.095552, 70: 0.208806, 71: 0.066356, 72: 0.844659, 73: 0.104079, 74: 0.390345, 75: 0.300554, 76: 0.647205, 77: 0.925553, 78: 0.472771, 79: 0.022252, 80: 0.148264, 81: 0.483261, 82: 0.9260969999999999, 83: 0.876899, 84: 0.365414, 85: 0.981299, 86: 0.767365, 87: 0.441073, 88: 0.302263, 89: 0.477199, 90: 0.610276, 91: 0.104047, 92: 0.688689, 93: 0.301007, 94: 0.055687, 95: 0.060017];
discharge = [0: 0.976715, 1: 0.660979, 2: 0.749457, 3: 0.492564, 4: 0.27133, 5: 0.74004, 6: 0.778085, 7: 0.185421, 8: 0.896766, 9: 0.943367, 10: 0.164945, 11: 0.839093, 12: 0.811893, 13: 0.619264, 14: 0.414621, 15: 0.995299, 16: 0.464187, 17: 0.8374, 18: 0.132387, 19: 0.370022, 20: 0.330367, 21: 0.420625, 22: 0.645659, 23: 0.429375, 24: 0.130163, 25: 0.053775, 26: 0.787224, 27: 0.770398, 28: 0.349626, 29: 0.592847, 30: 0.639127, 31: 0.805306, 32: 0.278101, 33: 0.142091, 34: 0.785213, 35: 0.415715, 36: 0.345763, 37: 0.175291, 38: 0.3478, 39: 0.894588, 40: 0.592876, 41: 0.199806, 42: 0.215794, 43: 0.460693, 44: 0.247769, 45: 0.264622, 46: 0.75809, 47: 0.811481, 48: 0.430457, 49: 0.534403, 50: 0.081362, 51: 0.388407, 52: 0.404398, 53: 0.555654, 54: 0.818331, 55: 0.5636949999999999, 56: 0.410244, 57: 0.153063, 58: 0.930497, 59: 0.764139, 60: 0.667146, 61: 0.865351, 62: 0.581681, 63: 0.718065, 64: 0.936766, 65: 0.471128, 66: 0.6230560000000001, 67: 0.845187, 68: 0.263415, 69: 0.347774, 70: 0.83953, 71: 0.85062, 72: 0.240308, 73: 0.552851, 74: 0.268672, 75: 0.269431, 76: 0.055015, 77: 0.279782, 78: 0.966159, 79: 0.724379, 80: 0.023197, 81: 0.454699, 82: 0.680295, 83: 0.382197, 84: 0.035902, 85: 0.146373, 86: 0.205242, 87: 0.628506, 88: 0.409489, 89: 0.842336, 90: 0.808344, 91: 0.299611, 92: 0.276772, 93: 0.637346, 94: 0.579927, 95: 0.504099];
soc = [0: 9.526849, 1: 7.292059, 2: 8.663546999999999, 3: 9.009819999999999, 4: 4.677893, 5: 2.845531, 6: 11.986795, 7: 13.410194, 8: 7.012159, 9: 11.625089, 10: 9.907, 11: 11.141583, 12: 5.317378, 13: 13.434071, 14: 5.80564, 15: 11.617672, 16: 13.108667, 17: 3.812248, 18: 14.586799, 19: 8.121643000000001, 20: 3.955289, 21: 13.783497, 22: 15.214992, 23: 7.957452, 24: 11.599273, 25: 10.135682, 26: 12.188618, 27: 10.184247, 28: 9.199178, 29: 4.232834, 30: 14.772675, 31: 11.543196, 32: 6.40808, 33: 4.004592, 34: 4.168889, 35: 7.398476, 36: 2.918477, 37: 11.767462, 38: 3.509182, 39: 8.055960000000001, 40: 10.882472, 41: 9.148096000000001, 42: 10.328797, 43: 10.213038, 44: 7.98121, 45: 8.893155999999999, 46: 15.352591, 47: 6.217755, 48: 14.464395, 49: 11.700514, 50: 3.379094, 51: 11.142996, 52: 12.085016, 53: 7.767472, 54: 13.627853, 55: 10.657704, 56: 5.512856, 57: 7.65179, 58: 3.017682, 59: 7.065226, 60: 11.481698, 61: 9.784553000000001, 62: 14.486136, 63: 7.943951, 64: 14.893529, 65: 15.173594, 66: 10.896745, 67: 15.084275, 68: 3.657606, 69: 8.163185, 70: 6.066528, 71: 10.46739, 72: 9.66933, 73: 12.810802, 74: 11.74618, 75: 12.219679, 76: 12.18136, 77: 7.32556, 78: 8.371929, 79: 8.945209, 80: 11.354959, 81: 3.965043, 82: 13.862065, 83: 14.905355, 84: 3.7597, 85: 14.413505, 86: 11.484757, 87: 4.509987, 88: 6.342438, 89: 10.959075, 90: 14.837325, 91: 6.693226, 92: 2.713047, 93: 10.590652, 94: 8.949335, 95: 13.771258];
cost = [0: 460.234765, 1: 450.542121, 2: 193.961206, 3: 113.055721, 4: 398.034887, 5: 105.788068, 6: 515.476199, 7: 297.58228, 8: 417.480189, 9: 547.586454, 10: 464.299123, 11: 34.2186, 12: 182.819277, 13: 119.273545, 14: 73.385949, 15: 462.861349, 16: 25.482534, 17: 361.02245, 18: 5.935948, 19: 3.948841, 20: 421.896861, 21: 358.876848, 22: 65.02216300000001, 23: 357.707492, 24: 497.598905, 25: 203.693725, 26: 623.394741, 27: 458.898525, 28: 804.4335160000001, 29: 557.141484, 30: 137.93811, 31: 302.456724, 32: 891.180146, 33: 19.038587, 34: 1081.078289, 35: 109.071323, 36: 581.993657, 37: 97.73385, 38: 474.108436, 39: 157.480133, 40: 389.590183, 41: 756.853909, 42: 676.029296, 43: 1120.958628, 44: 421.874869, 45: 810.761879, 46: 323.274287, 47: 194.567597, 48: 265.512439, 49: 32.894567, 50: 344.0169, 51: 503.644583, 52: 61.907902, 53: 434.13445, 54: 238.604491, 55: 396.861202, 56: 146.113498, 57: 371.705261, 58: 118.616144, 59: 306.256036, 60: 266.277964, 61: 951.717187, 62: 371.181281, 63: 37.442906, 64: 326.942403, 65: 1161.21579, 66: 215.749854, 67: 974.372089, 68: 858.5179869999999, 69: 342.641358, 70: 161.554682, 71: 610.03562, 72: 219.020876, 73: 160.80834, 74: 1061.49003, 75: 514.7606929999999, 76: 86.04850999999999, 77: 1129.296607, 78: 1134.255471, 79: 660.397451, 80: 360.362674, 81: 857.203968, 82: 466.887614, 83: 750.420711, 84: 626.965861, 85: 1039.675511, 86: 459.290344, 87: 548.302851, 88: 293.597688, 89: 165.928945, 90: 112.554001, 91: 200.47399, 92: 545.2385839999999, 93: 320.256974, 94: 512.208086, 95: 431.89617];
earn = [0: 1.273279, 1: 2.07319, 2: 1.431241, 3: 1.648687, 4: 2.324904, 5: 0.7526119999999999, 6: 0.519133, 7: 2.186619, 8: 2.193739, 9: 1.405955, 10: 0.238956, 11: 1.295299, 12: 1.963586, 13: 1.408757, 14: 1.787417, 15: 1.089928, 16: 1.893757, 17: 1.462955, 18: 0.194656, 19: 1.881803, 20: 2.157159, 21: 0.982499, 22: 1.570419, 23: 1.420617, 24: 1.832853, 25: 2.976175, 26: 1.926538, 27: 1.549862, 28: 0.653873, 29: 2.606579, 30: 1.003274, 31: 2.067747, 32: 1.679789, 33: 1.497658, 34: 0.823731, 35: 1.513667, 36: 0.566936, 37: 1.264388, 38: 0.845237, 39: 1.386978, 40: 0.39508, 41: 0.161208, 42: 0.296573, 43: 1.273986, 44: 0.110105, 45: 0.846879, 46: 0.216774, 47: 0.717742, 48: 0.154702, 49: 0.004327, 50: 0.340187, 51: 0.400659, 52: 0.060934, 53: 0.910459, 54: 0.253529, 55: 0.866125, 56: 0.008991000000000001, 57: 0.56712, 58: 1.02637, 59: 1.491198, 60: 0.989184, 61: 0.018542, 62: 0.146568, 63: 0.11524, 64: 0.397525, 65: 0.493906, 66: 2.213402, 67: 2.463879, 68: 0.837914, 69: 0.888698, 70: 0.925343, 71: 2.376513, 72: 1.726645, 73: 0.743085, 74: 2.407761, 75: 0.605474, 76: 0.585788, 77: 1.525751, 78: 2.090796, 79: 1.644589, 80: 0.158135, 81: 0.097691, 82: 0.044082, 83: 0.209258, 84: 2.287521, 85: 0.849835, 86: 2.027718, 87: 1.202874, 88: 0.209171, 89: 0.15655, 90: 1.087222, 91: 1.700161, 92: 1.478712, 93: 2.234768, 94: 0.489344, 95: 1.91521];
total_cost = 44.69231145811729;
total_earn = 15.998507829374;
