production = [0: 0.0, 1: 0.0, 2: 0.0, 3: 0.0, 4: 0.0, 5: 0.0, 6: 0.0, 7: 0.0, 8: 0.0, 9: 0.0, 10: 0.0, 11: 0.0, 12: 0.0, 13: 0.0, 14: 0.0, 15: 0.0, 16: 0.0, 17: 0.0, 18: 0.0, 19: 0.0, 20: 0.0, 21: 2.1e-05, 22: 0.0009779999999999999, 23: 0.005387, 24: 0.01156, 25: 0.060487, 26: 0.013286, 27: 0.09726700000000001, 28: 0.183356, 29: 0.09789200000000001, 30: 0.100202, 31: 0.516548, 32: 0.451207, 33: 0.087413, 34: 0.103038, 35: 0.539282, 36: 0.338005, 37: 0.005478, 38: 0.661525, 39: 0.7403149999999999, 40: 0.742874, 41: 1.291136, 42: 0.262816, 43: 1.611623, 44: 0.675828, 45: 1.332776, 46: 0.136945, 47: 0.215086, 48: 0.54151, 49: 0.593383, 50: 1.447298, 51: 1.760222, 52: 0.966974, 53: 1.38061, 54: 1.519922, 55: 1.256692, 56: 0.016273, 57: 0.356246, 58: 0.194253, 59: 0.223146, 60: 0.6108, 61: 0.716548, 62: 0.756702, 63: 0.024546, 64: 0.410174, 65: 0.592966, 66: 0.368525, 67: 0.039829, 68: 0.208419, 69: 0.017762, 70: 0.086101, 71: 0.029154, 72: 0.017009, 73: 0.002337, 74: 0.000474, 75: 0.0, 76: 0.0, 77: 0.0, 78: 0.0, 79: 0.0, 80: 0.0, 81: 0.0, 82: 0.0, 83: 0.0, 84: 0.0, 85: 0.0, 86: 0.0, 87: 0.0, 88: 0.0, 89: 0.0, 90: 0.0, 91: 0.0, 92: 0.0, 93: 0.0, 94: 0.0, 95: 0.0];
buy = [0: 306.153201, 1: 66.46205399999999, 2: 396.793362, 3: 619.8321539999999, 4: 196.479521, 5: 633.145652, 6: 404.198263, 7: 415.50733, 8: 550.402504, 9: 192.739214, 10: 157.144187, 11: 413.297321, 12: 600.049539, 13: 384.8098, 14: 941.242964, 15: 48.614379, 16: 103.318537, 17: 872.644392, 18: 474.911206, 19: 95.531794, 20: 842.40805, 21: 722.483749, 22: 212.277184, 23: 617.105656, 24: 781.575162, 25: 674.83243, 26: 404.91301, 27: 617.464596, 28: 840.955835, 29: 107.026383, 30: 730.917792, 31: 540.913666, 32: 749.236293, 33: 238.608228, 34: 516.197669, 35: 74.31418499999999, 36: 345.41638, 37: 79.149438, 38: 758.11722, 39: 316.041229, 40: 700.910206, 41: 348.092052, 42: 537.431553, 43: 589.375138, 44: 24.910786, 45: 293.953926, 46: 167.367952, 47: 133.17161, 48: 965.504969, 49: 474.291339, 50: 877.4440520000001, 51: 129.799012, 52: 450.565389, 53: 397.76116, 54: 664.0464459999999, 55: 125.636388, 56: 965.11589, 57: 299.872595, 58: 430.290584, 59: 19.677529, 60: 833.125693, 61: 451.555583, 62: 256.980558, 63: 771.274356, 64: 85.64030700000001, 65: 127.361432, 66: 701.008191, 67: 302.019894, 68: 981.895958, 69: 427.676257, 70: 118.626943, 71: 223.79727, 72: 821.771032, 73: 532.519299, 74: 386.522709, 75: 315.859059, 76: 32.551052, 77: 638.392228, 78: 28.272425, 79: 307.640383, 80: 602.224475, 81: 53.254582, 82: 329.072618, 83: 623.608725, 84: 721.995982, 85: 765.20314, 86: 299.403922, 87: 211.349528, 88: 387.787552, 89: 587.767548, 90: 664.394909, 91: 245.763588, 92: 403.454541, 93: 646.004603, 94: 274.240177, 95: 482.110113];
sell = [0: 1.614672, 1: 2.854797, 2: 1.754036, 3: 2.838149, 4: 3.065831, 5: 2.423117, 6: 0.230758, 7: 1.16264, 8: 0.33292, 9: 3.033653, 10: 3.09074, 11: 3.897922, 12: 2.779682, 13: 1.647169, 14: 0.818931, 15: 2.051344, 16: 1.929775, 17: 2.335698, 18: 1.366094, 19: 3.959545, 20: 1.796961, 21: 2.189728, 22: 1.551896, 23: 1.923232, 24: 1.932217, 25: 0.97664, 26: 2.748849, 27: 1.6238, 28: 0.707778, 29: 3.526039, 30: 0.485927, 31: 0.09196600000000001, 32: 2.743054, 33: 0.706265, 34: 1.852333, 35: 2.18503, 36: 3.550609, 37: 0.778347, 38: 3.531471, 39: 2.376856, 40: 2.333731, 41: 1.128636, 42: 3.821992, 43: 2.955006, 44: 0.8866000000000001, 45: 1.461813, 46: 1.512635, 47: 3.084663, 48: 0.263351, 49: 2.177246, 50: 2.026957, 51: 0.950727, 52: 3.825299, 53: 3.442382, 54: 0.677614, 55: 0.101447, 56: 3.107282, 57: 3.022662, 58: 0.61835, 59: 1.026568, 60: 3.367861, 61: 0.042492, 62: 2.186946, 63: 2.420455, 64: 1.563058, 65: 2.830298, 66: 2.620341, 67: 0.816123, 68: 0.439263, 69: 2.002207, 70: 2.068994, 71: 3.795633, 72: 0.429792, 73: 0.750468, 74: 1.266531, 75: 3.496666, 76: 0.9667829999999999, 77: 0.68787, 78: 1.17477, 79: 1.788041, 80: 1.886575, 81: 1.208678, 82: 2.491135, 83: 0.339718, 84: 1.649315, 85: 3.002892, 86: 2.075193, 87: 1.128371, 88: 3.50649, 89: 1.285018, 90: 3.844954, 91: 3.772998, 92: 1.907574, 93: 1.460797, 94: 3.494286, 95: 2.082504];
charge = [0: 0.026861, 1: 0.370912, 2: 0.778434, 3: 0.013146, 4: 0.92747, 5: 0.109501, 6: 0.6407, 7: 0.889877, 8: 0.899259, 9: 0.024591, 10: 0.8932290000000001, 11: 0.579125, 12: 0.777841, 13: 0.313113, 14: 0.353328, 15: 0.601761, 16: 0.000101, 17: 0.952365, 18: 0.32703, 19: 0.885918, 20: 0.444714, 21: 0.782117, 22: 0.242544, 23: 0.285761, 24: 0.442168, 25: 0.190835, 26: 0.186546, 27: 0.070911, 28: 0.721757, 29: 0.87856, 30: 0.738011, 31: 0.792392, 32: 0.026274, 33: 0.844963, 34: 0.651327, 35: 0.297314, 36: 0.595898, 37: 0.000923, 38: 0.678984, 39: 0.515474, 40: 0.949345, 41: 0.386818, 42: 0.8501030000000001, 43: 0.158309, 44: 0.795624, 45: 0.073839, 46: 0.740486, 47: 0.854368, 48: 0.935907, 49: 0.543584, 50: 0.680633, 51: 0.722657, 52: 0.790669, 53: 0.089293, 54: 0.17712, 55: 0.689308, 56: 0.959233, 57: 0.09249499999999999, 58: 0.236881, 59: 0.777018, 60: 0.203159, 61: 0.592087, 62: 0.245691, 63: 0.810576, 64: 0.465128, 65: 0.51196, 66: 0.35865, 67: 0.229803, 68: 0.347034, 69: 0.309936, 70: 0.903897, 71: 0.169142, 72: 0.9480499999999999, 73: 0.649896, 74: 0.616246, 75: 0.966486, 76: 0.136203, 77: 0.063207, 78: 0.245473, 79: 0.073652, 80: 0.463825, 81: 0.171969, 82: 0.292468, 83: 0.643463, 84: 0.371433, 85: 0.389391, 86: 0.362301, 87: 0.951291, 88: 0.9981179999999999, 89: 0.887028, 90: 0.816116, 91: 0.528427, 92: 0.875194, 93: 0.230895, 94: 0.766822, 95: 0.942182];
discharge = [0: 0.931511, 1: 0.740842, 2: 0.837856, 3: 0.427963, 4: 0.507201, 5: 0.104847, 6: 0.393973, 7: 0.961655, 8: 0.017895, 9: 0.206674, 10: 0.103846, 11: 0.126047, 12: 0.188041, 13: 0.511943, 14: 0.063365, 15: 0.568112, 16: 0.551949, 17: 0.9457989999999999, 18: 0.64396, 19: 0.000312, 20: 0.723843, 21: 0.717723, 22: 0.1342, 23: 0.382056, 24: 0.565239, 25: 0.981657, 26: 0.887571, 27: 0.830925, 28: 0.73895, 29: 0.605609, 30: 0.096167, 31: 0.09292599999999999, 32: 0.103524, 33: 0.663206, 34: 0.848009, 35: 0.749511, 36: 0.8364780000000001, 37: 0.786837, 38: 0.135782, 39: 0.9111, 40: 0.264446, 41: 0.054391, 42: 0.349525, 43: 0.225889, 44: 0.873653, 45: 0.77114, 46: 0.131107, 47: 0.563021, 48: 0.775489, 49: 0.464049, 50: 0.377184, 51: 0.344723, 52: 0.126989, 53: 0.891524, 54: 0.940867, 55: 0.438575, 56: 0.063092, 57: 0.822269, 58: 0.161779, 59: 0.437424, 60: 0.992727, 61: 0.910598, 62: 0.465044, 63: 0.423873, 64: 0.975285, 65: 0.311787, 66: 0.62275, 67: 0.158307, 68: 0.739887, 69: 0.437512, 70: 0.119325, 71: 0.592988, 72: 0.149476, 73: 0.564337, 74: 0.9905389999999999, 75: 0.956371, 76: 0.64306, 77: 0.847988, 78: 0.424833, 79: 0.012635, 80: 0.823639, 81: 0.366892, 82: 0.92045, 83: 0.88061, 84: 0.617097, 85: 0.151296, 86: 0.045929, 87: 0.024336, 88: 0.223494, 89: 0.122662, 90: 0.917972, 91: 0.6332410000000001, 92: 0.425189, 93: 0.417999, 94: 0.02962, 95: 0.295066];
soc = [0: 9.065110000000001, 1: 9.146812000000001, 2: 8.303552, 3: 7.503447, 4: 9.454774, 5: 10.562492, 6: 2.999319, 7: 6.87178, 8: 7.976463, 9: 9.174162000000001, 10: 15.245486, 11: 10.756405, 12: 15.520018, 13: 13.039752, 14: 10.229783, 15: 15.294329, 16: 12.934722, 17: 8.989751, 18: 3.335598, 19: 9.628826, 20: 14.920154, 21: 14.110636, 22: 4.874072, 23: 4.588178, 24: 2.872423, 25: 2.95561, 26: 15.313268, 27: 3.992094, 28: 7.804663, 29: 7.864909, 30: 12.572988, 31: 9.280269000000001, 32: 3.820551, 33: 3.195791, 34: 5.833328, 35: 15.419638, 36: 8.498469999999999, 37: 8.576468, 38: 14.162196, 39: 13.856651, 40: 3.186643, 41: 6.845015, 42: 14.422167, 43: 7.477666, 44: 10.16097, 45: 7.81112, 46: 9.60966, 47: 11.672843, 48: 8.129505999999999, 49: 13.388382, 50: 12.124589, 51: 7.559693, 52: 6.649767, 53: 11.568011, 54: 6.843144, 55: 14.761217, 56: 13.090453, 57: 6.349286, 58: 8.176368999999999, 59: 5.210641, 60: 6.257698, 61: 14.243329, 62: 8.396357, 63: 11.076821, 64: 15.528492, 65: 12.012924, 66: 12.114231, 67: 5.893157, 68: 7.531804, 69: 14.761592, 70: 10.843816, 71: 8.835457, 72: 15.344193, 73: 13.672261, 74: 12.55921, 75: 5.651308, 76: 4.411772, 77: 7.994236, 78: 12.744542, 79: 13.141621, 80: 9.648123999999999, 81: 8.194716, 82: 10.268898, 83: 4.606361, 84: 9.820629, 85: 14.509514, 86: 7.789416, 87: 9.646219, 88: 15.193232, 89: 11.663765, 90: 7.776719, 91: 7.259519, 92: 10.449002, 93: 9.406666, 94: 14.471318, 95: 13.044735];
cost = [0: 78.737467, 1: 550.743682, 2: 272.040002, 3: 545.847888, 4: 141.970399, 5: 5.899653, 6: 26.96551, 7: 589.084077, 8: 369.686604, 9: 272.674324, 10: 299.133159, 11: 144.837842, 12: 236.790523, 13: 467.050341, 14: 333.750052, 15: 129.906067, 16: 266.792969, 17: 392.72172, 18: 238.708632, 19: 422.439782, 20: 521.73275, 21: 211.987669, 22: 167.226061, 23: 597.137943, 24: 72.233459, 25: 89.070047, 26: 999.570382, 27: 57.27755, 28: 626.737992, 29: 482.945962, 30: 958.451928, 31: 29.267526, 32: 36.880266, 33: 786.498353, 34: 900.784495, 35: 97.798346, 36: 966.249361, 37: 81.096744, 38: 949.040262, 39: 153.128232, 40: 796.483123, 41: 462.68691, 42: 674.73116, 43: 1066.516165, 44: 1006.231367, 45: 901.227359, 46: 647.866605, 47: 58.17693, 48: 798.445618, 49: 419.61813, 50: 103.473236, 51: 652.957107, 52: 444.285798, 53: 77.237504, 54: 25.014498, 55: 88.261363, 56: 517.107501, 57: 224.014796, 58: 452.970815, 59: 381.707562, 60: 8.855325000000001, 61: 5.921937, 62: 906.398025, 63: 654.50173, 64: 657.8283249999999, 65: 561.666659, 66: 106.346409, 67: 79.530051, 68: 835.080634, 69: 598.221591, 70: 724.418137, 71: 562.666633, 72: 525.133787, 73: 1124.63858, 74: 1024.452382, 75: 362.463727, 76: 137.408061, 77: 896.664403, 78: 1184.636036, 79: 1149.208767, 80: 8.463820999999999, 81: 74.59043, 82: 56.822106, 83: 957.164258, 84: 476.291481, 85: 559.4959710000001, 86: 878.196203, 87: 776.947691, 88: 543.230091, 89: 237.621614, 90: 563.162154, 91: 74.89367799999999, 92: 181.655333, 93: 27.735204, 94: 447.839446, 95: 31.151895];
earn = [0: 0.5092140000000001, 1: 0.926231, 2: 0.226489, 3: 0.406934, 4: 1.184685, 5: 0.801396, 6: 1.791549, 7: 0.946404, 8: 2.129177, 9: 1.660589, 10: 0.577244, 11: 2.304877, 12: 2.286326, 13: 1.087198, 14: 1.850705, 15: 0.303508, 16: 2.041679, 17: 1.335323, 18: 0.214038, 19: 0.489992, 20: 1.976923, 21: 0.675752, 22: 1.526818, 23: 0.372129, 24: 2.582675, 25: 0.731506, 26: 2.918821, 27: 2.809122, 28: 2.381215, 29: 0.169604, 30: 2.36792, 31: 1.567399, 32: 0.804839, 33: 1.836305, 34: 0.469191, 35: 2.026594, 36: 1.498325, 37: 0.610142, 38: 0.223407, 39: 0.039431, 40: 0.9649489999999999, 41: 0.260923, 42: 0.493904, 43: 0.511857, 44: 0.980643, 45: 0.888897, 46: 0.341157, 47: 0.334768, 48: 0.409195, 49: 0.194458, 50: 0.415251, 51: 0.19116, 52: 0.035173, 53: 0.9662500000000001, 54: 0.371729, 55: 0.499041, 56: 0.8640099999999999, 57: 0.091934, 58: 0.333587, 59: 1.478116, 60: 0.045678, 61: 1.548546, 62: 0.09785000000000001, 63: 0.757613, 64: 2.071905, 65: 0.754999, 66: 0.311078, 67: 1.225587, 68: 2.068879, 69: 1.944676, 70: 0.775238, 71: 0.443343, 72: 1.598865, 73: 1.376067, 74: 0.613253, 75: 2.781164, 76: 2.072662, 77: 0.390263, 78: 3.127822, 79: 1.452072, 80: 1.118239, 81: 1.077056, 82: 2.5815, 83: 1.981048, 84: 2.141244, 85: 0.195312, 86: 1.624045, 87: 1.564469, 88: 1.237817, 89: 0.064555, 90: 0.5625559999999999, 91: 0.966294, 92: 0.140898, 93: 0.347076, 94: 1.921254, 95: 1.633953];
total_cost = 55.31414232471385;
total_earn = 16.4939275335;
