production = [0: 0.0, 1: 0.0, 2: 0.0, 3: 0.0, 4: 0.0, 5: 0.0, 6: 0.0, 7: 0.0, 8: 0.0, 9: 0.0, 10: 0.0, 11: 0.0, 12: 0.0, 13: 0.0, 14: 0.0, 15: 0.0, 16: 0.0, 17: 0.0, 18: 0.0, 19: 0.0, 20: 0.0, 21: 2.2e-05, 22: 0.000221, 23: 0.004819, 24: 0.017785, 25: 0.050301, 26: 0.0607, 27: 0.069615, 28: 0.128338, 29: 0.081841, 30: 0.341057, 31: 0.204337, 32: 0.363142, 33: 0.022912, 34: 0.294118, 35: 0.630579, 36: 1.010997, 37: 0.57107, 38: 0.683463, 39: 0.660315, 40: 0.03598, 41: 0.563481, 42: 0.955794, 43: 1.477593, 44: 0.788119, 45: 1.093337, 46: 1.422585, 47: 1.497748, 48: 1.234487, 49: 1.608865, 50: 1.041092, 51: 0.544841, 52: 0.860649, 53: 0.759757, 54: 0.744692, 55: 1.37934, 56: 1.269459, 57: 1.541145, 58: 1.00525, 59: 0.875672, 60: 0.989776, 61: 0.342528, 62: 0.584048, 63: 0.118465, 64: 0.336807, 65: 0.267267, 66: 0.389658, 67: 0.012006, 68: 0.177503, 69: 0.013226, 70: 0.097217, 71: 0.010368, 72: 0.016213, 73: 0.003252, 74: 1.2e-05, 75: 0.0, 76: 0.0, 77: 0.0, 78: 0.0, 79: 0.0, 80: 0.0, 81: 0.0, 82: 0.0, 83: 0.0, 84: 0.0, 85: 0.0, 86: 0.0, 87: 0.0, 88: 0.0, 89: 0.0, 90: 0.0, 91: 0.0, 92: 0.0, 93: 0.0, 94: 0.0, 95: 0.0];
buy = [0: 972.495644, 1: 845.935305, 2: 837.936183, 3: 616.553852, 4: 506.907129, 5: 473.895001, 6: 364.067122, 7: 208.760928, 8: 33.690211, 9: 791.492471, 10: 376.012817, 11: 481.232151, 12: 834.861892, 13: 723.666656, 14: 973.672455, 15: 907.302788, 16: 252.393142, 17: 218.804656, 18: 738.58902, 19: 10.077008, 20: 197.90445, 21: 590.304979, 22: 579.476227, 23: 348.820199, 24: 776.849785, 25: 55.068276, 26: 686.3519219999999, 27: 976.42162, 28: 712.603524, 29: 768.130098, 30: 251.352047, 31: 223.005102, 32: 683.985859, 33: 238.354169, 34: 197.077352, 35: 198.54701, 36: 252.084848, 37: 49.962951, 38: 109.841664, 39: 91.422777, 40: 630.802784, 41: 776.711689, 42: 916.303269, 43: 183.469581, 44: 294.625287, 45: 265.468946, 46: 308.322711, 47: 596.440112, 48: 501.926447, 49: 990.449146, 50: 86.79801999999999, 51: 404.558604, 52: 933.410581, 53: 399.299086, 54: 155.599192, 55: 499.860384, 56: 571.290196, 57: 552.1066510000001, 58: 773.3744, 59: 208.596757, 60: 642.160969, 61: 865.147066, 62: 492.12606, 63: 706.188103, 64: 515.374358, 65: 715.148226, 66: 953.09728, 67: 755.628877, 68: 786.1988250000001, 69: 148.155957, 70: 959.367435, 71: 312.404306, 72: 509.115372, 73: 431.294622, 74: 706.405435, 75: 397.503263, 76: 517.429627, 77: 931.340868, 78: 373.250828, 79: 517.166592, 80: 662.850139, 81: 396.919366, 82: 938.582433, 83: 261.067183, 84: 971.685194, 85: 66.856489, 86: 809.889625, 87: 879.475802, 88: 911.640832, 89: 400.222545, 90: 559.478197, 91: 920.491847, 92: 469.943069, 93: 304.980756, 94: 616.315092, 95: 315.805484];
sell = [0: 3.164359, 1: 1.684509, 2: 3.251437, 3: 3.316211, 4: 1.093618, 5: 3.921127, 6: 3.519045, 7: 2.867002, 8: 2.711236, 9: 0.003771, 10: 1.297674, 11: 2.08234, 12: 0.876659, 13: 1.55273, 14: 1.090742, 15: 2.43636, 16: 2.977313, 17: 2.660339, 18: 3.62369, 19: 0.181656, 20: 0.308135, 21: 2.879732, 22: 0.828518, 23: 1.395021, 24: 2.676304, 25: 1.847867, 26: 3.220093, 27: 3.422441, 28: 0.964734, 29: 1.590735, 30: 3.948292, 31: 0.337629, 32: 3.353214, 33: 0.6821739999999999, 34: 1.615156, 35: 2.471334, 36: 0.078587, 37: 3.133922, 38: 3.343254, 39: 3.218169, 40: 3.627572, 41: 2.707015, 42: 2.460728, 43: 2.233243, 44: 0.200146, 45: 2.665524, 46: 2.481939, 47: 1.558348, 48: 0.799995, 49: 2.713269, 50: 3.21481, 51: 3.391202, 52: 2.880375, 53: 0.713719, 54: 1.725034, 55: 3.87927, 56: 1.78436, 57: 3.974891, 58: 3.418337, 59: 3.659134, 60: 3.979525, 61: 0.743605, 62: 1.150523, 63: 1.732, 64: 3.972493, 65: 3.762892, 66: 3.794887, 67: 1.373331, 68: 0.666475, 69: 2.257004, 70: 2.616665, 71: 1.318069, 72: 1.638306, 73: 0.562092, 74: 2.306904, 75: 3.398112, 76: 0.761868, 77: 2.604541, 78: 1.47228, 79: 1.636228, 80: 3.846488, 81: 1.529569, 82: 0.256957, 83: 2.387117, 84: 1.170171, 85: 3.774187, 86: 3.985155, 87: 3.311535, 88: 1.643022, 89: 2.750602, 90: 2.05511, 91: 3.043017, 92: 3.774722, 93: 1.103512, 94: 0.463403, 95: 2.395447];
charge = [0: 0.17067, 1: 0.213611, 2: 0.426123, 3: 0.372682, 4: 0.905705, 5: 0.90581, 6: 0.252393, 7: 0.669489, 8: 0.352183, 9: 0.567669, 10: 0.973785, 11: 0.83246, 12: 0.437123, 13: 0.009884, 14: 0.462146, 15: 0.947538, 16: 0.477517, 17: 0.659319, 18: 0.930249, 19: 0.944526, 20: 0.369162, 21: 0.025537, 22: 0.013356, 23: 0.909987, 24: 0.00577, 25: 0.7859, 26: 0.780528, 27: 0.567061, 28: 0.535765, 29: 0.177939, 30: 0.947767, 31: 0.366495, 32: 0.65913, 33: 0.83588, 34: 0.2296, 35: 0.307249, 36: 0.551291, 37: 0.555642, 38: 0.800334, 39: 0.345841, 40: 0.123989, 41: 0.825337, 42: 0.931768, 43: 0.08791400000000001, 44: 0.906162, 45: 0.422483, 46: 0.432665, 47: 0.074604, 48: 0.882708, 49: 0.757979, 50: 0.459126, 51: 0.872317, 52: 0.663088, 53: 0.09844, 54: 0.561774, 55: 0.223779, 56: 0.823744, 57: 0.947889, 58: 0.548821, 59: 0.169579, 60: 0.828836, 61: 0.190336, 62: 0.4736, 63: 0.473199, 64: 0.028624, 65: 0.854831, 66: 0.958826, 67: 0.986868, 68: 0.585958, 69: 0.901014, 70: 0.9525979999999999, 71: 0.783699, 72: 0.356705, 73: 0.56776, 74: 0.653041, 75: 0.013207, 76: 0.429198, 77: 0.554513, 78: 0.858822, 79: 0.438703, 80: 0.276422, 81: 0.338668, 82: 0.207645, 83: 0.962815, 84: 0.261362, 85: 0.171246, 86: 0.033974, 87: 0.980383, 88: 0.680931, 89: 0.718899, 90: 0.559982, 91: 0.162495, 92: 0.597029, 93: 0.18107, 94: 0.393763, 95: 0.5437];
discharge = [0: 0.970557, 1: 0.180665, 2: 0.303634, 3: 0.876306, 4: 0.597662, 5: 0.969288, 6: 0.370784, 7: 0.159832, 8: 0.98719, 9: 0.729866, 10: 0.701836, 11: 0.435272, 12: 0.430384, 13: 0.002524, 14: 0.234816, 15: 0.540726, 16: 0.403605, 17: 0.620108, 18: 0.8209959999999999, 19: 0.8504350000000001, 20: 0.880939, 21: 0.967, 22: 0.911756, 23: 0.312866, 24: 0.496854, 25: 0.719291, 26: 0.5777409999999999, 27: 0.982015, 28: 0.801119, 29: 0.826922, 30: 0.936908, 31: 0.653179, 32: 0.673973, 33: 0.189945, 34: 0.996368, 35: 0.131304, 36: 0.125876, 37: 0.181897, 38: 0.804665, 39: 0.300437, 40: 0.895445, 41: 0.03509, 42: 0.8829, 43: 0.786115, 44: 0.19839, 45: 0.863874, 46: 0.417594, 47: 0.44585, 48: 0.239481, 49: 0.674659, 50: 0.312424, 51: 0.140002, 52: 0.631445, 53: 0.547499, 54: 0.923535, 55: 0.95895, 56: 0.472483, 57: 0.671297, 58: 0.70436, 59: 0.863576, 60: 0.843573, 61: 0.9447449999999999, 62: 0.040458, 63: 0.58091, 64: 0.5703510000000001, 65: 0.177327, 66: 0.480248, 67: 0.187879, 68: 0.363886, 69: 0.420842, 70: 0.520419, 71: 0.671972, 72: 0.9984769999999999, 73: 0.596893, 74: 0.212804, 75: 0.168298, 76: 0.690398, 77: 0.964341, 78: 0.225211, 79: 0.503791, 80: 0.874214, 81: 0.570337, 82: 0.301597, 83: 0.124637, 84: 0.809198, 85: 0.818187, 86: 0.640153, 87: 0.244576, 88: 0.062004, 89: 0.749629, 90: 0.580682, 91: 0.055615, 92: 0.949722, 93: 0.635393, 94: 0.457328, 95: 0.938144];
soc = [0: 9.546163, 1: 9.543015, 2: 7.582438, 3: 5.561724, 4: 12.634587, 5: 9.513412000000001, 6: 12.748294, 7: 4.390649, 8: 10.346231, 9: 6.177676, 10: 2.950921, 11: 10.104369, 12: 4.919463, 13: 6.430068, 14: 11.705919, 15: 14.827369, 16: 9.489661, 17: 11.444795, 18: 7.424317, 19: 4.858838, 20: 15.002474, 21: 12.002603, 22: 15.390034, 23: 8.229126000000001, 24: 3.161662, 25: 10.930257, 26: 15.268396, 27: 11.446304, 28: 3.08747, 29: 12.634906, 30: 15.47124, 31: 7.815281, 32: 4.419048, 33: 8.204476, 34: 14.438379, 35: 7.947493, 36: 12.515206, 37: 8.096788999999999, 38: 12.954013, 39: 3.721024, 40: 6.136785, 41: 4.331942, 42: 13.263297, 43: 5.937102, 44: 12.342336, 45: 6.154813, 46: 6.160917, 47: 12.783341, 48: 7.540195, 49: 15.226871, 50: 4.926419, 51: 14.112599, 52: 5.649632, 53: 13.783845, 54: 14.299716, 55: 9.093603999999999, 56: 9.627907, 57: 12.486419, 58: 13.572762, 59: 4.528969, 60: 10.167128, 61: 10.010549, 62: 8.254284999999999, 63: 11.192245, 64: 5.502155, 65: 8.261912000000001, 66: 15.176715, 67: 5.973665, 68: 11.275509, 69: 9.598112, 70: 12.757484, 71: 8.509966, 72: 10.52196, 73: 8.904798, 74: 2.893855, 75: 8.469251999999999, 76: 6.090022, 77: 14.265427, 78: 6.573152, 79: 10.018105, 80: 10.081604, 81: 2.82831, 82: 4.264211, 83: 8.070637, 84: 14.60718, 85: 10.20963, 86: 12.527368, 87: 7.79984, 88: 6.885196, 89: 3.958354, 90: 15.654437, 91: 14.454396, 92: 5.663464, 93: 10.916423, 94: 8.049473000000001, 95: 13.93475];
cost = [0: 409.308198, 1: 94.51570700000001, 2: 320.643449, 3: 148.493995, 4: 599.372878, 5: 4.376042, 6: 348.968667, 7: 395.788835, 8: 409.222677, 9: 424.384919, 10: 215.508872, 11: 187.301982, 12: 136.000814, 13: 335.518457, 14: 459.590059, 15: 130.843285, 16: 329.832531, 17: 447.449831, 18: 494.568103, 19: 571.637066, 20: 257.212391, 21: 257.160968, 22: 175.601785, 23: 262.525086, 24: 465.845929, 25: 215.431333, 26: 187.771111, 27: 486.370558, 28: 874.58262, 29: 625.304064, 30: 1076.552834, 31: 507.875376, 32: 305.697778, 33: 0.379934, 34: 1082.435926, 35: 670.027378, 36: 911.208719, 37: 574.976898, 38: 535.371316, 39: 24.391544, 40: 779.904616, 41: 650.623848, 42: 388.072659, 43: 717.4635, 44: 717.891825, 45: 385.502982, 46: 247.153403, 47: 684.8576, 48: 940.993725, 49: 1140.138318, 50: 700.181909, 51: 973.382384, 52: 536.760983, 53: 131.716834, 54: 305.28505, 55: 582.549001, 56: 22.719476, 57: 1.716883, 58: 437.58273, 59: 309.546294, 60: 465.361889, 61: 266.495207, 62: 536.691491, 63: 423.575609, 64: 254.321853, 65: 249.153597, 66: 527.126082, 67: 988.126357, 68: 1036.756368, 69: 817.109363, 70: 416.647827, 71: 642.07008, 72: 17.503172, 73: 921.0842730000001, 74: 1122.980358, 75: 950.191231, 76: 232.643691, 77: 151.108244, 78: 941.824148, 79: 251.997981, 80: 759.725135, 81: 130.349476, 82: 329.257573, 83: 421.986021, 84: 1142.925861, 85: 409.283765, 86: 752.996182, 87: 1043.298356, 88: 530.08189, 89: 409.320877, 90: 101.890232, 91: 122.995409, 92: 119.840025, 93: 60.593098, 94: 435.975396, 95: 194.150443];
earn = [0: 0.074637, 1: 1.228111, 2: 0.107971, 3: 0.90988, 4: 0.99687, 5: 1.627397, 6: 1.629456, 7: 0.820123, 8: 2.215637, 9: 1.138983, 10: 1.124449, 11: 2.087187, 12: 0.088185, 13: 1.338165, 14: 1.447407, 15: 1.221201, 16: 1.084875, 17: 2.143885, 18: 1.260551, 19: 1.289767, 20: 1.124058, 21: 2.020051, 22: 1.414124, 23: 1.458374, 24: 1.548505, 25: 0.006795, 26: 0.518123, 27: 2.586435, 28: 2.387667, 29: 1.860629, 30: 0.750314, 31: 2.142102, 32: 2.121107, 33: 0.204505, 34: 1.246314, 35: 0.637309, 36: 0.51187, 37: 1.205403, 38: 1.57275, 39: 0.644363, 40: 0.975817, 41: 0.575511, 42: 0.9308650000000001, 43: 0.454145, 44: 0.788506, 45: 0.346746, 46: 0.699447, 47: 0.699864, 48: 0.781471, 49: 0.102906, 50: 0.609433, 51: 0.549999, 52: 0.058203, 53: 0.100615, 54: 0.724565, 55: 0.023349, 56: 1.16903, 57: 0.104911, 58: 0.188654, 59: 1.447123, 60: 0.734518, 61: 0.093885, 62: 1.441914, 63: 0.994476, 64: 0.030511, 65: 1.430994, 66: 0.610192, 67: 2.478378, 68: 2.30564, 69: 0.970954, 70: 0.34858, 71: 2.104878, 72: 2.021244, 73: 2.738923, 74: 0.185057, 75: 0.750566, 76: 0.699848, 77: 1.844776, 78: 2.955177, 79: 1.158446, 80: 1.881128, 81: 1.901024, 82: 2.533417, 83: 0.7584070000000001, 84: 1.198031, 85: 0.23006, 86: 0.5321399999999999, 87: 1.313951, 88: 1.321938, 89: 0.13576, 90: 0.186813, 91: 1.191416, 92: 2.219562, 93: 0.636916, 94: 1.13608, 95: 1.680889];
total_cost = 48.37896616854827;
total_earn = 19.44429833431266;
