production = [0: 0.0, 1: 0.0, 2: 0.0, 3: 0.0, 4: 0.0, 5: 0.0, 6: 0.0, 7: 0.0, 8: 0.0, 9: 0.0, 10: 0.0, 11: 0.0, 12: 0.0, 13: 0.0, 14: 0.0, 15: 0.0, 16: 0.0, 17: 0.0, 18: 0.0, 19: 0.0, 20: 0.0, 21: 0.000234, 22: 0.000969, 23: 0.006122, 24: 0.026254, 25: 0.014166, 26: 0.027702, 27: 0.023414, 28: 0.109099, 29: 0.11377, 30: 0.19072, 31: 0.31311, 32: 0.212075, 33: 0.682439, 34: 0.122038, 35: 0.457589, 36: 1.061358, 37: 0.453795, 38: 0.07942200000000001, 39: 1.534755, 40: 1.240615, 41: 1.440952, 42: 0.752584, 43: 0.33082, 44: 0.733466, 45: 0.138047, 46: 0.569, 47: 0.064079, 48: 0.564339, 49: 0.420406, 50: 0.960014, 51: 0.421187, 52: 0.820598, 53: 1.29837, 54: 0.125418, 55: 0.197901, 56: 0.017703, 57: 1.235437, 58: 0.626269, 59: 0.529882, 60: 0.523132, 61: 0.346061, 62: 0.722141, 63: 0.6287740000000001, 64: 0.193468, 65: 0.111444, 66: 0.250215, 67: 0.181572, 68: 0.210616, 69: 0.00147, 70: 0.049022, 71: 0.031932, 72: 0.014745, 73: 0.002359, 74: 0.000442, 75: 0.0, 76: 0.0, 77: 0.0, 78: 0.0, 79: 0.0, 80: 0.0, 81: 0.0, 82: 0.0, 83: 0.0, 84: 0.0, 85: 0.0, 86: 0.0, 87: 0.0, 88: 0.0, 89: 0.0, 90: 0.0, 91: 0.0, 92: 0.0, 93: 0.0, 94: 0.0, 95: 0.0];
buy = [0: 225.401927, 1: 428.089948, 2: 478.435437, 3: 381.516051, 4: 76.56664600000001, 5: 989.22928, 6: 517.812707, 7: 74.220507, 8: 885.989993, 9: 830.512401, 10: 974.753012, 11: 43.698645, 12: 927.189529, 13: 825.546284, 14: 808.227601, 15: 156.76221, 16: 44.331373, 17: 973.769343, 18: 574.911918, 19: 71.71603, 20: 984.546779, 21: 1.203066, 22: 801.114109, 23: 135.102239, 24: 664.462771, 25: 66.58349699999999, 26: 952.579264, 27: 868.672961, 28: 790.520483, 29: 687.633454, 30: 187.286343, 31: 963.352389, 32: 135.722427, 33: 99.96029, 34: 861.5328490000001, 35: 347.097232, 36: 601.88063, 37: 24.699151, 38: 979.222573, 39: 224.551307, 40: 3.267476, 41: 319.383557, 42: 69.324405, 43: 717.183267, 44: 940.642992, 45: 790.770656, 46: 317.873074, 47: 43.069985, 48: 401.845071, 49: 362.605316, 50: 966.222349, 51: 983.939119, 52: 490.667071, 53: 847.232037, 54: 732.1004380000001, 55: 587.35457, 56: 629.021113, 57: 918.18246, 58: 837.832394, 59: 855.112765, 60: 724.110648, 61: 322.658838, 62: 36.187078, 63: 470.174567, 64: 238.974391, 65: 336.132604, 66: 490.553014, 67: 501.014036, 68: 37.807383, 69: 254.142467, 70: 103.370542, 71: 331.627783, 72: 875.132569, 73: 939.688369, 74: 886.06696, 75: 68.19842199999999, 76: 467.50892, 77: 415.278279, 78: 897.873677, 79: 553.202736, 80: 662.905991, 81: 119.593025, 82: 660.851194, 83: 526.416116, 84: 821.284446, 85: 612.215101, 86: 878.926631, 87: 420.50214, 88: 261.05013, 89: 418.206399, 90: 752.312878, 91: 564.386126, 92: 266.479453, 93: 179.426126, 94: 790.518113, 95: 536.782188];
sell = [0: 1.675287, 1: 3.889359, 2: 1.430481, 3: 3.953514, 4: 1.856998, 5: 3.794242, 6: 0.829998, 7: 2.143173, 8: 1.411566, 9: 0.36477, 10: 3.211851, 11: 1.856906, 12: 3.64043, 13: 3.068817, 14: 1.316525, 15: 3.710264, 16: 1.386809, 17: 2.352565, 18: 1.298331, 19: 3.254377, 20: 0.8531840000000001, 21: 2.839953, 22: 1.032678, 23: 3.770305, 24: 2.400532, 25: 2.46781, 26: 0.134556, 27: 2.213579, 28: 0.561494, 29: 1.611655, 30: 0.049895, 31: 1.306689, 32: 2.586216, 33: 3.252986, 34: 2.364605, 35: 3.642072, 36: 1.686449, 37: 1.541618, 38: 1.739171, 39: 2.426091, 40: 0.603743, 41: 2.873142, 42: 1.096808, 43: 0.631306, 44: 2.732456, 45: 2.54571, 46: 2.264069, 47: 3.837586, 48: 3.057735, 49: 1.97343, 50: 3.90783, 51: 0.910025, 52: 2.91736, 53: 2.174377, 54: 3.017572, 55: 2.798236, 56: 3.135044, 57: 1.152603, 58: 2.232069, 59: 1.182652, 60: 2.313803, 61: 0.703148, 62: 0.304698, 63: 3.401957, 64: 1.237152, 65: 3.869902, 66: 1.900676, 67: 3.952482, 68: 1.90848, 69: 1.965558, 70: 3.25658, 71: 3.637751, 72: 0.512787, 73: 0.331276, 74: 0.770705, 75: 3.297781, 76: 3.225094, 77: 1.333834, 78: 3.798576, 79: 0.796298, 80: 2.461809, 81: 1.563911, 82: 1.538943, 83: 1.51763, 84: 1.733423, 85: 0.829501, 86: 1.264243, 87: 2.682766, 88: 0.366763, 89: 1.404388, 90: 1.376197, 91: 3.96604, 92: 3.453643, 93: 2.229134, 94: 0.01649, 95: 3.328074];
charge = [0: 0.637357, 1: 0.781517, 2: 0.974562, 3: 0.97545, 4: 0.469547, 5: 0.324865, 6: 0.402656, 7: 0.426156, 8: 0.441027, 9: 0.473832, 10: 0.83622, 11: 0.423445, 12: 0.236003, 13: 0.036624, 14: 0.838004, 15: 0.112464, 16: 0.846345, 17: 0.818089, 18: 0.960261, 19: 0.622425, 20: 0.759929, 21: 0.465733, 22: 0.326888, 23: 0.211361, 24: 0.598225, 25: 0.955142, 26: 0.346423, 27: 0.080525, 28: 0.20972, 29: 0.148524, 30: 0.19488, 31: 0.342663, 32: 0.527832, 33: 0.08132300000000001, 34: 0.222805, 35: 0.08533, 36: 0.18022, 37: 0.598052, 38: 0.65796, 39: 0.957532, 40: 0.970141, 41: 0.846305, 42: 0.546885, 43: 0.19402, 44: 0.107678, 45: 0.396812, 46: 0.080827, 47: 0.304303, 48: 0.717123, 49: 0.588265, 50: 0.545573, 51: 0.16224, 52: 0.31602, 53: 0.013774, 54: 0.897124, 55: 0.502154, 56: 0.838267, 57: 0.117276, 58: 0.524819, 59: 0.271863, 60: 0.54558, 61: 0.642718, 62: 0.116836, 63: 0.85712, 64: 0.209815, 65: 0.176133, 66: 0.106607, 67: 0.744599, 68: 0.639899, 69: 0.889997, 70: 0.694533, 71: 0.674451, 72: 0.980237, 73: 0.09621, 74: 0.87645, 75: 0.605108, 76: 0.810706, 77: 0.734336, 78: 0.085824, 79: 0.539056, 80: 0.447973, 81: 0.795142, 82: 0.451026, 83: 0.620659, 84: 0.060733, 85: 0.826512, 86: 0.221334, 87: 0.135676, 88: 0.586063, 89: 0.211385, 90: 0.794291, 91: 0.07900600000000001, 92: 0.520303, 93: 0.879999, 94: 0.255518, 95: 0.8480529999999999];
discharge = [0: 0.536107, 1: 0.097803, 2: 0.788161, 3: 0.021078, 4: 0.234695, 5: 0.269114, 6: 0.943245, 7: 0.161482, 8: 0.176317, 9: 0.559871, 10: 0.088824, 11: 0.980608, 12: 0.325102, 13: 0.175804, 14: 0.609563, 15: 0.899768, 16: 0.493738, 17: 0.839344, 18: 0.815115, 19: 0.00668, 20: 0.6710930000000001, 21: 0.754958, 22: 0.820234, 23: 0.448974, 24: 0.741244, 25: 0.974901, 26: 0.227893, 27: 0.666685, 28: 0.809459, 29: 0.225079, 30: 0.366629, 31: 0.6447619999999999, 32: 0.891163, 33: 0.945987, 34: 0.759615, 35: 0.918343, 36: 0.189522, 37: 0.903758, 38: 0.245886, 39: 0.205469, 40: 0.077657, 41: 0.117128, 42: 0.6095739999999999, 43: 0.193647, 44: 0.361718, 45: 0.201422, 46: 0.8074, 47: 0.624053, 48: 0.934714, 49: 0.364413, 50: 0.887363, 51: 0.969536, 52: 0.672337, 53: 0.174666, 54: 0.582643, 55: 0.810772, 56: 0.08627, 57: 0.999743, 58: 0.178685, 59: 0.942702, 60: 0.316975, 61: 0.581695, 62: 0.472194, 63: 0.268935, 64: 0.25685, 65: 0.954062, 66: 0.213584, 67: 0.136158, 68: 0.490106, 69: 0.637733, 70: 0.56052, 71: 0.9232939999999999, 72: 0.143445, 73: 0.59954, 74: 0.969461, 75: 0.8342810000000001, 76: 0.759502, 77: 0.575435, 78: 0.318813, 79: 0.788304, 80: 0.539457, 81: 0.382657, 82: 0.262099, 83: 0.289262, 84: 0.403541, 85: 0.670324, 86: 0.960917, 87: 0.154058, 88: 0.228337, 89: 0.83725, 90: 0.129676, 91: 0.25909, 92: 0.410428, 93: 0.7203889999999999, 94: 0.791666, 95: 0.362529];
soc = [0: 8.573952999999999, 1: 9.313901, 2: 11.067188, 3: 10.679548, 4: 6.58419, 5: 11.156468, 6: 2.908523, 7: 14.187206, 8: 12.41145, 9: 8.314189000000001, 10: 12.801891, 11: 4.579968, 12: 12.085438, 13: 11.855503, 14: 7.475426, 15: 9.507878, 16: 11.870605, 17: 4.430749, 18: 5.232042, 19: 5.618086, 20: 7.116709, 21: 10.301867, 22: 3.565127, 23: 2.677768, 24: 10.613517, 25: 11.804671, 26: 14.079767, 27: 3.688251, 28: 9.721159, 29: 13.630579, 30: 8.309037999999999, 31: 13.93353, 32: 8.814598999999999, 33: 11.759547, 34: 14.763683, 35: 6.863964, 36: 8.111743000000001, 37: 6.66795, 38: 11.890444, 39: 10.230287, 40: 4.867924, 41: 6.39931, 42: 3.176859, 43: 5.033749, 44: 14.84959, 45: 3.624077, 46: 14.325167, 47: 10.343115, 48: 15.65671, 49: 9.570691, 50: 8.725892999999999, 51: 12.607299, 52: 9.250252, 53: 14.395381, 54: 5.050008, 55: 5.70083, 56: 5.742691, 57: 4.70836, 58: 4.869593, 59: 5.456556, 60: 6.220632, 61: 5.294999, 62: 12.003151, 63: 6.131032, 64: 5.272041, 65: 4.660719, 66: 9.465662, 67: 5.536519, 68: 14.078652, 69: 13.495711, 70: 9.388795999999999, 71: 6.816734, 72: 8.110112000000001, 73: 9.659649999999999, 74: 14.682347, 75: 14.055778, 76: 12.827479, 77: 4.76853, 78: 15.524037, 79: 4.458293, 80: 8.555154999999999, 81: 5.107663, 82: 6.016309, 83: 15.502363, 84: 7.874038, 85: 5.007257, 86: 13.239361, 87: 11.764809, 88: 9.777974, 89: 7.747214, 90: 9.537577000000001, 91: 6.748311, 92: 6.772873, 93: 7.455044, 94: 3.186906, 95: 13.886198];
cost = [0: 596.573288, 1: 116.306175, 2: 109.859691, 3: 238.711444, 4: 473.537718, 5: 596.293144, 6: 230.346793, 7: 437.436595, 8: 445.974052, 9: 260.360028, 10: 146.738051, 11: 225.702896, 12: 487.605232, 13: 536.818403, 14: 362.625558, 15: 426.147132, 16: 23.781403, 17: 157.31341, 18: 234.80069, 19: 93.163664, 20: 162.070805, 21: 222.046593, 22: 310.481129, 23: 513.623974, 24: 90.00044200000001, 25: 850.3140059999999, 26: 382.536977, 27: 519.543806, 28: 812.478642, 29: 182.381609, 30: 704.1686120000001, 31: 479.465872, 32: 782.236529, 33: 537.625328, 34: 514.611554, 35: 259.742645, 36: 163.54642, 37: 841.028274, 38: 318.345163, 39: 532.19744, 40: 503.044905, 41: 659.802197, 42: 904.862032, 43: 71.447373, 44: 225.019192, 45: 1026.701916, 46: 986.544365, 47: 1066.23966, 48: 436.326461, 49: 525.883979, 50: 795.651511, 51: 845.920358, 52: 157.63833, 53: 510.349339, 54: 164.421933, 55: 364.981782, 56: 348.681056, 57: 457.790843, 58: 272.818524, 59: 488.505221, 60: 748.8917729999999, 61: 743.874603, 62: 1167.215679, 63: 372.83566, 64: 983.885119, 65: 1117.217556, 66: 1056.311622, 67: 439.511045, 68: 118.437445, 69: 662.089784, 70: 601.910397, 71: 916.277679, 72: 323.743459, 73: 670.7619999999999, 74: 22.579906, 75: 17.301266, 76: 382.826721, 77: 1100.560093, 78: 564.1042629999999, 79: 816.428346, 80: 351.903792, 81: 859.905074, 82: 8.705746, 83: 84.191885, 84: 1090.115525, 85: 240.229358, 86: 263.074875, 87: 340.075396, 88: 521.655616, 89: 264.87612, 90: 281.844421, 91: 340.125371, 92: 555.775487, 93: 477.980775, 94: 98.628753, 95: 358.105677];
earn = [0: 0.663417, 1: 1.688545, 2: 0.772835, 3: 0.071426, 4: 0.08933199999999999, 5: 0.460149, 6: 2.341516, 7: 1.091027, 8: 0.948364, 9: 2.070633, 10: 2.181805, 11: 2.130042, 12: 1.536387, 13: 2.169146, 14: 0.977068, 15: 0.166668, 16: 0.534902, 17: 1.535127, 18: 1.234574, 19: 2.336507, 20: 2.260207, 21: 2.172067, 22: 0.739192, 23: 1.323199, 24: 1.940444, 25: 0.482178, 26: 1.920975, 27: 1.864691, 28: 2.376715, 29: 2.856086, 30: 0.565145, 31: 2.209889, 32: 1.401923, 33: 1.00051, 34: 0.352092, 35: 1.475014, 36: 0.930227, 37: 0.17597, 38: 0.40115, 39: 0.025985, 40: 1.036836, 41: 0.436659, 42: 0.5693780000000001, 43: 1.164083, 44: 0.985259, 45: 0.636363, 46: 0.907116, 47: 0.39585, 48: 0.139307, 49: 0.6998799999999999, 50: 0.442486, 51: 0.800001, 52: 0.579939, 53: 0.910431, 54: 0.70118, 55: 0.774649, 56: 1.130873, 57: 0.987021, 58: 0.636364, 59: 0.579599, 60: 1.848706, 61: 0.381436, 62: 0.00729, 63: 0.143417, 64: 0.395999, 65: 0.736321, 66: 1.357934, 67: 1.511871, 68: 0.250623, 69: 1.178844, 70: 2.082523, 71: 1.312515, 72: 1.835848, 73: 1.462321, 74: 1.812376, 75: 2.607708, 76: 1.303906, 77: 2.664468, 78: 1.492295, 79: 2.3434, 80: 2.430631, 81: 2.589668, 82: 2.570193, 83: 2.668718, 84: 1.705994, 85: 1.577391, 86: 1.783437, 87: 0.410624, 88: 2.49325, 89: 0.325328, 90: 1.589492, 91: 1.726912, 92: 0.131605, 93: 1.648748, 94: 0.06519, 95: 1.94876];
total_cost = 40.38168704544564;
total_earn = 19.16851034500003;
