production = [0.0, 0.0, 0.0, 0.0, 0.0, 0.0, 0.0, 0.0, 0.0, 0.0, 0.0, 0.0, 0.0, 0.0, 0.0, 0.0, 0.0, 0.0, 0.0, 0.0, 0.0, 0.000175, 0.000428, 0.000446, 0.010389, 0.010766, 0.075811, 0.060438, 0.019254, 0.07709199999999999, 0.087352, 0.008297000000000001, 0.233305, 0.019472, 0.613634, 0.478291, 0.074666, 1.384945, 0.962465, 1.561777, 0.205104, 0.568178, 1.406135, 0.105277, 0.373889, 0.79165, 0.241624, 1.538286, 1.09827, 0.118227, 1.368092, 1.71898, 1.210814, 0.158749, 0.373603, 1.056426, 1.032838, 0.461444, 0.5704320000000001, 0.83369, 1.200805, 0.906036, 0.427444, 0.107355, 0.634293, 0.03195, 0.170025, 0.30665, 0.237525, 0.027655, 0.092918, 0.001743, 0.02204, 0.003526, 0.000408, 0.0, 0.0, 0.0, 0.0, 0.0, 0.0, 0.0, 0.0, 0.0, 0.0, 0.0, 0.0, 0.0, 0.0, 0.0, 0.0, 0.0, 0.0, 0.0, 0.0, 0.0];
buy = [590.79943, 541.082367, 894.2031480000001, 637.106729, 20.583157, 440.495965, 181.912598, 74.590748, 392.227726, 126.006898, 939.285853, 964.142286, 856.801969, 46.780882, 845.143571, 248.714613, 94.750289, 656.7326389999999, 625.692152, 372.915947, 35.550893, 407.021469, 265.749089, 306.798877, 532.858925, 247.142507, 64.988675, 861.707808, 570.036071, 966.071332, 789.622036, 693.025602, 910.964373, 671.581105, 402.340858, 172.136639, 915.324534, 262.489589, 952.317065, 927.025358, 912.795123, 951.586671, 797.650306, 299.139939, 88.74296, 708.741525, 890.486939, 200.719726, 283.058986, 933.28253, 100.57824, 398.924682, 677.830034, 169.290594, 225.563993, 825.140368, 90.624261, 860.1913929999999, 923.093204, 923.898718, 502.087665, 734.062339, 593.342204, 903.674765, 114.771567, 209.482012, 127.633233, 943.406823, 287.136507, 288.214641, 924.032615, 260.692991, 356.517661, 791.375346, 492.833988, 365.657428, 848.524421, 658.3773619999999, 456.045566, 464.59812, 336.330682, 176.229646, 380.195842, 163.372616, 396.204624, 384.903168, 939.973156, 439.944163, 117.639097, 588.904894, 832.54238, 750.198476, 58.210029, 499.410448, 26.882329, 542.548008];
sell = [1.932355, 2.224324, 0.347733, 2.739353, 0.552214, 2.897013, 2.433798, 3.709171, 3.148061, 0.477216, 1.513862, 1.673218, 1.642833, 3.453781, 1.143668, 2.981892, 2.864193, 1.396385, 0.69221, 0.592012, 2.502184, 1.477003, 0.162606, 0.434758, 0.330983, 1.058106, 3.85193, 0.201705, 2.215643, 3.254961, 3.497594, 2.186449, 0.796309, 3.636006, 2.693464, 3.474193, 0.1909, 3.524249, 0.6418430000000001, 3.221784, 1.437758, 3.418988, 1.94661, 2.756933, 2.43208, 3.94539, 1.187301, 3.615454, 1.172995, 3.939756, 1.180281, 1.406743, 0.502499, 2.163013, 3.482823, 1.508934, 1.789655, 1.545525, 3.652338, 1.804088, 2.004566, 3.395257, 0.7315469999999999, 0.8433929999999999, 0.279792, 0.882695, 2.612553, 3.681031, 2.657986, 1.863788, 2.2355, 2.298557, 2.787144, 2.739803, 2.310766, 0.7153620000000001, 2.909137, 0.585106, 2.373396, 0.318533, 2.399105, 1.973304, 3.300399, 2.954956, 3.43041, 1.720228, 3.481354, 0.464463, 0.8617939999999999, 0.459461, 2.813908, 1.01766, 3.169739, 0.997346, 3.61634, 0.811281];
charge = [0.296181, 0.241968, 0.925241, 0.766694, 0.918762, 0.821491, 0.148959, 0.203979, 0.207553, 0.767665, 0.717461, 0.680125, 0.312876, 0.379811, 0.638568, 0.363023, 0.076087, 0.595668, 0.854509, 0.393361, 0.956433, 0.559961, 0.170706, 0.552911, 0.22961, 0.375384, 0.101563, 0.7556310000000001, 0.044894, 0.775159, 0.612675, 0.33732, 0.59731, 0.429324, 0.136799, 0.072056, 0.144989, 0.440848, 0.672767, 0.809877, 0.587356, 0.729144, 0.035107, 0.265997, 0.398461, 0.104622, 0.162694, 0.830351, 0.535725, 0.617486, 0.170478, 0.074239, 0.199501, 0.291772, 0.328732, 0.855251, 0.015326, 0.599656, 0.381525, 0.751933, 0.648085, 0.921428, 0.491475, 0.375602, 0.550332, 0.326747, 0.472325, 0.517035, 0.186959, 0.811162, 0.688373, 0.343476, 0.369057, 0.42755, 0.740784, 0.921367, 0.394703, 0.824867, 0.854603, 0.838581, 0.579711, 0.786759, 0.539463, 0.295628, 0.950194, 0.814463, 0.188336, 0.243281, 0.021846, 0.728205, 0.636356, 0.284518, 0.917581, 0.266469, 0.453422, 0.234967];
discharge = [0.199346, 0.429917, 0.140451, 0.017275, 0.660479, 0.538439, 0.65457, 0.392478, 0.413696, 0.107967, 0.496328, 0.793478, 0.061545, 0.942882, 0.093666, 0.842587, 0.361352, 0.8260459999999999, 0.54028, 0.532644, 0.236556, 0.618997, 0.631312, 0.688088, 0.664094, 0.673069, 0.496402, 0.039381, 0.627231, 0.234988, 0.361674, 0.296805, 0.651331, 0.036519, 0.493171, 0.9888400000000001, 0.543477, 0.169245, 0.721706, 0.73484, 0.434047, 0.146035, 0.402006, 0.8010969999999999, 0.375853, 0.688168, 0.033398, 0.879162, 0.676735, 0.786469, 0.408312, 0.094252, 0.837967, 0.834304, 0.983375, 0.460883, 0.621621, 0.717742, 0.723432, 0.324718, 0.670651, 0.323316, 0.680674, 0.533615, 0.314388, 0.091117, 0.715407, 0.198183, 0.958817, 0.859253, 0.875727, 0.689489, 0.239088, 0.34049, 0.21282, 0.414104, 0.634664, 0.169815, 0.886095, 0.06754599999999999, 0.310515, 0.068914, 0.561588, 0.024576, 0.666037, 0.929158, 0.772417, 0.594799, 0.468317, 0.88523, 0.018704, 0.762771, 0.42903, 0.05039, 0.5027199999999999, 0.480363];
soc = [9.581313, 8.278559, 6.61561, 5.013031, 11.093121, 4.384064, 12.429979, 9.744961999999999, 4.926278, 15.606536, 11.245736, 4.150499, 12.964109, 13.15353, 9.430669, 8.326957, 6.685383, 5.185616, 3.644488, 8.426297, 12.150226, 11.596617, 13.285833, 9.318623000000001, 14.495495, 8.41183, 7.309945, 14.754661, 14.121696, 6.474256, 15.333221, 12.183398, 12.086922, 4.590041, 14.17007, 4.339582, 2.84631, 13.292416, 3.563463, 12.939368, 5.465362, 15.602381, 9.335448, 6.620358, 13.888231, 3.624156, 13.214796, 10.623376, 15.504602, 3.047994, 6.590285, 13.788924, 14.29289, 8.908393, 12.109381, 9.379883, 2.816434, 5.75699, 15.050607, 11.143565, 15.358942, 7.848621, 11.963962, 5.233032, 13.789026, 5.976569, 7.631644, 14.813566, 4.115586, 4.797077, 5.994739, 6.705547, 4.475993, 9.488600999999999, 4.599885, 2.653621, 12.354016, 9.1119, 8.280286, 7.461207, 14.935584, 4.766944, 11.336983, 11.464302, 13.401063, 9.287742, 4.919063, 3.341309, 9.866275999999999, 10.416511, 4.406431, 5.355748, 14.425076, 3.61094, 10.318693, 14.131869];
cost = [254.03599, 608.925533, 296.007858, 431.830201, 98.259502, 300.342783, 42.123257, 420.620914, 579.310338, 390.730502, 38.804779, 13.721251, 315.868874, 185.114798, 441.854973, 243.002485, 489.382281, 271.737073, 462.595541, 341.866849, 287.799415, 374.771501, 162.450077, 237.127979, 384.338462, 1104.434157, 77.538586, 258.95297, 130.059712, 698.981646, 402.997615, 666.949029, 162.293988, 843.628441, 298.485635, 149.292421, 731.476213, 152.450315, 896.1039029999999, 888.672299, 840.46712, 373.833522, 724.730419, 53.694086, 882.129288, 97.98406199999999, 492.924229, 1078.717016, 914.146731, 1134.288745, 395.429577, 88.87305499999999, 307.117611, 168.180732, 144.785746, 98.15811100000001, 545.61071, 300.452171, 273.705421, 259.965083, 421.875576, 274.717836, 95.584327, 1086.037312, 522.158977, 1091.821049, 1039.625758, 131.958669, 954.571054, 395.285458, 779.752157, 686.884203, 361.017742, 839.137438, 411.223348, 884.932105, 843.326895, 797.921388, 516.186701, 353.357935, 97.928129, 36.353694, 471.46863, 553.971846, 982.853099, 380.230142, 446.400063, 13.139525, 499.638702, 115.12486, 195.689325, 150.085688, 352.399809, 593.771399, 342.268649, 404.766483];
earn = [2.469299, 2.081713, 1.296055, 1.570378, 1.873668, 1.652436, 2.253316, 1.628152, 2.195212, 0.747566, 2.271095, 0.15813, 0.902176, 0.335809, 1.798546, 1.242259, 0.187794, 1.606543, 1.881986, 0.065883, 0.520244, 0.625003, 1.905732, 2.569528, 0.260976, 0.106816, 2.206799, 1.968072, 1.035305, 1.366623, 0.317788, 1.189229, 1.191505, 2.084094, 0.58099, 1.470776, 2.127391, 0.8219379999999999, 1.278637, 1.180678, 0.145005, 0.627875, 1.156499, 0.7683990000000001, 0.867695, 0.966113, 0.731444, 0.335087, 0.413832, 0.16954, 0.860646, 0.872575, 0.842516, 0.950535, 0.038686, 0.251943, 0.541435, 1.321382, 0.320209, 0.884301, 1.839756, 1.683382, 1.197615, 1.580232, 1.546975, 1.939294, 0.4665, 2.453513, 1.122978, 0.24352, 0.209687, 1.424242, 2.553275, 1.087467, 3.312691, 0.753991, 1.184559, 0.73837, 2.509066, 3.166066, 2.910364, 0.199361, 2.783688, 1.098415, 1.495989, 0.735382, 1.568375, 0.628202, 1.383587, 2.442343, 0.961562, 2.264032, 1.440925, 0.185042, 1.272379, 0.024171];
total_cost = 40.38168704544564;
total_earn = 19.16851034500003;
