production = [0.0, 0.0, 0.0, 0.0, 0.0, 0.0, 0.0, 0.0, 0.0, 0.0, 0.0, 0.0, 0.0, 0.0, 0.0, 0.0, 0.0, 0.0, 0.0, 0.0, 0.0, 0.0, 0.0, 6.3e-05, 0.0, 0.00077, 0.002367, 0.000147, 0.003764, 0.016275, 0.049639, 0.034476, 0.07345400000000001, 0.088639, 0.304676, 0.335416, 0.784203, 0.085286, 0.583252, 0.832607, 0.201558, 0.58425, 0.010641, 0.590325, 0.849786, 0.716315, 0.043688, 1.443126, 1.302683, 1.184185, 0.970706, 0.246548, 0.737659, 0.051693, 1.928928, 0.400482, 0.950561, 0.605, 0.731561, 0.146459, 1.658397, 1.065243, 0.144301, 0.041734, 0.222893, 0.653687, 0.181105, 0.08766, 0.289441, 0.120312, 0.219272, 0.126418, 0.132741, 0.071279, 0.0963, 0.053919, 0.029086, 0.010876, 0.002481, 0.0, 0.000246, 0.0, 0.0, 0.0, 0.0, 0.0, 0.0, 0.0, 0.0, 0.0, 0.0, 0.0, 0.0, 0.0, 0.0, 0.0];
buy = [272.391389, 440.773259, 435.638739, 634.7478159999999, 206.995281, 137.004968, 890.497807, 995.689058, 224.872612, 156.726399, 155.098094, 767.287408, 719.768301, 461.108596, 259.916069, 631.156447, 27.435382, 204.424905, 767.371121, 282.471678, 565.553732, 102.316199, 612.580747, 845.7343509999999, 671.535111, 749.328855, 648.708214, 510.396123, 923.502598, 879.401052, 456.120973, 359.435374, 390.456517, 509.991077, 901.002719, 93.414734, 738.611801, 139.692944, 937.431015, 329.119042, 155.381946, 686.986864, 690.564859, 60.846357, 981.316767, 9.273661000000001, 339.529645, 302.130528, 534.971274, 27.290795, 744.62879, 200.025063, 736.17835, 712.992451, 334.239832, 862.85804, 661.957364, 776.924032, 331.663884, 920.267633, 843.367508, 659.883485, 626.919495, 445.628349, 457.281973, 796.7607839999999, 126.785864, 423.188175, 843.956349, 787.35774, 721.051951, 36.103049, 535.487804, 434.257, 624.847918, 567.477792, 730.022815, 27.648963, 960.89332, 335.403989, 567.857715, 220.327526, 613.7127410000001, 512.858536, 842.329198, 615.235133, 572.266898, 206.874839, 296.997074, 524.110424, 229.12007, 651.259959, 25.243365, 766.3934870000001, 415.193003, 987.818568];
sell = [0.564667, 0.107328, 3.840866, 3.591079, 1.302277, 3.058632, 1.279612, 3.742771, 3.120209, 3.629658, 0.725128, 3.725246, 0.642039, 0.453317, 3.062545, 0.449619, 1.230991, 1.967106, 1.812016, 2.065917, 0.619104, 2.329386, 1.357724, 2.706177, 3.344763, 1.743782, 3.327945, 1.170283, 1.679831, 1.883333, 3.767469, 3.659429, 1.763187, 2.077064, 2.575447, 0.958774, 0.919315, 1.651894, 1.583646, 2.359822, 1.766263, 1.362776, 2.387495, 2.301597, 0.03745, 3.707572, 3.748537, 2.143228, 1.329495, 3.820156, 1.225986, 3.935846, 1.483104, 1.153832, 0.056172, 1.647178, 1.017153, 1.541534, 0.732194, 0.202995, 3.312616, 2.930901, 0.950431, 0.849512, 1.73984, 1.717871, 0.527548, 2.517784, 1.206551, 1.767364, 3.695438, 0.5795169999999999, 0.000208, 3.331455, 1.262085, 0.571885, 0.465979, 1.148111, 1.129899, 0.727428, 0.509305, 2.266001, 0.157706, 0.153857, 1.128832, 2.424854, 0.7863, 2.369861, 2.612918, 2.093138, 3.829723, 1.485524, 3.428147, 2.328261, 3.664395, 3.717337];
charge = [0.476503, 0.400673, 0.8491570000000001, 0.001077, 0.243275, 0.444046, 0.378418, 0.492885, 0.373436, 0.673926, 0.081912, 0.177989, 0.964619, 0.919681, 0.8726159999999999, 0.210626, 0.71269, 0.151555, 0.167746, 0.324977, 0.02923, 0.01292, 0.966732, 0.423512, 0.544211, 0.915892, 0.599399, 0.602936, 0.988976, 0.492996, 0.726153, 0.02219, 0.467273, 0.777118, 0.263959, 0.789894, 0.365715, 0.540257, 0.8096950000000001, 0.8626549999999999, 0.987182, 0.512269, 0.875048, 0.191641, 0.092421, 0.124236, 0.155553, 0.060313, 0.02333, 0.014109, 0.15748, 0.59871, 0.090902, 0.337472, 0.387784, 0.844059, 0.994094, 0.070433, 0.841657, 0.630491, 0.257833, 0.771648, 0.9089469999999999, 0.603779, 0.20392, 0.572755, 0.124226, 0.915733, 0.892586, 0.76067, 0.181366, 0.04964, 0.841097, 0.853409, 0.70617, 0.529876, 0.301855, 0.374535, 0.467394, 0.191949, 0.542766, 0.692937, 0.78564, 0.622825, 0.652301, 0.290904, 0.310752, 0.656349, 0.748495, 0.746615, 0.370452, 0.889601, 0.164791, 0.365376, 0.186316, 0.106726];
discharge = [0.77505, 0.114778, 0.389132, 0.58872, 0.326585, 0.164471, 0.09933400000000001, 0.482303, 0.261451, 0.46375, 0.267287, 0.663683, 0.787231, 0.240731, 0.045697, 0.869274, 0.227564, 0.910075, 0.263131, 0.306342, 0.7392879999999999, 0.9406369999999999, 0.950547, 0.383424, 0.501037, 0.019075, 0.736595, 0.086232, 0.06898, 0.5788140000000001, 0.7775, 0.264631, 0.870115, 0.482123, 0.67413, 0.248949, 0.76952, 0.8554349999999999, 0.881798, 0.208782, 0.688365, 0.632032, 0.698358, 0.286527, 0.037179, 0.988123, 0.932549, 0.452795, 0.235737, 0.003408, 0.724814, 0.799576, 0.717428, 0.384199, 0.628571, 0.523255, 0.646678, 0.92054, 0.484937, 0.014029, 0.579194, 0.753848, 0.534532, 0.45727, 0.462081, 0.17198, 0.202876, 0.997766, 0.54622, 0.377018, 0.5496450000000001, 0.051754, 0.79931, 0.125709, 0.83044, 0.121898, 0.438698, 0.879835, 0.816912, 0.686248, 0.498555, 0.984863, 0.580444, 0.483936, 0.680821, 0.105227, 0.325629, 0.07735300000000001, 0.180619, 0.581082, 0.626704, 0.088199, 0.75332, 0.999374, 0.8124440000000001, 0.550966];
soc = [4.832933, 7.55628, 4.392007, 6.803721, 4.023965, 5.32489, 10.724879, 2.887933, 8.139631, 8.650282000000001, 5.762667, 13.096669, 13.796598, 8.845939, 6.170101, 7.832391, 2.946078, 3.737392, 10.948834, 7.749651, 4.021901, 15.586156, 14.890258, 4.812424, 14.209771, 14.415303, 6.38646, 7.905684, 14.746621, 11.150864, 4.045575, 5.102604, 5.955536, 14.858731, 3.339407, 10.622457, 8.004770000000001, 14.020638, 13.750898, 8.040046, 12.680327, 9.580850999999999, 9.437462, 3.022011, 9.967786, 11.978807, 4.836937, 5.888409, 4.649308, 10.64745, 6.32944, 10.379976, 14.400836, 15.476373, 15.449959, 5.839478, 7.691021, 3.514574, 11.438528, 7.345927, 14.830552, 8.505096, 9.286523000000001, 5.037219, 3.157503, 12.259334, 6.723846, 8.731339999999999, 8.042137, 11.998576, 12.52878, 9.411754, 9.762419, 3.574943, 9.157975, 13.842298, 7.66665, 4.799952, 6.016767, 14.330199, 2.8866, 14.706709, 14.18422, 11.081129, 9.311887, 5.722336, 14.151869, 5.305335, 5.140308, 5.655, 14.884281, 13.038185, 13.930436, 8.878354, 8.445829, 12.270662];
cost = [366.055454, 175.747519, 237.105108, 435.822289, 67.176101, 30.056277, 380.182811, 305.164548, 327.452131, 180.380201, 369.903233, 594.289174, 121.204384, 361.032508, 303.857069, 415.169618, 151.683963, 462.011279, 383.026522, 418.742344, 334.345342, 179.627123, 76.188737, 561.396833, 257.373124, 747.396927, 342.14798, 842.29928, 830.814, 523.305915, 768.359877, 577.7028319999999, 1074.604654, 154.918894, 613.995809, 685.339552, 1096.147089, 246.665214, 633.95192, 271.093679, 9.897532999999999, 782.103702, 527.254504, 1143.306226, 324.118639, 465.896034, 551.443371, 787.11883, 947.193413, 954.063356, 1034.295305, 329.017466, 56.801797, 519.679543, 261.777615, 50.39576, 94.734438, 73.55544500000001, 152.950025, 12.529476, 1073.878523, 857.154748, 612.761918, 1168.607471, 916.714195, 21.477075, 519.731793, 767.60087, 1063.90605, 1095.936264, 855.1966179999999, 464.650319, 183.46875, 1052.65116, 741.448499, 1121.743769, 663.0043010000001, 1066.525524, 139.31154, 725.2484899999999, 1168.241545, 778.678469, 389.607706, 828.708748, 800.299938, 303.769517, 312.360798, 181.344213, 428.096206, 339.778296, 422.786894, 74.679495, 402.012198, 162.826732, 456.397959, 354.647323];
earn = [1.970877, 1.140818, 1.672872, 0.227976, 1.690483, 1.587186, 0.772702, 0.651988, 2.160726, 0.800384, 2.071679, 0.991596, 0.773921, 1.073389, 1.870055, 1.387618, 0.731746, 1.065124, 1.724076, 1.569657, 0.476744, 1.18818, 1.005252, 2.078088, 0.643603, 2.740034, 0.029719, 1.85257, 2.674797, 1.569932, 0.966573, 2.495712, 0.015323, 0.950691, 2.054285, 1.213156, 1.707654, 1.183119, 1.474291, 1.151066, 0.381929, 1.205703, 0.380941, 0.062544, 0.17662, 0.364741, 0.38635, 0.43929, 0.218909, 0.291412, 0.290745, 0.42729, 0.195286, 0.132374, 0.164983, 0.053948, 0.43158, 0.198695, 0.226951, 0.4238, 0.249318, 0.961669, 0.285895, 1.125668, 1.497168, 1.931567, 1.203881, 0.506044, 2.107442, 1.727006, 2.35306, 0.113188, 0.9973649999999999, 0.920631, 0.199685, 0.584627, 1.979048, 1.607327, 2.807766, 3.545523, 2.358307, 0.69673, 2.913039, 2.510994, 2.333879, 0.855066, 0.266693, 1.576959, 0.165224, 0.176095, 2.367984, 1.552259, 0.873682, 1.096199, 0.543703, 1.842436];
total_cost = 40.35611510406613;
total_earn = 18.27000686445371;
