production = [0: 0.0, 1: 0.0, 2: 0.0, 3: 0.0, 4: 0.0, 5: 0.0, 6: 0.0, 7: 0.0, 8: 0.0, 9: 0.0, 10: 0.0, 11: 0.0, 12: 0.0, 13: 0.0, 14: 0.0, 15: 0.0, 16: 0.0, 17: 0.0, 18: 0.0, 19: 0.0, 20: 0.0, 21: 0.0, 22: 0.0, 23: 5.1e-05, 24: 0.0, 25: 0.000567, 26: 0.005071, 27: 0.007099, 28: 0.009175000000000001, 29: 0.05713, 30: 0.034483, 31: 0.05314, 32: 0.06884800000000001, 33: 0.162654, 34: 0.488193, 35: 0.515784, 36: 0.237369, 37: 0.485334, 38: 0.562926, 39: 1.178842, 40: 0.204552, 41: 0.469595, 42: 0.767661, 43: 1.621321, 44: 1.460961, 45: 0.597133, 46: 0.963185, 47: 0.110168, 48: 1.349655, 49: 0.038539, 50: 1.812459, 51: 0.645329, 52: 1.738094, 53: 0.839601, 54: 0.239729, 55: 1.611621, 56: 0.136878, 57: 0.243842, 58: 1.31283, 59: 1.566561, 60: 1.528588, 61: 0.950113, 62: 0.393274, 63: 0.690846, 64: 0.284747, 65: 0.919882, 66: 0.095737, 67: 0.188525, 68: 0.094786, 69: 0.272616, 70: 0.30493, 71: 0.096247, 72: 0.123175, 73: 0.061341, 74: 0.08687499999999999, 75: 0.048352, 76: 0.007222, 77: 0.003482, 78: 0.001566, 79: 0.0, 80: 0.000244, 81: 0.0, 82: 0.0, 83: 0.0, 84: 0.0, 85: 0.0, 86: 0.0, 87: 0.0, 88: 0.0, 89: 0.0, 90: 0.0, 91: 0.0, 92: 0.0, 93: 0.0, 94: 0.0, 95: 0.0];
buy = [0: 803.577483, 1: 740.271641, 2: 502.977175, 3: 554.035854, 4: 409.120161, 5: 412.517173, 6: 159.785709, 7: 990.948979, 8: 752.339941, 9: 139.19938, 10: 411.632202, 11: 700.016511, 12: 360.455121, 13: 784.596823, 14: 708.014598, 15: 929.268091, 16: 684.150125, 17: 55.452807, 18: 188.275458, 19: 212.624868, 20: 330.601741, 21: 988.361415, 22: 459.063437, 23: 434.242023, 24: 228.51014, 25: 971.727048, 26: 884.460317, 27: 89.250901, 28: 257.797489, 29: 552.8906019999999, 30: 765.451288, 31: 324.821739, 32: 838.345422, 33: 357.125475, 34: 926.0304620000001, 35: 422.924182, 36: 800.885774, 37: 878.980979, 38: 786.424788, 39: 819.067183, 40: 356.150934, 41: 858.6887, 42: 299.418119, 43: 872.614248, 44: 435.518995, 45: 940.148417, 46: 830.663641, 47: 837.828581, 48: 444.188399, 49: 216.886783, 50: 32.765953, 51: 112.626471, 52: 554.149132, 53: 76.049193, 54: 171.400523, 55: 153.232909, 56: 560.0737319999999, 57: 741.175823, 58: 773.593826, 59: 913.303577, 60: 854.919952, 61: 415.124347, 62: 726.420522, 63: 40.594608, 64: 34.775122, 65: 61.002939, 66: 353.367819, 67: 824.210606, 68: 96.99808899999999, 69: 424.425392, 70: 98.96724399999999, 71: 961.648314, 72: 260.538551, 73: 721.1701849999999, 74: 759.60577, 75: 201.611674, 76: 455.561757, 77: 785.1769389999999, 78: 414.536797, 79: 520.366823, 80: 25.76966, 81: 674.9209090000001, 82: 362.873977, 83: 219.250024, 84: 353.148203, 85: 61.293343, 86: 147.549929, 87: 75.531054, 88: 310.349734, 89: 7.088258, 90: 356.229152, 91: 22.919499, 92: 62.840689, 93: 359.564419, 94: 382.393312, 95: 633.921599];
sell = [0: 3.619648, 1: 3.878837, 2: 2.319569, 3: 3.067536, 4: 2.436079, 5: 3.507399, 6: 2.462131, 7: 0.687335, 8: 1.264122, 9: 1.004591, 10: 0.721847, 11: 0.98999, 12: 2.680856, 13: 1.390703, 14: 3.455187, 15: 1.345406, 16: 2.230206, 17: 1.945656, 18: 1.417964, 19: 0.230757, 20: 0.26654, 21: 2.42888, 22: 3.384452, 23: 0.031953, 24: 0.9914809999999999, 25: 1.33515, 26: 3.26256, 27: 2.159342, 28: 2.622311, 29: 3.259694, 30: 1.529914, 31: 0.521915, 32: 3.902313, 33: 0.666067, 34: 0.440533, 35: 2.692959, 36: 2.731105, 37: 0.165808, 38: 0.38198, 39: 0.616814, 40: 1.126177, 41: 3.451634, 42: 1.925242, 43: 3.22349, 44: 1.78387, 45: 2.11969, 46: 3.027617, 47: 3.460318, 48: 2.148097, 49: 2.393504, 50: 2.921125, 51: 1.054479, 52: 3.362577, 53: 2.700432, 54: 1.343732, 55: 3.354262, 56: 2.20964, 57: 2.795255, 58: 1.086837, 59: 0.650223, 60: 0.565647, 61: 2.641365, 62: 1.030952, 63: 0.92027, 64: 1.833383, 65: 0.96974, 66: 0.160874, 67: 1.03171, 68: 3.515978, 69: 0.997868, 70: 0.076641, 71: 1.692116, 72: 1.650205, 73: 1.611466, 74: 0.722863, 75: 3.678951, 76: 3.820783, 77: 3.983261, 78: 1.954763, 79: 1.758753, 80: 3.679915, 81: 1.258158, 82: 1.621034, 83: 0.61773, 84: 3.602196, 85: 3.60019, 86: 3.253469, 87: 1.779739, 88: 0.887512, 89: 2.677596, 90: 3.954484, 91: 2.657035, 92: 3.931667, 93: 2.727554, 94: 2.403307, 95: 0.674095];
charge = [0: 0.594916, 1: 0.300163, 2: 0.783581, 3: 0.899527, 4: 0.479113, 5: 0.02852, 6: 0.44525, 7: 0.72694, 8: 0.035072, 9: 0.512069, 10: 0.035005, 11: 0.719238, 12: 0.643431, 13: 0.920094, 14: 0.119414, 15: 0.586367, 16: 0.008293999999999999, 17: 0.637481, 18: 0.448602, 19: 0.57811, 20: 0.062615, 21: 0.395203, 22: 0.362023, 23: 0.633001, 24: 0.929529, 25: 0.00864, 26: 0.07307, 27: 0.754407, 28: 0.914153, 29: 0.6546650000000001, 30: 0.610725, 31: 0.916109, 32: 0.090737, 33: 0.597584, 34: 0.71073, 35: 0.958564, 36: 0.487523, 37: 0.245991, 38: 0.198214, 39: 0.004045, 40: 0.223223, 41: 0.400896, 42: 0.242332, 43: 0.814254, 44: 0.491986, 45: 0.917867, 46: 0.202002, 47: 0.627726, 48: 0.372399, 49: 0.430336, 50: 0.348475, 51: 0.5039940000000001, 52: 0.225192, 53: 0.120033, 54: 0.343377, 55: 0.654651, 56: 0.869846, 57: 0.074625, 58: 0.883043, 59: 0.723338, 60: 0.016141, 61: 0.885759, 62: 0.099222, 63: 0.509534, 64: 0.091887, 65: 0.293493, 66: 0.286013, 67: 0.996886, 68: 0.388121, 69: 0.195645, 70: 0.461781, 71: 0.711553, 72: 0.135951, 73: 0.428413, 74: 0.273991, 75: 0.752084, 76: 0.12673, 77: 0.860398, 78: 0.107749, 79: 0.502825, 80: 0.516429, 81: 0.353666, 82: 0.55911, 83: 0.960389, 84: 0.046787, 85: 0.363248, 86: 0.424943, 87: 0.192473, 88: 0.844905, 89: 0.84045, 90: 0.183154, 91: 0.190904, 92: 0.72429, 93: 0.596096, 94: 0.411221, 95: 0.082735];
discharge = [0: 0.824204, 1: 0.6225039999999999, 2: 0.53814, 3: 0.321883, 4: 0.055468, 5: 0.618156, 6: 0.7597429999999999, 7: 0.950574, 8: 0.066704, 9: 0.181027, 10: 0.583735, 11: 0.167163, 12: 0.392495, 13: 0.981236, 14: 0.430794, 15: 0.505837, 16: 0.461802, 17: 0.051016, 18: 0.534887, 19: 0.27984, 20: 0.384245, 21: 0.866648, 22: 0.5427650000000001, 23: 0.346478, 24: 0.425868, 25: 0.14366, 26: 0.828573, 27: 0.884533, 28: 0.333281, 29: 0.069816, 30: 0.9961100000000001, 31: 0.364066, 32: 0.916088, 33: 0.7404849999999999, 34: 0.5669729999999999, 35: 0.703052, 36: 0.151273, 37: 0.528271, 38: 0.117645, 39: 0.171199, 40: 0.753418, 41: 0.309455, 42: 0.462496, 43: 0.337107, 44: 0.045318, 45: 0.5767060000000001, 46: 0.9182169999999999, 47: 0.00475, 48: 0.9704660000000001, 49: 0.213141, 50: 0.461738, 51: 0.452305, 52: 0.595794, 53: 0.36872, 54: 0.172086, 55: 0.713131, 56: 0.822288, 57: 0.157588, 58: 0.002188, 59: 0.844405, 60: 0.375029, 61: 0.441885, 62: 0.521849, 63: 0.900495, 64: 0.130755, 65: 0.412728, 66: 0.905703, 67: 0.325254, 68: 0.9258459999999999, 69: 0.73652, 70: 0.396931, 71: 0.05048, 72: 0.575922, 73: 0.286297, 74: 0.7611520000000001, 75: 0.501956, 76: 0.565679, 77: 0.250787, 78: 0.894074, 79: 0.419321, 80: 0.461547, 81: 0.613044, 82: 0.547132, 83: 0.8982, 84: 0.08740199999999999, 85: 0.800695, 86: 0.613032, 87: 0.313228, 88: 0.518449, 89: 0.548026, 90: 0.624678, 91: 0.158816, 92: 0.582596, 93: 0.268479, 94: 0.35647, 95: 0.230918];
soc = [0: 6.647171, 1: 6.777877, 2: 5.616088, 3: 3.008276, 4: 6.285137, 5: 2.995247, 6: 10.918018, 7: 8.342466, 8: 7.754304, 9: 14.544193, 10: 10.140987, 11: 10.545172, 12: 14.68633, 13: 3.07645, 14: 9.809875, 15: 9.394378, 16: 11.733104, 17: 12.424984, 18: 7.904428, 19: 12.098499, 20: 15.657501, 21: 8.179273, 22: 4.712185, 23: 13.321965, 24: 9.793867000000001, 25: 10.630052, 26: 7.651875, 27: 14.079594, 28: 11.142457, 29: 8.450429, 30: 6.865453, 31: 3.084128, 32: 13.767895, 33: 9.529431000000001, 34: 8.674537000000001, 35: 14.896278, 36: 9.402423000000001, 37: 9.527552, 38: 6.478772, 39: 15.295112, 40: 12.412654, 41: 11.446317, 42: 9.214001, 43: 4.120388, 44: 8.059272999999999, 45: 4.555298, 46: 12.431952, 47: 3.240993, 48: 5.266435, 49: 7.198467, 50: 5.872149, 51: 15.167728, 52: 14.486459, 53: 9.564333, 54: 13.126308, 55: 2.73896, 56: 6.831004, 57: 11.789611, 58: 12.867889, 59: 4.789341, 60: 14.767212, 61: 15.513608, 62: 4.079962, 63: 3.15604, 64: 6.16208, 65: 13.658766, 66: 10.084792, 67: 6.033678, 68: 13.335176, 69: 14.006369, 70: 11.67956, 71: 13.88786, 72: 5.631299, 73: 12.829156, 74: 7.824973, 75: 5.53289, 76: 5.37871, 77: 9.237937000000001, 78: 14.473571, 79: 14.07045, 80: 14.120947, 81: 5.697329, 82: 10.640747, 83: 15.548395, 84: 12.639414, 85: 5.366966, 86: 14.091364, 87: 14.586013, 88: 6.425537, 89: 8.900154000000001, 90: 3.046256, 91: 7.121669, 92: 8.056094, 93: 11.796626, 94: 4.650278, 95: 9.379739000000001];
cost = [0: 91.876813, 1: 332.427037, 2: 486.956781, 3: 451.56993, 4: 395.396074, 5: 180.991782, 6: 368.962184, 7: 261.269945, 8: 268.134117, 9: 585.591225, 10: 245.719161, 11: 577.6846839999999, 12: 348.604061, 13: 252.003536, 14: 509.214677, 15: 349.209575, 16: 407.844333, 17: 106.466581, 18: 204.021068, 19: 26.791644, 20: 366.333228, 21: 129.231462, 22: 25.435269, 23: 561.56668, 24: 1163.367838, 25: 163.981353, 26: 768.615462, 27: 449.474522, 28: 930.105573, 29: 805.086317, 30: 475.467524, 31: 202.408835, 32: 959.375936, 33: 320.680308, 34: 845.903822, 35: 164.99603, 36: 764.028963, 37: 82.66773000000001, 38: 466.812693, 39: 824.83082, 40: 637.8533640000001, 41: 79.029212, 42: 1022.689975, 43: 929.472439, 44: 872.57948, 45: 835.202904, 46: 640.982797, 47: 277.930761, 48: 664.137964, 49: 541.201821, 50: 454.727099, 51: 1085.848438, 52: 19.660714, 53: 256.104573, 54: 425.935683, 55: 315.004407, 56: 109.43739, 57: 484.266085, 58: 557.960214, 59: 452.163, 60: 165.91018, 61: 876.003726, 62: 519.283951, 63: 235.589055, 64: 179.863692, 65: 126.696891, 66: 1056.861433, 67: 666.0046170000001, 68: 172.340847, 69: 1013.725638, 70: 398.905358, 71: 792.580601, 72: 881.0595039999999, 73: 855.816455, 74: 117.898109, 75: 918.99893, 76: 535.357177, 77: 472.552756, 78: 905.2924410000001, 79: 404.038716, 80: 776.53694, 81: 898.076007, 82: 723.898885, 83: 141.127558, 84: 517.23239, 85: 701.048766, 86: 612.144257, 87: 817.748961, 88: 523.4910609999999, 89: 100.308253, 90: 451.142928, 91: 48.291199, 92: 37.744284, 93: 290.220698, 94: 320.477801, 95: 226.704228];
earn = [0: 1.003233, 1: 1.043064, 2: 0.906407, 3: 0.248168, 4: 0.516775, 5: 0.735979, 6: 2.000552, 7: 1.241771, 8: 1.609616, 9: 2.04004, 10: 1.592304, 11: 1.459897, 12: 0.8328950000000001, 13: 0.08071200000000001, 14: 1.096532, 15: 1.060487, 16: 0.9869599999999999, 17: 0.97992, 18: 1.839373, 19: 0.412022, 20: 0.445268, 21: 0.436453, 22: 0.663678, 23: 1.805591, 24: 2.776317, 25: 0.199281, 26: 0.350026, 27: 2.293919, 28: 1.789844, 29: 2.778705, 30: 1.339998, 31: 2.130747, 32: 2.417546, 33: 2.53005, 34: 0.729704, 35: 1.133276, 36: 0.699279, 37: 0.337361, 38: 0.985891, 39: 0.835275, 40: 0.020541, 41: 0.307095, 42: 0.93871, 43: 0.454848, 44: 0.646307, 45: 0.778451, 46: 0.111538, 47: 0.116074, 48: 0.47874, 49: 0.220376, 50: 0.396641, 51: 0.152804, 52: 0.033098, 53: 0.10252, 54: 0.100997, 55: 0.091765, 56: 0.117342, 57: 0.681621, 58: 0.17859, 59: 0.237458, 60: 0.147923, 61: 0.171427, 62: 1.099838, 63: 1.156359, 64: 1.213899, 65: 0.119444, 66: 0.110889, 67: 1.451051, 68: 1.029227, 69: 1.37949, 70: 1.601337, 71: 0.902854, 72: 1.409753, 73: 0.51458, 74: 1.167762, 75: 0.909769, 76: 3.1953, 77: 1.943966, 78: 3.322497, 79: 2.866107, 80: 2.698694, 81: 0.235576, 82: 0.69379, 83: 1.869063, 84: 2.844951, 85: 0.016652, 86: 1.910491, 87: 0.614803, 88: 0.826194, 89: 2.726937, 90: 0.734688, 91: 1.625223, 92: 2.014598, 93: 0.452166, 94: 1.740062, 95: 0.886068];
total_cost = 49.10539912327706;
total_earn = 19.06153338806314;
