production = [0: 0.0, 1: 0.0, 2: 0.0, 3: 0.0, 4: 0.0, 5: 0.0, 6: 0.0, 7: 0.0, 8: 0.0, 9: 0.0, 10: 0.0, 11: 0.0, 12: 0.0, 13: 0.0, 14: 0.0, 15: 0.0, 16: 0.0, 17: 0.0, 18: 0.0, 19: 0.0, 20: 0.0, 21: 0.0, 22: 0.0, 23: 0.000225, 24: 0.0, 25: 0.000749, 26: 0.004876, 27: 0.012935, 28: 0.035921, 29: 0.021245, 30: 0.049644, 31: 0.054051, 32: 0.027319, 33: 0.011212, 34: 0.413111, 35: 0.035975, 36: 0.706966, 37: 0.614183, 38: 0.86954, 39: 0.511786, 40: 0.560894, 41: 0.448401, 42: 1.548708, 43: 0.474682, 44: 1.65517, 45: 1.658168, 46: 0.353154, 47: 0.138837, 48: 1.642866, 49: 0.077768, 50: 1.940376, 51: 1.35965, 52: 1.738438, 53: 0.303724, 54: 0.954672, 55: 1.212586, 56: 1.314129, 57: 0.879897, 58: 0.426434, 59: 0.86021, 60: 1.012667, 61: 0.580184, 62: 0.020418, 63: 0.875479, 64: 0.430315, 65: 0.598117, 66: 0.06657200000000001, 67: 0.514216, 68: 0.172007, 69: 0.275608, 70: 0.588522, 71: 0.22443, 72: 0.116529, 73: 0.087202, 74: 0.07341200000000001, 75: 0.075237, 76: 0.002625, 77: 0.011462, 78: 0.000193, 79: 0.0, 80: 6e-06, 81: 0.0, 82: 0.0, 83: 0.0, 84: 0.0, 85: 0.0, 86: 0.0, 87: 0.0, 88: 0.0, 89: 0.0, 90: 0.0, 91: 0.0, 92: 0.0, 93: 0.0, 94: 0.0, 95: 0.0];
buy = [0: 925.884016, 1: 943.935296, 2: 465.590246, 3: 799.170641, 4: 782.187419, 5: 849.086503, 6: 391.338057, 7: 332.862531, 8: 493.132805, 9: 350.909218, 10: 432.91837, 11: 366.041982, 12: 888.669054, 13: 954.17422, 14: 940.547171, 15: 991.520277, 16: 184.883126, 17: 442.528984, 18: 930.480567, 19: 682.221048, 20: 175.8095, 21: 99.523171, 22: 218.751072, 23: 814.184991, 24: 717.42827, 25: 223.770874, 26: 485.02308, 27: 611.261261, 28: 756.310473, 29: 417.251325, 30: 164.290461, 31: 422.895809, 32: 84.127419, 33: 819.171847, 34: 921.20037, 35: 167.704858, 36: 662.159545, 37: 827.224827, 38: 446.901726, 39: 545.4554419999999, 40: 809.8102689999999, 41: 877.019847, 42: 44.405328, 43: 744.971166, 44: 805.473775, 45: 781.637619, 46: 691.284822, 47: 390.287735, 48: 378.299401, 49: 352.251568, 50: 868.816014, 51: 567.8876289999999, 52: 598.774331, 53: 383.582491, 54: 933.384468, 55: 246.913792, 56: 283.896174, 57: 797.138735, 58: 274.695871, 59: 351.087973, 60: 640.407642, 61: 309.892351, 62: 941.697148, 63: 574.496546, 64: 786.6527, 65: 580.0749929999999, 66: 432.690941, 67: 487.044512, 68: 601.009005, 69: 326.705496, 70: 907.55634, 71: 491.774905, 72: 138.080552, 73: 664.111144, 74: 516.210763, 75: 56.237923, 76: 661.362725, 77: 689.430442, 78: 567.214249, 79: 81.725331, 80: 897.2953690000001, 81: 654.762669, 82: 365.966144, 83: 944.143988, 84: 196.610079, 85: 284.284584, 86: 795.433226, 87: 815.6862149999999, 88: 153.806613, 89: 561.599518, 90: 679.689822, 91: 899.559212, 92: 667.0939959999999, 93: 690.047863, 94: 681.968441, 95: 234.478354];
sell = [0: 0.839426, 1: 3.264297, 2: 0.65588, 3: 3.310976, 4: 0.906887, 5: 3.740965, 6: 0.835562, 7: 0.715446, 8: 2.942399, 9: 0.594513, 10: 1.460883, 11: 3.932129, 12: 1.613887, 13: 0.577141, 14: 3.936175, 15: 3.468988, 16: 3.121428, 17: 3.640102, 18: 2.405714, 19: 2.983281, 20: 3.528928, 21: 3.356452, 22: 1.494967, 23: 2.730115, 24: 1.585617, 25: 0.08455699999999999, 26: 1.885865, 27: 2.694002, 28: 0.04547, 29: 1.195597, 30: 3.81369, 31: 0.355756, 32: 1.603458, 33: 3.718969, 34: 1.881274, 35: 3.109127, 36: 1.021291, 37: 3.721586, 38: 2.05389, 39: 2.504674, 40: 3.723656, 41: 0.503617, 42: 1.839467, 43: 3.401014, 44: 1.322695, 45: 1.17141, 46: 3.481327, 47: 1.3533, 48: 1.497958, 49: 2.781747, 50: 0.07552200000000001, 51: 0.347167, 52: 1.375053, 53: 1.765211, 54: 0.000652, 55: 1.450547, 56: 0.048032, 57: 2.652202, 58: 2.656826, 59: 0.880866, 60: 0.372573, 61: 0.022423, 62: 0.571975, 63: 2.604343, 64: 0.004902, 65: 0.756042, 66: 1.867156, 67: 1.194406, 68: 2.765067, 69: 1.564694, 70: 1.978046, 71: 0.327314, 72: 2.463939, 73: 2.409009, 74: 0.986938, 75: 1.336137, 76: 2.831886, 77: 3.677686, 78: 0.893106, 79: 1.343941, 80: 2.357982, 81: 0.09504, 82: 0.156868, 83: 1.529947, 84: 1.646518, 85: 0.373851, 86: 0.070785, 87: 2.913804, 88: 3.367437, 89: 3.433745, 90: 3.339131, 91: 1.952185, 92: 0.759943, 93: 1.527772, 94: 2.841069, 95: 2.154667];
charge = [0: 0.07596, 1: 0.879436, 2: 0.111474, 3: 0.201468, 4: 0.68306, 5: 0.751393, 6: 0.999741, 7: 0.294433, 8: 0.568812, 9: 0.831522, 10: 0.528506, 11: 0.770413, 12: 0.249409, 13: 0.937607, 14: 0.352802, 15: 0.322961, 16: 0.615792, 17: 0.483066, 18: 0.319946, 19: 0.643824, 20: 0.843488, 21: 0.09975000000000001, 22: 0.317933, 23: 0.637578, 24: 0.446427, 25: 0.846171, 26: 0.304642, 27: 0.149789, 28: 0.672022, 29: 0.557494, 30: 0.461574, 31: 0.071329, 32: 0.512664, 33: 0.625509, 34: 0.204421, 35: 0.995932, 36: 0.151491, 37: 0.047641, 38: 0.10145, 39: 0.810008, 40: 0.4589, 41: 0.476087, 42: 0.472241, 43: 0.462911, 44: 0.463837, 45: 0.362084, 46: 0.493419, 47: 0.89978, 48: 0.007787, 49: 0.040343, 50: 0.071225, 51: 0.313051, 52: 0.508378, 53: 0.970824, 54: 0.804357, 55: 0.912193, 56: 0.319816, 57: 0.364579, 58: 0.48998, 59: 0.001809, 60: 0.984185, 61: 0.334793, 62: 0.257545, 63: 0.798642, 64: 0.411725, 65: 0.339733, 66: 0.008689000000000001, 67: 0.406051, 68: 0.545163, 69: 0.831005, 70: 0.138796, 71: 0.049387, 72: 0.033958, 73: 0.734375, 74: 0.63769, 75: 0.132542, 76: 0.431043, 77: 0.196129, 78: 0.69841, 79: 0.045343, 80: 0.808963, 81: 0.524432, 82: 0.185147, 83: 0.274237, 84: 0.626696, 85: 0.750387, 86: 0.827473, 87: 0.497982, 88: 0.44849, 89: 0.83871, 90: 0.839913, 91: 0.141732, 92: 0.285382, 93: 0.701056, 94: 0.403407, 95: 0.687597];
discharge = [0: 0.185872, 1: 0.849181, 2: 0.790357, 3: 0.941649, 4: 0.666208, 5: 0.464799, 6: 0.762615, 7: 0.779645, 8: 0.892634, 9: 0.010913, 10: 0.648488, 11: 0.646895, 12: 0.136194, 13: 0.557325, 14: 0.491903, 15: 0.978843, 16: 0.8796580000000001, 17: 0.656709, 18: 0.412145, 19: 0.7010459999999999, 20: 0.951122, 21: 0.103123, 22: 0.268057, 23: 0.04804, 24: 0.403472, 25: 0.271334, 26: 0.812447, 27: 0.9533779999999999, 28: 0.8660369999999999, 29: 0.467643, 30: 0.961407, 31: 0.475038, 32: 0.180283, 33: 0.692878, 34: 0.803021, 35: 0.702209, 36: 0.133824, 37: 0.238084, 38: 0.354705, 39: 0.351557, 40: 0.555778, 41: 0.739339, 42: 0.025727, 43: 0.919542, 44: 0.964081, 45: 0.440911, 46: 0.133879, 47: 0.973324, 48: 0.935511, 49: 0.604216, 50: 0.91261, 51: 0.014041, 52: 0.805361, 53: 0.564005, 54: 0.9817939999999999, 55: 0.743611, 56: 0.164663, 57: 0.100869, 58: 0.818806, 59: 0.613784, 60: 0.753374, 61: 0.17586, 62: 0.961666, 63: 0.134773, 64: 0.689025, 65: 0.807413, 66: 0.797022, 67: 0.820393, 68: 0.462521, 69: 0.92478, 70: 0.332191, 71: 0.187776, 72: 0.153757, 73: 0.94437, 74: 0.702721, 75: 0.393573, 76: 0.186092, 77: 0.441878, 78: 0.281307, 79: 0.050866, 80: 0.723822, 81: 0.679962, 82: 0.126498, 83: 0.405445, 84: 0.892994, 85: 0.409312, 86: 0.109206, 87: 0.809867, 88: 0.980415, 89: 0.536268, 90: 0.977386, 91: 0.9417489999999999, 92: 0.697864, 93: 0.640405, 94: 0.774465, 95: 0.509249];
soc = [0: 6.023685, 1: 5.392038, 2: 3.489302, 3: 8.410928, 4: 4.020562, 5: 9.690414000000001, 6: 10.546318, 7: 6.467937, 8: 6.608649, 9: 8.048579999999999, 10: 6.017763, 11: 10.471838, 12: 10.85936, 13: 10.127108, 14: 3.838743, 15: 10.230016, 16: 14.45372, 17: 9.445297, 18: 12.96813, 19: 4.96633, 20: 2.934529, 21: 8.340165000000001, 22: 9.0059, 23: 6.435332, 24: 4.165084, 25: 14.54067, 26: 9.016837000000001, 27: 14.983243, 28: 13.224715, 29: 14.175335, 30: 11.306781, 31: 4.232709, 32: 7.599226, 33: 6.150974, 34: 11.818035, 35: 12.197678, 36: 7.435565, 37: 4.417565, 38: 9.035833999999999, 39: 8.495495999999999, 40: 15.64467, 41: 7.095708, 42: 4.419598, 43: 8.025748, 44: 6.844328, 45: 10.353556, 46: 10.427558, 47: 7.233838, 48: 8.069983000000001, 49: 8.283381, 50: 9.187086000000001, 51: 8.983549, 52: 15.455285, 53: 14.059042, 54: 4.657376, 55: 7.231423, 56: 6.116336, 57: 7.544257, 58: 6.082561, 59: 12.235153, 60: 8.006634, 61: 13.44221, 62: 13.389419, 63: 10.632033, 64: 9.890063, 65: 11.265242, 66: 15.594665, 67: 14.40124, 68: 14.019891, 69: 6.929945, 70: 4.817398, 71: 7.512431, 72: 15.359989, 73: 2.88374, 74: 11.399059, 75: 9.451722999999999, 76: 4.643636, 77: 13.098983, 78: 14.924614, 79: 15.325091, 80: 7.716484, 81: 14.171985, 82: 14.805388, 83: 5.510011, 84: 12.697886, 85: 4.70851, 86: 2.794378, 87: 8.805455, 88: 13.024359, 89: 12.839311, 90: 3.260893, 91: 13.708904, 92: 13.732524, 93: 2.848683, 94: 8.847008000000001, 95: 14.596741];
cost = [0: 77.696866, 1: 538.816437, 2: 101.734276, 3: 442.272358, 4: 250.596265, 5: 230.252987, 6: 529.534079, 7: 109.743354, 8: 597.514825, 9: 2.378419, 10: 547.1915310000001, 11: 116.026038, 12: 377.038228, 13: 307.912175, 14: 415.720085, 15: 267.025598, 16: 6.531637, 17: 331.397027, 18: 91.073216, 19: 201.974325, 20: 233.304887, 21: 576.3427349999999, 22: 496.043156, 23: 495.453068, 24: 674.642804, 25: 356.547368, 26: 1063.297399, 27: 24.305725, 28: 1111.735651, 29: 294.885971, 30: 608.1351560000001, 31: 450.48378, 32: 772.640701, 33: 711.697722, 34: 292.670136, 35: 659.948923, 36: 1081.065467, 37: 636.629922, 38: 132.647989, 39: 540.591171, 40: 1105.374562, 41: 1186.547421, 42: 287.125525, 43: 91.6229, 44: 811.86947, 45: 531.372748, 46: 285.103438, 47: 413.329958, 48: 415.372813, 49: 1024.021153, 50: 708.1148010000001, 51: 335.565378, 52: 452.74797, 53: 512.369906, 54: 201.664613, 55: 160.576678, 56: 29.185434, 57: 230.146879, 58: 328.490856, 59: 296.398358, 60: 389.039971, 61: 540.200198, 62: 198.424213, 63: 970.468935, 64: 337.643143, 65: 1085.065265, 66: 609.85419, 67: 524.430659, 68: 20.345015, 69: 626.262972, 70: 487.213454, 71: 421.572931, 72: 652.223977, 73: 858.701788, 74: 1159.70915, 75: 800.432037, 76: 1118.503898, 77: 636.186394, 78: 994.088562, 79: 23.149219, 80: 868.709158, 81: 223.64866, 82: 868.406492, 83: 490.074278, 84: 1074.380857, 85: 1075.390015, 86: 150.912535, 87: 152.360931, 88: 304.702371, 89: 187.463451, 90: 591.029713, 91: 55.918238, 92: 32.691025, 93: 573.606523, 94: 533.38554, 95: 53.949363];
earn = [0: 2.288313, 1: 2.146763, 2: 1.506192, 3: 2.446187, 4: 1.101444, 5: 1.932467, 6: 0.400326, 7: 0.029833, 8: 2.202138, 9: 2.02138, 10: 2.252842, 11: 1.729037, 12: 1.438136, 13: 0.081583, 14: 2.189232, 15: 0.578366, 16: 2.311555, 17: 2.007925, 18: 1.0155, 19: 0.11299, 20: 1.650302, 21: 1.79324, 22: 1.835389, 23: 0.267854, 24: 2.326319, 25: 0.685881, 26: 3.149146, 27: 2.611916, 28: 0.78244, 29: 2.934206, 30: 3.388381, 31: 1.651201, 32: 2.852263, 33: 2.663019, 34: 1.756967, 35: 2.120987, 36: 2.008461, 37: 2.03951, 38: 1.280035, 39: 1.136144, 40: 1.210762, 41: 1.062585, 42: 0.048024, 43: 1.116753, 44: 0.855262, 45: 0.708551, 46: 0.719861, 47: 0.09105000000000001, 48: 0.704765, 49: 0.071454, 50: 0.349337, 51: 0.269593, 52: 0.075776, 53: 0.172853, 54: 0.136466, 55: 0.179772, 56: 0.259096, 57: 0.61436, 58: 0.432166, 59: 0.467187, 60: 0.427945, 61: 1.148258, 62: 0.6220869999999999, 63: 0.121795, 64: 0.113093, 65: 0.547214, 66: 1.199398, 67: 1.991098, 68: 1.270821, 69: 0.191299, 70: 1.880502, 71: 0.235893, 72: 2.714366, 73: 1.40521, 74: 2.132021, 75: 1.090463, 76: 1.998679, 77: 3.217967, 78: 3.209587, 79: 2.565356, 80: 1.120811, 81: 3.054631, 82: 0.917266, 83: 0.744631, 84: 2.764533, 85: 2.450009, 86: 1.07081, 87: 1.17739, 88: 2.22813, 89: 1.767288, 90: 1.254063, 91: 2.192501, 92: 0.453678, 93: 0.267906, 94: 0.292214, 95: 0.465239];
total_cost = 42.04897146005159;
total_earn = 19.02135235600001;
