production = [0: 0.0, 1: 0.0, 2: 0.0, 3: 0.0, 4: 0.0, 5: 0.0, 6: 0.0, 7: 0.0, 8: 0.0, 9: 0.0, 10: 0.0, 11: 0.0, 12: 0.0, 13: 0.0, 14: 0.0, 15: 0.0, 16: 0.0, 17: 0.0, 18: 0.0, 19: 0.0, 20: 0.0, 21: 0.0, 22: 0.0, 23: 0.000161, 24: 0.0, 25: 0.000737, 26: 0.008477999999999999, 27: 0.020049, 28: 0.034303, 29: 0.047175, 30: 0.023794, 31: 0.072827, 32: 0.190866, 33: 0.126679, 34: 0.025461, 35: 0.328614, 36: 0.518062, 37: 0.502637, 38: 0.762504, 39: 0.830682, 40: 1.03812, 41: 0.247965, 42: 1.353742, 43: 0.537882, 44: 1.212128, 45: 0.387555, 46: 0.609411, 47: 1.586008, 48: 1.21081, 49: 0.234759, 50: 1.187909, 51: 0.477667, 52: 0.797802, 53: 1.591179, 54: 1.307253, 55: 1.456132, 56: 0.003523, 57: 0.339659, 58: 0.261595, 59: 0.89571, 60: 0.918956, 61: 0.684275, 62: 1.257826, 63: 0.750089, 64: 0.578955, 65: 1.050097, 66: 0.681065, 67: 0.035351, 68: 0.425527, 69: 0.321614, 70: 0.388654, 71: 0.286371, 72: 0.025673, 73: 0.087712, 74: 0.035893, 75: 0.061629, 76: 0.006926, 77: 0.001986, 78: 0.0018, 79: 0.0, 80: 2.9e-05, 81: 0.0, 82: 0.0, 83: 0.0, 84: 0.0, 85: 0.0, 86: 0.0, 87: 0.0, 88: 0.0, 89: 0.0, 90: 0.0, 91: 0.0, 92: 0.0, 93: 0.0, 94: 0.0, 95: 0.0];
buy = [0: 703.656604, 1: 506.590303, 2: 679.518833, 3: 697.044847, 4: 292.687494, 5: 230.884153, 6: 137.503834, 7: 198.283568, 8: 597.689075, 9: 770.86803, 10: 529.8209900000001, 11: 261.920748, 12: 140.377909, 13: 502.254254, 14: 955.1709959999999, 15: 291.980032, 16: 96.54373, 17: 803.720825, 18: 503.208645, 19: 912.359109, 20: 802.282973, 21: 144.722411, 22: 294.984984, 23: 137.186596, 24: 817.74676, 25: 788.068932, 26: 265.922966, 27: 358.371803, 28: 187.046762, 29: 325.53664, 30: 298.215371, 31: 930.732172, 32: 106.551062, 33: 251.258754, 34: 756.1036329999999, 35: 406.288128, 36: 819.4147850000001, 37: 662.512458, 38: 629.347954, 39: 520.223999, 40: 679.439475, 41: 766.671753, 42: 479.172794, 43: 84.70285800000001, 44: 689.047913, 45: 325.767155, 46: 796.09555, 47: 743.525387, 48: 912.6108, 49: 289.747094, 50: 338.932764, 51: 578.412889, 52: 862.805555, 53: 841.7235449999999, 54: 244.241846, 55: 756.2951420000001, 56: 831.678826, 57: 612.202351, 58: 374.367936, 59: 331.092831, 60: 645.510165, 61: 393.083729, 62: 385.903464, 63: 789.936271, 64: 28.551801, 65: 719.5840490000001, 66: 890.523132, 67: 618.527137, 68: 892.429543, 69: 99.492926, 70: 323.118647, 71: 412.124928, 72: 58.781712, 73: 834.432768, 74: 912.5412679999999, 75: 148.882048, 76: 3.009809, 77: 406.003105, 78: 76.900188, 79: 34.413254, 80: 956.907259, 81: 390.286919, 82: 192.461537, 83: 258.325446, 84: 853.722118, 85: 274.708616, 86: 616.920609, 87: 35.779334, 88: 254.149368, 89: 551.223761, 90: 357.163989, 91: 381.094328, 92: 103.744622, 93: 851.117244, 94: 547.872852, 95: 892.409733];
sell = [0: 2.678194, 1: 3.969999, 2: 0.864806, 3: 3.981886, 4: 0.046156, 5: 0.342469, 6: 3.09591, 7: 2.926661, 8: 3.867508, 9: 2.523003, 10: 0.537844, 11: 0.425817, 12: 0.657837, 13: 3.888221, 14: 0.248547, 15: 1.503823, 16: 2.900948, 17: 3.264956, 18: 0.666453, 19: 1.007665, 20: 2.802601, 21: 0.833266, 22: 2.422371, 23: 0.372735, 24: 0.125231, 25: 3.968569, 26: 0.881416, 27: 3.663014, 28: 2.590037, 29: 0.9095259999999999, 30: 0.641664, 31: 3.869984, 32: 3.474345, 33: 1.545782, 34: 3.940093, 35: 1.829344, 36: 2.870633, 37: 1.101339, 38: 1.376708, 39: 1.11516, 40: 1.515597, 41: 3.828168, 42: 3.247065, 43: 2.712925, 44: 0.234489, 45: 3.821086, 46: 3.61281, 47: 2.115232, 48: 3.050678, 49: 2.42178, 50: 1.511714, 51: 3.191265, 52: 0.271802, 53: 2.203081, 54: 1.033665, 55: 3.321007, 56: 0.659403, 57: 1.704844, 58: 3.234711, 59: 0.109508, 60: 2.894027, 61: 3.495458, 62: 3.164208, 63: 0.315587, 64: 1.09746, 65: 1.182026, 66: 1.227167, 67: 1.57968, 68: 0.281009, 69: 3.098274, 70: 0.37403, 71: 2.56711, 72: 3.697977, 73: 3.811702, 74: 3.964204, 75: 1.216678, 76: 3.724786, 77: 3.37751, 78: 0.787724, 79: 1.356107, 80: 0.999475, 81: 0.127843, 82: 3.883976, 83: 2.767841, 84: 3.807053, 85: 0.31043, 86: 0.664683, 87: 2.121306, 88: 3.081173, 89: 2.287161, 90: 0.312903, 91: 1.7696, 92: 0.279612, 93: 2.115487, 94: 0.213218, 95: 1.284703];
charge = [0: 0.598767, 1: 0.30455, 2: 0.122717, 3: 0.41784, 4: 0.744822, 5: 0.048637, 6: 0.948555, 7: 0.031911, 8: 0.7101769999999999, 9: 0.387576, 10: 0.137892, 11: 0.319871, 12: 0.7267940000000001, 13: 0.170525, 14: 0.995762, 15: 0.752565, 16: 0.642774, 17: 0.260874, 18: 0.370767, 19: 0.291606, 20: 0.614722, 21: 0.041269, 22: 0.237962, 23: 0.38853, 24: 0.298814, 25: 0.679155, 26: 0.403225, 27: 0.161114, 28: 0.564087, 29: 0.148004, 30: 0.73059, 31: 0.000429, 32: 0.732392, 33: 0.472649, 34: 0.416274, 35: 0.791977, 36: 0.723687, 37: 0.218332, 38: 0.047316, 39: 0.698278, 40: 0.501732, 41: 0.268069, 42: 6.999999999999999e-05, 43: 0.860727, 44: 0.019606, 45: 0.057772, 46: 0.17709, 47: 0.217964, 48: 0.587071, 49: 0.494411, 50: 0.415141, 51: 0.405905, 52: 0.73576, 53: 4.2e-05, 54: 0.08736099999999999, 55: 0.360654, 56: 0.652689, 57: 0.72449, 58: 0.912597, 59: 0.473707, 60: 0.752515, 61: 0.384407, 62: 0.590627, 63: 0.790637, 64: 0.055978, 65: 0.892782, 66: 0.191327, 67: 0.772698, 68: 0.659957, 69: 0.439087, 70: 0.00478, 71: 0.277378, 72: 0.406933, 73: 0.30265, 74: 0.761722, 75: 0.75481, 76: 0.927417, 77: 0.404626, 78: 0.396906, 79: 0.780125, 80: 0.152178, 81: 0.805666, 82: 0.448692, 83: 0.788251, 84: 0.170773, 85: 0.40695, 86: 0.9998, 87: 0.205441, 88: 0.15732, 89: 0.593567, 90: 0.127927, 91: 0.180795, 92: 0.097855, 93: 0.059203, 94: 0.920199, 95: 0.84502];
discharge = [0: 0.791744, 1: 0.646376, 2: 0.232166, 3: 0.58024, 4: 0.360284, 5: 0.442917, 6: 0.500333, 7: 0.9244790000000001, 8: 0.931827, 9: 0.323797, 10: 0.285168, 11: 0.264642, 12: 0.231966, 13: 0.238199, 14: 0.135934, 15: 0.08853900000000001, 16: 0.442854, 17: 0.152109, 18: 0.130385, 19: 0.711498, 20: 0.206075, 21: 0.676281, 22: 0.908694, 23: 0.315603, 24: 0.8183859999999999, 25: 0.694514, 26: 0.256322, 27: 0.07820299999999999, 28: 0.392738, 29: 0.437149, 30: 0.213849, 31: 0.431914, 32: 0.6735719999999999, 33: 0.838737, 34: 0.130587, 35: 0.69769, 36: 0.060491, 37: 0.458213, 38: 0.145011, 39: 0.291945, 40: 0.171859, 41: 0.8546859999999999, 42: 0.7115320000000001, 43: 0.644584, 44: 0.071975, 45: 0.459439, 46: 0.442355, 47: 0.714259, 48: 0.822056, 49: 0.461208, 50: 0.68426, 51: 0.060263, 52: 0.870495, 53: 0.046406, 54: 0.191784, 55: 0.71605, 56: 0.923095, 57: 0.453037, 58: 0.659863, 59: 0.81054, 60: 0.776769, 61: 0.449604, 62: 0.900858, 63: 0.069935, 64: 0.076031, 65: 0.155999, 66: 0.508606, 67: 0.506101, 68: 0.579453, 69: 0.79028, 70: 0.366238, 71: 0.895292, 72: 0.716635, 73: 0.167657, 74: 0.086641, 75: 0.719029, 76: 0.98408, 77: 0.6318859999999999, 78: 0.198632, 79: 0.184036, 80: 0.657466, 81: 0.5222290000000001, 82: 0.859134, 83: 0.733293, 84: 0.191341, 85: 0.271709, 86: 0.748497, 87: 0.199696, 88: 0.678841, 89: 0.619909, 90: 0.170156, 91: 0.833757, 92: 0.594929, 93: 0.810028, 94: 0.251139, 95: 0.978419];
soc = [0: 6.670897, 1: 6.375899, 2: 5.536386, 3: 6.437745, 4: 8.465165000000001, 5: 5.140467, 6: 7.585646, 7: 12.157998, 8: 12.443855, 9: 14.369132, 10: 14.661173, 11: 7.981927, 12: 15.351562, 13: 7.054, 14: 12.758657, 15: 10.273331, 16: 15.605154, 17: 7.237046, 18: 10.918932, 19: 6.745768, 20: 10.087707, 21: 9.730038, 22: 11.138761, 23: 7.565889, 24: 4.277454, 25: 6.679241, 26: 7.108201, 27: 3.908144, 28: 14.58405, 29: 10.93821, 30: 4.799289, 31: 4.19421, 32: 14.978071, 33: 13.745746, 34: 8.879225999999999, 35: 14.660622, 36: 9.43962, 37: 8.589841, 38: 11.419267, 39: 7.472012, 40: 3.351459, 41: 4.451266, 42: 14.992548, 43: 6.109267, 44: 6.343098, 45: 13.120189, 46: 13.600926, 47: 2.950952, 48: 10.015578, 49: 2.718466, 50: 10.339284, 51: 3.812381, 52: 6.458084, 53: 13.359406, 54: 5.544048, 55: 6.817226, 56: 3.682164, 57: 13.150453, 58: 15.342963, 59: 12.900664, 60: 6.923394, 61: 14.441817, 62: 10.250705, 63: 9.553611, 64: 13.62764, 65: 10.783422, 66: 8.302493, 67: 3.763885, 68: 6.896709, 69: 8.522346000000001, 70: 3.076046, 71: 8.597854, 72: 8.99268, 73: 13.353684, 74: 2.669868, 75: 12.936618, 76: 8.263973, 77: 13.039121, 78: 14.548209, 79: 5.546131, 80: 14.67971, 81: 12.75803, 82: 3.766272, 83: 5.744878, 84: 5.381914, 85: 10.026083, 86: 8.123699999999999, 87: 7.218013, 88: 4.646559, 89: 14.552317, 90: 3.931418, 91: 3.710439, 92: 5.812424, 93: 11.207401, 94: 11.484155, 95: 13.49666];
cost = [0: 242.057737, 1: 448.694967, 2: 546.575096, 3: 66.687051, 4: 313.53476, 5: 74.377962, 6: 492.942003, 7: 384.49581, 8: 526.632413, 9: 579.530302, 10: 424.583911, 11: 189.906221, 12: 577.182324, 13: 328.774289, 14: 294.349049, 15: 300.414953, 16: 104.10863, 17: 149.82646, 18: 296.049283, 19: 21.542786, 20: 183.574789, 21: 77.55466199999999, 22: 424.547431, 23: 335.853483, 24: 193.137118, 25: 971.5202379999999, 26: 337.252902, 27: 1107.131585, 28: 982.400428, 29: 669.721843, 30: 942.28605, 31: 797.328035, 32: 838.844844, 33: 260.538635, 34: 576.5556759999999, 35: 142.157142, 36: 1186.76135, 37: 1183.555636, 38: 908.423686, 39: 777.944315, 40: 1060.511414, 41: 387.968015, 42: 1173.667944, 43: 945.714433, 44: 297.038915, 45: 695.513189, 46: 970.161954, 47: 528.063316, 48: 663.374405, 49: 1108.654463, 50: 658.3094, 51: 783.667009, 52: 423.279781, 53: 55.233244, 54: 48.954382, 55: 164.879626, 56: 465.253252, 57: 183.363538, 58: 144.594549, 59: 472.472165, 60: 40.150754, 61: 360.967018, 62: 542.205303, 63: 925.566158, 64: 330.411234, 65: 372.334719, 66: 885.654712, 67: 265.23466, 68: 108.784882, 69: 635.068763, 70: 556.729366, 71: 363.92127, 72: 393.831883, 73: 892.670306, 74: 248.775708, 75: 1119.579775, 76: 148.641345, 77: 869.380263, 78: 241.20832, 79: 98.815614, 80: 930.9461679999999, 81: 1019.457574, 82: 918.969873, 83: 1018.796675, 84: 55.055268, 85: 30.337965, 86: 563.824106, 87: 347.364393, 88: 328.908722, 89: 18.422228, 90: 506.973047, 91: 218.844296, 92: 118.434717, 93: 32.080007, 94: 204.460571, 95: 536.873058];
earn = [0: 0.103459, 1: 0.797508, 2: 2.022602, 3: 0.509591, 4: 0.239108, 5: 1.914901, 6: 2.31216, 7: 0.920865, 8: 0.020931, 9: 1.355389, 10: 0.617974, 11: 2.057285, 12: 1.071677, 13: 0.937692, 14: 1.769007, 15: 0.818211, 16: 0.7086750000000001, 17: 0.464236, 18: 1.788844, 19: 1.409259, 20: 1.412444, 21: 2.296234, 22: 1.706031, 23: 2.048605, 24: 1.069255, 25: 1.36588, 26: 0.579462, 27: 1.844561, 28: 1.522585, 29: 0.972677, 30: 3.299985, 31: 0.09182800000000001, 32: 0.632991, 33: 1.347406, 34: 1.367575, 35: 2.077911, 36: 0.890002, 37: 1.533019, 38: 1.742563, 39: 0.354259, 40: 1.309389, 41: 1.212435, 42: 0.332343, 43: 0.758543, 44: 0.616494, 45: 0.881969, 46: 0.450985, 47: 0.391753, 48: 0.658598, 49: 0.215227, 50: 0.24184, 51: 0.242558, 52: 0.152015, 53: 0.042998, 54: 0.120468, 55: 0.172763, 56: 0.417821, 57: 0.299583, 58: 0.683775, 59: 0.421519, 60: 0.785009, 61: 0.851563, 62: 1.363088, 63: 1.006078, 64: 1.823456, 65: 0.512211, 66: 1.032119, 67: 0.005896, 68: 2.211504, 69: 0.9331700000000001, 70: 0.120124, 71: 0.7035709999999999, 72: 1.64253, 73: 2.003142, 74: 0.625192, 75: 1.208191, 76: 2.632966, 77: 2.101436, 78: 1.89455, 79: 2.656881, 80: 3.001882, 81: 1.348157, 82: 0.445775, 83: 0.113726, 84: 0.885925, 85: 1.787255, 86: 2.796351, 87: 0.6428469999999999, 88: 1.729757, 89: 0.582591, 90: 0.973966, 91: 1.512798, 92: 1.271693, 93: 0.022907, 94: 2.483194, 95: 2.229942];
total_cost = 48.03465719795344;
total_earn = 16.65417956447146;
