loc = [D01: C17, D02: C04, D03: C07, D04: C15, D05: C02, D06: C16, D07: C02, D08: C13, D09: C08, D10: C16, D11: C20, D12: C08, D13: C01, D14: C13, D15: C12, D16: C09, D17: C02, D18: C08, D19: C19, D20: C18, D21: C03, D22: C12, D23: C04, D24: C12, D25: C01, D26: C05, D27: C06, D28: C16, D29: C01, D30: C10, D31: C05, D32: C06, D33: C17, D34: C04, D35: C07, D36: C18, D37: C07, D38: C14, D39: C14, D40: C15, D41: C14, D42: C03, D43: C20, D44: C09, D45: C06, D46: C19, D47: C19, D48: C13, D49: C05, D50: C18, D51: C17, D52: C03, D53: C09, D54: C20, D55: C15];
% _objective = 805639.0;
