loc = [D01: C20, D02: C14, D03: C17, D04: C07, D05: C06, D06: C12, D07: C19, D08: C19, D09: C05, D10: C04, D11: C02, D12: C17, D13: C16, D14: C11, D15: C12, D16: C13, D17: C14, D18: C13, D19: C10, D20: C01, D21: C07, D22: C01, D23: C03, D24: C07, D25: C17, D26: C01, D27: C11, D28: C05, D29: C14, D30: C02, D31: C16, D32: C20, D33: C06, D34: C04, D35: C15, D36: C18, D37: C13, D38: C03, D39: C08, D40: C11, D41: C16, D42: C06, D43: C18, D44: C15, D45: C15, D46: C10, D47: C12, D48: C05, D49: C20, D50: C03, D51: C04, D52: C02, D53: C18, D54: C10, D55: C19];
% _objective = 761153.0;
