loc = [D01: C16, D02: C08, D03: C15, D04: C07, D05: C06, D06: C17, D07: C13, D08: C01, D09: C18, D10: C15, D11: C05, D12: C20, D13: C08, D14: C13, D15: C16, D16: C18, D17: C03, D18: C17, D19: C19, D20: C02, D21: C12, D22: C14, D23: C13, D24: C07, D25: C06, D26: C01, D27: C11, D28: C08, D29: C20, D30: C09, D31: C06, D32: C04, D33: C19, D34: C01, D35: C12, D36: C05, D37: C09, D38: C16, D39: C05, D40: C12, D41: C07, D42: C02, D43: C04, D44: C02, D45: C03, D46: C17, D47: C18, D48: C15, D49: C11, D50: C14, D51: C19, D52: C14, D53: C03, D54: C04, D55: C20];
% _objective = 778633.0;
