loc = [D01: C08, D02: C01, D03: C07, D04: C06, D05: C09, D06: C08, D07: C16, D08: C19, D09: C04, D10: C08, D11: C12, D12: C14, D13: C15, D14: C09, D15: C16, D16: C17, D17: C16, D18: C13, D19: C09, D20: C13, D21: C02, D22: C05, D23: C14, D24: C01, D25: C03, D26: C10, D27: C12, D28: C03, D29: C17, D30: C04, D31: C03, D32: C19, D33: C14, D34: C02, D35: C18, D36: C05, D37: C02, D38: C15, D39: C07, D40: C05, D41: C06, D42: C17, D43: C04, D44: C10, D45: C07, D46: C20, D47: C20, D48: C06, D49: C18, D50: C20, D51: C15, D52: C18, D53: C01, D54: C13, D55: C19];
% _objective = 736321.0;
