t_strength = 
[|    UNSKILLED: SEMI_SKILLED: SKILLED: 
 | 0:       180,          120,      80
 | 1:       128,          135,     107
 | 2:       108,          150,     125
 | 3:        76,          168,     145
 | 4:        25,          180,     195
 |];
u_recruit = 
[| UNSKILLED: SEMI_SKILLED: SKILLED: 
 |        40,           32,      11
 |         0,           60,       6
 |        40,            0,      60
 |        40,           60,      60
 |];
transfer = array3d(1..4, UNSKILLED..SKILLED, UNSKILLED..SKILLED, [0, 23, 0, 0, 0, 23, 0, 2, 0, 0, 5, 0, 0, 0, 31, 7, 5, 0, 0, 25, 0, 2, 0, 5, 0, 35, 0, 0, 32, 0, 0, 0, 10, 4, 3, 0]);
w_redundancy = 
[| UNSKILLED: SEMI_SKILLED: SKILLED: 
 |        30,            1,       0
 |         0,            0,       1
 |        20,            7,       0
 |        38,           45,       2
 |];
x_short = 
[| UNSKILLED: SEMI_SKILLED: SKILLED: 
 |         0,           10,      10
 |        10,            0,      10
 |        10,            0,      10
 |        10,            0,      10
 |];
y_overmanning = 
[| UNSKILLED: SEMI_SKILLED: SKILLED: 
 |         8,            0,       2
 |         3,            0,       0
 |         1,            8,       0
 |         0,            0,       0
 |];
% _objective = 20595.0;
