production = [0: 0.0, 1: 0.0, 2: 0.0, 3: 0.0, 4: 0.0, 5: 0.0, 6: 0.0, 7: 0.0, 8: 0.0, 9: 0.0, 10: 0.0, 11: 0.0, 12: 0.0, 13: 0.0, 14: 0.0, 15: 0.0, 16: 0.0, 17: 0.0, 18: 0.0, 19: 0.0, 20: 0.0, 21: 0.0, 22: 0.0, 23: 0.0, 24: 3.9e-05, 25: 0.000155, 26: 0.000476, 27: 0.000197, 28: 0.004339, 29: 0.001022, 30: 0.010173, 31: 0.002692, 32: 0.024618, 33: 0.046462, 34: 0.00652, 35: 0.138794, 36: 0.08028299999999999, 37: 0.016941, 38: 0.135861, 39: 0.091907, 40: 0.19474, 41: 0.069784, 42: 0.02128, 43: 0.144754, 44: 0.037576, 45: 0.234731, 46: 0.135276, 47: 0.120894, 48: 0.243802, 49: 0.426693, 50: 0.026081, 51: 0.392962, 52: 0.367965, 53: 0.267003, 54: 0.018756, 55: 0.003939, 56: 0.096638, 57: 0.422872, 58: 0.113702, 59: 0.07104000000000001, 60: 0.373983, 61: 0.300494, 62: 0.638642, 63: 0.416284, 64: 0.376841, 65: 0.232263, 66: 0.016497, 67: 0.042365, 68: 0.054388, 69: 0.121526, 70: 0.048537, 71: 0.078681, 72: 0.012589, 73: 0.056827, 74: 0.051293, 75: 0.010038, 76: 0.013642, 77: 0.0006089999999999999, 78: 0.0006089999999999999, 79: 0.0, 80: 0.0, 81: 0.0, 82: 0.0, 83: 0.0, 84: 0.0, 85: 0.0, 86: 0.0, 87: 0.0, 88: 0.0, 89: 0.0, 90: 0.0, 91: 0.0, 92: 0.0, 93: 0.0, 94: 0.0, 95: 0.0, 96: 0.0, 97: 0.0, 98: 0.0, 99: 0.0, 100: 0.0, 101: 0.0, 102: 0.0, 103: 0.0, 104: 0.0, 105: 0.0, 106: 0.0, 107: 0.0, 108: 0.0, 109: 0.0, 110: 0.0, 111: 0.0, 112: 0.0, 113: 0.0, 114: 0.0, 115: 0.0, 116: 0.0, 117: 0.0, 118: 0.0, 119: 0.0, 120: 0.0, 121: 0.000215, 122: 0.005329, 123: 0.003256, 124: 0.030149, 125: 0.05192, 126: 0.045575, 127: 0.107524, 128: 0.012304, 129: 0.087104, 130: 0.029168, 131: 0.09279999999999999, 132: 0.100025, 133: 0.497056, 134: 0.134336, 135: 0.403374, 136: 0.637651, 137: 0.441917, 138: 0.33417, 139: 0.21268, 140: 0.933709, 141: 0.693719, 142: 0.754087, 143: 0.69562, 144: 0.641122, 145: 0.326965, 146: 0.379532, 147: 0.023377, 148: 0.286779, 149: 0.869117, 150: 0.545223, 151: 0.228275, 152: 0.137633, 153: 0.362321, 154: 0.350453, 155: 0.501289, 156: 0.410824, 157: 0.012647, 158: 0.243331, 159: 0.144745, 160: 0.187716, 161: 0.122456, 162: 0.090125, 163: 0.182731, 164: 0.288363, 165: 0.12512, 166: 0.044114, 167: 0.105677, 168: 0.058046, 169: 0.031124, 170: 0.018163, 171: 0.004779, 172: 0.000294, 173: 0.001462, 174: 3e-06, 175: 0.0, 176: 0.0, 177: 0.0, 178: 0.0, 179: 0.0, 180: 0.0, 181: 0.0, 182: 0.0, 183: 0.0, 184: 0.0, 185: 0.0, 186: 0.0, 187: 0.0, 188: 0.0, 189: 0.0, 190: 0.0, 191: 0.0];
buy = [0: 381.233242, 1: 107.920399, 2: 343.805268, 3: 206.302538, 4: 841.294056, 5: 310.033172, 6: 283.403857, 7: 501.12662, 8: 620.052398, 9: 897.248326, 10: 373.666349, 11: 646.853264, 12: 869.170531, 13: 88.88066999999999, 14: 935.685985, 15: 890.984201, 16: 258.811821, 17: 482.638511, 18: 950.1007540000001, 19: 874.825733, 20: 93.164846, 21: 60.184106, 22: 513.128937, 23: 70.524261, 24: 184.547098, 25: 884.032199, 26: 34.48889, 27: 544.047791, 28: 908.471505, 29: 52.071296, 30: 460.95605, 31: 30.918106, 32: 268.717746, 33: 625.284817, 34: 269.9083, 35: 610.786376, 36: 814.320799, 37: 953.883023, 38: 131.92972, 39: 284.97597, 40: 854.557057, 41: 454.997391, 42: 60.113892, 43: 408.25856, 44: 84.25865400000001, 45: 862.7739769999999, 46: 50.728447, 47: 474.999598, 48: 213.92624, 49: 353.403481, 50: 862.759832, 51: 870.096851, 52: 359.514734, 53: 726.7764979999999, 54: 773.872417, 55: 289.59086, 56: 391.536651, 57: 489.614934, 58: 172.689309, 59: 765.4159979999999, 60: 510.546977, 61: 626.222783, 62: 40.753901, 63: 242.228922, 64: 141.388128, 65: 734.702392, 66: 273.527483, 67: 754.068744, 68: 79.023439, 69: 994.255132, 70: 504.969493, 71: 640.8704300000001, 72: 718.870287, 73: 386.913261, 74: 615.1664939999999, 75: 758.562896, 76: 95.611763, 77: 851.626539, 78: 548.075811, 79: 855.890363, 80: 549.222993, 81: 367.413889, 82: 693.99577, 83: 301.078886, 84: 723.434157, 85: 60.168463, 86: 482.168687, 87: 962.197688, 88: 129.010412, 89: 494.333929, 90: 360.749836, 91: 161.596338, 92: 147.912912, 93: 230.315006, 94: 171.635588, 95: 683.909373, 96: 883.110263, 97: 836.81113, 98: 178.044756, 99: 380.796372, 100: 12.258697, 101: 166.107754, 102: 548.731754, 103: 130.25559, 104: 754.8156719999999, 105: 251.775838, 106: 760.093343, 107: 240.082861, 108: 614.31457, 109: 939.3102239999999, 110: 525.230609, 111: 800.539368, 112: 337.844439, 113: 961.681786, 114: 190.073828, 115: 232.873424, 116: 732.122654, 117: 376.888822, 118: 313.197159, 119: 109.508598, 120: 769.3356219999999, 121: 528.7073789999999, 122: 241.427457, 123: 679.545235, 124: 542.98541, 125: 241.417408, 126: 257.47834, 127: 65.000821, 128: 734.57677, 129: 27.843345, 130: 798.493564, 131: 637.519669, 132: 169.531484, 133: 225.149788, 134: 336.388495, 135: 443.942894, 136: 116.81275, 137: 810.740914, 138: 968.875219, 139: 18.302836, 140: 78.664086, 141: 239.635722, 142: 526.108519, 143: 822.086105, 144: 459.7904, 145: 241.463437, 146: 998.633382, 147: 263.576581, 148: 349.883357, 149: 7.985882, 150: 234.896786, 151: 335.336031, 152: 887.945393, 153: 197.218771, 154: 37.084623, 155: 47.25237, 156: 145.415051, 157: 215.986167, 158: 256.829858, 159: 366.450721, 160: 367.469597, 161: 79.27394, 162: 487.621415, 163: 514.58219, 164: 860.313095, 165: 604.555097, 166: 924.092046, 167: 282.960363, 168: 788.90345, 169: 646.197511, 170: 679.115995, 171: 310.59561, 172: 830.559738, 173: 849.872208, 174: 786.244071, 175: 106.41864, 176: 965.2556, 177: 359.762378, 178: 447.71704, 179: 531.611999, 180: 453.020118, 181: 127.127733, 182: 309.348087, 183: 169.080041, 184: 806.802071, 185: 791.96457, 186: 298.277982, 187: 98.215537, 188: 763.866056, 189: 770.316567, 190: 461.505377, 191: 526.134714];
sell = [0: 3.350962, 1: 2.98528, 2: 3.380585, 3: 0.776983, 4: 1.426703, 5: 3.290487, 6: 3.672947, 7: 3.235551, 8: 0.708365, 9: 3.609331, 10: 1.48257, 11: 2.994806, 12: 0.329245, 13: 3.531916, 14: 1.400737, 15: 0.872669, 16: 0.253122, 17: 1.194534, 18: 3.9016, 19: 2.438941, 20: 0.519055, 21: 3.79626, 22: 0.800777, 23: 0.8077839999999999, 24: 3.100592, 25: 2.730291, 26: 0.870914, 27: 3.865512, 28: 0.447676, 29: 0.339783, 30: 2.427402, 31: 0.32109, 32: 1.753869, 33: 1.894191, 34: 0.663017, 35: 0.143665, 36: 2.953756, 37: 3.029042, 38: 0.309693, 39: 2.78607, 40: 0.875022, 41: 1.123211, 42: 2.663263, 43: 0.186744, 44: 3.272478, 45: 0.427757, 46: 0.81362, 47: 3.288319, 48: 2.524368, 49: 3.494917, 50: 1.037447, 51: 0.521693, 52: 1.754701, 53: 0.444421, 54: 2.698974, 55: 1.716635, 56: 3.66832, 57: 3.265834, 58: 2.807305, 59: 3.053738, 60: 2.821785, 61: 3.863069, 62: 2.136367, 63: 3.538603, 64: 2.527217, 65: 1.408199, 66: 2.919951, 67: 2.627009, 68: 0.941709, 69: 0.339173, 70: 0.560972, 71: 3.518635, 72: 1.267835, 73: 3.524392, 74: 3.041269, 75: 1.209183, 76: 3.93124, 77: 3.299633, 78: 1.909269, 79: 1.7848, 80: 0.730522, 81: 2.71789, 82: 3.63111, 83: 2.378614, 84: 3.83009, 85: 0.810092, 86: 3.130077, 87: 1.551476, 88: 0.712493, 89: 3.20048, 90: 3.066647, 91: 2.345559, 92: 2.266055, 93: 1.551356, 94: 2.057763, 95: 2.461051, 96: 0.596868, 97: 2.361619, 98: 2.321843, 99: 3.061243, 100: 3.335064, 101: 0.010804, 102: 0.289946, 103: 0.597296, 104: 0.44884, 105: 0.372929, 106: 0.411585, 107: 0.167867, 108: 1.088977, 109: 0.5783509999999999, 110: 3.401122, 111: 1.629565, 112: 0.80282, 113: 1.492044, 114: 2.938358, 115: 0.312712, 116: 0.950636, 117: 0.5609189999999999, 118: 2.304766, 119: 3.404874, 120: 3.597376, 121: 0.337607, 122: 3.907469, 123: 0.301078, 124: 1.686513, 125: 3.813627, 126: 2.331712, 127: 0.7072000000000001, 128: 3.962563, 129: 3.386383, 130: 3.290019, 131: 1.179596, 132: 2.339858, 133: 2.41862, 134: 3.299465, 135: 0.528604, 136: 2.580675, 137: 3.012819, 138: 3.000258, 139: 2.831509, 140: 1.845673, 141: 0.571825, 142: 0.694365, 143: 3.195802, 144: 0.029445, 145: 2.293393, 146: 1.211219, 147: 3.75183, 148: 1.36624, 149: 1.604724, 150: 3.544675, 151: 0.144661, 152: 2.744448, 153: 1.536138, 154: 0.518797, 155: 2.814442, 156: 2.114189, 157: 1.578094, 158: 3.80195, 159: 3.453271, 160: 0.806514, 161: 2.424123, 162: 3.360845, 163: 2.254556, 164: 1.992816, 165: 3.41879, 166: 1.462693, 167: 1.781978, 168: 3.948883, 169: 0.038559, 170: 1.448744, 171: 1.915806, 172: 3.667373, 173: 3.431515, 174: 0.759802, 175: 1.621548, 176: 1.007543, 177: 0.621081, 178: 1.860175, 179: 0.240817, 180: 3.427193, 181: 0.673309, 182: 0.555393, 183: 3.705213, 184: 1.657864, 185: 0.8187990000000001, 186: 1.265918, 187: 2.161401, 188: 1.970203, 189: 0.844438, 190: 3.292807, 191: 0.440813];
charge = [0: 0.5485100000000001, 1: 0.979497, 2: 0.470228, 3: 0.917667, 4: 0.401239, 5: 0.400612, 6: 0.036564, 7: 0.489574, 8: 0.440903, 9: 0.629694, 10: 0.97707, 11: 0.031679, 12: 0.007944, 13: 0.203706, 14: 0.245919, 15: 0.121307, 16: 0.857232, 17: 0.7789199999999999, 18: 0.42536, 19: 0.36119, 20: 0.346543, 21: 0.8241540000000001, 22: 0.080166, 23: 0.189557, 24: 0.908331, 25: 0.09202299999999999, 26: 0.601985, 27: 0.647405, 28: 0.863659, 29: 0.829102, 30: 0.951558, 31: 0.645056, 32: 0.567152, 33: 0.9176840000000001, 34: 0.640768, 35: 0.081188, 36: 0.885073, 37: 0.07913000000000001, 38: 0.229846, 39: 0.921409, 40: 0.3958, 41: 0.288073, 42: 0.225643, 43: 0.797753, 44: 0.983332, 45: 0.805521, 46: 0.65119, 47: 0.657395, 48: 0.536897, 49: 0.901523, 50: 0.207888, 51: 0.801885, 52: 0.6327120000000001, 53: 0.547476, 54: 0.601596, 55: 0.494848, 56: 0.799586, 57: 0.310772, 58: 0.707063, 59: 0.454752, 60: 0.225742, 61: 0.65798, 62: 0.482046, 63: 0.782042, 64: 0.783398, 65: 0.618015, 66: 0.620908, 67: 0.679424, 68: 0.380852, 69: 0.135428, 70: 0.630401, 71: 0.738247, 72: 0.77177, 73: 0.924749, 74: 0.464831, 75: 0.706493, 76: 0.525097, 77: 0.163836, 78: 0.354951, 79: 0.865853, 80: 0.398391, 81: 0.018785, 82: 0.781525, 83: 0.182956, 84: 0.7941319999999999, 85: 0.634238, 86: 0.497161, 87: 0.931661, 88: 0.566867, 89: 0.012598, 90: 0.193098, 91: 0.7582680000000001, 92: 0.898106, 93: 0.554338, 94: 0.341569, 95: 0.092947, 96: 0.36087, 97: 0.942976, 98: 0.209982, 99: 0.061215, 100: 0.526133, 101: 0.340167, 102: 0.758896, 103: 0.952159, 104: 0.830062, 105: 0.194035, 106: 0.914536, 107: 0.806995, 108: 0.835885, 109: 0.969424, 110: 0.100089, 111: 0.07947799999999999, 112: 0.901447, 113: 0.39218, 114: 0.040472, 115: 0.5567260000000001, 116: 0.865615, 117: 0.042713, 118: 0.021536, 119: 0.710109, 120: 0.112149, 121: 0.87547, 122: 0.6725370000000001, 123: 0.482296, 124: 0.770575, 125: 0.583279, 126: 0.809745, 127: 0.376026, 128: 0.8402849999999999, 129: 0.573645, 130: 0.233513, 131: 0.140719, 132: 0.556119, 133: 0.24483, 134: 0.349815, 135: 0.13055, 136: 0.818304, 137: 0.305082, 138: 0.236049, 139: 0.127453, 140: 0.163134, 141: 0.273723, 142: 0.250827, 143: 0.6469510000000001, 144: 0.767222, 145: 0.469963, 146: 0.204799, 147: 0.177843, 148: 0.274568, 149: 0.5251130000000001, 150: 0.072438, 151: 0.988199, 152: 0.156279, 153: 0.559869, 154: 0.792243, 155: 0.056037, 156: 0.572344, 157: 0.36527, 158: 0.013949, 159: 0.744837, 160: 0.199358, 161: 0.60381, 162: 0.059432, 163: 0.529071, 164: 0.849776, 165: 0.219189, 166: 0.423301, 167: 0.355041, 168: 0.669556, 169: 0.611997, 170: 0.638887, 171: 0.814755, 172: 0.086261, 173: 0.293289, 174: 0.974344, 175: 0.503478, 176: 0.713669, 177: 0.341154, 178: 0.824368, 179: 0.038013, 180: 0.127851, 181: 0.915228, 182: 0.96101, 183: 0.931135, 184: 0.973662, 185: 0.061539, 186: 0.71408, 187: 0.493504, 188: 0.146042, 189: 0.546685, 190: 0.384291, 191: 0.680598];
discharge = [0: 0.729981, 1: 0.532592, 2: 0.239138, 3: 0.5956360000000001, 4: 0.2481, 5: 0.618736, 6: 0.9968, 7: 0.303775, 8: 0.357634, 9: 0.160713, 10: 0.918103, 11: 0.320171, 12: 0.604626, 13: 0.7519, 14: 0.431555, 15: 0.792743, 16: 0.221846, 17: 0.713123, 18: 0.048353, 19: 0.132062, 20: 0.163459, 21: 0.514272, 22: 0.044072, 23: 0.573784, 24: 0.312287, 25: 0.894253, 26: 0.462986, 27: 0.344181, 28: 0.249366, 29: 0.7001540000000001, 30: 0.487516, 31: 0.811178, 32: 0.804316, 33: 0.296911, 34: 0.363916, 35: 0.927434, 36: 0.358414, 37: 0.688847, 38: 0.509148, 39: 0.715786, 40: 0.387205, 41: 0.596305, 42: 0.303296, 43: 0.5494, 44: 0.804384, 45: 0.514191, 46: 0.6780890000000001, 47: 0.639007, 48: 0.915813, 49: 0.470303, 50: 0.634615, 51: 0.772833, 52: 0.356479, 53: 0.397513, 54: 0.859583, 55: 0.916774, 56: 0.955158, 57: 0.919776, 58: 0.648748, 59: 0.822677, 60: 0.069872, 61: 0.633895, 62: 0.994973, 63: 0.076461, 64: 0.7953710000000001, 65: 0.379609, 66: 0.312625, 67: 0.836575, 68: 0.548377, 69: 0.838402, 70: 0.889695, 71: 0.8149690000000001, 72: 0.522397, 73: 0.6928569999999999, 74: 0.744052, 75: 0.688846, 76: 0.500578, 77: 0.80354, 78: 0.615806, 79: 0.187166, 80: 0.555045, 81: 0.467018, 82: 0.679765, 83: 0.307576, 84: 0.720007, 85: 0.47039, 86: 0.69715, 87: 0.316801, 88: 0.515741, 89: 0.576269, 90: 0.885334, 91: 0.7185859999999999, 92: 0.331803, 93: 0.712176, 94: 0.081287, 95: 0.209931, 96: 0.061077, 97: 0.062313, 98: 0.5421550000000001, 99: 0.805218, 100: 0.57265, 101: 0.36487, 102: 0.325023, 103: 0.547311, 104: 0.471014, 105: 0.879872, 106: 0.994178, 107: 0.21801, 108: 0.556042, 109: 0.619893, 110: 0.186321, 111: 0.762753, 112: 0.9581730000000001, 113: 0.373442, 114: 0.999408, 115: 0.640122, 116: 0.109892, 117: 0.7039, 118: 0.69026, 119: 0.372629, 120: 0.636099, 121: 0.540401, 122: 0.37626, 123: 0.488635, 124: 0.148703, 125: 0.27479, 126: 0.210423, 127: 0.47802, 128: 0.751309, 129: 0.143748, 130: 0.709995, 131: 0.909345, 132: 0.299718, 133: 0.237593, 134: 0.341679, 135: 0.409337, 136: 0.308441, 137: 0.832917, 138: 0.473532, 139: 0.616681, 140: 0.845398, 141: 0.07260800000000001, 142: 0.944797, 143: 0.206413, 144: 0.698909, 145: 0.77725, 146: 0.664583, 147: 0.26526, 148: 0.927459, 149: 0.086684, 150: 0.960101, 151: 0.166033, 152: 0.499323, 153: 0.488254, 154: 0.665914, 155: 0.953841, 156: 0.09407, 157: 0.188789, 158: 0.394577, 159: 0.607342, 160: 0.731017, 161: 0.412066, 162: 0.963598, 163: 0.255208, 164: 0.237165, 165: 0.057767, 166: 0.977844, 167: 0.688999, 168: 0.8708050000000001, 169: 0.89883, 170: 0.035443, 171: 0.146229, 172: 0.319814, 173: 0.060457, 174: 0.166696, 175: 0.799477, 176: 0.591634, 177: 0.041209, 178: 0.300158, 179: 0.075888, 180: 0.929133, 181: 0.128904, 182: 0.7984250000000001, 183: 0.091583, 184: 0.869352, 185: 0.110593, 186: 0.387024, 187: 0.36251, 188: 0.7620710000000001, 189: 0.497751, 190: 0.600689, 191: 0.50709];
soc = [0: 11.475279, 1: 11.180139, 2: 9.654608, 3: 8.484970000000001, 4: 8.948121, 5: 12.501467, 6: 5.064378, 7: 11.833861, 8: 15.048014, 9: 10.123522, 10: 15.662634, 11: 4.093368, 12: 8.275795, 13: 4.700187, 14: 4.882977, 15: 6.778457, 16: 4.138799, 17: 8.82888, 18: 6.218601, 19: 3.367737, 20: 14.111256, 21: 11.290751, 22: 5.286423, 23: 5.386808, 24: 15.218286, 25: 11.210194, 26: 3.374659, 27: 12.188948, 28: 9.470039, 29: 10.65523, 30: 4.49488, 31: 9.169738000000001, 32: 6.358305, 33: 4.003989, 34: 3.399928, 35: 9.451362, 36: 15.462719, 37: 3.337316, 38: 8.826454999999999, 39: 15.026971, 40: 13.9671, 41: 8.923674, 42: 5.138843, 43: 2.79652, 44: 10.048306, 45: 14.894517, 46: 5.561543, 47: 5.674115, 48: 4.939032, 49: 13.205587, 50: 14.460727, 51: 3.670748, 52: 6.938143, 53: 14.54635, 54: 4.904636, 55: 2.946535, 56: 9.905886000000001, 57: 5.270004, 58: 13.220078, 59: 5.30846, 60: 8.64251, 61: 12.290216, 62: 14.065323, 63: 5.207363, 64: 14.842323, 65: 8.866676, 66: 7.381255, 67: 10.721804, 68: 10.014519, 69: 3.960179, 70: 9.229494000000001, 71: 13.269109, 72: 10.829409, 73: 6.992573, 74: 15.592453, 75: 11.964919, 76: 12.324424, 77: 4.876977, 78: 5.104594, 79: 14.560349, 80: 10.640204, 81: 4.577773, 82: 5.681531, 83: 6.623485, 84: 11.434519, 85: 9.28004, 86: 11.906816, 87: 10.572221, 88: 14.090714, 89: 14.925172, 90: 14.601259, 91: 3.225505, 92: 13.773902, 93: 11.38344, 94: 11.521907, 95: 11.229809, 96: 12.180547, 97: 6.897442, 98: 3.890346, 99: 12.51095, 100: 2.707528, 101: 11.443745, 102: 3.363962, 103: 9.999673, 104: 12.88101, 105: 9.835265, 106: 13.64394, 107: 6.102539, 108: 5.295295, 109: 11.247154, 110: 14.174838, 111: 3.80061, 112: 15.097793, 113: 10.619607, 114: 14.927509, 115: 4.467379, 116: 4.207762, 117: 11.494563, 118: 9.952921999999999, 119: 5.766756, 120: 3.103314, 121: 11.106084, 122: 15.081537, 123: 4.580575, 124: 11.48706, 125: 12.185926, 126: 13.77971, 127: 10.979281, 128: 15.04473, 129: 7.537386, 130: 10.434274, 131: 12.262231, 132: 14.146356, 133: 10.198998, 134: 5.585842, 135: 6.145815, 136: 8.357858999999999, 137: 12.8986, 138: 6.714135, 139: 8.514234999999999, 140: 9.483362, 141: 3.255092, 142: 6.999675, 143: 5.237021, 144: 3.062269, 145: 5.152572, 146: 14.812158, 147: 13.596702, 148: 7.335202, 149: 6.90452, 150: 7.591525, 151: 10.072858, 152: 8.913868000000001, 153: 13.945093, 154: 11.540015, 155: 10.438496, 156: 7.390997, 157: 3.237008, 158: 5.233163, 159: 13.187513, 160: 11.020999, 161: 8.508495, 162: 13.912207, 163: 9.487273999999999, 164: 7.718347, 165: 15.020995, 166: 13.623352, 167: 11.096335, 168: 12.372818, 169: 13.125104, 170: 7.001505, 171: 4.552143, 172: 13.949242, 173: 4.403755, 174: 8.113303, 175: 8.070959, 176: 9.14396, 177: 6.624222, 178: 3.741776, 179: 6.112922, 180: 13.99915, 181: 14.696246, 182: 2.838301, 183: 2.905746, 184: 14.850023, 185: 12.159637, 186: 15.122427, 187: 5.704686, 188: 15.159283, 189: 14.009859, 190: 7.321644, 191: 14.355368];
cost = [0: 377.115676, 1: 27.427998, 2: 185.562266, 3: 499.587976, 4: 472.001507, 5: 134.621261, 6: 315.114747, 7: 32.353693, 8: 342.486901, 9: 57.747746, 10: 82.615088, 11: 133.665411, 12: 499.000907, 13: 86.60659, 14: 242.647511, 15: 413.382937, 16: 517.50274, 17: 600.0958879999999, 18: 229.395435, 19: 251.616136, 20: 582.16432, 21: 264.746968, 22: 11.245989, 23: 489.096099, 24: 328.68271, 25: 921.066392, 26: 62.582456, 27: 610.250243, 28: 43.677601, 29: 453.734159, 30: 853.11269, 31: 816.686182, 32: 895.4752099999999, 33: 494.087018, 34: 772.965239, 35: 674.245749, 36: 859.727365, 37: 553.403237, 38: 175.617832, 39: 732.941392, 40: 714.785286, 41: 405.797943, 42: 99.980806, 43: 903.664836, 44: 332.2267, 45: 108.395, 46: 186.508811, 47: 516.078514, 48: 580.980729, 49: 100.757829, 50: 1049.534682, 51: 385.848841, 52: 93.506942, 53: 492.456414, 54: 561.184001, 55: 598.142552, 56: 243.924256, 57: 58.13404, 58: 424.076124, 59: 288.138905, 60: 248.436227, 61: 468.594565, 62: 42.889122, 63: 432.097498, 64: 9.398706000000001, 65: 1129.681338, 66: 944.031073, 67: 774.087269, 68: 547.610752, 69: 841.947028, 70: 758.887596, 71: 1091.426877, 72: 1174.456762, 73: 574.739886, 74: 849.459031, 75: 821.071495, 76: 291.460883, 77: 167.50063, 78: 443.685066, 79: 305.123322, 80: 157.27935, 81: 257.035676, 82: 820.364521, 83: 930.004426, 84: 522.243779, 85: 826.149545, 86: 590.851131, 87: 1016.048694, 88: 183.339266, 89: 6.759815, 90: 432.525537, 91: 168.341968, 92: 83.457055, 93: 216.997035, 94: 236.221452, 95: 319.643918, 96: 122.029669, 97: 23.426612, 98: 55.823895, 99: 123.336683, 100: 389.546446, 101: 263.218725, 102: 160.107312, 103: 542.276564, 104: 67.301947, 105: 90.528322, 106: 84.041506, 107: 66.783192, 108: 258.767137, 109: 364.854337, 110: 73.20497899999999, 111: 131.928136, 112: 234.40936, 113: 202.163118, 114: 563.2997350000001, 115: 393.527189, 116: 313.401609, 117: 591.258015, 118: 96.60680600000001, 119: 475.351071, 120: 576.711168, 121: 1123.418518, 122: 515.928309, 123: 4.734699, 124: 162.421468, 125: 279.424298, 126: 1165.373709, 127: 351.943218, 128: 1014.026287, 129: 578.489515, 130: 888.235906, 131: 1163.50314, 132: 627.919043, 133: 792.262248, 134: 52.124495, 135: 579.380972, 136: 247.433628, 137: 744.046575, 138: 822.144093, 139: 460.176596, 140: 932.192238, 141: 887.14483, 142: 680.0353699999999, 143: 222.580818, 144: 244.120079, 145: 558.4717000000001, 146: 304.896512, 147: 639.980672, 148: 527.980446, 149: 297.316515, 150: 548.386058, 151: 304.420813, 152: 135.217249, 153: 11.218191, 154: 174.1819, 155: 370.295644, 156: 1140.972308, 157: 1131.782822, 158: 495.124232, 159: 847.39559, 160: 362.955263, 161: 1047.687358, 162: 526.403529, 163: 572.33862, 164: 117.165459, 165: 1146.972911, 166: 482.051419, 167: 984.074763, 168: 806.516353, 169: 76.399265, 170: 431.125655, 171: 923.360603, 172: 986.203674, 173: 1028.810198, 174: 305.852532, 175: 1169.5524, 176: 930.7265149999999, 177: 1139.902898, 178: 192.622543, 179: 411.805889, 180: 1032.858817, 181: 593.008902, 182: 700.384905, 183: 545.608267, 184: 450.925145, 185: 222.257767, 186: 352.797238, 187: 516.679466, 188: 141.015919, 189: 253.466009, 190: 513.3731759999999, 191: 516.165519];
earn = [0: 2.211773, 1: 0.082896, 2: 1.741077, 3: 1.776404, 4: 0.003948, 5: 2.181617, 6: 2.028326, 7: 2.159196, 8: 0.979961, 9: 1.507627, 10: 0.477484, 11: 1.047641, 12: 0.829708, 13: 1.31281, 14: 0.518696, 15: 0.817265, 16: 1.617298, 17: 1.16531, 18: 2.027465, 19: 1.779114, 20: 1.371073, 21: 1.740074, 22: 1.445269, 23: 1.286792, 24: 0.886686, 25: 0.306533, 26: 1.997894, 27: 1.440893, 28: 0.263528, 29: 0.48059, 30: 1.188575, 31: 0.186833, 32: 2.411485, 33: 1.984836, 34: 0.880188, 35: 2.131482, 36: 1.260897, 37: 1.602302, 38: 0.872479, 39: 1.885473, 40: 1.881841, 41: 0.28329, 42: 0.539408, 43: 1.370531, 44: 1.062015, 45: 0.787756, 46: 0.40905, 47: 0.264403, 48: 0.366429, 49: 0.285993, 50: 0.237774, 51: 0.345594, 52: 0.287464, 53: 0.010295, 54: 0.173579, 55: 0.014712, 56: 0.027256, 57: 0.201181, 58: 0.161954, 59: 0.004249, 60: 0.152381, 61: 0.143209, 62: 0.143793, 63: 0.083468, 64: 0.73438, 65: 0.85083, 66: 0.514748, 67: 1.651477, 68: 1.255158, 69: 0.10345, 70: 0.424609, 71: 1.573903, 72: 1.619222, 73: 0.558158, 74: 0.302026, 75: 2.158984, 76: 1.569889, 77: 1.746418, 78: 0.773268, 79: 1.278035, 80: 0.331015, 81: 1.465792, 82: 1.370258, 83: 1.681608, 84: 0.405271, 85: 1.694045, 86: 1.094029, 87: 0.26178, 88: 0.237879, 89: 1.924629, 90: 1.904485, 91: 1.573272, 92: 0.430739, 93: 0.980898, 94: 0.116862, 95: 2.186568, 96: 0.48962, 97: 1.308522, 98: 1.520415, 99: 1.755428, 100: 1.824471, 101: 1.114164, 102: 0.481737, 103: 0.861652, 104: 1.469748, 105: 1.397089, 106: 0.638023, 107: 0.173675, 108: 0.724492, 109: 0.588384, 110: 1.128889, 111: 1.256947, 112: 0.631796, 113: 0.9192090000000001, 114: 0.251812, 115: 0.029081, 116: 0.355272, 117: 1.660908, 118: 0.833384, 119: 1.684199, 120: 0.350406, 121: 1.868429, 122: 1.470662, 123: 2.512189, 124: 3.246587, 125: 2.415728, 126: 0.335358, 127: 1.862209, 128: 1.902078, 129: 1.780322, 130: 2.514787, 131: 0.038412, 132: 2.083497, 133: 0.99995, 134: 1.945597, 135: 1.760595, 136: 0.841108, 137: 0.835359, 138: 1.160832, 139: 0.192932, 140: 1.442924, 141: 1.472527, 142: 0.61885, 143: 0.879706, 144: 0.348471, 145: 0.264806, 146: 0.66743, 147: 1.053951, 148: 0.011455, 149: 0.716293, 150: 0.122417, 151: 0.742015, 152: 0.662059, 153: 0.109187, 154: 0.473977, 155: 0.533838, 156: 1.121254, 157: 1.583518, 158: 1.628603, 159: 1.018814, 160: 0.579692, 161: 0.984878, 162: 0.921848, 163: 1.543743, 164: 2.486753, 165: 0.796472, 166: 0.321932, 167: 0.19342, 168: 2.832144, 169: 1.181583, 170: 0.333933, 171: 3.101835, 172: 2.662309, 173: 2.165274, 174: 0.727268, 175: 2.66361, 176: 3.051778, 177: 2.097901, 178: 0.189305, 179: 3.172251, 180: 2.706851, 181: 0.843739, 182: 1.52114, 183: 0.539094, 184: 1.457059, 185: 0.743128, 186: 1.727574, 187: 2.024546, 188: 2.052923, 189: 1.458507, 190: 1.023663, 191: 1.154185];
total_cost = 95.30006729716455;
total_earn = 34.58844408639742;
