production = [0: 0.0, 1: 0.0, 2: 0.0, 3: 0.0, 4: 0.0, 5: 0.0, 6: 0.0, 7: 0.0, 8: 0.0, 9: 0.0, 10: 0.0, 11: 0.0, 12: 0.0, 13: 0.0, 14: 0.0, 15: 0.0, 16: 0.0, 17: 0.0, 18: 0.0, 19: 0.0, 20: 0.0, 21: 0.0, 22: 0.0, 23: 0.0, 24: 0.000123, 25: 0.000284, 26: 0.000162, 27: 0.000878, 28: 0.002235, 29: 0.005756, 30: 0.013592, 31: 0.022291, 32: 0.02099, 33: 0.022709, 34: 0.096562, 35: 0.045056, 36: 0.024168, 37: 0.093961, 38: 0.200278, 39: 0.152664, 40: 0.09385, 41: 0.039002, 42: 0.116551, 43: 0.132711, 44: 0.036704, 45: 0.120762, 46: 0.06589200000000001, 47: 0.19611, 48: 0.007167, 49: 0.393543, 50: 0.236611, 51: 0.401322, 52: 0.173079, 53: 0.294418, 54: 0.022396, 55: 0.08690199999999999, 56: 0.514835, 57: 0.013089, 58: 0.524221, 59: 0.632638, 60: 0.569616, 61: 0.225483, 62: 0.686325, 63: 0.504234, 64: 0.310962, 65: 0.280497, 66: 0.144554, 67: 0.011925, 68: 0.110818, 69: 0.037469, 70: 0.19797, 71: 0.020795, 72: 0.058216, 73: 0.029049, 74: 0.038758, 75: 0.016045, 76: 0.019559, 77: 0.000105, 78: 3.3e-05, 79: 0.0, 80: 0.0, 81: 0.0, 82: 0.0, 83: 0.0, 84: 0.0, 85: 0.0, 86: 0.0, 87: 0.0, 88: 0.0, 89: 0.0, 90: 0.0, 91: 0.0, 92: 0.0, 93: 0.0, 94: 0.0, 95: 0.0, 96: 0.0, 97: 0.0, 98: 0.0, 99: 0.0, 100: 0.0, 101: 0.0, 102: 0.0, 103: 0.0, 104: 0.0, 105: 0.0, 106: 0.0, 107: 0.0, 108: 0.0, 109: 0.0, 110: 0.0, 111: 0.0, 112: 0.0, 113: 0.0, 114: 0.0, 115: 0.0, 116: 0.0, 117: 0.0, 118: 0.0, 119: 0.0, 120: 0.0, 121: 0.000296, 122: 0.002857, 123: 0.00579, 124: 0.00653, 125: 0.048098, 126: 0.041323, 127: 0.009612000000000001, 128: 0.054509, 129: 0.247384, 130: 0.086217, 131: 0.222384, 132: 0.030183, 133: 0.09335, 134: 0.411599, 135: 0.268633, 136: 0.404554, 137: 0.029439, 138: 0.634985, 139: 0.736108, 140: 0.867434, 141: 0.8683110000000001, 142: 1.043851, 143: 0.286748, 144: 0.286047, 145: 0.463207, 146: 0.246502, 147: 0.5722159999999999, 148: 0.312701, 149: 1.129544, 150: 0.359067, 151: 0.330744, 152: 0.062972, 153: 0.176338, 154: 1.463081, 155: 0.605626, 156: 0.407924, 157: 0.05441, 158: 0.24677, 159: 0.308319, 160: 0.219752, 161: 0.221948, 162: 0.038581, 163: 0.143728, 164: 0.221102, 165: 0.210335, 166: 0.06640500000000001, 167: 0.052758, 168: 0.064537, 169: 0.006041, 170: 0.005254, 171: 0.008617, 172: 0.001577, 173: 0.000312, 174: 0.000372, 175: 0.0, 176: 0.0, 177: 0.0, 178: 0.0, 179: 0.0, 180: 0.0, 181: 0.0, 182: 0.0, 183: 0.0, 184: 0.0, 185: 0.0, 186: 0.0, 187: 0.0, 188: 0.0, 189: 0.0, 190: 0.0, 191: 0.0];
buy = [0: 795.8165320000001, 1: 749.360989, 2: 461.42086, 3: 356.8769, 4: 61.54715, 5: 704.961062, 6: 0.371342, 7: 847.178809, 8: 633.63342, 9: 507.847128, 10: 753.860453, 11: 757.485562, 12: 945.778456, 13: 769.967343, 14: 659.633022, 15: 138.706238, 16: 927.135837, 17: 906.662649, 18: 901.761678, 19: 701.149993, 20: 644.330195, 21: 981.031691, 22: 286.87438, 23: 633.707463, 24: 602.928205, 25: 524.198494, 26: 103.870812, 27: 116.428906, 28: 965.399223, 29: 852.6776159999999, 30: 415.77961, 31: 364.043999, 32: 673.774166, 33: 329.284697, 34: 833.680104, 35: 520.464523, 36: 62.677022, 37: 711.849951, 38: 392.333383, 39: 468.620239, 40: 152.673884, 41: 935.040749, 42: 873.315874, 43: 575.34718, 44: 970.515971, 45: 288.483367, 46: 126.233849, 47: 653.063946, 48: 38.363943, 49: 178.771315, 50: 106.597725, 51: 270.084128, 52: 318.512272, 53: 243.73365, 54: 623.538332, 55: 143.198532, 56: 398.769082, 57: 325.568957, 58: 360.840395, 59: 862.323621, 60: 110.062946, 61: 502.731268, 62: 270.4119, 63: 41.163388, 64: 140.89342, 65: 742.7852810000001, 66: 772.309542, 67: 69.383816, 68: 912.1953119999999, 69: 540.700139, 70: 784.628109, 71: 174.337779, 72: 726.764246, 73: 202.15877, 74: 941.3349009999999, 75: 352.069085, 76: 62.332794, 77: 682.078225, 78: 166.913628, 79: 22.187966, 80: 325.891231, 81: 705.8520580000001, 82: 429.488435, 83: 866.588631, 84: 99.94391400000001, 85: 745.528476, 86: 98.643798, 87: 412.163948, 88: 812.872846, 89: 768.3992950000001, 90: 510.085662, 91: 640.41494, 92: 223.704912, 93: 812.28423, 94: 35.525303, 95: 756.058892, 96: 281.159855, 97: 554.341396, 98: 494.055787, 99: 283.778608, 100: 271.730905, 101: 538.727311, 102: 255.870781, 103: 716.465013, 104: 622.97337, 105: 512.053604, 106: 997.06328, 107: 111.866438, 108: 543.5920620000001, 109: 227.622194, 110: 474.136441, 111: 914.868103, 112: 625.7112509999999, 113: 949.865772, 114: 547.073323, 115: 113.359221, 116: 65.37672999999999, 117: 384.317667, 118: 735.839729, 119: 44.040541, 120: 504.105419, 121: 836.52054, 122: 891.756035, 123: 582.688855, 124: 345.863761, 125: 713.704463, 126: 91.311937, 127: 584.474814, 128: 288.193586, 129: 364.200231, 130: 879.444799, 131: 792.227717, 132: 479.486724, 133: 118.329656, 134: 460.355585, 135: 627.561472, 136: 253.087348, 137: 227.58768, 138: 61.255954, 139: 717.249004, 140: 742.685294, 141: 454.388313, 142: 461.915046, 143: 70.33113899999999, 144: 942.8306669999999, 145: 542.056468, 146: 819.329088, 147: 75.3203, 148: 945.941336, 149: 460.552926, 150: 194.327189, 151: 937.593202, 152: 897.014233, 153: 72.971543, 154: 376.224145, 155: 63.084577, 156: 70.677204, 157: 258.428755, 158: 412.847825, 159: 575.135465, 160: 217.125231, 161: 621.181965, 162: 886.855407, 163: 532.300933, 164: 678.298839, 165: 803.381874, 166: 447.175254, 167: 650.641698, 168: 184.757408, 169: 341.167947, 170: 545.817845, 171: 227.82032, 172: 219.343788, 173: 793.721078, 174: 647.610014, 175: 308.003008, 176: 91.066181, 177: 964.006786, 178: 718.178499, 179: 88.362475, 180: 484.219004, 181: 898.24794, 182: 441.383165, 183: 553.818642, 184: 166.604542, 185: 977.6190790000001, 186: 747.493817, 187: 95.912813, 188: 509.031102, 189: 847.990405, 190: 141.077735, 191: 754.979927];
sell = [0: 3.35421, 1: 1.531501, 2: 3.277346, 3: 1.420165, 4: 3.084808, 5: 3.046465, 6: 2.402776, 7: 0.153181, 8: 2.256254, 9: 3.012964, 10: 3.781438, 11: 3.198893, 12: 2.164712, 13: 3.997939, 14: 3.089294, 15: 3.688542, 16: 1.148584, 17: 3.210756, 18: 3.695882, 19: 0.532372, 20: 2.044798, 21: 2.673835, 22: 0.827134, 23: 3.998689, 24: 0.7695419999999999, 25: 3.739512, 26: 2.991287, 27: 2.062232, 28: 1.241518, 29: 2.697615, 30: 0.126037, 31: 0.830359, 32: 3.601433, 33: 2.264789, 34: 1.647093, 35: 2.809942, 36: 3.701451, 37: 1.895706, 38: 1.697493, 39: 1.5142, 40: 0.5394409999999999, 41: 2.07386, 42: 0.050397, 43: 0.573724, 44: 3.605211, 45: 1.21239, 46: 3.617881, 47: 0.589324, 48: 2.429774, 49: 3.889909, 50: 3.851374, 51: 1.80976, 52: 2.132588, 53: 1.121836, 54: 1.900348, 55: 0.8303779999999999, 56: 1.291266, 57: 0.472293, 58: 2.228558, 59: 0.526324, 60: 0.720585, 61: 2.786377, 62: 2.366687, 63: 2.767142, 64: 0.383668, 65: 1.010742, 66: 3.680135, 67: 1.127082, 68: 3.298074, 69: 1.629899, 70: 2.026897, 71: 0.578036, 72: 2.716799, 73: 0.195507, 74: 2.693051, 75: 2.396698, 76: 2.505998, 77: 3.648654, 78: 1.939416, 79: 1.097885, 80: 0.97819, 81: 2.190294, 82: 1.21171, 83: 1.967131, 84: 0.780386, 85: 3.524517, 86: 2.520152, 87: 2.497226, 88: 2.456297, 89: 2.544004, 90: 2.491291, 91: 2.044206, 92: 2.747604, 93: 2.158638, 94: 2.03897, 95: 0.001072, 96: 1.393977, 97: 3.251054, 98: 2.448963, 99: 3.378294, 100: 2.436243, 101: 0.150175, 102: 0.38109, 103: 2.958225, 104: 0.475698, 105: 3.088512, 106: 3.603388, 107: 1.016819, 108: 1.742881, 109: 2.577858, 110: 0.145052, 111: 0.070844, 112: 1.951616, 113: 1.146444, 114: 3.731222, 115: 3.644124, 116: 1.101739, 117: 3.362878, 118: 2.875551, 119: 2.023834, 120: 3.602452, 121: 3.104809, 122: 2.566146, 123: 1.55833, 124: 1.777539, 125: 0.389266, 126: 2.811688, 127: 2.402986, 128: 2.57273, 129: 2.129778, 130: 0.798203, 131: 0.650906, 132: 1.549931, 133: 3.414387, 134: 0.158639, 135: 0.442093, 136: 1.372636, 137: 1.823654, 138: 3.98743, 139: 2.561289, 140: 2.257247, 141: 2.531245, 142: 3.915686, 143: 2.97689, 144: 0.736394, 145: 1.663806, 146: 2.551819, 147: 2.6928, 148: 1.352791, 149: 2.528598, 150: 1.53333, 151: 2.494348, 152: 0.443169, 153: 0.448321, 154: 1.990423, 155: 1.645422, 156: 2.134686, 157: 1.836704, 158: 3.636762, 159: 3.337286, 160: 2.545147, 161: 1.589524, 162: 0.279013, 163: 0.724538, 164: 2.87459, 165: 1.070086, 166: 2.151435, 167: 3.186256, 168: 3.982651, 169: 0.257389, 170: 2.519895, 171: 0.365793, 172: 1.859103, 173: 0.114776, 174: 2.579892, 175: 3.050743, 176: 1.691965, 177: 2.114153, 178: 3.220396, 179: 0.165996, 180: 0.600724, 181: 2.712619, 182: 3.754587, 183: 3.59443, 184: 1.768906, 185: 3.795455, 186: 1.494431, 187: 1.413555, 188: 2.64185, 189: 2.770462, 190: 3.904375, 191: 0.841846];
charge = [0: 0.312611, 1: 0.9645049999999999, 2: 0.715789, 3: 0.5504019999999999, 4: 0.740266, 5: 0.560849, 6: 0.155111, 7: 0.289875, 8: 0.410196, 9: 0.182327, 10: 0.332799, 11: 0.768292, 12: 0.167172, 13: 0.561536, 14: 0.012682, 15: 0.521947, 16: 0.905462, 17: 0.299945, 18: 0.154365, 19: 0.194371, 20: 0.949886, 21: 0.9362279999999999, 22: 0.497849, 23: 0.190273, 24: 0.660704, 25: 0.990433, 26: 0.906093, 27: 0.961171, 28: 0.177069, 29: 0.249812, 30: 0.360244, 31: 0.148182, 32: 0.04472, 33: 0.867116, 34: 0.856717, 35: 0.060382, 36: 0.6259670000000001, 37: 0.317749, 38: 0.141379, 39: 0.090696, 40: 0.8025409999999999, 41: 0.341004, 42: 0.469965, 43: 0.838079, 44: 0.770597, 45: 0.8547169999999999, 46: 0.416409, 47: 0.907161, 48: 0.383619, 49: 0.9392160000000001, 50: 0.277324, 51: 0.454081, 52: 0.690509, 53: 0.832635, 54: 0.841093, 55: 0.409553, 56: 0.797879, 57: 0.020301, 58: 0.807447, 59: 0.955715, 60: 0.703422, 61: 0.059116, 62: 0.043059, 63: 0.184493, 64: 0.613461, 65: 0.711989, 66: 0.666611, 67: 0.52502, 68: 0.049689, 69: 0.599785, 70: 0.446482, 71: 0.591608, 72: 0.349045, 73: 0.7283539999999999, 74: 0.92807, 75: 0.556901, 76: 0.167209, 77: 0.759037, 78: 0.911112, 79: 0.60463, 80: 0.7318440000000001, 81: 0.538907, 82: 0.291333, 83: 0.118442, 84: 0.138881, 85: 0.97741, 86: 0.46265, 87: 0.038285, 88: 0.177327, 89: 0.469531, 90: 0.127086, 91: 0.163867, 92: 0.606353, 93: 0.394594, 94: 0.543103, 95: 0.320304, 96: 0.73363, 97: 0.837048, 98: 0.250503, 99: 0.549033, 100: 0.702805, 101: 0.692617, 102: 0.139727, 103: 0.349816, 104: 0.688998, 105: 0.38018, 106: 0.661697, 107: 0.470238, 108: 0.837527, 109: 0.017264, 110: 0.787836, 111: 0.980025, 112: 0.721652, 113: 0.339112, 114: 0.557128, 115: 0.953355, 116: 0.767226, 117: 0.268322, 118: 0.722817, 119: 0.069341, 120: 0.819698, 121: 0.857029, 122: 0.769909, 123: 0.821422, 124: 0.887918, 125: 0.341105, 126: 0.881441, 127: 0.8534, 128: 0.917466, 129: 0.69249, 130: 0.730509, 131: 0.229086, 132: 0.225165, 133: 0.318376, 134: 0.952545, 135: 0.449413, 136: 0.369859, 137: 0.55225, 138: 0.675598, 139: 0.034123, 140: 0.237407, 141: 0.946895, 142: 0.431729, 143: 0.479358, 144: 0.736504, 145: 0.598707, 146: 0.563223, 147: 0.809465, 148: 0.771338, 149: 0.523494, 150: 0.634783, 151: 0.388318, 152: 0.882925, 153: 0.137123, 154: 0.637814, 155: 0.928349, 156: 0.375416, 157: 0.104578, 158: 0.181921, 159: 0.270406, 160: 0.363356, 161: 0.256776, 162: 0.962185, 163: 0.9679990000000001, 164: 0.484134, 165: 0.7984520000000001, 166: 0.459514, 167: 0.781318, 168: 0.059407, 169: 0.92016, 170: 0.000859, 171: 0.630179, 172: 0.12952, 173: 0.443263, 174: 0.894918, 175: 0.312077, 176: 0.595043, 177: 0.496205, 178: 0.6992699999999999, 179: 0.6696879999999999, 180: 0.640749, 181: 0.446005, 182: 0.188392, 183: 0.45664, 184: 0.456792, 185: 0.981175, 186: 0.267586, 187: 0.643062, 188: 0.032563, 189: 0.998396, 190: 0.766007, 191: 0.266529];
discharge = [0: 0.429886, 1: 0.341768, 2: 0.941057, 3: 0.961174, 4: 0.455221, 5: 0.141929, 6: 0.672437, 7: 0.031526, 8: 0.181401, 9: 0.063114, 10: 0.8273740000000001, 11: 0.632155, 12: 0.976487, 13: 0.35183, 14: 0.046791, 15: 0.692262, 16: 0.201801, 17: 0.99305, 18: 0.97272, 19: 0.112936, 20: 0.230587, 21: 0.152986, 22: 0.371073, 23: 0.53303, 24: 0.132173, 25: 0.662309, 26: 0.675346, 27: 0.5979179999999999, 28: 0.44338, 29: 0.326033, 30: 0.622051, 31: 0.277524, 32: 0.929515, 33: 0.297113, 34: 0.09686500000000001, 35: 0.345921, 36: 0.899401, 37: 0.551913, 38: 0.129651, 39: 0.321968, 40: 0.867233, 41: 0.022896, 42: 0.063915, 43: 0.682212, 44: 0.936864, 45: 0.578616, 46: 0.026151, 47: 0.48237, 48: 0.547952, 49: 0.677548, 50: 0.284027, 51: 0.196252, 52: 0.932068, 53: 0.368444, 54: 0.644633, 55: 0.944292, 56: 0.217901, 57: 0.852026, 58: 0.05353, 59: 0.270453, 60: 0.155464, 61: 0.756502, 62: 0.488138, 63: 0.522026, 64: 0.797119, 65: 0.598155, 66: 0.381868, 67: 0.196161, 68: 0.386255, 69: 0.846807, 70: 0.749868, 71: 0.61164, 72: 0.202576, 73: 0.572058, 74: 0.854663, 75: 0.76693, 76: 0.875717, 77: 0.9825120000000001, 78: 0.132882, 79: 0.492329, 80: 0.515825, 81: 0.946357, 82: 0.264853, 83: 0.215053, 84: 0.609704, 85: 0.346531, 86: 0.818732, 87: 0.482871, 88: 0.241603, 89: 0.573889, 90: 0.881329, 91: 0.822116, 92: 0.059299, 93: 0.190141, 94: 0.633474, 95: 0.027221, 96: 0.091853, 97: 0.409804, 98: 0.808182, 99: 0.73885, 100: 0.184065, 101: 0.833195, 102: 0.481539, 103: 0.436896, 104: 0.6809770000000001, 105: 0.126344, 106: 0.250463, 107: 0.046026, 108: 0.85046, 109: 0.317329, 110: 0.41517, 111: 0.383521, 112: 0.239884, 113: 0.3999, 114: 0.431045, 115: 0.280241, 116: 0.38311, 117: 0.217966, 118: 0.619803, 119: 0.271138, 120: 0.722465, 121: 0.794564, 122: 0.917559, 123: 0.747093, 124: 0.723091, 125: 0.80083, 126: 0.6217279999999999, 127: 0.009098, 128: 0.075656, 129: 0.039283, 130: 0.550169, 131: 0.261092, 132: 0.737945, 133: 0.201023, 134: 0.366822, 135: 0.679507, 136: 0.334728, 137: 0.414647, 138: 0.802287, 139: 0.52134, 140: 0.277883, 141: 0.689213, 142: 0.779058, 143: 0.07259699999999999, 144: 0.5773430000000001, 145: 0.286338, 146: 0.006473, 147: 0.30823, 148: 0.508217, 149: 0.983496, 150: 0.161726, 151: 0.069466, 152: 0.965903, 153: 0.390846, 154: 0.948531, 155: 0.784115, 156: 0.008715000000000001, 157: 0.09694999999999999, 158: 0.94626, 159: 0.531242, 160: 0.704145, 161: 0.369913, 162: 0.379131, 163: 0.959125, 164: 0.769203, 165: 0.534539, 166: 0.7133659999999999, 167: 0.002857, 168: 0.676704, 169: 0.788752, 170: 0.668234, 171: 0.898597, 172: 0.429559, 173: 0.548638, 174: 0.082496, 175: 0.106085, 176: 0.970037, 177: 0.730006, 178: 0.988341, 179: 0.186272, 180: 0.181984, 181: 0.904314, 182: 0.681796, 183: 0.719513, 184: 0.460617, 185: 0.436877, 186: 0.554523, 187: 0.045603, 188: 0.421843, 189: 0.963541, 190: 0.743063, 191: 0.432005];
soc = [0: 12.306559, 1: 11.462504, 2: 10.991895, 3: 13.79158, 4: 14.482845, 5: 6.366257, 6: 5.550828, 7: 9.396960999999999, 8: 5.84387, 9: 6.505603, 10: 15.208113, 11: 8.253798, 12: 8.787099, 13: 15.521505, 14: 12.964067, 15: 9.035181, 16: 10.057313, 17: 6.047144, 18: 11.299188, 19: 12.549009, 20: 12.089859, 21: 13.95964, 22: 5.365824, 23: 6.987805, 24: 5.489658, 25: 9.182055999999999, 26: 14.326086, 27: 11.706423, 28: 9.764355, 29: 6.203098, 30: 9.322732, 31: 8.531463, 32: 9.636003000000001, 33: 12.16155, 34: 8.787766, 35: 4.452145, 36: 11.377983, 37: 13.978833, 38: 15.518787, 39: 4.968359, 40: 5.12952, 41: 13.011634, 42: 9.029425, 43: 12.752273, 44: 12.903956, 45: 11.417671, 46: 6.482724, 47: 13.828872, 48: 14.741095, 49: 8.042634, 50: 5.133649, 51: 6.14774, 52: 8.197976000000001, 53: 13.41617, 54: 12.74692, 55: 14.877863, 56: 15.537533, 57: 7.664843, 58: 15.609405, 59: 9.874985000000001, 60: 5.00437, 61: 6.108945, 62: 4.334422, 63: 10.709155, 64: 5.316869, 65: 13.215689, 66: 11.225259, 67: 12.854216, 68: 8.092065, 69: 5.777895, 70: 14.806163, 71: 13.489154, 72: 14.50789, 73: 12.890239, 74: 15.337078, 75: 13.214802, 76: 6.993701, 77: 12.970277, 78: 5.552684, 79: 10.991824, 80: 7.084861, 81: 11.314963, 82: 14.147523, 83: 4.73011, 84: 11.800819, 85: 8.415243, 86: 10.749653, 87: 10.071302, 88: 9.845382000000001, 89: 3.859166, 90: 11.814136, 91: 12.589329, 92: 14.288156, 93: 12.628829, 94: 9.833715, 95: 10.663636, 96: 9.693754, 97: 12.977229, 98: 5.60367, 99: 14.273561, 100: 15.261201, 101: 8.155924000000001, 102: 14.752872, 103: 10.405959, 104: 3.610784, 105: 11.399119, 106: 8.692069, 107: 12.841171, 108: 2.89919, 109: 12.016708, 110: 11.013393, 111: 13.598926, 112: 7.51258, 113: 14.602982, 114: 11.069432, 115: 10.309764, 116: 13.494224, 117: 4.357884, 118: 7.368536, 119: 2.79006, 120: 12.153605, 121: 14.012623, 122: 13.250281, 123: 12.296757, 124: 9.589351000000001, 125: 6.609083, 126: 12.59257, 127: 15.111228, 128: 11.641517, 129: 10.201092, 130: 5.086727, 131: 3.15709, 132: 11.707243, 133: 5.420871, 134: 13.585878, 135: 2.860727, 136: 8.81526, 137: 10.296169, 138: 12.044776, 139: 9.001276000000001, 140: 4.648963, 141: 2.684596, 142: 6.050353, 143: 13.712388, 144: 5.89419, 145: 13.880842, 146: 6.021582, 147: 13.872364, 148: 9.440324, 149: 10.308613, 150: 4.515731, 151: 12.537129, 152: 7.350541, 153: 10.582918, 154: 11.004437, 155: 14.681871, 156: 3.842057, 157: 9.333303000000001, 158: 4.689891, 159: 3.617693, 160: 3.079875, 161: 13.291491, 162: 7.01013, 163: 14.180517, 164: 7.703871, 165: 11.496364, 166: 15.647158, 167: 6.869174, 168: 5.971567, 169: 4.502122, 170: 11.015203, 171: 5.511176, 172: 3.325998, 173: 9.932311, 174: 13.387962, 175: 3.300969, 176: 11.929965, 177: 5.726264, 178: 13.960529, 179: 2.985557, 180: 5.08475, 181: 6.784777, 182: 3.165982, 183: 15.382936, 184: 2.667855, 185: 12.00985, 186: 14.708441, 187: 14.924651, 188: 11.931167, 189: 14.86054, 190: 15.572128, 191: 12.233853];
cost = [0: 183.198785, 1: 173.820473, 2: 141.783268, 3: 418.843536, 4: 198.513723, 5: 530.810304, 6: 517.118378, 7: 134.259077, 8: 335.974893, 9: 609.548184, 10: 297.194183, 11: 87.42832900000001, 12: 420.069905, 13: 381.329619, 14: 556.852545, 15: 230.565367, 16: 233.48792, 17: 107.208654, 18: 432.139278, 19: 77.020121, 20: 411.634519, 21: 510.227922, 22: 115.15899, 23: 39.971545, 24: 876.19768, 25: 199.692282, 26: 838.434529, 27: 575.955835, 28: 635.187217, 29: 552.165518, 30: 816.876727, 31: 177.497462, 32: 1150.76389, 33: 1070.234257, 34: 352.512969, 35: 307.124819, 36: 788.954578, 37: 551.318726, 38: 1181.497509, 39: 819.32185, 40: 280.290804, 41: 541.9398210000001, 42: 748.9930409999999, 43: 206.158728, 44: 364.910863, 45: 734.072579, 46: 427.918908, 47: 159.598275, 48: 348.771088, 49: 154.624653, 50: 674.793404, 51: 868.278774, 52: 584.484245, 53: 24.061181, 54: 604.12411, 55: 477.42371, 56: 515.489903, 57: 498.661088, 58: 279.812096, 59: 286.729526, 60: 303.303496, 61: 397.793696, 62: 464.078829, 63: 889.512619, 64: 886.055502, 65: 180.306624, 66: 758.215731, 67: 1157.153814, 68: 23.246882, 69: 264.369167, 70: 595.655021, 71: 512.91448, 72: 192.760649, 73: 1051.278106, 74: 853.276339, 75: 1010.451642, 76: 829.3231919999999, 77: 121.91655, 78: 1100.696076, 79: 494.931912, 80: 297.098351, 81: 157.876645, 82: 1050.977016, 83: 67.28953, 84: 252.644585, 85: 1146.682165, 86: 1121.884281, 87: 904.217484, 88: 370.367487, 89: 484.441498, 90: 59.699068, 91: 37.380692, 92: 172.841529, 93: 242.138048, 94: 515.25828, 95: 94.06997200000001, 96: 403.145558, 97: 597.100856, 98: 233.132951, 99: 469.656259, 100: 417.005227, 101: 306.554682, 102: 8.008229999999999, 103: 544.910914, 104: 415.648486, 105: 537.255647, 106: 204.901267, 107: 91.27433000000001, 108: 489.592529, 109: 428.555834, 110: 466.981267, 111: 171.742154, 112: 383.305775, 113: 435.716641, 114: 13.435497, 115: 244.510177, 116: 56.484507, 117: 403.661227, 118: 18.712976, 119: 565.373441, 120: 830.747938, 121: 296.34665, 122: 1152.212636, 123: 446.28199, 124: 721.893108, 125: 488.921806, 126: 905.55801, 127: 124.282108, 128: 943.888548, 129: 389.038892, 130: 131.562399, 131: 326.0167, 132: 187.099482, 133: 876.029015, 134: 80.508437, 135: 19.800483, 136: 950.699375, 137: 167.285026, 138: 325.580987, 139: 1137.282674, 140: 465.18726, 141: 262.0757, 142: 927.279074, 143: 781.671139, 144: 19.353925, 145: 167.535106, 146: 813.787052, 147: 37.911859, 148: 602.143015, 149: 335.122921, 150: 584.633105, 151: 382.803019, 152: 433.163165, 153: 80.221, 154: 150.224582, 155: 296.153596, 156: 1034.214448, 157: 269.386109, 158: 707.019928, 159: 346.740375, 160: 895.658852, 161: 183.312957, 162: 1127.368594, 163: 1108.285388, 164: 1085.182806, 165: 949.592264, 166: 543.688073, 167: 790.625557, 168: 106.238124, 169: 1104.368975, 170: 841.558582, 171: 709.975628, 172: 563.87273, 173: 413.316301, 174: 195.631964, 175: 444.908273, 176: 442.525715, 177: 728.399816, 178: 962.84244, 179: 295.066238, 180: 683.3924919999999, 181: 64.31904299999999, 182: 701.7385420000001, 183: 521.924996, 184: 468.911118, 185: 194.52544, 186: 102.372226, 187: 9.85899, 188: 76.83466, 189: 558.755872, 190: 535.878598, 191: 367.448028];
earn = [0: 0.894104, 1: 0.655648, 2: 1.449552, 3: 2.05268, 4: 0.894535, 5: 0.359793, 6: 1.059467, 7: 2.210411, 8: 1.298207, 9: 0.723845, 10: 1.826018, 11: 0.668847, 12: 0.815101, 13: 0.315126, 14: 1.611398, 15: 0.631208, 16: 1.061261, 17: 1.323019, 18: 0.069767, 19: 1.099848, 20: 0.262874, 21: 1.283276, 22: 0.422553, 23: 1.04676, 24: 1.427464, 25: 1.913763, 26: 1.070464, 27: 1.711342, 28: 2.312657, 29: 2.313286, 30: 0.939485, 31: 1.23168, 32: 1.148206, 33: 1.901232, 34: 1.378057, 35: 0.091664, 36: 1.874601, 37: 0.421698, 38: 0.699626, 39: 0.678493, 40: 0.481282, 41: 1.597033, 42: 0.111471, 43: 1.036937, 44: 0.545567, 45: 1.001485, 46: 0.738798, 47: 0.177481, 48: 0.498888, 49: 0.101394, 50: 0.133267, 51: 0.447733, 52: 0.279936, 53: 0.373368, 54: 0.115947, 55: 0.272595, 56: 0.049082, 57: 0.176984, 58: 0.063653, 59: 0.202433, 60: 0.124765, 61: 0.082355, 62: 0.143019, 63: 0.170605, 64: 0.322448, 65: 1.360102, 66: 1.501602, 67: 1.57369, 68: 0.557875, 69: 0.429698, 70: 0.7885219999999999, 71: 1.769489, 72: 0.205953, 73: 1.302057, 74: 2.308418, 75: 0.920921, 76: 0.414727, 77: 1.025094, 78: 0.042839, 79: 1.451011, 80: 0.551799, 81: 2.078646, 82: 1.580765, 83: 2.666951, 84: 0.267077, 85: 1.735639, 86: 1.396025, 87: 1.032821, 88: 1.920926, 89: 1.741248, 90: 0.471429, 91: 2.385387, 92: 2.036656, 93: 2.212568, 94: 1.602675, 95: 0.846423, 96: 0.26943, 97: 0.341353, 98: 0.748343, 99: 1.067318, 100: 0.8549369999999999, 101: 0.49005, 102: 1.420492, 103: 1.061182, 104: 0.1371, 105: 1.34368, 106: 1.338273, 107: 0.825055, 108: 0.520733, 109: 0.818114, 110: 0.146182, 111: 0.7030459999999999, 112: 0.378255, 113: 0.293328, 114: 0.491428, 115: 1.575232, 116: 0.234654, 117: 0.995665, 118: 1.127377, 119: 0.719624, 120: 0.403246, 121: 1.992682, 122: 0.002962, 123: 1.636337, 124: 0.952512, 125: 2.186387, 126: 2.37273, 127: 2.693803, 128: 1.779447, 129: 2.618255, 130: 0.806654, 131: 1.040332, 132: 0.237815, 133: 2.091516, 134: 0.313121, 135: 1.928405, 136: 1.078226, 137: 1.02342, 138: 1.222904, 139: 0.372344, 140: 0.391874, 141: 0.827551, 142: 0.451794, 143: 0.411851, 144: 0.525304, 145: 1.140824, 146: 0.8661450000000001, 147: 0.956703, 148: 0.082501, 149: 0.409062, 150: 1.47595, 151: 0.721767, 152: 0.874904, 153: 0.533463, 154: 1.579254, 155: 1.038583, 156: 1.556722, 157: 1.877142, 158: 1.811122, 159: 2.006847, 160: 1.124636, 161: 2.095859, 162: 0.146887, 163: 1.729615, 164: 1.990063, 165: 1.806471, 166: 2.514496, 167: 0.08158700000000001, 168: 2.391098, 169: 2.290102, 170: 0.38341, 171: 1.297578, 172: 0.930833, 173: 0.82328, 174: 1.811089, 175: 2.344368, 176: 3.699616, 177: 0.810777, 178: 3.496723, 179: 2.256695, 180: 0.593755, 181: 0.768497, 182: 1.192237, 183: 2.608119, 184: 1.647288, 185: 0.395972, 186: 1.605837, 187: 2.150574, 188: 1.592129, 189: 1.504659, 190: 1.670269, 191: 2.115867];
total_cost = 97.08092712311411;
total_earn = 38.95615402524862;
