production = [0: 0.0, 1: 0.0, 2: 0.0, 3: 0.0, 4: 0.0, 5: 0.0, 6: 0.0, 7: 0.0, 8: 0.0, 9: 0.0, 10: 0.0, 11: 0.0, 12: 0.0, 13: 0.0, 14: 0.0, 15: 0.0, 16: 0.0, 17: 0.0, 18: 0.0, 19: 0.0, 20: 0.0, 21: 0.0, 22: 0.0, 23: 0.0, 24: 0.000135, 25: 5.6e-05, 26: 0.000142, 27: 0.000729, 28: 0.0017, 29: 0.010767, 30: 0.002681, 31: 0.009662, 32: 4.2e-05, 33: 0.013918, 34: 0.205913, 35: 0.094942, 36: 0.089209, 37: 0.047219, 38: 0.20362, 39: 0.029298, 40: 0.040233, 41: 0.020686, 42: 0.152512, 43: 0.004897, 44: 0.010106, 45: 0.249155, 46: 0.34384, 47: 0.071336, 48: 0.262357, 49: 0.342106, 50: 0.08612499999999999, 51: 0.308961, 52: 0.027402, 53: 0.275842, 54: 0.335858, 55: 0.271071, 56: 0.140821, 57: 0.000401, 58: 0.418256, 59: 0.389443, 60: 0.248257, 61: 0.185179, 62: 0.486559, 63: 0.129124, 64: 0.322607, 65: 0.265944, 66: 0.026493, 67: 0.232792, 68: 0.016471, 69: 0.116013, 70: 0.202296, 71: 0.098041, 72: 0.01517, 73: 0.018107, 74: 0.01241, 75: 0.019307, 76: 0.000615, 77: 0.000138, 78: 0.000816, 79: 0.0, 80: 0.0, 81: 0.0, 82: 0.0, 83: 0.0, 84: 0.0, 85: 0.0, 86: 0.0, 87: 0.0, 88: 0.0, 89: 0.0, 90: 0.0, 91: 0.0, 92: 0.0, 93: 0.0, 94: 0.0, 95: 0.0, 96: 0.0, 97: 0.0, 98: 0.0, 99: 0.0, 100: 0.0, 101: 0.0, 102: 0.0, 103: 0.0, 104: 0.0, 105: 0.0, 106: 0.0, 107: 0.0, 108: 0.0, 109: 0.0, 110: 0.0, 111: 0.0, 112: 0.0, 113: 0.0, 114: 0.0, 115: 0.0, 116: 0.0, 117: 0.0, 118: 0.0, 119: 0.0, 120: 0.0, 121: 0.000131, 122: 0.000819, 123: 0.010139, 124: 0.051606, 125: 0.007564, 126: 0.055947, 127: 0.125338, 128: 0.050528, 129: 0.049426, 130: 0.096871, 131: 0.13791, 132: 0.07302400000000001, 133: 0.438006, 134: 0.374974, 135: 0.274477, 136: 0.504481, 137: 0.07931199999999999, 138: 0.24116, 139: 0.66151, 140: 0.169306, 141: 0.534246, 142: 0.035414, 143: 0.444965, 144: 0.60186, 145: 0.457762, 146: 0.795497, 147: 0.17673, 148: 0.427845, 149: 1.020074, 150: 0.117543, 151: 0.49063, 152: 0.080063, 153: 0.144361, 154: 0.809902, 155: 0.437192, 156: 0.259821, 157: 0.114549, 158: 0.037997, 159: 0.014915, 160: 0.309762, 161: 0.113178, 162: 0.196972, 163: 0.110879, 164: 0.20153, 165: 0.07346800000000001, 166: 0.02823, 167: 0.055663, 168: 0.102697, 169: 0.06270299999999999, 170: 0.004225, 171: 0.002368, 172: 0.000281, 173: 0.001295, 174: 0.000372, 175: 0.0, 176: 0.0, 177: 0.0, 178: 0.0, 179: 0.0, 180: 0.0, 181: 0.0, 182: 0.0, 183: 0.0, 184: 0.0, 185: 0.0, 186: 0.0, 187: 0.0, 188: 0.0, 189: 0.0, 190: 0.0, 191: 0.0];
buy = [0: 909.5867050000001, 1: 46.136224, 2: 646.3218429999999, 3: 501.895353, 4: 989.43613, 5: 738.9874139999999, 6: 779.794442, 7: 563.303167, 8: 899.452598, 9: 60.855428, 10: 258.651984, 11: 640.3904230000001, 12: 799.009698, 13: 330.67351, 14: 916.581416, 15: 367.784209, 16: 452.849468, 17: 257.126208, 18: 768.791047, 19: 398.135711, 20: 213.361062, 21: 214.065489, 22: 209.45551, 23: 307.465059, 24: 240.661107, 25: 852.409661, 26: 17.334813, 27: 676.6465030000001, 28: 995.772399, 29: 657.489268, 30: 735.593709, 31: 104.434137, 32: 430.644179, 33: 893.132166, 34: 867.064396, 35: 602.083485, 36: 764.767951, 37: 16.542138, 38: 859.373547, 39: 686.839625, 40: 25.518394, 41: 978.343822, 42: 444.945244, 43: 786.274401, 44: 412.701608, 45: 909.233971, 46: 79.786379, 47: 650.981422, 48: 330.192502, 49: 398.274888, 50: 221.716597, 51: 825.572122, 52: 754.169784, 53: 232.21527, 54: 396.583396, 55: 811.1711, 56: 934.792607, 57: 60.663578, 58: 829.011649, 59: 100.492979, 60: 628.561514, 61: 322.503356, 62: 538.239771, 63: 969.389618, 64: 264.315237, 65: 804.7068379999999, 66: 225.94668, 67: 678.003596, 68: 18.236562, 69: 578.098112, 70: 582.684291, 71: 103.034833, 72: 977.271303, 73: 586.666381, 74: 799.9981309999999, 75: 700.735903, 76: 646.513163, 77: 992.365357, 78: 246.969164, 79: 333.691305, 80: 256.738144, 81: 833.133244, 82: 61.775428, 83: 767.244875, 84: 763.312618, 85: 139.310723, 86: 486.366649, 87: 805.8765959999999, 88: 881.393739, 89: 636.074489, 90: 789.0962950000001, 91: 350.361882, 92: 687.0042110000001, 93: 393.906246, 94: 866.020623, 95: 634.613038, 96: 921.944178, 97: 318.01689, 98: 599.073393, 99: 841.296208, 100: 207.497682, 101: 698.28682, 102: 206.909026, 103: 808.847234, 104: 306.096457, 105: 352.122305, 106: 786.815831, 107: 405.56178, 108: 804.269705, 109: 115.319073, 110: 91.001071, 111: 528.084473, 112: 570.681691, 113: 200.516624, 114: 575.199345, 115: 122.346296, 116: 739.692722, 117: 570.530754, 118: 840.818726, 119: 106.888428, 120: 199.320844, 121: 794.324715, 122: 354.23686, 123: 700.4271649999999, 124: 498.243823, 125: 358.773782, 126: 289.598211, 127: 837.516725, 128: 713.695022, 129: 725.577256, 130: 756.542508, 131: 785.494996, 132: 38.33918, 133: 85.254988, 134: 65.947193, 135: 453.814899, 136: 766.743685, 137: 596.345952, 138: 790.960476, 139: 312.529159, 140: 939.582339, 141: 468.460861, 142: 708.227025, 143: 437.347883, 144: 223.113007, 145: 759.716986, 146: 435.658026, 147: 953.870875, 148: 18.178019, 149: 328.493261, 150: 59.178547, 151: 35.72677, 152: 813.517077, 153: 880.603124, 154: 641.236569, 155: 381.411, 156: 430.328888, 157: 788.584636, 158: 796.0737789999999, 159: 497.954531, 160: 349.870876, 161: 345.714155, 162: 610.594026, 163: 226.977011, 164: 210.013897, 165: 988.332524, 166: 343.565734, 167: 944.868052, 168: 980.209326, 169: 283.899976, 170: 28.094203, 171: 412.947111, 172: 864.973132, 173: 548.260351, 174: 593.707386, 175: 861.005345, 176: 836.99072, 177: 788.201051, 178: 620.235423, 179: 241.988309, 180: 793.095996, 181: 306.776651, 182: 33.464216, 183: 62.783955, 184: 546.7864530000001, 185: 684.345876, 186: 69.749009, 187: 266.042169, 188: 940.028775, 189: 167.858004, 190: 846.688678, 191: 541.198836];
sell = [0: 0.7823290000000001, 1: 2.315461, 2: 1.97826, 3: 1.331679, 4: 2.674016, 5: 1.167355, 6: 3.974206, 7: 1.962684, 8: 0.230105, 9: 0.273311, 10: 2.929757, 11: 1.693853, 12: 1.890474, 13: 1.482417, 14: 2.089018, 15: 2.09082, 16: 0.234314, 17: 3.706908, 18: 3.62868, 19: 3.070968, 20: 2.750777, 21: 1.783069, 22: 2.567804, 23: 3.317931, 24: 1.511809, 25: 2.024595, 26: 1.443578, 27: 0.262519, 28: 3.605588, 29: 3.949595, 30: 2.372335, 31: 0.408456, 32: 0.053167, 33: 1.595531, 34: 1.398769, 35: 0.780892, 36: 2.437283, 37: 1.984926, 38: 2.329391, 39: 2.953064, 40: 2.162352, 41: 0.857635, 42: 3.770315, 43: 0.467277, 44: 0.524244, 45: 3.031103, 46: 2.542258, 47: 2.444279, 48: 3.315122, 49: 2.169862, 50: 0.111107, 51: 1.400196, 52: 3.651931, 53: 0.817481, 54: 3.845668, 55: 1.620086, 56: 3.487161, 57: 1.320458, 58: 3.673808, 59: 3.675991, 60: 0.956499, 61: 1.929595, 62: 0.608135, 63: 0.711796, 64: 2.247601, 65: 0.576121, 66: 2.143364, 67: 2.812808, 68: 3.133091, 69: 3.597118, 70: 0.486231, 71: 2.444249, 72: 0.9123, 73: 0.967545, 74: 0.237762, 75: 1.578015, 76: 2.704687, 77: 3.141839, 78: 0.113909, 79: 2.385766, 80: 2.29119, 81: 2.102816, 82: 1.992364, 83: 0.933234, 84: 1.84647, 85: 2.640355, 86: 0.179411, 87: 2.852889, 88: 1.303784, 89: 3.931821, 90: 1.713043, 91: 0.457014, 92: 3.224174, 93: 0.480399, 94: 3.189385, 95: 0.929227, 96: 0.807776, 97: 0.221207, 98: 1.742222, 99: 3.342955, 100: 1.465046, 101: 0.259463, 102: 3.820093, 103: 1.892697, 104: 2.342297, 105: 0.921632, 106: 1.583574, 107: 2.277599, 108: 1.998029, 109: 1.420031, 110: 1.445634, 111: 0.310702, 112: 3.703295, 113: 2.57086, 114: 2.889125, 115: 2.655851, 116: 1.276199, 117: 0.9541190000000001, 118: 2.592462, 119: 0.749871, 120: 2.217934, 121: 0.248998, 122: 3.231036, 123: 1.20765, 124: 2.398309, 125: 0.717573, 126: 3.233886, 127: 2.967799, 128: 3.983478, 129: 1.84532, 130: 3.882489, 131: 3.998555, 132: 0.493658, 133: 1.965915, 134: 2.911008, 135: 2.409458, 136: 1.65192, 137: 1.602892, 138: 2.740539, 139: 0.102273, 140: 1.734249, 141: 1.112934, 142: 2.740892, 143: 3.183038, 144: 0.108995, 145: 0.637598, 146: 3.525448, 147: 1.068615, 148: 0.941675, 149: 1.250636, 150: 3.545192, 151: 2.487935, 152: 3.172103, 153: 1.318281, 154: 0.245889, 155: 1.129613, 156: 2.653306, 157: 0.764714, 158: 1.147384, 159: 0.391849, 160: 0.890548, 161: 0.280593, 162: 2.513634, 163: 1.375572, 164: 3.388896, 165: 3.77798, 166: 1.832177, 167: 1.184118, 168: 3.624457, 169: 2.077544, 170: 3.230141, 171: 1.573613, 172: 1.020353, 173: 1.990691, 174: 1.639892, 175: 3.177001, 176: 3.378904, 177: 3.75932, 178: 3.44833, 179: 1.554587, 180: 0.230106, 181: 0.473475, 182: 3.489919, 183: 0.448114, 184: 2.180866, 185: 0.696022, 186: 1.694124, 187: 3.791451, 188: 1.693641, 189: 2.607465, 190: 2.90763, 191: 2.246127];
charge = [0: 0.319694, 1: 0.804395, 2: 0.270396, 3: 0.6203880000000001, 4: 0.975028, 5: 0.318076, 6: 0.912876, 7: 0.035038, 8: 0.63, 9: 0.350798, 10: 0.266518, 11: 0.892495, 12: 0.569057, 13: 0.427571, 14: 0.258124, 15: 0.125318, 16: 0.831346, 17: 0.02497, 18: 0.559165, 19: 0.658434, 20: 0.253379, 21: 0.814779, 22: 0.719454, 23: 0.730916, 24: 0.566252, 25: 0.67959, 26: 0.388313, 27: 0.501297, 28: 0.366988, 29: 0.520728, 30: 0.9958050000000001, 31: 0.820242, 32: 0.9160239999999999, 33: 0.950318, 34: 0.410223, 35: 0.029043, 36: 0.513891, 37: 0.370054, 38: 0.017853, 39: 0.141559, 40: 0.408106, 41: 0.200986, 42: 0.203974, 43: 0.632103, 44: 0.090797, 45: 0.137861, 46: 0.606975, 47: 0.456042, 48: 0.605474, 49: 0.115509, 50: 0.081028, 51: 0.98425, 52: 0.875325, 53: 0.216262, 54: 0.249399, 55: 0.816513, 56: 0.396429, 57: 0.554063, 58: 0.445799, 59: 0.793836, 60: 0.735054, 61: 0.536357, 62: 0.175243, 63: 0.326089, 64: 0.577354, 65: 0.56594, 66: 0.997358, 67: 0.274166, 68: 0.480683, 69: 0.532985, 70: 0.201042, 71: 0.238085, 72: 0.409393, 73: 0.264317, 74: 0.118333, 75: 0.904232, 76: 0.304523, 77: 0.451315, 78: 0.40676, 79: 0.382645, 80: 0.485973, 81: 0.941307, 82: 0.506782, 83: 0.306331, 84: 0.001984, 85: 0.567124, 86: 0.520842, 87: 0.360074, 88: 0.154083, 89: 0.8670099999999999, 90: 0.424271, 91: 0.926701, 92: 0.114434, 93: 0.194341, 94: 0.07131700000000001, 95: 0.00281, 96: 0.577209, 97: 0.9176879999999999, 98: 0.100544, 99: 0.567273, 100: 0.6715680000000001, 101: 0.929216, 102: 0.327873, 103: 0.680559, 104: 0.086328, 105: 0.609807, 106: 0.013828, 107: 0.241625, 108: 0.363987, 109: 0.226693, 110: 0.510762, 111: 0.615792, 112: 0.693203, 113: 0.277135, 114: 0.978976, 115: 0.639047, 116: 0.906185, 117: 0.929109, 118: 0.199718, 119: 0.289141, 120: 0.467975, 121: 0.320791, 122: 0.098315, 123: 0.846411, 124: 0.824581, 125: 0.9024180000000001, 126: 0.546912, 127: 0.831062, 128: 0.196739, 129: 0.931597, 130: 0.254585, 131: 0.310421, 132: 0.8423890000000001, 133: 0.366651, 134: 0.180389, 135: 0.188796, 136: 0.807364, 137: 0.49611, 138: 0.156289, 139: 0.724703, 140: 0.407479, 141: 0.659243, 142: 0.946071, 143: 0.384054, 144: 0.311917, 145: 0.789322, 146: 0.277109, 147: 0.951684, 148: 0.575261, 149: 0.600566, 150: 0.959605, 151: 0.5998599999999999, 152: 0.026431, 153: 0.6834209999999999, 154: 0.192454, 155: 0.107448, 156: 0.57904, 157: 0.98802, 158: 0.672026, 159: 0.174196, 160: 0.095953, 161: 0.118248, 162: 0.319512, 163: 0.667357, 164: 0.725286, 165: 0.08024199999999999, 166: 0.091228, 167: 0.682366, 168: 0.998189, 169: 0.861755, 170: 0.917114, 171: 0.393268, 172: 0.08264199999999999, 173: 0.319295, 174: 0.809032, 175: 0.139619, 176: 0.888367, 177: 0.817453, 178: 0.066912, 179: 0.563464, 180: 0.880905, 181: 0.484965, 182: 0.047406, 183: 0.96992, 184: 0.009391999999999999, 185: 0.391089, 186: 0.353993, 187: 0.686045, 188: 0.127962, 189: 0.074325, 190: 0.529043, 191: 0.09316199999999999];
discharge = [0: 0.591507, 1: 0.718693, 2: 0.166698, 3: 0.168225, 4: 0.260645, 5: 0.902787, 6: 0.322784, 7: 0.51897, 8: 0.647742, 9: 0.914996, 10: 0.688479, 11: 0.545721, 12: 0.610202, 13: 0.644157, 14: 0.440897, 15: 0.579122, 16: 0.941074, 17: 0.394668, 18: 0.48672, 19: 0.945771, 20: 0.386053, 21: 0.158621, 22: 0.153808, 23: 0.881459, 24: 0.692659, 25: 0.962873, 26: 0.43005, 27: 0.747261, 28: 0.998129, 29: 0.05936, 30: 0.697182, 31: 0.087002, 32: 0.081482, 33: 0.015909, 34: 0.252373, 35: 0.716442, 36: 0.055137, 37: 0.208477, 38: 0.506477, 39: 0.664367, 40: 0.349118, 41: 0.19055, 42: 0.40317, 43: 0.06646000000000001, 44: 0.445375, 45: 0.833396, 46: 0.982434, 47: 0.807054, 48: 0.551879, 49: 0.647855, 50: 0.996529, 51: 0.829057, 52: 0.577269, 53: 0.376049, 54: 0.919718, 55: 0.434021, 56: 0.9929519999999999, 57: 0.255922, 58: 0.814544, 59: 0.812215, 60: 0.993439, 61: 0.161647, 62: 0.245735, 63: 0.9717750000000001, 64: 0.939288, 65: 0.5404600000000001, 66: 0.484944, 67: 0.7359290000000001, 68: 0.238578, 69: 0.443511, 70: 0.90683, 71: 0.250076, 72: 0.816977, 73: 0.939933, 74: 0.803543, 75: 0.352905, 76: 0.409588, 77: 0.485803, 78: 0.04866, 79: 0.918425, 80: 0.125397, 81: 0.55223, 82: 0.102385, 83: 0.041067, 84: 0.672273, 85: 0.701191, 86: 0.7588, 87: 0.92445, 88: 0.7312689999999999, 89: 0.303487, 90: 0.005839, 91: 0.451072, 92: 0.965805, 93: 0.912616, 94: 0.581507, 95: 0.895468, 96: 0.605552, 97: 0.542452, 98: 0.406232, 99: 0.911068, 100: 0.761913, 101: 0.573912, 102: 0.270875, 103: 0.978276, 104: 0.6584950000000001, 105: 0.07921, 106: 0.502811, 107: 0.697137, 108: 0.741455, 109: 0.88691, 110: 0.141954, 111: 0.573919, 112: 0.80079, 113: 0.199735, 114: 0.955162, 115: 0.5486180000000001, 116: 0.478205, 117: 0.656334, 118: 0.127487, 119: 0.658037, 120: 0.684423, 121: 0.794158, 122: 0.206646, 123: 0.303901, 124: 0.01499, 125: 0.690191, 126: 0.304428, 127: 0.555546, 128: 0.122747, 129: 0.136198, 130: 0.839398, 131: 0.568015, 132: 0.531676, 133: 0.427456, 134: 0.9447140000000001, 135: 0.202324, 136: 0.592544, 137: 0.191897, 138: 0.414461, 139: 0.741319, 140: 0.477426, 141: 0.333951, 142: 0.366452, 143: 0.389402, 144: 0.041314, 145: 0.537156, 146: 0.953616, 147: 0.753309, 148: 0.391904, 149: 0.09624099999999999, 150: 0.286314, 151: 0.682715, 152: 0.188576, 153: 0.726992, 154: 0.873625, 155: 0.459513, 156: 0.559481, 157: 0.741334, 158: 0.136177, 159: 0.70191, 160: 0.404525, 161: 0.551883, 162: 0.549136, 163: 0.394328, 164: 0.111667, 165: 0.150435, 166: 0.408785, 167: 0.321866, 168: 0.896819, 169: 0.60046, 170: 0.370422, 171: 0.652304, 172: 0.648424, 173: 0.330054, 174: 0.533559, 175: 0.632934, 176: 0.759599, 177: 0.284344, 178: 0.827964, 179: 0.671389, 180: 0.420953, 181: 0.421754, 182: 0.725936, 183: 0.040256, 184: 0.677922, 185: 0.760402, 186: 0.98322, 187: 0.6697380000000001, 188: 0.791662, 189: 0.382607, 190: 0.09612800000000001, 191: 0.827902];
soc = [0: 11.2095, 1: 10.320735, 2: 13.500361, 3: 15.40785, 4: 11.491592, 5: 11.414457, 6: 11.152763, 7: 12.930477, 8: 3.782673, 9: 7.351844, 10: 3.203165, 11: 12.012775, 12: 2.978338, 13: 14.860179, 14: 8.633571, 15: 5.348102, 16: 11.521195, 17: 12.113608, 18: 6.326992, 19: 7.222481, 20: 7.255427, 21: 15.507851, 22: 15.398626, 23: 7.956393, 24: 5.783715, 25: 9.965275, 26: 6.973092, 27: 12.064456, 28: 5.440048, 29: 9.181505, 30: 3.672781, 31: 14.378209, 32: 3.753853, 33: 10.320246, 34: 6.326327, 35: 7.732315, 36: 12.206923, 37: 10.467195, 38: 11.6496, 39: 5.866259, 40: 5.3429, 41: 12.319222, 42: 10.609201, 43: 3.144532, 44: 10.838334, 45: 2.763754, 46: 11.329082, 47: 9.916207, 48: 3.006261, 49: 5.057656, 50: 4.214218, 51: 12.889761, 52: 5.913058, 53: 5.73195, 54: 14.494004, 55: 13.537824, 56: 7.602465, 57: 13.199816, 58: 12.821408, 59: 13.712296, 60: 10.87197, 61: 7.693265, 62: 3.053769, 63: 6.287873, 64: 12.199192, 65: 12.51274, 66: 12.356097, 67: 4.979908, 68: 7.610501, 69: 11.403875, 70: 5.243299, 71: 6.352714, 72: 10.680808, 73: 13.837129, 74: 8.237176, 75: 11.857732, 76: 6.269735, 77: 14.727173, 78: 15.2982, 79: 4.961934, 80: 5.879472, 81: 11.334332, 82: 10.164298, 83: 7.326564, 84: 7.399586, 85: 5.352983, 86: 6.539215, 87: 8.42292, 88: 5.138761, 89: 9.965287999999999, 90: 13.584324, 91: 5.128829, 92: 4.092367, 93: 15.240796, 94: 6.780275, 95: 4.301981, 96: 8.74057, 97: 11.140354, 98: 11.617476, 99: 14.761847, 100: 11.789847, 101: 14.04804, 102: 10.12597, 103: 5.068331, 104: 10.796461, 105: 9.417838, 106: 5.169593, 107: 4.266793, 108: 15.42642, 109: 11.938736, 110: 9.359368999999999, 111: 9.253622, 112: 8.009223, 113: 5.681383, 114: 13.546582, 115: 11.990734, 116: 8.506678000000001, 117: 4.778853, 118: 11.39031, 119: 8.217359, 120: 3.892058, 121: 13.234736, 122: 14.994908, 123: 4.321784, 124: 5.824181, 125: 11.238174, 126: 15.549237, 127: 14.045954, 128: 6.196578, 129: 7.75247, 130: 13.380058, 131: 15.08386, 132: 6.154209, 133: 15.44761, 134: 15.583066, 135: 5.479458, 136: 9.32052, 137: 3.745643, 138: 11.717263, 139: 14.103265, 140: 10.260264, 141: 8.913233999999999, 142: 10.710093, 143: 12.545486, 144: 15.600576, 145: 10.64165, 146: 10.213725, 147: 15.258042, 148: 13.003922, 149: 12.349494, 150: 4.992965, 151: 14.378476, 152: 14.114458, 153: 3.198098, 154: 9.375754000000001, 155: 7.513683, 156: 7.522169, 157: 9.935572000000001, 158: 15.502561, 159: 4.516786, 160: 14.832907, 161: 13.234912, 162: 10.101909, 163: 3.503456, 164: 5.259197, 165: 9.484125000000001, 166: 11.517449, 167: 4.993632, 168: 10.088901, 169: 15.068656, 170: 4.461217, 171: 12.784862, 172: 11.192946, 173: 6.086985, 174: 6.182852, 175: 9.209909, 176: 10.510508, 177: 10.067711, 178: 15.597178, 179: 3.919494, 180: 5.695994, 181: 12.881161, 182: 3.996262, 183: 12.31294, 184: 4.86572, 185: 6.501495, 186: 6.989077, 187: 5.718055, 188: 6.094441, 189: 15.250688, 190: 4.957956, 191: 12.123471];
cost = [0: 113.515993, 1: 88.127762, 2: 391.569436, 3: 28.262092, 4: 488.249035, 5: 228.632938, 6: 357.650841, 7: 0.51445, 8: 289.164678, 9: 11.47235, 10: 351.315157, 11: 354.848936, 12: 463.22085, 13: 329.03749, 14: 240.036741, 15: 502.552328, 16: 288.032239, 17: 226.36305, 18: 97.377579, 19: 269.169533, 20: 173.245457, 21: 176.573586, 22: 214.104067, 23: 235.288237, 24: 255.77599, 25: 592.042787, 26: 474.870152, 27: 168.808052, 28: 306.065661, 29: 331.776128, 30: 984.995365, 31: 113.526515, 32: 534.928447, 33: 1178.364845, 34: 417.705384, 35: 606.309, 36: 987.054207, 37: 902.034881, 38: 1181.899739, 39: 618.942371, 40: 4.252648, 41: 570.3650280000001, 42: 1039.15512, 43: 121.055508, 44: 651.957079, 45: 382.858221, 46: 877.6233989999999, 47: 793.224874, 48: 598.497197, 49: 478.365572, 50: 1057.041047, 51: 361.42861, 52: 232.988839, 53: 320.882894, 54: 522.128728, 55: 370.692085, 56: 289.098025, 57: 222.475119, 58: 389.567082, 59: 444.477889, 60: 1138.272291, 61: 759.332819, 62: 768.251786, 63: 1150.871176, 64: 975.9260839999999, 65: 397.189584, 66: 553.970694, 67: 997.757468, 68: 553.0811619999999, 69: 445.392566, 70: 834.0512670000001, 71: 762.902707, 72: 845.936382, 73: 563.060728, 74: 458.122697, 75: 356.150576, 76: 172.377352, 77: 268.789225, 78: 1163.214819, 79: 1061.327704, 80: 580.881049, 81: 1129.57858, 82: 124.49109, 83: 6.70002, 84: 49.671222, 85: 1080.883086, 86: 422.230576, 87: 527.685058, 88: 332.370264, 89: 333.579235, 90: 459.080099, 91: 492.261325, 92: 452.245923, 93: 411.770058, 94: 302.701363, 95: 122.439609, 96: 186.108654, 97: 339.74053, 98: 599.582765, 99: 590.437214, 100: 103.117571, 101: 5.55107, 102: 183.399201, 103: 429.678786, 104: 120.882179, 105: 597.853807, 106: 494.869865, 107: 148.053911, 108: 94.093914, 109: 252.306782, 110: 227.471682, 111: 416.290381, 112: 414.598459, 113: 392.237368, 114: 86.835992, 115: 188.47986, 116: 109.693241, 117: 98.21368200000001, 118: 476.564681, 119: 568.285565, 120: 283.088093, 121: 474.446865, 122: 529.981806, 123: 548.525537, 124: 528.094602, 125: 263.500601, 126: 189.737418, 127: 913.451865, 128: 486.150196, 129: 183.140164, 130: 729.731321, 131: 1096.167746, 132: 526.722074, 133: 722.275656, 134: 871.806976, 135: 1083.892803, 136: 693.376398, 137: 1017.037412, 138: 998.311204, 139: 361.064769, 140: 1131.152891, 141: 245.133025, 142: 1115.103002, 143: 629.2914479999999, 144: 1037.079763, 145: 194.067224, 146: 200.677923, 147: 344.809091, 148: 499.16339, 149: 133.005002, 150: 81.896276, 151: 415.453258, 152: 481.45462, 153: 355.469045, 154: 227.819363, 155: 170.593074, 156: 1006.425193, 157: 220.403882, 158: 165.65336, 159: 805.218885, 160: 874.821408, 161: 711.04377, 162: 331.673863, 163: 559.6747789999999, 164: 35.097663, 165: 439.957988, 166: 70.037121, 167: 619.234259, 168: 389.331442, 169: 433.171254, 170: 308.672761, 171: 971.371179, 172: 598.047449, 173: 186.206124, 174: 457.007105, 175: 858.519542, 176: 857.5109189999999, 177: 1019.269535, 178: 61.530006, 179: 488.46064, 180: 424.981218, 181: 757.610549, 182: 840.263454, 183: 251.966056, 184: 473.231696, 185: 313.271509, 186: 511.79359, 187: 455.098913, 188: 168.046476, 189: 69.36802900000001, 190: 328.690594, 191: 431.70913];
earn = [0: 1.909607, 1: 2.470498, 2: 2.158986, 3: 1.255042, 4: 1.490958, 5: 0.873855, 6: 1.118806, 7: 0.959234, 8: 0.493909, 9: 1.010021, 10: 0.185686, 11: 1.302593, 12: 1.777703, 13: 1.512393, 14: 2.044666, 15: 0.6668269999999999, 16: 0.454799, 17: 0.015924, 18: 1.092193, 19: 0.776688, 20: 1.287707, 21: 0.351925, 22: 1.534614, 23: 0.643815, 24: 0.48991, 25: 0.745886, 26: 0.743892, 27: 0.573051, 28: 0.529459, 29: 0.21853, 30: 1.107994, 31: 2.26772, 32: 0.769686, 33: 1.104996, 34: 0.428149, 35: 2.198196, 36: 1.387116, 37: 2.172965, 38: 0.418087, 39: 0.721513, 40: 1.875547, 41: 1.738422, 42: 1.431974, 43: 1.004153, 44: 0.45177, 45: 0.8300419999999999, 46: 0.509236, 47: 0.260666, 48: 0.209094, 49: 0.2605, 50: 0.219485, 51: 0.556671, 52: 0.274018, 53: 0.365353, 54: 0.13981, 55: 0.309466, 56: 0.247699, 57: 0.210554, 58: 0.071524, 59: 0.034098, 60: 0.521451, 61: 0.375351, 62: 0.19463, 63: 0.209998, 64: 0.414539, 65: 0.478263, 66: 0.198744, 67: 1.024688, 68: 1.650873, 69: 0.7328750000000001, 70: 1.085746, 71: 1.193824, 72: 0.607021, 73: 0.11493, 74: 0.192092, 75: 0.177212, 76: 1.309266, 77: 0.706483, 78: 0.736976, 79: 2.787079, 80: 1.827203, 81: 0.5205070000000001, 82: 1.279177, 83: 2.914036, 84: 1.86719, 85: 0.410395, 86: 0.905487, 87: 1.475349, 88: 2.021113, 89: 0.694165, 90: 1.371373, 91: 2.11593, 92: 1.942864, 93: 1.244648, 94: 0.060444, 95: 0.845027, 96: 1.270938, 97: 1.71317, 98: 1.786539, 99: 1.893443, 100: 1.808132, 101: 0.941806, 102: 1.108507, 103: 0.933608, 104: 0.12155, 105: 1.136104, 106: 0.83312, 107: 0.175091, 108: 1.472598, 109: 1.378615, 110: 0.822666, 111: 0.784149, 112: 0.329085, 113: 0.595233, 114: 0.43536, 115: 1.613008, 116: 1.86414, 117: 0.770483, 118: 0.894476, 119: 0.630256, 120: 0.100277, 121: 2.60821, 122: 2.33931, 123: 2.212293, 124: 1.37429, 125: 1.727121, 126: 1.863669, 127: 0.80231, 128: 0.060493, 129: 1.789717, 130: 0.316602, 131: 1.5528, 132: 0.251931, 133: 0.7342, 134: 1.570891, 135: 0.546361, 136: 1.628473, 137: 1.305077, 138: 0.290321, 139: 1.323609, 140: 0.556715, 141: 0.678378, 142: 0.174603, 143: 0.44398, 144: 0.125429, 145: 0.775581, 146: 0.993027, 147: 0.312987, 148: 1.170901, 149: 0.884971, 150: 1.137397, 151: 0.751718, 152: 1.209161, 153: 0.30282, 154: 1.357695, 155: 1.29104, 156: 0.166356, 157: 0.1015, 158: 0.131035, 159: 1.963528, 160: 0.683157, 161: 0.124293, 162: 1.01253, 163: 0.374122, 164: 0.821493, 165: 1.421679, 166: 1.666547, 167: 1.653969, 168: 2.191972, 169: 0.167285, 170: 0.9228690000000001, 171: 0.620662, 172: 2.294033, 173: 1.969215, 174: 2.598704, 175: 1.867225, 176: 0.256906, 177: 0.463558, 178: 0.232564, 179: 0.504915, 180: 2.416477, 181: 2.319799, 182: 1.267825, 183: 1.944361, 184: 0.756793, 185: 1.763922, 186: 1.328879, 187: 0.393729, 188: 1.155618, 189: 1.921554, 190: 0.894752, 191: 0.271385];
total_cost = 96.32563891700222;
total_earn = 34.0210107049922;
