production = [0: 0.0, 1: 0.0, 2: 0.0, 3: 0.0, 4: 0.0, 5: 0.0, 6: 0.0, 7: 0.0, 8: 0.0, 9: 0.0, 10: 0.0, 11: 0.0, 12: 0.0, 13: 0.0, 14: 0.0, 15: 0.0, 16: 0.0, 17: 0.0, 18: 0.0, 19: 0.0, 20: 0.0, 21: 0.0, 22: 0.0, 23: 0.0, 24: 0.000164, 25: 0.00019, 26: 0.000361, 27: 0.001184, 28: 0.002734, 29: 0.009251000000000001, 30: 0.01152, 31: 0.003069, 32: 0.039578, 33: 0.108097, 34: 0.130783, 35: 0.040035, 36: 0.060103, 37: 0.101827, 38: 0.10648, 39: 0.163031, 40: 0.070286, 41: 0.018457, 42: 0.143036, 43: 0.044977, 44: 0.052556, 45: 0.228253, 46: 0.413144, 47: 0.106732, 48: 0.069776, 49: 0.07512000000000001, 50: 0.150503, 51: 0.013742, 52: 0.026623, 53: 0.274119, 54: 0.190975, 55: 0.257677, 56: 0.035943, 57: 0.285209, 58: 0.350697, 59: 0.14905, 60: 0.545907, 61: 0.604708, 62: 0.072394, 63: 0.527838, 64: 0.163686, 65: 0.15198, 66: 0.068894, 67: 0.049455, 68: 0.185411, 69: 0.149096, 70: 0.044123, 71: 0.084199, 72: 0.060029, 73: 0.009915, 74: 0.010387, 75: 0.009698, 76: 0.000773, 77: 0.00098, 78: 0.000927, 79: 0.0, 80: 0.0, 81: 0.0, 82: 0.0, 83: 0.0, 84: 0.0, 85: 0.0, 86: 0.0, 87: 0.0, 88: 0.0, 89: 0.0, 90: 0.0, 91: 0.0, 92: 0.0, 93: 0.0, 94: 0.0, 95: 0.0, 96: 0.0, 97: 0.0, 98: 0.0, 99: 0.0, 100: 0.0, 101: 0.0, 102: 0.0, 103: 0.0, 104: 0.0, 105: 0.0, 106: 0.0, 107: 0.0, 108: 0.0, 109: 0.0, 110: 0.0, 111: 0.0, 112: 0.0, 113: 0.0, 114: 0.0, 115: 0.0, 116: 0.0, 117: 0.0, 118: 0.0, 119: 0.0, 120: 0.0, 121: 0.000165, 122: 0.000661, 123: 0.021288, 124: 0.026993, 125: 0.035435, 126: 0.051782, 127: 0.07109600000000001, 128: 0.152845, 129: 0.19922, 130: 0.036322, 131: 0.109479, 132: 0.095095, 133: 0.074138, 134: 0.153687, 135: 0.232479, 136: 0.430832, 137: 0.887354, 138: 1.022863, 139: 0.906622, 140: 0.591841, 141: 0.681007, 142: 1.071179, 143: 0.542131, 144: 0.702865, 145: 0.329468, 146: 0.098896, 147: 0.583457, 148: 0.028815, 149: 0.111301, 150: 0.27634, 151: 0.211739, 152: 0.15489, 153: 0.33432, 154: 0.287189, 155: 0.258072, 156: 0.238528, 157: 0.014709, 158: 0.013501, 159: 0.051238, 160: 0.229195, 161: 0.031377, 162: 0.472311, 163: 0.012871, 164: 0.09883699999999999, 165: 0.030793, 166: 0.155364, 167: 0.007847, 168: 0.045681, 169: 0.019864, 170: 0.023485, 171: 0.002608, 172: 0.003472, 173: 0.000378, 174: 0.000378, 175: 0.0, 176: 0.0, 177: 0.0, 178: 0.0, 179: 0.0, 180: 0.0, 181: 0.0, 182: 0.0, 183: 0.0, 184: 0.0, 185: 0.0, 186: 0.0, 187: 0.0, 188: 0.0, 189: 0.0, 190: 0.0, 191: 0.0];
buy = [0: 85.558407, 1: 307.037758, 2: 779.375358, 3: 808.170303, 4: 553.874943, 5: 303.655464, 6: 47.993719, 7: 120.661597, 8: 806.088115, 9: 643.36596, 10: 633.789958, 11: 336.193528, 12: 96.768246, 13: 202.630477, 14: 295.184249, 15: 845.413853, 16: 193.10131, 17: 992.600235, 18: 983.091524, 19: 869.245058, 20: 913.84578, 21: 226.664635, 22: 343.452547, 23: 609.010009, 24: 724.315907, 25: 874.551682, 26: 173.477465, 27: 582.459487, 28: 21.52038, 29: 549.139817, 30: 580.1753210000001, 31: 443.927141, 32: 167.074772, 33: 62.83597, 34: 396.084893, 35: 49.427229, 36: 84.14860400000001, 37: 9.722255000000001, 38: 243.726241, 39: 919.715506, 40: 835.175503, 41: 336.400745, 42: 145.014465, 43: 737.871316, 44: 254.07158, 45: 138.197144, 46: 356.076683, 47: 671.3983500000001, 48: 566.180561, 49: 349.019459, 50: 763.184875, 51: 246.30859, 52: 839.685196, 53: 177.894759, 54: 541.730921, 55: 238.812176, 56: 952.446108, 57: 832.470805, 58: 452.07219, 59: 595.8925829999999, 60: 210.122357, 61: 421.263173, 62: 702.752575, 63: 741.2784339999999, 64: 689.879837, 65: 531.714999, 66: 648.781682, 67: 154.202488, 68: 659.6527139999999, 69: 539.409626, 70: 505.875343, 71: 995.512121, 72: 556.745141, 73: 314.29604, 74: 84.00543, 75: 902.082572, 76: 614.421145, 77: 927.494602, 78: 993.913264, 79: 24.190018, 80: 938.602706, 81: 800.488138, 82: 622.671529, 83: 329.463634, 84: 305.557631, 85: 418.122321, 86: 816.170073, 87: 742.885942, 88: 515.982385, 89: 119.829037, 90: 380.66692, 91: 387.33245, 92: 120.71451, 93: 801.636224, 94: 83.76376999999999, 95: 979.074494, 96: 220.745525, 97: 766.593436, 98: 204.984674, 99: 314.248078, 100: 682.842005, 101: 407.201205, 102: 206.519645, 103: 419.344596, 104: 201.28252, 105: 34.694006, 106: 598.595084, 107: 583.816194, 108: 964.697321, 109: 441.68569, 110: 90.749827, 111: 931.529217, 112: 319.713337, 113: 782.7111609999999, 114: 855.799344, 115: 625.085915, 116: 376.001303, 117: 543.1315080000001, 118: 705.507706, 119: 812.990944, 120: 488.346816, 121: 845.40806, 122: 298.123442, 123: 292.844252, 124: 899.8376909999999, 125: 211.704074, 126: 203.692316, 127: 406.164086, 128: 702.085564, 129: 422.438619, 130: 619.776753, 131: 188.869758, 132: 464.601802, 133: 827.966705, 134: 676.467763, 135: 323.297125, 136: 98.47656499999999, 137: 731.73747, 138: 60.948857, 139: 174.28609, 140: 840.117901, 141: 760.0687830000001, 142: 572.299847, 143: 810.911206, 144: 560.773202, 145: 63.013131, 146: 321.608712, 147: 344.492458, 148: 461.504134, 149: 429.393274, 150: 281.861966, 151: 737.094007, 152: 774.234626, 153: 870.506936, 154: 973.047002, 155: 375.499433, 156: 888.049323, 157: 770.886358, 158: 991.439499, 159: 771.045664, 160: 720.26311, 161: 532.191295, 162: 434.046368, 163: 9.182435999999999, 164: 158.150504, 165: 555.427828, 166: 641.083429, 167: 654.690344, 168: 361.496602, 169: 596.688622, 170: 478.224294, 171: 567.375542, 172: 395.367667, 173: 549.4550410000001, 174: 875.023908, 175: 985.087252, 176: 32.487176, 177: 371.595367, 178: 285.213402, 179: 620.5257329999999, 180: 924.922652, 181: 167.482698, 182: 412.978507, 183: 480.960795, 184: 407.528937, 185: 79.577307, 186: 131.847647, 187: 604.748979, 188: 206.999053, 189: 327.471828, 190: 271.154587, 191: 917.585183];
sell = [0: 0.760275, 1: 0.460204, 2: 1.130819, 3: 1.118457, 4: 2.993491, 5: 1.949601, 6: 0.018975, 7: 1.211395, 8: 0.888809, 9: 3.928937, 10: 2.923148, 11: 0.592509, 12: 1.56148, 13: 3.99458, 14: 0.375729, 15: 2.306866, 16: 2.536893, 17: 0.819313, 18: 3.703348, 19: 1.99829, 20: 0.737526, 21: 1.441076, 22: 3.291559, 23: 1.399975, 24: 3.514807, 25: 1.40474, 26: 3.989963, 27: 2.513919, 28: 0.143145, 29: 0.617442, 30: 3.091654, 31: 1.344792, 32: 1.440148, 33: 1.244129, 34: 1.262222, 35: 0.776329, 36: 3.363816, 37: 2.881948, 38: 1.527175, 39: 1.963297, 40: 2.0832, 41: 1.250306, 42: 0.387529, 43: 0.662301, 44: 0.087531, 45: 3.763332, 46: 2.868762, 47: 3.664664, 48: 0.53746, 49: 3.229928, 50: 1.800316, 51: 1.662066, 52: 2.625295, 53: 3.195019, 54: 3.596162, 55: 1.27495, 56: 3.122384, 57: 1.605109, 58: 0.5889219999999999, 59: 0.393264, 60: 3.861514, 61: 2.262028, 62: 1.255607, 63: 1.303669, 64: 0.477293, 65: 0.726194, 66: 3.109678, 67: 1.0076, 68: 0.441625, 69: 3.464253, 70: 3.357023, 71: 0.835727, 72: 3.953224, 73: 2.636426, 74: 1.881096, 75: 3.763224, 76: 2.696649, 77: 2.453817, 78: 1.763874, 79: 1.067129, 80: 0.329897, 81: 0.427148, 82: 1.23194, 83: 0.332445, 84: 0.705467, 85: 2.789052, 86: 3.355287, 87: 2.550232, 88: 3.118076, 89: 1.208796, 90: 2.484174, 91: 2.766378, 92: 1.25756, 93: 0.645989, 94: 0.29837, 95: 0.822983, 96: 3.130522, 97: 2.026789, 98: 2.858699, 99: 0.71555, 100: 3.341019, 101: 1.676087, 102: 0.537391, 103: 1.741258, 104: 3.921798, 105: 3.346179, 106: 0.30344, 107: 0.423447, 108: 0.9955889999999999, 109: 2.01522, 110: 1.738698, 111: 1.040232, 112: 3.094439, 113: 2.15062, 114: 2.672718, 115: 2.31623, 116: 3.540411, 117: 2.461982, 118: 1.318542, 119: 3.270775, 120: 3.359791, 121: 2.695134, 122: 2.916, 123: 1.453599, 124: 2.975466, 125: 0.012833, 126: 1.446298, 127: 2.843766, 128: 3.298516, 129: 0.812848, 130: 3.205864, 131: 0.838975, 132: 3.909361, 133: 1.755589, 134: 0.024742, 135: 2.337166, 136: 0.5897790000000001, 137: 3.475576, 138: 3.120781, 139: 1.243649, 140: 1.553284, 141: 2.656703, 142: 2.497883, 143: 0.954199, 144: 1.833674, 145: 2.330581, 146: 1.537164, 147: 0.681737, 148: 2.103862, 149: 1.561108, 150: 1.68665, 151: 3.350326, 152: 1.049226, 153: 3.07736, 154: 2.288749, 155: 3.720088, 156: 0.669081, 157: 2.044909, 158: 3.1985, 159: 1.617952, 160: 3.575733, 161: 3.58417, 162: 1.978576, 163: 0.724136, 164: 2.275243, 165: 1.566855, 166: 0.727079, 167: 3.279616, 168: 1.989826, 169: 1.504556, 170: 1.354596, 171: 3.817134, 172: 2.207057, 173: 2.338142, 174: 0.103162, 175: 0.500274, 176: 3.439974, 177: 0.047461, 178: 3.561954, 179: 2.51589, 180: 2.952925, 181: 3.838854, 182: 0.309823, 183: 3.147852, 184: 2.103396, 185: 2.014173, 186: 3.859763, 187: 0.449961, 188: 2.051502, 189: 1.412442, 190: 0.464557, 191: 0.314029];
charge = [0: 0.453712, 1: 0.500223, 2: 0.297942, 3: 0.941794, 4: 0.226107, 5: 0.882126, 6: 0.07532, 7: 0.344351, 8: 0.9714739999999999, 9: 0.609321, 10: 0.7643450000000001, 11: 0.6937140000000001, 12: 0.964266, 13: 0.393477, 14: 0.6739309999999999, 15: 0.094879, 16: 0.626754, 17: 0.125485, 18: 0.037179, 19: 0.411209, 20: 0.340249, 21: 0.4662, 22: 0.19106, 23: 0.935652, 24: 0.368197, 25: 0.084642, 26: 0.105902, 27: 0.685573, 28: 0.709776, 29: 0.374002, 30: 0.057454, 31: 0.515912, 32: 0.879752, 33: 0.924239, 34: 0.119936, 35: 0.791195, 36: 0.307518, 37: 0.688393, 38: 0.654664, 39: 0.024861, 40: 0.019786, 41: 0.073064, 42: 0.718122, 43: 0.305991, 44: 0.767143, 45: 0.520882, 46: 0.258935, 47: 0.844158, 48: 0.277091, 49: 0.42071, 50: 0.865613, 51: 0.705165, 52: 0.222556, 53: 0.965789, 54: 0.917681, 55: 0.540638, 56: 0.675862, 57: 0.747812, 58: 0.5021, 59: 0.406001, 60: 0.666848, 61: 0.477276, 62: 0.767032, 63: 0.701029, 64: 0.380421, 65: 0.300847, 66: 0.867641, 67: 0.637689, 68: 0.40959, 69: 0.83988, 70: 0.877148, 71: 0.690158, 72: 0.6990229999999999, 73: 0.976274, 74: 0.9371660000000001, 75: 0.91205, 76: 0.562199, 77: 0.002422, 78: 0.033753, 79: 0.288274, 80: 0.773926, 81: 0.874912, 82: 0.766584, 83: 0.399143, 84: 0.992402, 85: 0.152898, 86: 0.163409, 87: 0.832228, 88: 0.938848, 89: 0.176725, 90: 0.148932, 91: 0.743346, 92: 0.404689, 93: 0.776277, 94: 0.438222, 95: 0.588469, 96: 0.389239, 97: 0.16901, 98: 0.842077, 99: 0.211666, 100: 0.733059, 101: 0.81532, 102: 0.32647, 103: 0.233192, 104: 0.285588, 105: 0.5437340000000001, 106: 0.6078249999999999, 107: 0.548936, 108: 0.609904, 109: 0.124079, 110: 0.017481, 111: 0.781755, 112: 0.067958, 113: 0.483727, 114: 0.317645, 115: 0.805557, 116: 0.6596109999999999, 117: 0.39327, 118: 0.847901, 119: 0.774913, 120: 0.168104, 121: 0.7988960000000001, 122: 0.205709, 123: 0.690249, 124: 0.333422, 125: 0.935236, 126: 0.571997, 127: 0.249464, 128: 0.47169, 129: 0.955924, 130: 0.13633, 131: 0.900708, 132: 0.809293, 133: 0.94753, 134: 0.459591, 135: 0.259443, 136: 0.441936, 137: 0.735469, 138: 0.205005, 139: 0.486756, 140: 0.840482, 141: 0.5168970000000001, 142: 0.715133, 143: 0.27335, 144: 0.662265, 145: 0.472626, 146: 0.93823, 147: 0.108862, 148: 0.325637, 149: 0.337148, 150: 0.5394099999999999, 151: 0.565665, 152: 0.6865250000000001, 153: 0.351333, 154: 0.970014, 155: 0.194666, 156: 0.215222, 157: 0.5089630000000001, 158: 0.000204, 159: 0.766154, 160: 0.894248, 161: 0.938836, 162: 0.075487, 163: 0.835514, 164: 0.104823, 165: 0.605402, 166: 0.870505, 167: 0.625044, 168: 0.7214159999999999, 169: 0.698174, 170: 0.558498, 171: 0.251401, 172: 0.007519, 173: 0.954527, 174: 0.96602, 175: 0.743664, 176: 0.08629299999999999, 177: 0.26931, 178: 0.781605, 179: 0.478003, 180: 0.366339, 181: 0.34277, 182: 0.555404, 183: 0.272243, 184: 0.7147, 185: 0.222827, 186: 0.83444, 187: 0.522185, 188: 0.58815, 189: 0.736179, 190: 0.008604000000000001, 191: 0.00748];
discharge = [0: 0.201557, 1: 0.963816, 2: 0.177408, 3: 0.464164, 4: 0.5687950000000001, 5: 0.634251, 6: 0.582896, 7: 0.734426, 8: 0.5108740000000001, 9: 0.837098, 10: 0.215708, 11: 0.110396, 12: 0.575057, 13: 0.810198, 14: 0.985057, 15: 0.106921, 16: 0.344132, 17: 0.824164, 18: 0.687229, 19: 0.823273, 20: 0.242235, 21: 0.747219, 22: 0.81484, 23: 0.231024, 24: 0.664423, 25: 0.433076, 26: 0.784785, 27: 0.96656, 28: 0.121918, 29: 0.042596, 30: 0.455536, 31: 0.385972, 32: 0.752344, 33: 0.549403, 34: 0.743745, 35: 0.12561, 36: 0.8210769999999999, 37: 0.50009, 38: 0.7062659999999999, 39: 0.633022, 40: 0.524856, 41: 0.8030929999999999, 42: 0.8722299999999999, 43: 0.248022, 44: 0.129891, 45: 0.976824, 46: 0.5266999999999999, 47: 0.484339, 48: 0.56999, 49: 0.226888, 50: 0.786654, 51: 0.452931, 52: 0.899366, 53: 0.979762, 54: 0.419892, 55: 0.85702, 56: 0.812598, 57: 0.532598, 58: 0.429058, 59: 0.004, 60: 0.649698, 61: 0.190587, 62: 0.862036, 63: 0.172684, 64: 0.598254, 65: 0.271124, 66: 0.991343, 67: 0.543273, 68: 0.393354, 69: 0.717272, 70: 0.813461, 71: 0.136249, 72: 0.134766, 73: 0.843674, 74: 0.388802, 75: 0.86468, 76: 0.904107, 77: 0.445795, 78: 0.975117, 79: 0.67866, 80: 0.126024, 81: 0.43083, 82: 0.494483, 83: 0.912614, 84: 0.758816, 85: 0.098755, 86: 0.963332, 87: 0.461209, 88: 0.199362, 89: 0.741658, 90: 0.046638, 91: 0.152168, 92: 0.157732, 93: 0.16832, 94: 0.808982, 95: 0.478851, 96: 0.144741, 97: 0.596131, 98: 0.408764, 99: 0.55145, 100: 0.867771, 101: 0.402195, 102: 0.658264, 103: 0.11441, 104: 0.856247, 105: 0.192757, 106: 0.140969, 107: 0.352879, 108: 0.006846, 109: 0.100337, 110: 0.30653, 111: 0.872561, 112: 0.157922, 113: 0.980036, 114: 0.259263, 115: 0.067262, 116: 0.547948, 117: 0.872016, 118: 0.938276, 119: 0.400241, 120: 0.390879, 121: 0.308771, 122: 0.517389, 123: 0.221278, 124: 0.9483470000000001, 125: 0.332922, 126: 0.136857, 127: 0.074432, 128: 0.956149, 129: 0.466483, 130: 0.230783, 131: 0.223439, 132: 0.939612, 133: 0.541858, 134: 0.234679, 135: 0.712798, 136: 0.081917, 137: 0.076154, 138: 0.277746, 139: 0.673866, 140: 0.489623, 141: 0.170849, 142: 0.827864, 143: 0.861558, 144: 0.296477, 145: 0.335199, 146: 0.025388, 147: 0.589968, 148: 0.209825, 149: 0.597773, 150: 0.096057, 151: 0.632735, 152: 0.779142, 153: 0.527019, 154: 0.6958490000000001, 155: 0.10981, 156: 0.507702, 157: 0.680468, 158: 0.749764, 159: 0.789557, 160: 0.502658, 161: 0.37617, 162: 0.227005, 163: 0.08527899999999999, 164: 0.753745, 165: 0.012862, 166: 0.076806, 167: 0.371566, 168: 0.939876, 169: 0.516096, 170: 0.325725, 171: 0.317703, 172: 0.271563, 173: 0.779474, 174: 0.233219, 175: 0.547878, 176: 0.611774, 177: 0.282246, 178: 0.978308, 179: 0.229055, 180: 0.097224, 181: 0.6182260000000001, 182: 0.946283, 183: 0.431056, 184: 0.175088, 185: 0.463855, 186: 0.944233, 187: 0.26498, 188: 0.6494450000000001, 189: 0.33754, 190: 0.983178, 191: 0.601558];
soc = [0: 11.556378, 1: 12.776597, 2: 11.596004, 3: 11.352032, 4: 9.100719, 5: 11.710368, 6: 6.386204, 7: 11.742252, 8: 13.77694, 9: 8.026040999999999, 10: 13.848521, 11: 13.166454, 12: 3.627107, 13: 3.806949, 14: 11.247388, 15: 5.455161, 16: 7.388863, 17: 4.312197, 18: 4.878579, 19: 7.52854, 20: 15.297453, 21: 14.057662, 22: 8.341248999999999, 23: 4.795172, 24: 8.106671, 25: 12.431826, 26: 3.062956, 27: 3.995546, 28: 9.738329, 29: 6.467205, 30: 14.403418, 31: 5.279634, 32: 12.376535, 33: 7.792025, 34: 15.327775, 35: 10.483214, 36: 5.101563, 37: 7.083023, 38: 14.557082, 39: 7.934948, 40: 4.83255, 41: 4.500626, 42: 3.405171, 43: 6.753298, 44: 3.274898, 45: 2.743472, 46: 3.179982, 47: 13.227291, 48: 10.922831, 49: 3.418086, 50: 9.229228000000001, 51: 6.51627, 52: 4.480306, 53: 11.735265, 54: 3.606839, 55: 10.421356, 56: 9.181312, 57: 7.862185, 58: 8.710742, 59: 7.192226, 60: 7.147705, 61: 11.721942, 62: 7.588658, 63: 11.814874, 64: 9.91316, 65: 2.908253, 66: 15.481006, 67: 12.34491, 68: 8.972360999999999, 69: 4.711839, 70: 5.229563, 71: 4.74481, 72: 14.85647, 73: 5.829729, 74: 14.364285, 75: 10.357918, 76: 11.348842, 77: 3.916016, 78: 11.406355, 79: 6.263729, 80: 4.389836, 81: 9.090871, 82: 9.44167, 83: 10.025558, 84: 8.743626000000001, 85: 8.299403, 86: 12.274692, 87: 11.90464, 88: 3.048872, 89: 8.523495, 90: 5.272018, 91: 14.821682, 92: 14.392247, 93: 3.366561, 94: 5.003395, 95: 7.440481, 96: 11.848129, 97: 11.099669, 98: 14.733938, 99: 10.72583, 100: 9.390005, 101: 9.399556, 102: 9.334790999999999, 103: 2.942229, 104: 11.173982, 105: 6.104994, 106: 6.828548, 107: 8.852361, 108: 12.643204, 109: 9.00774, 110: 9.321236000000001, 111: 7.919823, 112: 13.431295, 113: 5.376434, 114: 9.620564, 115: 14.574272, 116: 4.927551, 117: 12.869781, 118: 14.039237, 119: 5.903839, 120: 10.566321, 121: 7.092311, 122: 14.640468, 123: 4.845417, 124: 11.215918, 125: 15.185281, 126: 13.362301, 127: 10.183643, 128: 4.964928, 129: 4.518359, 130: 10.794144, 131: 12.837419, 132: 11.955627, 133: 12.731895, 134: 3.101859, 135: 10.504896, 136: 9.152877, 137: 15.031356, 138: 12.092136, 139: 13.245696, 140: 8.984825000000001, 141: 7.161928, 142: 7.660574, 143: 5.248871, 144: 15.068906, 145: 4.667556, 146: 14.627464, 147: 8.672563999999999, 148: 9.396661999999999, 149: 9.892559, 150: 3.19956, 151: 15.176176, 152: 5.497233, 153: 3.584065, 154: 7.160673, 155: 9.047207, 156: 2.759547, 157: 15.260958, 158: 7.642579, 159: 9.657622, 160: 12.669881, 161: 13.916848, 162: 10.056522, 163: 6.884183, 164: 3.596866, 165: 4.590279, 166: 3.382043, 167: 7.706672, 168: 13.762767, 169: 11.749593, 170: 13.356433, 171: 14.026028, 172: 6.592391, 173: 6.879516, 174: 8.850671, 175: 7.308976, 176: 7.30383, 177: 14.15619, 178: 13.914689, 179: 8.381605, 180: 3.856858, 181: 8.486686000000001, 182: 2.710325, 183: 10.742595, 184: 11.861617, 185: 9.160523, 186: 14.195385, 187: 14.060271, 188: 11.220811, 189: 3.101222, 190: 14.095976, 191: 15.339268];
cost = [0: 573.94227, 1: 11.059077, 2: 316.073528, 3: 111.902688, 4: 238.307527, 5: 197.822923, 6: 476.289407, 7: 263.616842, 8: 21.176452, 9: 234.489975, 10: 38.122265, 11: 377.031854, 12: 231.632204, 13: 255.567098, 14: 197.40361, 15: 531.198853, 16: 107.308706, 17: 63.445067, 18: 149.695176, 19: 72.693848, 20: 268.594878, 21: 446.435669, 22: 129.851641, 23: 139.465074, 24: 757.178803, 25: 277.368295, 26: 794.638406, 27: 51.306194, 28: 888.032873, 29: 526.602289, 30: 335.499849, 31: 789.521506, 32: 26.978932, 33: 552.978191, 34: 263.011803, 35: 912.596497, 36: 968.0813920000001, 37: 114.974355, 38: 907.178308, 39: 985.229634, 40: 9.044828000000001, 41: 1114.839455, 42: 70.30537099999999, 43: 877.8308939999999, 44: 1171.702837, 45: 826.98406, 46: 735.914803, 47: 33.273827, 48: 467.249827, 49: 1182.212795, 50: 1104.672001, 51: 1038.305996, 52: 249.238199, 53: 469.256278, 54: 431.64733, 55: 274.565814, 56: 121.898231, 57: 97.670306, 58: 143.602371, 59: 353.898585, 60: 189.740536, 61: 209.425763, 62: 415.508025, 63: 610.715556, 64: 914.584711, 65: 822.782546, 66: 1051.067102, 67: 1056.034341, 68: 870.553948, 69: 1005.901841, 70: 374.284851, 71: 246.179012, 72: 684.54804, 73: 444.720853, 74: 108.216514, 75: 202.676308, 76: 1115.787795, 77: 860.975499, 78: 278.331953, 79: 932.111135, 80: 168.575388, 81: 649.610854, 82: 502.391158, 83: 717.545552, 84: 693.890344, 85: 934.074278, 86: 354.645005, 87: 777.5806679999999, 88: 181.511943, 89: 37.754494, 90: 321.484668, 91: 485.094178, 92: 306.634329, 93: 304.293139, 94: 428.0268, 95: 14.982303, 96: 51.803002, 97: 0.635486, 98: 575.49919, 99: 465.829953, 100: 0.395512, 101: 32.558734, 102: 396.215732, 103: 240.93726, 104: 110.942419, 105: 469.367081, 106: 372.742356, 107: 348.228861, 108: 500.840278, 109: 281.430048, 110: 65.617701, 111: 294.570558, 112: 277.207047, 113: 376.900797, 114: 358.23252, 115: 261.645179, 116: 238.425954, 117: 22.937229, 118: 386.850973, 119: 132.056795, 120: 376.69555, 121: 1165.94037, 122: 892.621396, 123: 23.872026, 124: 582.625343, 125: 960.6797330000001, 126: 192.05752, 127: 529.371519, 128: 1134.682778, 129: 774.239144, 130: 627.071547, 131: 265.719222, 132: 514.9871450000001, 133: 1113.429784, 134: 1046.816475, 135: 470.51414, 136: 493.86032, 137: 423.36575, 138: 630.8919990000001, 139: 898.423061, 140: 1018.701639, 141: 572.5562629999999, 142: 33.162382, 143: 202.234964, 144: 38.921483, 145: 33.178411, 146: 759.1361020000001, 147: 268.477988, 148: 191.647278, 149: 491.138266, 150: 280.720713, 151: 312.144874, 152: 109.306588, 153: 131.715297, 154: 71.071821, 155: 245.514685, 156: 5.793894, 157: 345.585692, 158: 738.344206, 159: 334.712334, 160: 391.834363, 161: 945.473334, 162: 1071.960635, 163: 144.25946, 164: 399.856932, 165: 252.45835, 166: 845.035834, 167: 114.401263, 168: 643.065433, 169: 95.86994900000001, 170: 908.156172, 171: 394.861324, 172: 685.432516, 173: 176.861579, 174: 1071.824301, 175: 181.937771, 176: 443.045639, 177: 229.939174, 178: 131.732439, 179: 636.134842, 180: 531.967318, 181: 1098.227926, 182: 191.088524, 183: 742.022883, 184: 263.136173, 185: 351.114184, 186: 408.86768, 187: 70.062112, 188: 170.0417, 189: 532.760583, 190: 49.685937, 191: 310.974018];
earn = [0: 2.287175, 1: 1.849726, 2: 2.074043, 3: 1.579559, 4: 0.147412, 5: 2.041336, 6: 0.8420299999999999, 7: 1.413715, 8: 1.295686, 9: 0.19666, 10: 1.157796, 11: 1.27202, 12: 1.759909, 13: 2.020747, 14: 1.599676, 15: 0.406455, 16: 1.148514, 17: 1.449722, 18: 1.825782, 19: 0.138317, 20: 0.549149, 21: 1.622007, 22: 1.636086, 23: 1.796533, 24: 0.001163, 25: 1.414905, 26: 1.055563, 27: 1.463775, 28: 2.165313, 29: 1.399455, 30: 1.743733, 31: 1.376493, 32: 2.259026, 33: 1.370896, 34: 1.46262, 35: 1.441096, 36: 0.381399, 37: 0.973523, 38: 0.959674, 39: 1.936993, 40: 0.283848, 41: 0.374331, 42: 1.442368, 43: 0.157748, 44: 0.014689, 45: 0.716951, 46: 0.257784, 47: 0.353298, 48: 0.466854, 49: 0.172104, 50: 0.563537, 51: 0.139954, 52: 0.275032, 53: 0.018801, 54: 0.264767, 55: 0.329708, 56: 0.324448, 57: 0.08753900000000001, 58: 0.09112000000000001, 59: 0.052206, 60: 0.222924, 61: 0.312523, 62: 0.237704, 63: 0.004067, 64: 1.100509, 65: 0.147677, 66: 1.69034, 67: 0.31384, 68: 1.006917, 69: 0.393584, 70: 0.326721, 71: 2.121508, 72: 2.372561, 73: 0.20801, 74: 1.595894, 75: 0.26558, 76: 0.5261710000000001, 77: 0.90478, 78: 2.01149, 79: 1.379862, 80: 2.379419, 81: 0.534362, 82: 0.229495, 83: 2.458682, 84: 0.343133, 85: 1.140367, 86: 0.269419, 87: 0.040733, 88: 1.553018, 89: 1.781366, 90: 2.038094, 91: 1.780385, 92: 2.084485, 93: 0.9867899999999999, 94: 1.31633, 95: 1.209474, 96: 1.945381, 97: 1.264393, 98: 0.286075, 99: 1.413851, 100: 1.001101, 101: 1.648191, 102: 1.183844, 103: 0.23215, 104: 0.871843, 105: 0.021075, 106: 0.473963, 107: 0.087438, 108: 1.224086, 109: 0.997534, 110: 0.269821, 111: 1.409034, 112: 1.166784, 113: 0.143216, 114: 0.869632, 115: 0.119156, 116: 0.67979, 117: 1.634127, 118: 0.717643, 119: 1.241213, 120: 1.176261, 121: 2.288809, 122: 2.285719, 123: 2.304149, 124: 3.37017, 125: 2.834295, 126: 0.58721, 127: 2.303397, 128: 1.000113, 129: 2.547002, 130: 0.798809, 131: 1.949447, 132: 0.830253, 133: 1.393229, 134: 0.404544, 135: 1.788813, 136: 1.384218, 137: 0.490482, 138: 1.235546, 139: 0.84978, 140: 1.282381, 141: 0.250608, 142: 0.382439, 143: 1.124414, 144: 0.103615, 145: 1.102464, 146: 0.320247, 147: 0.010622, 148: 0.493058, 149: 0.8771949999999999, 150: 0.710454, 151: 0.587985, 152: 1.615527, 153: 0.867019, 154: 0.489428, 155: 0.820012, 156: 1.250624, 157: 0.765216, 158: 1.276158, 159: 2.020998, 160: 1.207389, 161: 0.734688, 162: 0.73674, 163: 1.080291, 164: 0.336791, 165: 0.621552, 166: 1.814475, 167: 1.786372, 168: 0.04518, 169: 0.812101, 170: 1.18513, 171: 2.464698, 172: 3.149169, 173: 3.078388, 174: 1.311434, 175: 2.005345, 176: 1.484448, 177: 3.544178, 178: 1.668533, 179: 2.94691, 180: 1.302014, 181: 2.257179, 182: 2.000229, 183: 1.658067, 184: 2.530558, 185: 1.835409, 186: 1.17254, 187: 2.017403, 188: 0.567354, 189: 1.242807, 190: 0.481877, 191: 1.491901];
total_cost = 94.97557447832146;
total_earn = 33.30089494954192;
