production = [0: 0.0, 1: 0.0, 2: 0.0, 3: 0.0, 4: 0.0, 5: 0.0, 6: 0.0, 7: 0.0, 8: 0.0, 9: 0.0, 10: 0.0, 11: 0.0, 12: 0.0, 13: 0.0, 14: 0.0, 15: 0.0, 16: 0.0, 17: 0.0, 18: 0.0, 19: 0.0, 20: 0.0, 21: 0.0, 22: 0.0, 23: 0.0, 24: 2.2e-05, 25: 4e-06, 26: 0.000145, 27: 0.000402, 28: 0.001294, 29: 0.002456, 30: 0.012197, 31: 0.020405, 32: 0.002547, 33: 0.038164, 34: 0.144225, 35: 0.168311, 36: 0.178421, 37: 0.150363, 38: 0.157346, 39: 0.054027, 40: 0.134657, 41: 0.03532, 42: 0.053408, 43: 0.093669, 44: 0.084311, 45: 0.308661, 46: 0.421575, 47: 0.231362, 48: 0.163937, 49: 0.45023, 50: 0.06057, 51: 0.301927, 52: 0.022711, 53: 0.211215, 54: 0.027896, 55: 0.194255, 56: 0.496796, 57: 0.290184, 58: 0.431123, 59: 0.159182, 60: 0.369735, 61: 0.333351, 62: 0.607208, 63: 0.292335, 64: 0.373456, 65: 0.050626, 66: 0.035823, 67: 0.115005, 68: 0.175447, 69: 0.084234, 70: 0.02906, 71: 0.035653, 72: 0.010259, 73: 0.006509, 74: 0.053302, 75: 0.004781, 76: 0.019843, 77: 0.000228, 78: 0.000868, 79: 0.0, 80: 0.0, 81: 0.0, 82: 0.0, 83: 0.0, 84: 0.0, 85: 0.0, 86: 0.0, 87: 0.0, 88: 0.0, 89: 0.0, 90: 0.0, 91: 0.0, 92: 0.0, 93: 0.0, 94: 0.0, 95: 0.0, 96: 0.0, 97: 0.0, 98: 0.0, 99: 0.0, 100: 0.0, 101: 0.0, 102: 0.0, 103: 0.0, 104: 0.0, 105: 0.0, 106: 0.0, 107: 0.0, 108: 0.0, 109: 0.0, 110: 0.0, 111: 0.0, 112: 0.0, 113: 0.0, 114: 0.0, 115: 0.0, 116: 0.0, 117: 0.0, 118: 0.0, 119: 0.0, 120: 0.0, 121: 0.000294, 122: 0.004723, 123: 0.001191, 124: 0.052464, 125: 0.033075, 126: 0.055154, 127: 0.130104, 128: 0.006591, 129: 0.192354, 130: 0.28489, 131: 0.169617, 132: 0.379153, 133: 0.317526, 134: 0.036903, 135: 0.345556, 136: 0.316949, 137: 0.260823, 138: 0.781999, 139: 0.657299, 140: 0.463427, 141: 0.854019, 142: 0.6265770000000001, 143: 0.004243, 144: 0.172961, 145: 0.393324, 146: 0.8800210000000001, 147: 0.181409, 148: 0.486093, 149: 0.824677, 150: 0.766303, 151: 0.647938, 152: 0.195012, 153: 0.80553, 154: 0.796744, 155: 0.287119, 156: 0.203907, 157: 0.072269, 158: 0.113941, 159: 0.237925, 160: 0.167645, 161: 0.188042, 162: 0.077081, 163: 0.25738, 164: 0.232725, 165: 0.18277, 166: 0.052248, 167: 0.049465, 168: 0.08855300000000001, 169: 0.047479, 170: 0.014331, 171: 0.004703, 172: 0.000642, 173: 0.000515, 174: 0.000418, 175: 0.0, 176: 0.0, 177: 0.0, 178: 0.0, 179: 0.0, 180: 0.0, 181: 0.0, 182: 0.0, 183: 0.0, 184: 0.0, 185: 0.0, 186: 0.0, 187: 0.0, 188: 0.0, 189: 0.0, 190: 0.0, 191: 0.0];
buy = [0: 894.0067, 1: 447.052313, 2: 661.5106039999999, 3: 692.498226, 4: 528.508347, 5: 565.679121, 6: 301.040932, 7: 320.543804, 8: 367.040375, 9: 902.8321560000001, 10: 979.418217, 11: 337.465633, 12: 782.468272, 13: 742.020822, 14: 838.409342, 15: 844.665184, 16: 564.771357, 17: 610.3873579999999, 18: 90.807491, 19: 176.628081, 20: 863.891509, 21: 227.225754, 22: 646.294408, 23: 504.22823, 24: 594.621144, 25: 382.074179, 26: 531.572995, 27: 74.311785, 28: 453.76488, 29: 2.138552, 30: 512.331145, 31: 989.342443, 32: 516.385261, 33: 711.935652, 34: 294.806836, 35: 294.059872, 36: 634.81704, 37: 312.623252, 38: 865.708947, 39: 834.380395, 40: 813.419755, 41: 812.481801, 42: 665.8836250000001, 43: 440.53428, 44: 844.103721, 45: 307.42829, 46: 395.745281, 47: 185.06921, 48: 266.024194, 49: 374.83064, 50: 824.685119, 51: 78.19668299999999, 52: 46.781704, 53: 663.533282, 54: 613.337776, 55: 996.425899, 56: 563.2493469999999, 57: 39.144876, 58: 506.906101, 59: 890.547592, 60: 497.957191, 61: 184.056399, 62: 310.06437, 63: 378.096596, 64: 349.64759, 65: 166.762449, 66: 118.460381, 67: 264.329125, 68: 875.232503, 69: 702.094522, 70: 386.420823, 71: 730.7535789999999, 72: 407.485819, 73: 904.38318, 74: 229.618422, 75: 85.553428, 76: 812.6546080000001, 77: 105.912823, 78: 814.443068, 79: 843.55501, 80: 108.994211, 81: 406.301707, 82: 232.857049, 83: 370.65951, 84: 559.260682, 85: 777.325324, 86: 163.229439, 87: 768.737587, 88: 223.576123, 89: 599.797723, 90: 426.563289, 91: 236.394302, 92: 146.098528, 93: 868.909946, 94: 647.798532, 95: 772.3891159999999, 96: 669.881715, 97: 489.443201, 98: 599.87125, 99: 93.720116, 100: 181.996948, 101: 400.335624, 102: 386.237279, 103: 956.458692, 104: 792.608896, 105: 208.747492, 106: 840.939175, 107: 752.651176, 108: 942.825831, 109: 779.620495, 110: 970.284429, 111: 430.812054, 112: 836.843876, 113: 244.746363, 114: 279.673349, 115: 937.743434, 116: 942.191789, 117: 681.4841259999999, 118: 259.065603, 119: 977.419203, 120: 70.581172, 121: 296.735093, 122: 995.332945, 123: 688.359122, 124: 381.774153, 125: 627.8891180000001, 126: 696.3371, 127: 516.443115, 128: 354.89134, 129: 292.895041, 130: 28.737813, 131: 808.7431779999999, 132: 301.111698, 133: 910.567751, 134: 227.286474, 135: 6.120117, 136: 98.49790400000001, 137: 509.725939, 138: 834.066988, 139: 531.94031, 140: 960.55845, 141: 482.962508, 142: 265.754147, 143: 988.67033, 144: 334.867715, 145: 829.984001, 146: 463.4874, 147: 38.419669, 148: 387.779602, 149: 759.828228, 150: 763.294687, 151: 661.20548, 152: 598.106137, 153: 898.434159, 154: 823.094034, 155: 740.342174, 156: 447.440019, 157: 705.917458, 158: 398.249851, 159: 915.010028, 160: 860.671516, 161: 3.633086, 162: 724.032145, 163: 762.88786, 164: 344.679342, 165: 333.973741, 166: 467.70895, 167: 63.194285, 168: 47.483059, 169: 767.182275, 170: 215.290723, 171: 799.476756, 172: 142.39503, 173: 638.189783, 174: 480.199567, 175: 362.733466, 176: 627.247664, 177: 627.011709, 178: 900.996041, 179: 951.441925, 180: 463.685574, 181: 987.823568, 182: 737.7777129999999, 183: 198.182218, 184: 421.094694, 185: 680.967272, 186: 311.940273, 187: 528.556632, 188: 309.478151, 189: 155.457825, 190: 654.794087, 191: 986.01315];
sell = [0: 0.238285, 1: 3.192682, 2: 3.633376, 3: 1.170749, 4: 0.803366, 5: 2.964478, 6: 3.690511, 7: 1.895487, 8: 1.482416, 9: 2.032756, 10: 3.366315, 11: 0.038398, 12: 2.149395, 13: 2.832289, 14: 0.08622, 15: 0.832723, 16: 2.710164, 17: 1.344492, 18: 2.115044, 19: 0.108751, 20: 3.164429, 21: 3.93178, 22: 3.797685, 23: 3.511834, 24: 3.804403, 25: 1.203946, 26: 3.227561, 27: 0.586067, 28: 2.525733, 29: 3.390218, 30: 3.739793, 31: 2.269463, 32: 0.9494629999999999, 33: 1.00814, 34: 3.367644, 35: 2.263642, 36: 0.538359, 37: 1.082126, 38: 1.731473, 39: 0.348121, 40: 1.214907, 41: 3.274128, 42: 2.705589, 43: 0.367649, 44: 3.653192, 45: 3.225608, 46: 3.85226, 47: 2.033124, 48: 3.23213, 49: 1.52727, 50: 0.829569, 51: 3.801785, 52: 1.229083, 53: 0.311113, 54: 0.192579, 55: 3.496194, 56: 2.14844, 57: 2.036098, 58: 3.693291, 59: 2.983432, 60: 0.481951, 61: 3.148426, 62: 0.645824, 63: 2.827249, 64: 2.576026, 65: 1.318561, 66: 0.388389, 67: 3.660978, 68: 2.768631, 69: 0.236845, 70: 2.651961, 71: 3.416662, 72: 2.916092, 73: 3.24748, 74: 0.122111, 75: 3.80388, 76: 1.2183, 77: 2.69316, 78: 2.386383, 79: 0.602561, 80: 3.0302, 81: 3.728203, 82: 3.409837, 83: 2.203621, 84: 1.150656, 85: 0.578026, 86: 0.611731, 87: 2.072372, 88: 3.026768, 89: 1.118247, 90: 2.921281, 91: 3.415607, 92: 1.507804, 93: 0.140916, 94: 2.56355, 95: 1.868065, 96: 3.388132, 97: 2.023337, 98: 3.170149, 99: 2.154482, 100: 2.980197, 101: 0.460586, 102: 0.511312, 103: 2.866113, 104: 3.222013, 105: 2.650088, 106: 1.731409, 107: 1.984102, 108: 3.456769, 109: 3.308143, 110: 2.036681, 111: 0.06547799999999999, 112: 2.52806, 113: 2.45607, 114: 0.5204260000000001, 115: 3.32022, 116: 3.7855, 117: 2.242913, 118: 2.791904, 119: 2.992526, 120: 0.808355, 121: 0.992962, 122: 2.011008, 123: 1.360736, 124: 0.037676, 125: 2.398273, 126: 1.845171, 127: 3.246892, 128: 3.361705, 129: 1.072456, 130: 2.964028, 131: 1.169963, 132: 1.740671, 133: 3.860676, 134: 1.97839, 135: 1.832997, 136: 3.325694, 137: 2.868852, 138: 2.171211, 139: 1.090336, 140: 3.536139, 141: 1.062836, 142: 3.017681, 143: 1.77287, 144: 3.749553, 145: 2.707848, 146: 2.820491, 147: 0.525718, 148: 1.252229, 149: 3.940829, 150: 0.875291, 151: 3.080912, 152: 3.911055, 153: 0.227269, 154: 2.186938, 155: 2.081879, 156: 0.881617, 157: 3.957083, 158: 1.074202, 159: 1.139161, 160: 2.289761, 161: 2.639729, 162: 3.34687, 163: 1.568201, 164: 1.534928, 165: 3.263161, 166: 1.376137, 167: 3.323311, 168: 0.783512, 169: 3.821834, 170: 0.009070999999999999, 171: 1.878626, 172: 2.485195, 173: 1.956092, 174: 1.41113, 175: 2.704837, 176: 1.432644, 177: 3.923342, 178: 2.47976, 179: 3.689074, 180: 3.299499, 181: 3.069575, 182: 2.393783, 183: 1.861028, 184: 3.575618, 185: 2.908344, 186: 1.855059, 187: 2.439248, 188: 3.987921, 189: 2.37359, 190: 1.551946, 191: 0.915851];
charge = [0: 0.99332, 1: 0.103171, 2: 0.133561, 3: 0.391743, 4: 0.362312, 5: 0.159305, 6: 0.875327, 7: 0.04527, 8: 0.903457, 9: 0.203924, 10: 0.01199, 11: 0.891574, 12: 0.548938, 13: 0.494712, 14: 0.683396, 15: 0.879576, 16: 0.878023, 17: 0.704256, 18: 0.154461, 19: 0.543767, 20: 0.638121, 21: 0.894763, 22: 0.426659, 23: 0.468603, 24: 0.322683, 25: 0.464804, 26: 0.6051260000000001, 27: 0.354743, 28: 0.288386, 29: 0.682824, 30: 0.125309, 31: 0.288819, 32: 0.61644, 33: 0.156548, 34: 0.8858819999999999, 35: 0.634002, 36: 0.31066, 37: 0.337812, 38: 0.857036, 39: 0.404443, 40: 0.32946, 41: 0.724391, 42: 0.270139, 43: 0.717924, 44: 0.740994, 45: 0.816951, 46: 0.630892, 47: 0.886, 48: 0.250678, 49: 0.945917, 50: 0.515548, 51: 0.8260729999999999, 52: 0.56105, 53: 0.9607329999999999, 54: 0.190735, 55: 0.62818, 56: 0.444413, 57: 0.825449, 58: 0.32541, 59: 0.243192, 60: 0.698331, 61: 0.08799800000000001, 62: 0.392217, 63: 0.343752, 64: 0.756467, 65: 0.902347, 66: 0.427333, 67: 0.784857, 68: 0.64706, 69: 0.159472, 70: 0.241964, 71: 0.664337, 72: 0.772487, 73: 0.948298, 74: 0.417777, 75: 0.296531, 76: 0.09371, 77: 0.677858, 78: 0.991318, 79: 0.935613, 80: 0.456471, 81: 0.655816, 82: 0.634728, 83: 0.003031, 84: 0.261098, 85: 0.852409, 86: 0.962466, 87: 0.711389, 88: 0.584074, 89: 0.780857, 90: 0.501996, 91: 0.605164, 92: 0.670444, 93: 0.168233, 94: 0.585786, 95: 0.268556, 96: 0.091239, 97: 0.316827, 98: 0.462242, 99: 0.878613, 100: 0.038552, 101: 0.9509300000000001, 102: 0.581464, 103: 0.007816, 104: 0.957646, 105: 0.51918, 106: 0.13201, 107: 0.297586, 108: 0.7607699999999999, 109: 0.607666, 110: 0.539039, 111: 0.7312, 112: 0.264083, 113: 0.072036, 114: 0.335094, 115: 0.052358, 116: 0.323927, 117: 0.321122, 118: 0.490414, 119: 0.664171, 120: 0.851468, 121: 0.500399, 122: 0.585602, 123: 0.269947, 124: 0.789548, 125: 0.30358, 126: 0.191753, 127: 0.427568, 128: 0.441607, 129: 0.56419, 130: 0.28507, 131: 0.6969109999999999, 132: 0.718419, 133: 0.144995, 134: 0.5776520000000001, 135: 0.143335, 136: 0.406097, 137: 0.040429, 138: 0.534099, 139: 0.47984, 140: 0.96653, 141: 0.128609, 142: 0.663259, 143: 0.842032, 144: 0.204276, 145: 0.852664, 146: 0.410829, 147: 0.020919, 148: 0.147399, 149: 0.28303, 150: 0.784241, 151: 0.889537, 152: 0.564738, 153: 0.96476, 154: 0.042271, 155: 0.782705, 156: 0.557248, 157: 0.20004, 158: 0.510852, 159: 0.224471, 160: 0.666423, 161: 0.075138, 162: 0.989143, 163: 0.126239, 164: 0.49174, 165: 0.57215, 166: 0.073875, 167: 0.949834, 168: 0.491085, 169: 0.981341, 170: 0.952819, 171: 0.743518, 172: 0.504573, 173: 0.290459, 174: 0.257687, 175: 0.502478, 176: 0.151533, 177: 0.626057, 178: 0.788922, 179: 0.447526, 180: 0.132687, 181: 0.208991, 182: 0.105044, 183: 0.825732, 184: 0.095239, 185: 0.38361, 186: 0.864401, 187: 0.044251, 188: 0.768776, 189: 0.375626, 190: 0.929843, 191: 0.396224];
discharge = [0: 0.10564, 1: 0.746626, 2: 0.511552, 3: 0.742513, 4: 0.187216, 5: 0.147599, 6: 0.781027, 7: 0.565582, 8: 0.347707, 9: 0.879991, 10: 0.605309, 11: 0.219931, 12: 0.214595, 13: 0.088974, 14: 0.810403, 15: 0.219923, 16: 0.365191, 17: 0.144845, 18: 0.553641, 19: 0.575757, 20: 0.728828, 21: 0.646241, 22: 0.457684, 23: 0.411448, 24: 0.889746, 25: 0.99241, 26: 0.262492, 27: 0.765265, 28: 0.509429, 29: 0.986629, 30: 0.683067, 31: 0.040185, 32: 0.221995, 33: 0.934086, 34: 0.393285, 35: 0.829833, 36: 0.503879, 37: 0.558843, 38: 0.976776, 39: 0.023172, 40: 0.44966, 41: 0.668288, 42: 0.040874, 43: 0.867065, 44: 0.448258, 45: 0.651733, 46: 0.50798, 47: 0.9495209999999999, 48: 0.178738, 49: 0.579363, 50: 0.336517, 51: 0.102615, 52: 0.164449, 53: 0.064052, 54: 0.556185, 55: 0.382163, 56: 0.492245, 57: 0.443234, 58: 0.703749, 59: 0.45478, 60: 0.715897, 61: 0.600369, 62: 0.126849, 63: 0.086897, 64: 0.594684, 65: 0.752004, 66: 0.691236, 67: 0.097638, 68: 0.640388, 69: 0.363212, 70: 0.311621, 71: 0.655757, 72: 0.537707, 73: 0.377733, 74: 0.180092, 75: 0.355162, 76: 0.052017, 77: 0.38432, 78: 0.255246, 79: 0.561922, 80: 0.934601, 81: 0.54293, 82: 0.590843, 83: 0.707568, 84: 0.60318, 85: 0.249292, 86: 0.7003200000000001, 87: 0.6646919999999999, 88: 0.232871, 89: 0.699579, 90: 0.863502, 91: 0.550128, 92: 0.370971, 93: 0.350052, 94: 0.307927, 95: 0.175693, 96: 0.889476, 97: 0.15471, 98: 0.435905, 99: 0.405808, 100: 0.069216, 101: 0.81121, 102: 0.317971, 103: 0.335592, 104: 0.427922, 105: 0.898301, 106: 0.385979, 107: 0.5618300000000001, 108: 0.325587, 109: 0.253305, 110: 0.563168, 111: 0.338987, 112: 0.444649, 113: 0.822624, 114: 0.462601, 115: 0.177792, 116: 0.297839, 117: 0.555911, 118: 0.751199, 119: 0.807127, 120: 0.593948, 121: 0.000356, 122: 0.960431, 123: 0.442051, 124: 0.031728, 125: 0.347629, 126: 0.557959, 127: 0.040038, 128: 0.704281, 129: 0.176143, 130: 0.831098, 131: 0.432735, 132: 0.98317, 133: 0.280379, 134: 0.159352, 135: 0.830805, 136: 0.467278, 137: 0.727083, 138: 0.631359, 139: 0.28662, 140: 0.382964, 141: 0.100039, 142: 0.740506, 143: 0.014789, 144: 0.385489, 145: 0.209016, 146: 0.662738, 147: 0.631696, 148: 0.572748, 149: 0.545627, 150: 0.874376, 151: 0.002819, 152: 0.374561, 153: 0.664407, 154: 0.45306, 155: 0.808599, 156: 0.029755, 157: 0.880124, 158: 0.143735, 159: 0.9050550000000001, 160: 0.821845, 161: 0.257568, 162: 0.188689, 163: 0.576315, 164: 0.08479200000000001, 165: 0.468724, 166: 0.37323, 167: 0.645096, 168: 0.441495, 169: 0.690212, 170: 0.53137, 171: 0.890063, 172: 0.820577, 173: 0.372747, 174: 0.678048, 175: 0.619769, 176: 0.058068, 177: 0.402128, 178: 0.157716, 179: 0.232921, 180: 0.129975, 181: 0.891695, 182: 0.745251, 183: 0.859091, 184: 0.584181, 185: 0.836068, 186: 0.340862, 187: 0.523061, 188: 0.263615, 189: 0.966302, 190: 0.729951, 191: 0.810993];
soc = [0: 11.695454, 1: 10.353358, 2: 14.104803, 3: 8.119923, 4: 12.059617, 5: 15.105613, 6: 15.017041, 7: 15.30142, 8: 12.027595, 9: 5.820219, 10: 9.780288000000001, 11: 14.87935, 12: 14.097139, 13: 4.172818, 14: 13.139287, 15: 15.545203, 16: 5.470711, 17: 5.279701, 18: 7.922941, 19: 11.09568, 20: 5.201602, 21: 9.651721, 22: 14.038225, 23: 10.72252, 24: 7.889702, 25: 8.764858, 26: 10.525275, 27: 4.845784, 28: 10.591473, 29: 10.744998, 30: 11.940285, 31: 5.754036, 32: 14.092757, 33: 3.462386, 34: 15.136522, 35: 9.757484, 36: 11.337921, 37: 9.624758999999999, 38: 9.143468, 39: 10.523776, 40: 12.050665, 41: 14.271375, 42: 12.014861, 43: 5.183318, 44: 4.433586, 45: 9.607957000000001, 46: 5.968315, 47: 3.384324, 48: 12.047147, 49: 6.308018, 50: 12.80079, 51: 14.379098, 52: 15.325754, 53: 10.9525, 54: 8.036085999999999, 55: 4.335306, 56: 4.769484, 57: 13.32178, 58: 4.854862, 59: 12.758774, 60: 2.97367, 61: 10.189459, 62: 7.791772, 63: 6.732705, 64: 5.476083, 65: 10.625938, 66: 15.579079, 67: 2.925743, 68: 2.764759, 69: 7.725462, 70: 6.473622, 71: 8.981826999999999, 72: 7.074658, 73: 5.629069, 74: 14.74346, 75: 3.575767, 76: 5.192194, 77: 7.757144, 78: 2.903185, 79: 3.179049, 80: 12.008184, 81: 10.527818, 82: 6.291175, 83: 6.86416, 84: 4.400483, 85: 11.761227, 86: 15.191618, 87: 8.387168000000001, 88: 11.28628, 89: 6.254963, 90: 12.199286, 91: 6.000165, 92: 10.63606, 93: 15.290944, 94: 12.605106, 95: 14.78306, 96: 13.296002, 97: 9.358696999999999, 98: 9.943242, 99: 9.980223000000001, 100: 15.483231, 101: 7.490948, 102: 5.899141, 103: 11.860359, 104: 13.682704, 105: 7.346578, 106: 6.124073, 107: 13.587369, 108: 14.675618, 109: 11.435782, 110: 12.684878, 111: 6.547704, 112: 14.625437, 113: 10.036972, 114: 2.944747, 115: 6.230562, 116: 2.741393, 117: 9.979161, 118: 8.065545, 119: 2.973319, 120: 5.154451, 121: 14.049368, 122: 2.730343, 123: 14.174445, 124: 5.175644, 125: 2.827981, 126: 15.587268, 127: 5.458175, 128: 7.498464, 129: 6.751285, 130: 15.342514, 131: 9.128771, 132: 9.204974, 133: 9.358466999999999, 134: 6.842534, 135: 3.260259, 136: 7.669185, 137: 4.358989, 138: 8.133592999999999, 139: 3.957867, 140: 10.794901, 141: 5.035651, 142: 6.799114, 143: 13.583664, 144: 3.208674, 145: 15.24055, 146: 7.753647, 147: 7.099993, 148: 9.074462, 149: 5.941016, 150: 7.838004, 151: 10.502194, 152: 13.452667, 153: 7.136061, 154: 14.454463, 155: 10.40742, 156: 8.234812, 157: 6.320146, 158: 14.761069, 159: 3.304276, 160: 15.117555, 161: 15.237909, 162: 15.211546, 163: 7.919966, 164: 2.772036, 165: 4.6019, 166: 12.631568, 167: 14.792602, 168: 10.682403, 169: 7.760016, 170: 12.027243, 171: 5.990005, 172: 13.539609, 173: 6.53866, 174: 7.474268, 175: 4.034248, 176: 7.312585, 177: 6.900947, 178: 12.878374, 179: 3.200268, 180: 2.965424, 181: 7.048518, 182: 15.339737, 183: 4.936247, 184: 7.996164, 185: 15.564693, 186: 5.239827, 187: 15.105369, 188: 10.651538, 189: 9.681597999999999, 190: 12.073425, 191: 13.517359];
cost = [0: 544.163516, 1: 420.099006, 2: 348.791323, 3: 385.859818, 4: 448.849216, 5: 395.81353, 6: 61.441196, 7: 387.298779, 8: 356.752778, 9: 129.115241, 10: 514.748116, 11: 296.048623, 12: 419.700266, 13: 435.950782, 14: 532.449916, 15: 233.728948, 16: 134.802001, 17: 355.00524, 18: 313.444467, 19: 378.618737, 20: 229.580571, 21: 409.908957, 22: 533.846012, 23: 368.60594, 24: 225.005842, 25: 857.227705, 26: 248.73786, 27: 379.359609, 28: 803.94257, 29: 396.679881, 30: 239.927015, 31: 649.575636, 32: 516.199159, 33: 680.996862, 34: 456.114866, 35: 944.004712, 36: 847.521615, 37: 566.648245, 38: 403.168365, 39: 903.497926, 40: 885.100324, 41: 499.856662, 42: 553.041208, 43: 521.876954, 44: 845.5822889999999, 45: 658.962204, 46: 268.916381, 47: 883.406689, 48: 633.440793, 49: 91.656104, 50: 1017.26431, 51: 1182.950411, 52: 33.702868, 53: 604.22379, 54: 32.898874, 55: 341.288109, 56: 170.878823, 57: 107.349916, 58: 311.870666, 59: 355.277864, 60: 743.215804, 61: 349.633601, 62: 903.341145, 63: 595.269404, 64: 241.643416, 65: 916.45159, 66: 301.191226, 67: 203.405188, 68: 303.293843, 69: 891.849659, 70: 102.636662, 71: 1066.792762, 72: 210.308368, 73: 865.071141, 74: 311.597797, 75: 933.963452, 76: 273.352305, 77: 310.001778, 78: 216.249244, 79: 151.691934, 80: 173.344824, 81: 975.295869, 82: 756.6773480000001, 83: 175.699402, 84: 314.471366, 85: 415.615517, 86: 51.109894, 87: 523.4241950000001, 88: 457.728274, 89: 308.597341, 90: 12.700241, 91: 407.634051, 92: 547.648195, 93: 359.273879, 94: 446.163031, 95: 33.364717, 96: 475.836738, 97: 453.937612, 98: 521.464509, 99: 421.419538, 100: 165.751607, 101: 255.52282, 102: 294.352469, 103: 345.056747, 104: 478.524167, 105: 470.783476, 106: 245.271057, 107: 588.44535, 108: 27.510191, 109: 554.766837, 110: 26.696369, 111: 71.077386, 112: 549.80062, 113: 352.050021, 114: 182.310876, 115: 30.138546, 116: 550.465297, 117: 572.2025609999999, 118: 224.67746, 119: 511.503582, 120: 343.732773, 121: 607.342024, 122: 1153.653396, 123: 12.632127, 124: 577.054275, 125: 911.647546, 126: 751.3305789999999, 127: 292.638026, 128: 726.877258, 129: 953.276134, 130: 1061.589812, 131: 100.323902, 132: 970.348652, 133: 234.281453, 134: 1082.48474, 135: 559.0241600000001, 136: 451.337372, 137: 890.621405, 138: 404.429831, 139: 418.183359, 140: 870.547366, 141: 931.6318209999999, 142: 129.111886, 143: 969.3657490000001, 144: 94.115852, 145: 431.336882, 146: 628.73681, 147: 363.153651, 148: 588.129364, 149: 125.836594, 150: 152.233015, 151: 126.857561, 152: 481.538075, 153: 208.246728, 154: 557.552179, 155: 274.547046, 156: 137.347532, 157: 87.796892, 158: 0.911723, 159: 273.736745, 160: 314.700749, 161: 921.897324, 162: 1060.089525, 163: 954.739131, 164: 573.105959, 165: 451.509229, 166: 139.214165, 167: 452.038396, 168: 888.552958, 169: 883.656221, 170: 397.733439, 171: 372.036487, 172: 519.736529, 173: 380.656371, 174: 269.028043, 175: 1182.513483, 176: 1121.166573, 177: 1103.077706, 178: 322.472964, 179: 806.019578, 180: 59.469899, 181: 875.421277, 182: 193.742816, 183: 626.865912, 184: 43.193342, 185: 241.71061, 186: 127.734207, 187: 158.49557, 188: 255.31449, 189: 385.167247, 190: 580.592265, 191: 544.8167120000001];
earn = [0: 0.450359, 1: 1.319465, 2: 1.471409, 3: 0.601984, 4: 0.514969, 5: 1.207222, 6: 2.020983, 7: 1.190223, 8: 2.229268, 9: 0.323495, 10: 0.787026, 11: 0.490528, 12: 2.173342, 13: 0.688622, 14: 0.101369, 15: 1.93646, 16: 2.039967, 17: 0.670378, 18: 1.17916, 19: 1.302667, 20: 1.425174, 21: 0.265846, 22: 1.543332, 23: 1.970665, 24: 1.862649, 25: 0.550231, 26: 0.528769, 27: 1.247355, 28: 1.7226, 29: 0.464424, 30: 1.777358, 31: 0.817898, 32: 1.467997, 33: 0.81266, 34: 0.9159929999999999, 35: 0.6, 36: 1.33435, 37: 1.300279, 38: 1.608306, 39: 1.114834, 40: 1.914525, 41: 1.616019, 42: 0.529739, 43: 0.9101860000000001, 44: 0.358353, 45: 0.78603, 46: 0.860919, 47: 1.061159, 48: 0.539251, 49: 0.191714, 50: 0.124911, 51: 0.377978, 52: 0.251244, 53: 0.327427, 54: 0.459448, 55: 0.1953, 56: 0.411585, 57: 0.13317, 58: 0.019384, 59: 0.007351, 60: 0.041677, 61: 0.35479, 62: 0.13088, 63: 0.192043, 64: 0.978887, 65: 1.234524, 66: 1.281402, 67: 1.493243, 68: 0.002219, 69: 1.665146, 70: 0.080106, 71: 0.172653, 72: 1.291517, 73: 1.51103, 74: 1.316745, 75: 0.238169, 76: 0.87499, 77: 1.90988, 78: 2.361555, 79: 2.312787, 80: 0.281408, 81: 1.61342, 82: 1.337749, 83: 1.757589, 84: 1.150246, 85: 2.005847, 86: 0.264141, 87: 0.341365, 88: 1.850156, 89: 1.787938, 90: 2.139731, 91: 2.100302, 92: 0.749216, 93: 0.758804, 94: 0.170464, 95: 0.142297, 96: 0.713076, 97: 1.11077, 98: 1.841132, 99: 1.967854, 100: 0.654937, 101: 0.768625, 102: 0.156894, 103: 1.064387, 104: 1.509759, 105: 0.8412809999999999, 106: 0.33555, 107: 1.409043, 108: 0.8103, 109: 0.643815, 110: 1.332455, 111: 0.9416639999999999, 112: 1.23642, 113: 1.650236, 114: 0.00709, 115: 1.565514, 116: 0.908891, 117: 1.649189, 118: 1.798563, 119: 0.287213, 120: 1.79452, 121: 2.150972, 122: 1.434038, 123: 0.226282, 124: 2.529896, 125: 2.724287, 126: 0.6451750000000001, 127: 0.09106499999999999, 128: 0.943232, 129: 0.405941, 130: 2.139111, 131: 1.116202, 132: 1.362583, 133: 1.955283, 134: 1.323078, 135: 1.107617, 136: 1.693862, 137: 0.548944, 138: 1.274091, 139: 0.58827, 140: 1.456115, 141: 1.400011, 142: 0.668527, 143: 0.124604, 144: 1.173881, 145: 1.00508, 146: 0.297659, 147: 0.619537, 148: 1.462338, 149: 0.630721, 150: 0.433658, 151: 0.401625, 152: 1.607335, 153: 1.043141, 154: 0.08877500000000001, 155: 0.317481, 156: 1.9617, 157: 1.224331, 158: 0.568312, 159: 0.036079, 160: 1.798225, 161: 1.473279, 162: 0.300289, 163: 0.423637, 164: 1.095075, 165: 1.154055, 166: 0.581753, 167: 2.29951, 168: 2.477245, 169: 0.497217, 170: 0.553828, 171: 0.930419, 172: 2.168563, 173: 2.011385, 174: 2.781925, 175: 2.595486, 176: 3.293623, 177: 1.464521, 178: 3.668975, 179: 2.596864, 180: 2.285966, 181: 0.722388, 182: 1.094153, 183: 0.797289, 184: 1.570102, 185: 0.831835, 186: 0.538589, 187: 2.363297, 188: 0.81713, 189: 1.866523, 190: 0.5096079999999999, 191: 0.792303];
total_cost = 92.19602957974031;
total_earn = 35.00149529273454;
