production = [0: 0.0, 1: 0.0, 2: 0.0, 3: 0.0, 4: 0.0, 5: 0.0, 6: 0.0, 7: 0.0, 8: 0.0, 9: 0.0, 10: 0.0, 11: 0.0, 12: 0.0, 13: 0.0, 14: 0.0, 15: 0.0, 16: 0.0, 17: 0.0, 18: 0.0, 19: 0.0, 20: 0.0, 21: 0.0, 22: 0.0, 23: 0.0, 24: 0.000228, 25: 7.7e-05, 26: 0.000243, 27: 0.000831, 28: 0.002707, 29: 0.010923, 30: 0.006576, 31: 0.016373, 32: 0.037965, 33: 0.102173, 34: 0.13866, 35: 0.117072, 36: 0.130654, 37: 0.144731, 38: 0.166856, 39: 0.070066, 40: 0.169922, 41: 0.133229, 42: 0.02959, 43: 0.126263, 44: 0.005244, 45: 0.192805, 46: 0.337483, 47: 0.206954, 48: 0.142399, 49: 0.188731, 50: 0.186945, 51: 0.069301, 52: 0.027192, 53: 0.118172, 54: 0.337417, 55: 0.211866, 56: 0.049874, 57: 0.069789, 58: 0.02872, 59: 0.259706, 60: 0.514568, 61: 0.394474, 62: 0.060682, 63: 0.117993, 64: 0.084047, 65: 0.016772, 66: 0.11911, 67: 0.078088, 68: 0.132308, 69: 0.163903, 70: 0.123458, 71: 0.06959, 72: 0.079356, 73: 0.040043, 74: 0.022117, 75: 0.004335, 76: 0.010565, 77: 0.000626, 78: 0.000514, 79: 0.0, 80: 0.0, 81: 0.0, 82: 0.0, 83: 0.0, 84: 0.0, 85: 0.0, 86: 0.0, 87: 0.0, 88: 0.0, 89: 0.0, 90: 0.0, 91: 0.0, 92: 0.0, 93: 0.0, 94: 0.0, 95: 0.0, 96: 0.0, 97: 0.0, 98: 0.0, 99: 0.0, 100: 0.0, 101: 0.0, 102: 0.0, 103: 0.0, 104: 0.0, 105: 0.0, 106: 0.0, 107: 0.0, 108: 0.0, 109: 0.0, 110: 0.0, 111: 0.0, 112: 0.0, 113: 0.0, 114: 0.0, 115: 0.0, 116: 0.0, 117: 0.0, 118: 0.0, 119: 0.0, 120: 0.0, 121: 0.000201, 122: 0.004863, 123: 0.005293, 124: 0.049177, 125: 0.003582, 126: 0.06590500000000001, 127: 0.001518, 128: 0.09156, 129: 0.1823, 130: 0.198313, 131: 0.181266, 132: 0.055501, 133: 0.067782, 134: 0.512801, 135: 0.410619, 136: 0.211154, 137: 0.882418, 138: 0.754061, 139: 0.952938, 140: 0.449009, 141: 0.825475, 142: 1.025889, 143: 0.298911, 144: 0.48543, 145: 0.321994, 146: 0.231362, 147: 0.748181, 148: 0.309419, 149: 0.939833, 150: 0.327789, 151: 0.282788, 152: 0.022712, 153: 0.161064, 154: 1.259366, 155: 0.34172, 156: 0.507601, 157: 0.142842, 158: 0.230209, 159: 0.233109, 160: 0.330342, 161: 0.214046, 162: 0.331422, 163: 0.052557, 164: 0.191012, 165: 0.185579, 166: 0.116545, 167: 0.031185, 168: 0.002693, 169: 0.040947, 170: 0.017048, 171: 0.007965, 172: 0.004147, 173: 0.00079, 174: 0.000164, 175: 0.0, 176: 0.0, 177: 0.0, 178: 0.0, 179: 0.0, 180: 0.0, 181: 0.0, 182: 0.0, 183: 0.0, 184: 0.0, 185: 0.0, 186: 0.0, 187: 0.0, 188: 0.0, 189: 0.0, 190: 0.0, 191: 0.0];
buy = [0: 606.1411430000001, 1: 462.085627, 2: 255.430142, 3: 970.577447, 4: 624.496938, 5: 795.898116, 6: 215.441989, 7: 843.8806530000001, 8: 564.293351, 9: 138.273559, 10: 491.059119, 11: 50.095734, 12: 20.111066, 13: 62.168841, 14: 939.000461, 15: 584.530106, 16: 499.954907, 17: 751.934677, 18: 247.836765, 19: 738.156851, 20: 201.487688, 21: 345.226137, 22: 442.62585, 23: 748.579689, 24: 940.7353859999999, 25: 859.391477, 26: 205.353123, 27: 428.737672, 28: 669.302592, 29: 673.732665, 30: 702.278684, 31: 738.340359, 32: 889.611843, 33: 282.625557, 34: 785.649199, 35: 846.005372, 36: 722.6612260000001, 37: 380.40869, 38: 818.715554, 39: 475.601078, 40: 257.63173, 41: 943.92234, 42: 819.839798, 43: 145.217531, 44: 479.920366, 45: 495.776327, 46: 882.525495, 47: 436.169437, 48: 948.992828, 49: 164.4235, 50: 58.621511, 51: 268.118866, 52: 835.310125, 53: 571.468025, 54: 227.411396, 55: 120.536524, 56: 714.3664199999999, 57: 780.975905, 58: 151.403514, 59: 248.047558, 60: 609.559635, 61: 270.567629, 62: 408.472391, 63: 146.585016, 64: 969.472753, 65: 130.55536, 66: 77.685053, 67: 798.518603, 68: 3.216451, 69: 962.883313, 70: 151.156112, 71: 189.819435, 72: 411.221073, 73: 164.090803, 74: 661.797319, 75: 257.360257, 76: 300.220154, 77: 221.961419, 78: 975.979573, 79: 400.29512, 80: 29.778914, 81: 616.306302, 82: 637.477369, 83: 532.8507070000001, 84: 602.476747, 85: 777.504535, 86: 950.832303, 87: 78.721502, 88: 237.588901, 89: 851.334801, 90: 660.880239, 91: 865.240467, 92: 238.963711, 93: 864.961544, 94: 345.384422, 95: 146.118967, 96: 455.344538, 97: 174.112174, 98: 310.543789, 99: 837.881633, 100: 355.983477, 101: 877.189876, 102: 459.920724, 103: 152.385838, 104: 881.285746, 105: 222.936968, 106: 929.757909, 107: 937.566416, 108: 549.0411350000001, 109: 289.631837, 110: 122.946522, 111: 309.745313, 112: 893.143648, 113: 842.039535, 114: 825.488231, 115: 348.127818, 116: 346.057824, 117: 195.361746, 118: 998.341577, 119: 452.148874, 120: 42.78165, 121: 17.082668, 122: 981.6126379999999, 123: 775.387194, 124: 713.10288, 125: 501.774756, 126: 690.144485, 127: 663.315759, 128: 233.519044, 129: 669.079334, 130: 658.8429630000001, 131: 940.250544, 132: 209.634467, 133: 609.34722, 134: 835.616261, 135: 834.702, 136: 219.698961, 137: 653.57164, 138: 281.467229, 139: 850.538957, 140: 314.405443, 141: 609.414456, 142: 765.803912, 143: 514.164102, 144: 950.906609, 145: 512.88958, 146: 708.5390650000001, 147: 661.762393, 148: 540.94703, 149: 599.289631, 150: 836.9189679999999, 151: 229.859207, 152: 764.755101, 153: 851.823673, 154: 644.011328, 155: 576.5459530000001, 156: 674.398761, 157: 517.286777, 158: 394.881694, 159: 723.060705, 160: 476.352912, 161: 17.353839, 162: 581.738347, 163: 153.014886, 164: 284.193804, 165: 296.026795, 166: 269.605827, 167: 162.927495, 168: 42.328176, 169: 770.356728, 170: 70.01909999999999, 171: 883.4171260000001, 172: 385.413588, 173: 720.842165, 174: 901.749767, 175: 444.716388, 176: 800.480781, 177: 171.452851, 178: 746.230062, 179: 422.69187, 180: 427.604322, 181: 457.240793, 182: 83.11039599999999, 183: 596.238307, 184: 182.616364, 185: 948.886067, 186: 296.912424, 187: 571.471486, 188: 609.640159, 189: 288.155275, 190: 84.11933000000001, 191: 786.6218249999999];
sell = [0: 1.656944, 1: 1.093478, 2: 2.227307, 3: 0.621359, 4: 0.439094, 5: 1.643842, 6: 3.305805, 7: 1.301312, 8: 2.248683, 9: 3.065226, 10: 3.99607, 11: 3.467517, 12: 1.337882, 13: 1.046408, 14: 3.213649, 15: 1.732604, 16: 0.6676879999999999, 17: 1.825955, 18: 0.623597, 19: 0.104242, 20: 0.602431, 21: 2.067832, 22: 1.73837, 23: 0.993234, 24: 0.223909, 25: 0.704606, 26: 3.200951, 27: 0.006069, 28: 3.274267, 29: 1.751368, 30: 0.523529, 31: 3.228617, 32: 0.391295, 33: 0.341247, 34: 0.200873, 35: 3.591299, 36: 0.806458, 37: 1.060796, 38: 0.310494, 39: 2.260224, 40: 1.728563, 41: 2.700115, 42: 1.59562, 43: 2.659479, 44: 3.432253, 45: 1.233316, 46: 1.064587, 47: 3.303569, 48: 3.483905, 49: 2.887545, 50: 0.976453, 51: 3.97963, 52: 1.497871, 53: 0.110567, 54: 3.381741, 55: 3.002641, 56: 3.419454, 57: 0.243991, 58: 1.72343, 59: 0.666045, 60: 2.825314, 61: 0.914274, 62: 0.511565, 63: 0.282347, 64: 3.846009, 65: 1.579168, 66: 0.5583979999999999, 67: 2.319855, 68: 1.556868, 69: 0.458021, 70: 2.110032, 71: 3.189824, 72: 0.89484, 73: 1.442227, 74: 2.068768, 75: 3.219069, 76: 3.488095, 77: 2.285443, 78: 2.379893, 79: 1.685192, 80: 0.175561, 81: 2.519291, 82: 1.21912, 83: 3.331863, 84: 0.7998150000000001, 85: 3.836888, 86: 2.725894, 87: 3.604741, 88: 0.9235139999999999, 89: 1.284857, 90: 2.941575, 91: 3.820017, 92: 1.480182, 93: 1.61832, 94: 2.33381, 95: 0.819035, 96: 1.705544, 97: 2.45222, 98: 1.439234, 99: 2.902724, 100: 1.284615, 101: 1.795812, 102: 1.695106, 103: 1.112467, 104: 3.673998, 105: 0.587588, 106: 2.385542, 107: 1.142063, 108: 0.567794, 109: 0.484973, 110: 1.561205, 111: 2.722238, 112: 2.00796, 113: 1.806625, 114: 1.054169, 115: 0.04574, 116: 0.437448, 117: 2.190986, 118: 0.379572, 119: 0.047534, 120: 2.270233, 121: 0.7285199999999999, 122: 3.757411, 123: 0.218507, 124: 0.9755549999999999, 125: 0.067605, 126: 1.298947, 127: 2.631885, 128: 2.316719, 129: 1.543875, 130: 1.477466, 131: 2.547443, 132: 1.704815, 133: 1.305976, 134: 0.192117, 135: 3.81407, 136: 0.183551, 137: 2.033348, 138: 0.108641, 139: 2.857806, 140: 1.304402, 141: 2.748601, 142: 0.489217, 143: 0.878493, 144: 0.9894500000000001, 145: 3.689406, 146: 0.181127, 147: 3.895767, 148: 3.488997, 149: 2.020586, 150: 0.9613930000000001, 151: 2.108124, 152: 2.203639, 153: 0.539112, 154: 2.132388, 155: 0.258893, 156: 0.225172, 157: 2.436609, 158: 0.889068, 159: 3.123344, 160: 3.781416, 161: 2.610508, 162: 1.981398, 163: 0.5970220000000001, 164: 2.955572, 165: 2.044977, 166: 1.094866, 167: 3.257828, 168: 2.976255, 169: 2.246177, 170: 1.615354, 171: 3.9699, 172: 1.376446, 173: 0.262276, 174: 3.765277, 175: 1.972516, 176: 0.938445, 177: 1.907453, 178: 0.214305, 179: 2.914682, 180: 1.142083, 181: 3.64791, 182: 2.44768, 183: 3.348944, 184: 1.959992, 185: 2.627894, 186: 1.773888, 187: 1.951569, 188: 2.931459, 189: 1.465232, 190: 0.838385, 191: 3.080056];
charge = [0: 0.269564, 1: 0.973307, 2: 0.149829, 3: 0.559047, 4: 0.122204, 5: 0.6143999999999999, 6: 0.597676, 7: 0.219269, 8: 0.851703, 9: 0.245124, 10: 0.120257, 11: 0.157092, 12: 0.043807, 13: 0.699148, 14: 0.895888, 15: 0.6682670000000001, 16: 0.848065, 17: 0.786959, 18: 0.511161, 19: 0.95909, 20: 0.607889, 21: 0.696921, 22: 0.749433, 23: 0.932285, 24: 0.654826, 25: 0.621705, 26: 0.025793, 27: 0.795893, 28: 0.848756, 29: 0.639827, 30: 0.682772, 31: 0.703255, 32: 0.416262, 33: 0.109726, 34: 0.897296, 35: 0.329102, 36: 0.260447, 37: 0.06424000000000001, 38: 0.280357, 39: 0.421516, 40: 0.644285, 41: 0.8100810000000001, 42: 0.546851, 43: 0.290963, 44: 0.149389, 45: 0.060878, 46: 0.173044, 47: 0.033124, 48: 0.5081870000000001, 49: 0.489465, 50: 0.861766, 51: 0.8711179999999999, 52: 0.394086, 53: 0.554233, 54: 0.816616, 55: 0.126333, 56: 0.598776, 57: 0.850332, 58: 0.59235, 59: 0.480117, 60: 0.40902, 61: 0.215479, 62: 0.103816, 63: 0.114393, 64: 0.705417, 65: 0.235265, 66: 0.894224, 67: 0.773272, 68: 0.846628, 69: 0.464173, 70: 0.651591, 71: 0.871192, 72: 0.406425, 73: 0.278729, 74: 0.875893, 75: 0.024481, 76: 0.6227009999999999, 77: 0.59392, 78: 0.313004, 79: 0.8487440000000001, 80: 0.132409, 81: 0.947198, 82: 0.276747, 83: 0.624928, 84: 0.777832, 85: 0.809348, 86: 0.329473, 87: 0.488294, 88: 0.228453, 89: 0.561365, 90: 0.147927, 91: 0.10164, 92: 0.975389, 93: 0.552471, 94: 0.970935, 95: 0.210136, 96: 0.91482, 97: 0.280004, 98: 0.418951, 99: 0.030801, 100: 0.25467, 101: 0.616042, 102: 0.936348, 103: 0.371783, 104: 0.326685, 105: 0.423945, 106: 0.116482, 107: 0.7541099999999999, 108: 0.5746289999999999, 109: 0.653998, 110: 0.5382749999999999, 111: 0.089152, 112: 0.68958, 113: 0.94232, 114: 0.041179, 115: 0.586156, 116: 0.359908, 117: 0.267996, 118: 0.370875, 119: 0.235518, 120: 0.572811, 121: 0.595343, 122: 0.504881, 123: 0.909706, 124: 0.230937, 125: 0.176885, 126: 0.183341, 127: 0.821054, 128: 0.8549099999999999, 129: 0.832078, 130: 0.90916, 131: 0.926651, 132: 0.361598, 133: 0.297344, 134: 0.908949, 135: 0.273987, 136: 0.401186, 137: 0.386, 138: 0.393589, 139: 0.415456, 140: 0.939901, 141: 0.296197, 142: 0.438607, 143: 0.079885, 144: 0.70768, 145: 0.037671, 146: 0.408171, 147: 0.762744, 148: 0.690004, 149: 0.321892, 150: 0.045548, 151: 0.221724, 152: 0.132808, 153: 0.708209, 154: 0.270987, 155: 0.269802, 156: 0.393577, 157: 0.008751999999999999, 158: 0.548745, 159: 0.590834, 160: 0.314402, 161: 0.567098, 162: 0.864171, 163: 0.225325, 164: 0.076095, 165: 0.269117, 166: 0.207808, 167: 0.54043, 168: 0.393515, 169: 0.224674, 170: 0.724769, 171: 0.744464, 172: 0.103292, 173: 0.154387, 174: 0.597407, 175: 0.928601, 176: 0.06837, 177: 0.690182, 178: 0.690431, 179: 0.022971, 180: 0.5114109999999999, 181: 0.346023, 182: 0.855151, 183: 0.920147, 184: 0.9511849999999999, 185: 0.504765, 186: 0.073175, 187: 0.921399, 188: 0.179346, 189: 0.582955, 190: 0.160105, 191: 0.355844];
discharge = [0: 0.910768, 1: 0.207481, 2: 0.7447510000000001, 3: 0.474517, 4: 0.367537, 5: 0.535503, 6: 0.935684, 7: 0.014389, 8: 0.964994, 9: 0.286506, 10: 0.202332, 11: 0.08160000000000001, 12: 0.681349, 13: 0.330528, 14: 0.518257, 15: 0.415605, 16: 0.784004, 17: 0.038581, 18: 0.390518, 19: 0.344969, 20: 0.644706, 21: 0.696339, 22: 0.222668, 23: 0.07333000000000001, 24: 0.227055, 25: 0.230482, 26: 0.843751, 27: 0.938864, 28: 0.575591, 29: 0.221036, 30: 0.003697, 31: 0.829285, 32: 0.992417, 33: 0.018375, 34: 0.941074, 35: 0.014233, 36: 0.323116, 37: 0.036892, 38: 0.00474, 39: 0.156702, 40: 0.495728, 41: 0.832817, 42: 0.084828, 43: 0.06401, 44: 0.89906, 45: 0.8000389999999999, 46: 0.528634, 47: 0.328467, 48: 0.557856, 49: 0.7891010000000001, 50: 0.644832, 51: 0.364416, 52: 0.545648, 53: 0.858572, 54: 0.637541, 55: 0.694562, 56: 0.387987, 57: 0.923946, 58: 0.217955, 59: 0.381107, 60: 0.345656, 61: 0.972917, 62: 0.938647, 63: 0.093871, 64: 0.044285, 65: 0.939624, 66: 0.663178, 67: 0.061142, 68: 0.192789, 69: 0.916147, 70: 0.9176800000000001, 71: 0.531323, 72: 0.833019, 73: 0.106972, 74: 0.012837, 75: 0.585238, 76: 0.209189, 77: 0.559889, 78: 0.186105, 79: 0.293649, 80: 0.090332, 81: 0.546597, 82: 0.15077, 83: 0.419015, 84: 0.782246, 85: 0.239897, 86: 0.6866370000000001, 87: 0.29676, 88: 0.537868, 89: 0.482067, 90: 0.978088, 91: 0.263332, 92: 0.353816, 93: 0.337932, 94: 0.417737, 95: 0.840305, 96: 0.736217, 97: 0.140915, 98: 0.550876, 99: 0.87429, 100: 0.654478, 101: 0.712581, 102: 0.784029, 103: 0.772139, 104: 0.977625, 105: 0.526735, 106: 0.518375, 107: 0.758586, 108: 0.787245, 109: 0.440532, 110: 0.758446, 111: 0.820363, 112: 0.246949, 113: 0.04262, 114: 0.311508, 115: 0.635622, 116: 0.708102, 117: 0.262104, 118: 0.497964, 119: 0.055034, 120: 0.065329, 121: 0.341899, 122: 0.5165650000000001, 123: 0.45193, 124: 0.258487, 125: 0.73354, 126: 0.104414, 127: 0.398884, 128: 0.096124, 129: 0.9913999999999999, 130: 0.612714, 131: 0.498626, 132: 0.442275, 133: 0.819133, 134: 0.533293, 135: 0.027053, 136: 0.817323, 137: 0.113697, 138: 0.611463, 139: 0.7794140000000001, 140: 0.614278, 141: 0.673214, 142: 0.50847, 143: 0.037065, 144: 0.795822, 145: 0.249206, 146: 0.960588, 147: 0.887095, 148: 0.833661, 149: 0.697036, 150: 0.278565, 151: 0.699696, 152: 0.934827, 153: 0.832193, 154: 0.285658, 155: 0.320639, 156: 0.186371, 157: 0.825487, 158: 0.284818, 159: 0.934624, 160: 0.890954, 161: 0.016079, 162: 0.290626, 163: 0.480641, 164: 0.564988, 165: 0.996965, 166: 0.639604, 167: 0.093628, 168: 0.418456, 169: 0.983347, 170: 0.411168, 171: 0.880487, 172: 0.585958, 173: 0.286383, 174: 0.427308, 175: 0.73299, 176: 0.7093120000000001, 177: 0.394094, 178: 0.240388, 179: 0.478307, 180: 0.282367, 181: 0.776692, 182: 0.790274, 183: 0.365617, 184: 0.237997, 185: 0.397645, 186: 0.909566, 187: 0.939423, 188: 0.491844, 189: 0.5037469999999999, 190: 0.969766, 191: 0.084257];
soc = [0: 11.143328, 1: 13.56568, 2: 12.16383, 3: 9.039534, 4: 12.438599, 5: 9.371078000000001, 6: 10.604039, 7: 7.704467, 8: 9.940168, 9: 11.803522, 10: 9.378107, 11: 9.240799000000001, 12: 10.089031, 13: 10.422369, 14: 6.009424, 15: 9.966965, 16: 7.717342, 17: 12.37017, 18: 10.241723, 19: 12.216299, 20: 2.970646, 21: 11.461008, 22: 12.247503, 23: 6.431416, 24: 3.638984, 25: 11.504603, 26: 13.224855, 27: 14.9057, 28: 10.846662, 29: 13.35302, 30: 6.54165, 31: 10.656214, 32: 6.285777, 33: 5.221859, 34: 7.338442, 35: 9.756281, 36: 4.084909, 37: 13.90001, 38: 3.96716, 39: 13.564782, 40: 12.131939, 41: 13.953129, 42: 5.156064, 43: 10.665249, 44: 4.304625, 45: 13.336773, 46: 9.442186, 47: 5.500337, 48: 8.174301, 49: 3.449818, 50: 8.844925, 51: 10.979639, 52: 6.609744, 53: 9.218826, 54: 13.064321, 55: 13.274359, 56: 2.807874, 57: 11.57704, 58: 6.44099, 59: 12.19459, 60: 14.115394, 61: 3.59766, 62: 12.085452, 63: 13.998971, 64: 6.420168, 65: 9.796837, 66: 13.119019, 67: 8.271511, 68: 14.921709, 69: 9.766574, 70: 5.108972, 71: 3.498598, 72: 4.050844, 73: 12.256004, 74: 11.087474, 75: 13.585683, 76: 14.442812, 77: 4.963297, 78: 15.429317, 79: 13.454139, 80: 6.401075, 81: 11.363889, 82: 10.228201, 83: 9.444872, 84: 3.702126, 85: 8.903134, 86: 7.003781, 87: 13.972221, 88: 3.255042, 89: 10.922443, 90: 6.329343, 91: 5.62666, 92: 5.7284, 93: 10.652809, 94: 8.381182000000001, 95: 5.945808, 96: 11.819848, 97: 6.278072, 98: 12.540233, 99: 9.420534999999999, 100: 5.486483, 101: 3.43584, 102: 3.759949, 103: 3.910733, 104: 9.412947000000001, 105: 5.833961, 106: 6.761776, 107: 13.174111, 108: 9.424467, 109: 14.984113, 110: 9.005376, 111: 4.930007, 112: 7.434679, 113: 4.906725, 114: 9.125143, 115: 5.210723, 116: 7.076823, 117: 7.716147, 118: 13.557221, 119: 9.908899999999999, 120: 14.37012, 121: 4.315473, 122: 6.249756, 123: 7.050299, 124: 10.067551, 125: 8.122859999999999, 126: 10.705741, 127: 6.420222, 128: 9.399416, 129: 5.922889, 130: 8.825246, 131: 11.214895, 132: 10.462802, 133: 7.646022, 134: 2.949021, 135: 4.755202, 136: 12.473502, 137: 13.844576, 138: 11.81056, 139: 6.798622, 140: 5.759455, 141: 4.754459, 142: 9.393058999999999, 143: 11.365096, 144: 3.475971, 145: 10.822605, 146: 13.212295, 147: 12.967877, 148: 7.659655, 149: 6.77434, 150: 15.44466, 151: 8.923590000000001, 152: 9.126557, 153: 11.778313, 154: 9.97175, 155: 11.971606, 156: 13.951981, 157: 5.038461, 158: 12.037333, 159: 14.666111, 160: 10.441305, 161: 6.008703, 162: 3.609027, 163: 4.910007, 164: 14.422167, 165: 11.560734, 166: 7.959188, 167: 10.230727, 168: 6.952663, 169: 12.758693, 170: 5.842137, 171: 13.013891, 172: 8.239521999999999, 173: 6.046051, 174: 11.469987, 175: 10.618866, 176: 11.878895, 177: 7.184417, 178: 13.290519, 179: 10.67691, 180: 12.899748, 181: 8.343947999999999, 182: 15.355602, 183: 3.82664, 184: 14.615828, 185: 12.238947, 186: 13.507054, 187: 9.733018, 188: 12.560746, 189: 3.586768, 190: 13.973595, 191: 12.989952];
cost = [0: 551.269335, 1: 584.727568, 2: 278.819598, 3: 306.151056, 4: 594.51242, 5: 593.547876, 6: 76.647526, 7: 477.594059, 8: 490.079154, 9: 484.561161, 10: 586.511349, 11: 195.029154, 12: 382.346636, 13: 213.937811, 14: 303.856152, 15: 14.798137, 16: 1.002308, 17: 176.617407, 18: 256.724234, 19: 194.63073, 20: 207.762139, 21: 241.924494, 22: 142.490758, 23: 138.797562, 24: 639.004606, 25: 43.619767, 26: 133.847352, 27: 68.32514399999999, 28: 236.655273, 29: 124.300663, 30: 371.501611, 31: 524.349071, 32: 613.464083, 33: 516.745094, 34: 704.500388, 35: 601.704567, 36: 653.0989070000001, 37: 242.97345, 38: 84.611909, 39: 715.861466, 40: 230.274834, 41: 480.729377, 42: 48.084518, 43: 1172.701905, 44: 1112.043911, 45: 123.231793, 46: 355.652549, 47: 703.4649889999999, 48: 345.265325, 49: 330.023834, 50: 398.08563, 51: 323.127267, 52: 64.78989900000001, 53: 367.662661, 54: 417.389766, 55: 344.688412, 56: 320.779674, 57: 573.903142, 58: 153.911998, 59: 308.925059, 60: 1070.580771, 61: 862.5113720000001, 62: 1105.93964, 63: 776.0159149999999, 64: 109.740231, 65: 329.375417, 66: 183.69124, 67: 154.859506, 68: 1174.392051, 69: 467.055287, 70: 144.303096, 71: 1096.876341, 72: 683.395849, 73: 861.449774, 74: 1040.606636, 75: 892.214756, 76: 22.038191, 77: 489.751187, 78: 128.974746, 79: 40.507795, 80: 336.988111, 81: 56.616375, 82: 634.587345, 83: 787.396468, 84: 1051.874145, 85: 1120.999942, 86: 336.4203, 87: 496.618658, 88: 56.085435, 89: 464.622222, 90: 363.643196, 91: 334.602496, 92: 573.431527, 93: 351.773337, 94: 261.131894, 95: 71.564286, 96: 185.69736, 97: 488.531454, 98: 121.518872, 99: 536.3778579999999, 100: 294.96244, 101: 604.464169, 102: 374.921909, 103: 261.759529, 104: 451.637426, 105: 57.853536, 106: 188.83108, 107: 602.459921, 108: 456.540927, 109: 474.277119, 110: 413.181152, 111: 58.630358, 112: 23.407704, 113: 200.628121, 114: 592.084613, 115: 242.276931, 116: 80.17182, 117: 219.32639, 118: 414.810966, 119: 131.488565, 120: 330.19143, 121: 980.341864, 122: 0.797881, 123: 975.858167, 124: 50.001158, 125: 502.926176, 126: 272.500525, 127: 492.697452, 128: 865.670021, 129: 111.828353, 130: 980.111276, 131: 1184.036441, 132: 246.019533, 133: 423.502906, 134: 676.560791, 135: 605.031695, 136: 47.433644, 137: 653.597446, 138: 355.863623, 139: 533.234237, 140: 630.895454, 141: 849.220412, 142: 1093.966487, 143: 620.488552, 144: 439.256915, 145: 366.585609, 146: 701.641621, 147: 628.427206, 148: 499.363011, 149: 5.068409, 150: 289.479359, 151: 87.712065, 152: 421.668364, 153: 607.193537, 154: 537.462247, 155: 316.374913, 156: 1035.149991, 157: 290.820238, 158: 1035.525559, 159: 657.737107, 160: 628.147949, 161: 116.816894, 162: 471.098148, 163: 952.588321, 164: 328.420445, 165: 543.74545, 166: 264.999892, 167: 829.9984459999999, 168: 1071.769348, 169: 423.184667, 170: 1011.478149, 171: 456.274568, 172: 913.107706, 173: 613.699372, 174: 474.369187, 175: 183.378228, 176: 779.926017, 177: 549.388878, 178: 156.006184, 179: 211.593121, 180: 1117.841061, 181: 186.594528, 182: 1093.394145, 183: 0.038109, 184: 409.956641, 185: 62.860812, 186: 174.796632, 187: 243.995378, 188: 601.498229, 189: 561.966441, 190: 589.786019, 191: 510.709356];
earn = [0: 2.223446, 1: 0.909104, 2: 2.286657, 3: 1.935408, 4: 2.211584, 5: 1.348327, 6: 1.927835, 7: 0.095528, 8: 1.928282, 9: 0.153708, 10: 1.069017, 11: 1.589957, 12: 0.431779, 13: 1.326446, 14: 0.047223, 15: 1.471104, 16: 1.527892, 17: 0.034711, 18: 1.917731, 19: 0.09673, 20: 1.732947, 21: 2.248743, 22: 1.713422, 23: 1.222184, 24: 0.990306, 25: 0.153732, 26: 1.999398, 27: 1.253336, 28: 1.350774, 29: 2.197517, 30: 1.585258, 31: 0.319595, 32: 1.459273, 33: 0.111227, 34: 0.570495, 35: 1.062362, 36: 1.303297, 37: 2.002018, 38: 0.916732, 39: 1.752375, 40: 1.361913, 41: 0.886393, 42: 1.673005, 43: 1.266976, 44: 0.476746, 45: 0.125721, 46: 0.919284, 47: 1.059456, 48: 0.063346, 49: 0.188159, 50: 0.320829, 51: 0.292308, 52: 0.149964, 53: 0.436276, 54: 0.043675, 55: 0.198521, 56: 0.009442000000000001, 57: 0.204656, 58: 0.055152, 59: 0.133803, 60: 0.042896, 61: 0.146399, 62: 0.202279, 63: 0.10195, 64: 1.291129, 65: 1.361444, 66: 0.118278, 67: 0.021437, 68: 1.316524, 69: 0.603956, 70: 0.867069, 71: 0.616205, 72: 1.601056, 73: 0.50986, 74: 1.765615, 75: 0.789336, 76: 0.9952490000000001, 77: 1.686576, 78: 0.61813, 79: 0.199012, 80: 1.3058, 81: 1.812451, 82: 0.94376, 83: 2.142576, 84: 2.582738, 85: 0.626793, 86: 1.011535, 87: 1.536248, 88: 2.414607, 89: 2.564059, 90: 0.748138, 91: 1.441817, 92: 1.355604, 93: 0.7955759999999999, 94: 0.512181, 95: 2.022652, 96: 0.997386, 97: 1.741849, 98: 1.059201, 99: 1.324816, 100: 1.128363, 101: 0.295611, 102: 1.22273, 103: 1.521895, 104: 1.523976, 105: 0.358691, 106: 1.02223, 107: 0.682642, 108: 0.567551, 109: 0.798912, 110: 0.863981, 111: 1.001626, 112: 1.421015, 113: 1.177716, 114: 0.492635, 115: 0.852392, 116: 0.286606, 117: 0.395146, 118: 1.077402, 119: 0.004713, 120: 0.183091, 121: 0.78442, 122: 0.138952, 123: 0.367668, 124: 1.214453, 125: 1.85308, 126: 3.144689, 127: 2.983692, 128: 2.721509, 129: 1.461766, 130: 0.233504, 131: 1.120663, 132: 0.179385, 133: 0.510849, 134: 0.616349, 135: 1.099298, 136: 0.117584, 137: 1.849857, 138: 0.769668, 139: 0.5798720000000001, 140: 1.27399, 141: 0.497282, 142: 0.1318, 143: 1.277981, 144: 0.7146400000000001, 145: 0.249593, 146: 1.217137, 147: 0.890781, 148: 0.983561, 149: 1.061338, 150: 0.984518, 151: 1.303668, 152: 0.856406, 153: 1.195023, 154: 1.160726, 155: 1.293392, 156: 1.563373, 157: 0.941737, 158: 0.430947, 159: 0.502243, 160: 1.763166, 161: 2.055916, 162: 0.9968669999999999, 163: 0.331642, 164: 2.462848, 165: 0.688221, 166: 2.155807, 167: 0.664685, 168: 2.239419, 169: 0.428881, 170: 0.674708, 171: 2.92009, 172: 0.295183, 173: 2.192079, 174: 4.240335, 175: 0.811377, 176: 0.722951, 177: 1.092657, 178: 0.804979, 179: 1.734827, 180: 1.243597, 181: 0.279266, 182: 1.647558, 183: 1.567887, 184: 1.234188, 185: 1.123896, 186: 1.444053, 187: 1.054177, 188: 2.146094, 189: 2.287229, 190: 1.877174, 191: 2.068221];
total_cost = 91.39435710784065;
total_earn = 35.64269866204472;
