t_strength = 
[|    UNSKILLED: SEMI_SKILLED: SKILLED: 
 | 0:      2000,         1500,    1000
 | 1:      1025,         1460,    1115
 | 2:       555,         2026,    1505
 | 3:        25,         2525,    2025
 |];
u_recruit = 
[| UNSKILLED: SEMI_SKILLED: SKILLED: 
 |       500,          800,     500
 |       500,          800,     500
 |       500,          706,     500
 |];
v_US_SS = [0, 0, 200];
v_SS_SK = [260, 5, 155];
v_SK_SS = [32, 8, 1];
v_SK_US = [2, 1, 1];
v_SS_US = [326, 0, 0];
w_redundancy = 
[| UNSKILLED: SEMI_SKILLED: SKILLED: 
 |      1314,           35,     498
 |       743,            0,       0
 |       650,            0,       0
 |];
x_short = 
[| UNSKILLED: SEMI_SKILLED: SKILLED: 
 |        50,            0,      50
 |        50,           50,       0
 |        50,           50,      50
 |];
y_overmanning = 
[| UNSKILLED: SEMI_SKILLED: SKILLED: 
 |         0,           60,      90
 |        30,            1,       5
 |         0,            0,       0
 |];
