t_strength = 
[|    UNSKILLED: SEMI_SKILLED: SKILLED: 
 | 0:      2000,         1500,    1000
 | 1:      1050,         1430,    1142
 | 2:       500,         2032,    1668
 | 3:        25,         2500,    2025
 |];
u_recruit = 
[| UNSKILLED: SEMI_SKILLED: SKILLED: 
 |         0,            0,     500
 |       500,          800,     500
 |       500,          797,     217
 |];
v_US_SS = [0, 200, 200];
v_SS_SK = [0, 158, 258];
v_SK_SS = [10, 11, 0];
v_SK_US = [248, 1, 0];
v_SS_US = [0, 1, 0];
w_redundancy = 
[| UNSKILLED: SEMI_SKILLED: SKILLED: 
 |       874,            0,       0
 |       621,            3,       5
 |       600,            0,       0
 |];
x_short = 
[| UNSKILLED: SEMI_SKILLED: SKILLED: 
 |        50,           50,      50
 |         0,           50,      50
 |        50,            0,      50
 |];
y_overmanning = 
[| UNSKILLED: SEMI_SKILLED: SKILLED: 
 |        25,            5,     117
 |         0,            7,     143
 |         0,            0,       0
 |];
