t_strength = 
[|    UNSKILLED: SEMI_SKILLED: SKILLED: 
 | 0:      2000,         1500,    1000
 | 1:      1000,         1435,    1165
 | 2:       550,         2050,    1571
 | 3:        25,         2522,    2000
 |];
u_recruit = 
[| UNSKILLED: SEMI_SKILLED: SKILLED: 
 |       500,          800,     500
 |       500,          800,     500
 |         0,          800,     500
 |];
v_US_SS = [200, 65, 0];
v_SS_SK = [280, 15, 69];
v_SK_SS = [0, 0, 7];
v_SK_US = [501, 0, 0];
v_SS_US = [539, 0, 0];
w_redundancy = 
[| UNSKILLED: SEMI_SKILLED: SKILLED: 
 |      1495,            1,       0
 |       660,            0,       0
 |       470,            0,       1
 |];
x_short = 
[| UNSKILLED: SEMI_SKILLED: SKILLED: 
 |         0,           50,      50
 |        50,            0,       0
 |        50,           44,       0
 |];
y_overmanning = 
[| UNSKILLED: SEMI_SKILLED: SKILLED: 
 |         0,           10,     140
 |        25,           50,      71
 |         0,            0,       0
 |];
