t_strength = 
[|    UNSKILLED: SEMI_SKILLED: SKILLED: 
 | 0:      2000,         1500,    1000
 | 1:      1025,         1430,    1170
 | 2:       525,         2100,    1600
 | 3:       175,         2500,    2000
 |];
u_recruit = 
[| UNSKILLED: SEMI_SKILLED: SKILLED: 
 |       500,            0,     500
 |       500,          800,     451
 |       500,          440,     500
 |];
v_US_SS = [200, 200, 200];
v_SS_SK = [240, 88, 40];
v_SK_SS = [458, 1, 6];
v_SK_US = [0, 0, 1];
v_SS_US = [174, 1, 0];
w_redundancy = 
[| UNSKILLED: SEMI_SKILLED: SKILLED: 
 |      1037,            0,       0
 |       573,            0,       0
 |       473,            0,       1
 |];
x_short = 
[| UNSKILLED: SEMI_SKILLED: SKILLED: 
 |        50,           50,      50
 |        50,           50,      50
 |        50,            0,       0
 |];
y_overmanning = 
[| UNSKILLED: SEMI_SKILLED: SKILLED: 
 |         0,            5,     145
 |         0,           75,      75
 |       150,            0,       0
 |];
