t_strength = 
[|    UNSKILLED: SEMI_SKILLED: SKILLED: 
 | 0:      2000,         1500,    1000
 | 1:      1000,         1428,    1171
 | 2:       570,         2040,    1558
 | 3:         0,         2500,    2000
 |];
u_recruit = 
[| UNSKILLED: SEMI_SKILLED: SKILLED: 
 |         0,          800,       0
 |       500,          618,     494
 |         0,          800,     500
 |];
v_US_SS = [0, 200, 0];
v_SS_SK = [240, 1, 82];
v_SK_SS = [0, 0, 8];
v_SK_US = [1, 0, 0];
v_SS_US = [397, 0, 0];
w_redundancy = 
[| UNSKILLED: SEMI_SKILLED: SKILLED: 
 |       999,            0,       6
 |       505,            0,       0
 |       513,            0,       0
 |];
x_short = 
[| UNSKILLED: SEMI_SKILLED: SKILLED: 
 |         0,           50,      50
 |        50,            0,       0
 |         0,            0,       0
 |];
y_overmanning = 
[| UNSKILLED: SEMI_SKILLED: SKILLED: 
 |         0,            3,     146
 |        45,           40,      58
 |         0,            0,       0
 |];
