t_strength = 
[|    UNSKILLED: SEMI_SKILLED: SKILLED: 
 | 0:      2000,         1500,    1000
 | 1:      1025,         1440,    1135
 | 2:       525,         2010,    1640
 | 3:       175,         2500,    2000
 |];
u_recruit = 
[| UNSKILLED: SEMI_SKILLED: SKILLED: 
 |       500,          800,     500
 |         0,          800,     431
 |       500,          800,     444
 |];
v_US_SS = [200, 200, 0];
v_SS_SK = [280, 183, 52];
v_SK_SS = [530, 0, 5];
v_SK_US = [0, 0, 1];
v_SS_US = [800, 1, 0];
w_redundancy = 
[| UNSKILLED: SEMI_SKILLED: SKILLED: 
 |      1350,            0,       1
 |       198,            4,       0
 |       673,            0,       1
 |];
x_short = 
[| UNSKILLED: SEMI_SKILLED: SKILLED: 
 |        50,           50,       0
 |        50,            0,       0
 |        50,            0,       0
 |];
y_overmanning = 
[| UNSKILLED: SEMI_SKILLED: SKILLED: 
 |         0,           15,     135
 |         0,           10,     140
 |       150,            0,       0
 |];
