production = [0: 0.0, 1: 0.0, 2: 0.0, 3: 0.0, 4: 0.0, 5: 0.0, 6: 0.0, 7: 0.0, 8: 0.0, 9: 0.0, 10: 0.0, 11: 0.0, 12: 0.0, 13: 0.0, 14: 0.0, 15: 0.0, 16: 0.0, 17: 0.0, 18: 0.0, 19: 0.0, 20: 0.0, 21: 0.0, 22: 0.002, 23: 0.0127, 24: 0.0, 25: 0.0828, 26: 0.0, 27: 0.0, 28: 0.0, 29: 0.0, 30: 0.0, 31: 0.662, 32: 0.0, 33: 0.9085, 34: 0.3912, 35: 1.2263, 36: 1.2192, 37: 0.0, 38: 0.6085, 39: 0.588, 40: 1.59, 41: 0.0, 42: 0.119029167, 43: 1.7822, 44: 1.4155, 45: 0.0, 46: 0.0, 47: 1.0755, 48: 1.0108, 49: 0.0, 50: 1.8355, 51: 1.8028, 52: 1.7512, 53: 1.7035, 54: 0.0, 55: 0.0, 56: 1.51, 57: 0.0, 58: 1.32, 59: 1.1723, 60: 1.2328, 61: 0.7298, 62: 0.0, 63: 0.8705000000000001, 64: 0.3648, 65: 0.0, 66: 0.0, 67: 0.1095, 68: 0.0, 69: 0.0238, 70: 0.0, 71: 0.0145, 72: 0.001, 73: 0.0013, 74: 0.0, 75: 0.0, 76: 0.0, 77: 0.0, 78: 0.0, 79: 0.0, 80: 0.0, 81: 0.0, 82: 0.0, 83: 0.0, 84: 0.0, 85: 0.0, 86: 0.0, 87: 0.0, 88: 0.0, 89: 0.0, 90: 0.0, 91: 0.0, 92: 0.0, 93: 0.0, 94: 0.0, 95: 0.0];
buy = [0: 0.336429167, 1: 0.0, 2: 0.338429167, 3: 0.0, 4: 0.0, 5: 1.281729167, 6: 1.293029167, 7: 0.0, 8: 0.0, 9: 0.0, 10: 0.0, 11: 0.0, 12: 0.0, 13: 1.243229167, 14: 0.0, 15: 1.269429167, 16: 0.0, 17: 1.278929167, 18: 0.271429167, 19: 0.270929167, 20: 0.0, 21: 1.280529167, 22: 0.278529167, 23: 0.254529167, 24: 0.0, 25: 0.0, 26: 1.256529167, 27: 1.255729167, 28: 1.240429167, 29: 1.231529167, 30: 1.236429167, 31: 0.453529167, 32: 1.116729167, 33: 0.198929167, 34: 0.090354885, 35: 0.0, 36: 0.0, 37: 0.0, 38: 0.0, 39: 0.0, 40: 0.0, 41: 1.119429167, 42: 0.0, 43: 0.0, 44: 0.0, 45: 0.118029167, 46: 0.0, 47: 0.0, 48: 0.09772916700000001, 49: 1.102729167, 50: 0.0, 51: 0.0, 52: 0.0, 53: 0.0, 54: 0.0, 55: 0.867729167, 56: 0.0, 57: 1.417729167, 58: 0.139429167, 59: 0.0, 60: 0.0, 61: 0.0, 62: 1.110029167, 63: 0.240029167, 64: 0.0, 65: 0.0, 66: 1.122429167, 67: 0.014029167, 68: 0.0, 69: 0.0, 70: 0.0, 71: 0.109029167, 72: 1.119429167, 73: 0.117929167, 74: 0.0, 75: 1.128729167, 76: 1.129229167, 77: 1.120929167, 78: 0.0, 79: 0.0, 80: 1.122729167, 81: 0.121929167, 82: 0.113429167, 83: 0.0, 84: 1.122429167, 85: 1.121929167, 86: 0.0, 87: 1.115529167, 88: 1.114429167, 89: 0.0, 90: 0.349029167, 91: 0.347229167, 92: 1.339729167, 93: 0.346029167, 94: 0.316229167, 95: 1.284229167];
sell = [0: 0.0, 1: 0.562070833, 2: 0.0, 3: 0.606770833, 4: 0.617970833, 5: 0.0, 6: 0.0, 7: 0.605770833, 8: 0.614770833, 9: 0.651270833, 10: 0.0, 11: 0.649270833, 12: 0.648970833, 13: 0.0, 14: 0.611066326, 15: 0.0, 16: 0.618970833, 17: 0.0, 18: 0.0, 19: 0.0, 20: 0.628070833, 21: 0.0, 22: 0.0, 23: 0.0, 24: 0.633770833, 25: 0.609770833, 26: 0.0, 27: 0.0, 28: 0.0, 29: 0.0, 30: 0.0, 31: 0.0, 32: 0.0, 33: 0.0, 34: 0.0, 35: 1.109070833, 36: 2.001170833, 37: 0.785070833, 38: 1.402770833, 39: 0.481570833, 40: 2.370770833, 41: 0.0, 42: 0.0, 43: 0.670670833, 44: 0.309570833, 45: 0.0, 46: 0.7817708330000001, 47: 1.858970833, 48: 0.0, 49: 0.0, 50: 0.724970833, 51: 0.6920708330000001, 52: 1.640670833, 53: 0.057070833, 54: 0.343770833, 55: 0.0, 56: 2.296570833, 57: 0.0, 58: 0.0, 59: 0.7363708329999999, 60: 2.009870833, 61: 1.505270833, 62: 0.0, 63: 0.0, 64: 0.243570833, 65: 0.778570833, 66: 0.0, 67: 0.0, 68: 0.786070833, 69: 0.808570833, 70: 0.776770833, 71: 0.0, 72: 0.0, 73: 0.0, 74: 0.780070833, 75: 0.0, 76: 0.0, 77: 0.0, 78: 0.779270833, 79: 0.785270833, 80: 0.0, 81: 0.0, 82: 0.0, 83: 0.787270833, 84: 0.0, 85: 0.0, 86: 0.778570833, 87: 0.0, 88: 0.0, 89: 0.0, 90: 0.0, 91: 0.0, 92: 0.0, 93: 0.0, 94: 0.0, 95: 0.0];
charge = [0: 0.0, 1: 0.0, 2: 0.0, 3: 0.0, 4: 0.0, 5: 1.0, 6: 1.0, 7: 0.0, 8: 0.0, 9: 0.0, 10: 0.0, 11: 0.0, 12: 0.0, 13: 1.0, 14: 0.0, 15: 1.0, 16: 0.0, 17: 1.0, 18: 0.0, 19: 0.0, 20: 0.0, 21: 1.0, 22: 0.0, 23: 0.0, 24: 0.0, 25: 0.0, 26: 1.0, 27: 1.0, 28: 1.0, 29: 1.0, 30: 1.0, 31: 1.0, 32: 1.0, 33: 1.0, 34: 0.374125718, 35: 0.0, 36: 0.0, 37: 0.0, 38: 0.0, 39: 0.0, 40: 0.0, 41: 1.0, 42: 0.0, 43: 1.0, 44: 1.0, 45: 0.0, 46: 0.0, 47: 0.0, 48: 1.0, 49: 1.0, 50: 1.0, 51: 1.0, 52: 0.0, 53: 1.0, 54: 0.0, 55: 0.0, 56: 0.0, 57: 1.0, 58: 1.0, 59: 0.0, 60: 0.0, 61: 0.0, 62: 1.0, 63: 1.0, 64: 0.0, 65: 0.0, 66: 1.0, 67: 0.0, 68: 0.0, 69: 0.0, 70: 0.0, 71: 0.0, 72: 1.0, 73: 0.0, 74: 0.0, 75: 1.0, 76: 1.0, 77: 1.0, 78: 0.0, 79: 0.0, 80: 1.0, 81: 0.0, 82: 0.0, 83: 0.0, 84: 1.0, 85: 1.0, 86: 0.0, 87: 1.0, 88: 1.0, 89: 0.0, 90: 0.0, 91: 0.0, 92: 1.0, 93: 0.0, 94: 0.0, 95: 1.0];
discharge = [0: 0.0, 1: 1.0, 2: 0.0, 3: 1.0, 4: 1.0, 5: 0.0, 6: 0.0, 7: 1.0, 8: 1.0, 9: 1.0, 10: 0.267476852, 11: 1.0, 12: 1.0, 13: 0.0, 14: 0.949772769, 15: 0.0, 16: 1.0, 17: 0.0, 18: 0.0, 19: 0.0, 20: 1.0, 21: 0.0, 22: 0.0, 23: 0.0, 24: 1.0, 25: 1.0, 26: 0.0, 27: 0.0, 28: 0.0, 29: 0.0, 30: 0.0, 31: 0.0, 32: 0.0, 33: 0.0, 34: 0.0, 35: 0.0, 36: 1.0, 37: 1.0, 38: 1.0, 39: 0.0, 40: 1.0, 41: 0.0, 42: 0.0, 43: 0.0, 44: 0.0, 45: 0.0, 46: 1.0, 47: 1.0, 48: 0.0, 49: 0.0, 50: 0.0, 51: 0.0, 52: 0.0, 53: 0.0, 54: 1.0, 55: 0.0, 56: 1.0, 57: 0.0, 58: 0.0, 59: 0.0, 60: 1.0, 61: 1.0, 62: 0.0, 63: 0.0, 64: 0.0, 65: 1.0, 66: 0.0, 67: 0.0, 68: 1.0, 69: 1.0, 70: 1.0, 71: 0.0, 72: 0.0, 73: 0.0, 74: 1.0, 75: 0.0, 76: 0.0, 77: 0.0, 78: 1.0, 79: 1.0, 80: 0.0, 81: 0.0, 82: 0.0, 83: 1.0, 84: 0.0, 85: 0.0, 86: 1.0, 87: 0.0, 88: 0.0, 89: 0.280810185, 90: 0.0, 91: 0.0, 92: 0.0, 93: 0.0, 94: 0.0, 95: 0.0];
soc = [0: 10.4979, 1: 9.49580042, 2: 9.493901259999999, 3: 8.49200248, 4: 7.490304079, 5: 8.388806018, 6: 9.287128257000001, 7: 8.285270831, 8: 7.283613777, 9: 6.282157055, 10: 6.013423771, 11: 5.012221087, 12: 4.011218642, 13: 4.910416399, 14: 3.959661546, 15: 4.858869614, 16: 3.85789784, 17: 4.75712626, 18: 4.756174835, 19: 4.7552236, 20: 3.754272555, 21: 4.653521701, 22: 4.652590996, 23: 4.651660478, 24: 3.650730146, 25: 2.65, 26: 3.54947, 27: 4.448760106, 28: 5.347870354, 29: 6.24680078, 30: 7.14555142, 31: 8.044122309, 32: 8.942513484999999, 33: 9.840724981999999, 34: 10.175469984, 35: 10.17343489, 36: 9.171400202999999, 37: 8.169565923, 38: 7.167932009, 39: 7.166498423, 40: 6.165065123, 41: 7.06383211, 42: 7.062419344, 43: 7.96100686, 44: 8.859414659, 45: 8.857642776, 46: 7.855871247, 47: 6.854300073, 48: 7.752929213, 49: 8.651378627, 50: 9.549648351, 51: 10.447738422, 52: 10.445648874, 53: 11.343559744, 54: 10.341291032, 55: 10.339222774, 56: 9.337154929, 57: 10.235287498, 58: 11.133240441, 59: 11.131013793, 60: 10.12878759, 61: 9.126761833, 62: 10.02493648, 63: 10.922931493, 64: 10.920746907, 65: 9.918562757, 66: 10.816579045, 67: 10.814415729, 68: 9.812252846, 69: 8.810290395000001, 70: 7.808528337, 71: 7.806966631, 72: 8.705405238000001, 73: 8.703664157, 74: 7.701923424, 75: 8.600383040000001, 76: 9.498662962999999, 77: 10.39676323, 78: 9.394683878, 79: 8.392804941, 80: 9.29112638, 81: 9.289268155, 82: 9.287410301, 83: 8.285552818999999, 84: 9.183895708, 85: 10.082058929, 86: 9.080042517000001, 87: 9.978226509000001, 88: 10.876230864, 89: 10.593245432, 90: 10.591126783, 91: 10.589008558, 92: 11.486890756, 93: 11.484593378, 94: 11.482296459, 95: 12.38];
cost = [0: 0.205524578, 1: 0.0, 2: 0.206746378, 3: 0.0, 4: 0.0, 5: 0.901186513, 6: 0.908089683, 7: 0.0, 8: 0.0, 9: 0.0, 10: 0.0, 11: 0.0, 12: 0.0, 13: 0.877666863, 14: 0.0, 15: 0.893672443, 16: 0.0, 17: 0.899475993, 18: 0.165816078, 19: 0.165510628, 20: 0.0, 21: 0.900453433, 22: 0.170153468, 23: 0.155491868, 24: 0.0, 25: 0.0, 26: 1.612945262, 27: 1.611993582, 28: 1.593792702, 29: 1.583205262, 30: 1.589034302, 31: 0.657696462, 32: 1.446639182, 33: 0.354824302, 34: 0.151699662, 35: 0.0, 36: 0.0, 37: 0.0, 38: 0.0, 39: 0.0, 40: 0.0, 41: 1.449851102, 42: 0.0, 43: 0.118178165, 44: 0.118178165, 45: 0.140407497, 46: 0.0, 47: 0.0, 48: 0.234436782, 49: 1.429984782, 50: 0.118178165, 51: 0.118178165, 52: 0.0, 53: 0.118178165, 54: 0.0, 55: 0.530095748, 56: 0.0, 57: 0.984268913, 58: 0.203355443, 59: 0.0, 60: 0.0, 61: 0.0, 62: 1.438668862, 63: 0.403716862, 64: 0.0, 65: 0.0, 66: 1.453419902, 67: 0.016689097, 68: 0.0, 69: 0.0, 70: 0.0, 71: 0.129701097, 72: 1.449851102, 73: 0.140288537, 74: 0.0, 75: 1.460914382, 76: 1.461509182, 77: 1.451635502, 78: 0.0, 79: 0.0, 80: 1.453776782, 81: 0.145046937, 82: 0.134935337, 83: 0.0, 84: 1.453419902, 85: 1.452825102, 86: 0.0, 87: 1.445211662, 88: 0.7989829429999999, 89: 0.0, 90: 0.213221918, 91: 0.212122298, 92: 0.936618713, 93: 0.211389218, 94: 0.193184398, 95: 0.9027137629999999];
earn = [0: 0.0, 1: 0.332745933, 2: 0.0, 3: 0.358176823, 4: 0.351687201, 5: 0.0, 6: 0.0, 7: 0.370489442, 8: 0.34925131, 9: 0.368814673, 10: 0.0, 11: 0.376122594, 12: 0.368810125, 13: 0.0, 14: 0.346107967, 15: 0.0, 16: 0.348913859, 17: 0.0, 18: 0.0, 19: 0.0, 20: 0.361077922, 21: 0.0, 22: 0.0, 23: 0.0, 24: 0.354721535, 25: 0.338361835, 26: 0.0, 27: 0.0, 28: 0.0, 29: 0.0, 30: 0.0, 31: 0.0, 32: 0.0, 33: 0.0, 34: 0.0, 35: 0.394052867, 36: 0.622564246, 37: 0.192420861, 38: 0.316324823, 39: 0.07632897700000001, 40: 0.362965015, 41: 0.0, 42: 0.0, 43: 0.052379392, 44: 0.012042305, 45: 0.0, 46: 0.027049271, 47: 0.061346038, 48: 0.0, 49: 0.0, 50: 0.021676628, 51: 0.024153272, 52: 0.08892435899999999, 53: 0.003144603, 54: 0.02062625, 55: 0.0, 56: 0.326572373, 57: 0.0, 58: 0.0, 59: 0.158025181, 60: 0.726367319, 61: 0.547467002, 62: 0.0, 63: 0.0, 64: 0.136472738, 65: 0.444797517, 66: 0.0, 67: 0.0, 68: 0.493259448, 69: 0.520557903, 70: 0.526728302, 71: 0.0, 72: 0.0, 73: 0.0, 74: 0.62156044, 75: 0.0, 76: 0.0, 77: 0.0, 78: 0.632066573, 79: 0.623897677, 80: 0.0, 81: 0.0, 82: 0.0, 83: 0.5625837380000001, 84: 0.0, 85: 0.0, 86: 0.531530308, 87: 0.0, 88: 0.0, 89: 0.0, 90: 0.0, 91: 0.0, 92: 0.0, 93: 0.0, 94: 0.0, 95: 0.0];
total_cost = 41.574753238;
total_earn = 13.753166644;
