production = [0: 0.0, 1: 0.0, 2: 0.0, 3: 0.0, 4: 0.0, 5: 0.0, 6: 0.0, 7: 0.0, 8: 0.0, 9: 0.0, 10: 0.0, 11: 0.0, 12: 0.0, 13: 0.0, 14: 0.0, 15: 0.0, 16: 0.0, 17: 0.0, 18: 0.0, 19: 0.0, 20: 0.0, 21: 0.0, 22: 0.002, 23: 0.0127, 24: 0.0475, 25: 0.0, 26: 0.0, 27: 0.1865, 28: 0.2323, 29: 0.0, 30: 0.0, 31: 0.662, 32: 0.8185, 33: 0.0, 34: 0.3912, 35: 0.0, 36: 1.2192, 37: 0.0, 38: 0.0, 39: 0.0, 40: 1.59, 41: 1.7255, 42: 0.0, 43: 0.0, 44: 0.0, 45: 0.8383, 46: 0.905, 47: 1.0755, 48: 0.0, 49: 0.0, 50: 1.8355, 51: 1.8028, 52: 1.7512, 53: 1.7035, 54: 0.0, 55: 1.5855, 56: 0.0, 57: 1.43, 58: 0.0, 59: 0.0, 60: 1.2328, 61: 0.7298, 62: 0.92, 63: 0.0, 64: 0.3648, 65: 0.0, 66: 0.0, 67: 0.0, 68: 0.053, 69: 0.0238, 70: 0.0323, 71: 0.0145, 72: 0.001, 73: 0.0, 74: 0.0, 75: 0.0, 76: 0.0, 77: 0.0, 78: 0.0, 79: 0.0, 80: 0.0, 81: 0.0, 82: 0.0, 83: 0.0, 84: 0.0, 85: 0.0, 86: 0.0, 87: 0.0, 88: 0.0, 89: 0.0, 90: 0.0, 91: 0.0, 92: 0.0, 93: 0.0, 94: 0.0, 95: 0.0];
buy = [0: 0.336429167, 1: 0.0, 2: 0.338429167, 3: 1.293229167, 4: 0.0, 5: 0.997478677, 6: 0.293029167, 7: 0.294229167, 8: 1.285229167, 9: 0.248729167, 10: 1.240729167, 11: 1.250729167, 12: 1.251029167, 13: 0.0, 14: 0.0, 15: 1.269429167, 16: 0.0, 17: 0.0, 18: 0.0, 19: 0.0, 20: 0.0, 21: 1.280529167, 22: 0.278529167, 23: 0.0, 24: 1.218729167, 25: 1.373029167, 26: 0.0, 27: 0.0, 28: 0.008129167, 29: 0.231529167, 30: 0.236429167, 31: 0.0, 32: 0.298229167, 33: 0.107429167, 34: 0.0, 35: 0.0, 36: 0.0, 37: 0.0, 38: 0.105729167, 39: 0.0, 40: 0.0, 41: 0.0, 42: 0.119029167, 43: 1.111529167, 44: 0.0, 45: 0.279729167, 46: 0.0, 47: 0.041029167, 48: 1.108529167, 49: 1.102729167, 50: 0.0, 51: 0.0, 52: 0.0, 53: 0.0, 54: 0.556229167, 55: 0.0, 56: 1.113429167, 57: 0.0, 58: 1.459429167, 59: 0.435929167, 60: 0.0, 61: 0.0, 62: 0.0, 63: 0.0, 64: 0.0, 65: 1.121429167, 66: 1.122429167, 67: 0.0, 68: 1.060929167, 69: 0.09142916700000001, 70: 0.0, 71: 1.109029167, 72: 0.119429167, 73: 0.0, 74: 1.119929167, 75: 0.0, 76: 1.129229167, 77: 1.120929167, 78: 0.0, 79: 0.114729167, 80: 0.122729167, 81: 1.121929167, 82: 1.113429167, 83: 0.112729167, 84: 1.122429167, 85: 1.121929167, 86: 1.121429167, 87: 1.115529167, 88: 0.0, 89: 1.252729167, 90: 1.349029167, 91: 1.347229167, 92: 1.339729167, 93: 1.346029167, 94: 0.0, 95: 1.284229167];
sell = [0: 0.0, 1: 0.562070833, 2: 0.0, 3: 0.0, 4: 0.0, 5: 0.0, 6: 0.0, 7: 0.0, 8: 0.0, 9: 0.0, 10: 0.0, 11: 0.0, 12: 0.0, 13: 0.6567708330000001, 14: 0.656270833, 15: 0.0, 16: 0.618970833, 17: 0.621070833, 18: 0.628571429, 19: 0.629070833, 20: 0.628070833, 21: 0.0, 22: 0.0, 23: 0.645470833, 24: 0.0, 25: 0.0, 26: 0.643470833, 27: 0.830770833, 28: 0.0, 29: 0.0, 30: 0.0, 31: 1.446470833, 32: 0.0, 33: 0.0, 34: 0.283770833, 35: 0.7827708330000001, 36: 1.101170833, 37: 0.785070833, 38: 0.0, 39: 0.793570833, 40: 2.370770833, 41: 2.506070833, 42: 0.0, 43: 0.0, 44: 0.794070833, 45: 0.0, 46: 0.7867708329999999, 47: 0.0, 48: 0.0, 49: 0.0, 50: 1.724970833, 51: 2.592070833, 52: 2.540670833, 53: 0.057070833, 54: 0.0, 55: 0.717770833, 56: 0.0, 57: 1.912270833, 58: 0.0, 59: 0.0, 60: 2.009870833, 61: 0.605270833, 62: 1.709970833, 63: 0.0, 64: 1.143570833, 65: 0.0, 66: 0.0, 67: 0.776470833, 68: 0.0, 69: 0.0, 70: 0.809070833, 71: 0.0, 72: 0.0, 73: 0.7807708330000001, 74: 0.0, 75: 0.771270833, 76: 0.0, 77: 0.0, 78: 0.779270833, 79: 0.0, 80: 0.0, 81: 0.0, 82: 0.0, 83: 0.0, 84: 0.0, 85: 0.0, 86: 0.0, 87: 0.0, 88: 0.785570833, 89: 0.0, 90: 0.0, 91: 0.0, 92: 0.0, 93: 0.0, 94: 0.583770833, 95: 0.0];
charge = [0: 0.0, 1: 0.0, 2: 0.0, 3: 1.0, 4: 0.0, 5: 0.7157495109999999, 6: 0.0, 7: 0.0, 8: 1.0, 9: 0.0, 10: 1.0, 11: 1.0, 12: 1.0, 13: 0.0, 14: 0.0, 15: 1.0, 16: 0.0, 17: 0.0, 18: 0.0, 19: 0.0, 20: 0.0, 21: 1.0, 22: 0.0, 23: 0.0, 24: 1.0, 25: 1.0, 26: 0.0, 27: 0.0, 28: 0.0, 29: 0.0, 30: 0.0, 31: 0.0, 32: 1.0, 33: 0.0, 34: 0.0, 35: 0.0, 36: 0.0, 37: 0.0, 38: 0.0, 39: 0.0, 40: 0.0, 41: 0.0, 42: 0.0, 43: 1.0, 44: 0.0, 45: 1.0, 46: 0.0, 47: 1.0, 48: 1.0, 49: 1.0, 50: 0.0, 51: 0.0, 52: 0.0, 53: 1.0, 54: 0.0, 55: 0.0, 56: 1.0, 57: 0.0, 58: 1.0, 59: 0.0, 60: 0.0, 61: 0.0, 62: 0.0, 63: 0.0, 64: 0.0, 65: 1.0, 66: 1.0, 67: 0.0, 68: 1.0, 69: 0.0, 70: 0.0, 71: 1.0, 72: 0.0, 73: 0.0, 74: 1.0, 75: 0.0, 76: 1.0, 77: 1.0, 78: 0.0, 79: 0.0, 80: 0.0, 81: 1.0, 82: 1.0, 83: 0.0, 84: 1.0, 85: 1.0, 86: 1.0, 87: 1.0, 88: 0.0, 89: 1.0, 90: 1.0, 91: 1.0, 92: 1.0, 93: 1.0, 94: 0.0, 95: 1.0];
discharge = [0: 0.0, 1: 1.0, 2: 0.0, 3: 0.0, 4: 0.313365741, 5: 0.0, 6: 0.0, 7: 0.0, 8: 0.0, 9: 0.0, 10: 0.0, 11: 0.0, 12: 0.0, 13: 1.0, 14: 1.0, 15: 0.0, 16: 1.0, 17: 1.0, 18: 1.0, 19: 1.0, 20: 1.0, 21: 0.0, 22: 0.0, 23: 1.0, 24: 0.0, 25: 0.0, 26: 1.0, 27: 1.0, 28: 0.0, 29: 0.0, 30: 0.0, 31: 1.0, 32: 0.0, 33: 0.0, 34: 0.0, 35: 1.0, 36: 0.0, 37: 1.0, 38: 0.0, 39: 1.0, 40: 1.0, 41: 1.0, 42: 0.0, 43: 0.0, 44: 1.0, 45: 0.0, 46: 0.0, 47: 0.0, 48: 0.0, 49: 0.0, 50: 0.0, 51: 1.0, 52: 1.0, 53: 0.0, 54: 0.0, 55: 0.0, 56: 0.0, 57: 1.0, 58: 0.0, 59: 0.0, 60: 1.0, 61: 0.0, 62: 1.0, 63: 0.122810185, 64: 1.0, 65: 0.0, 66: 0.0, 67: 1.0, 68: 0.0, 69: 0.0, 70: 1.0, 71: 0.0, 72: 0.0, 73: 1.0, 74: 0.0, 75: 1.0, 76: 0.0, 77: 0.0, 78: 1.0, 79: 0.0, 80: 0.0, 81: 0.0, 82: 0.0, 83: 0.0, 84: 0.0, 85: 0.0, 86: 0.0, 87: 0.0, 88: 1.0, 89: 0.0, 90: 0.0, 91: 0.0, 92: 0.0, 93: 0.0, 94: 1.0, 95: 0.0];
soc = [0: 10.4979, 1: 9.49580042, 2: 9.493901259999999, 3: 10.39200248, 4: 10.076558338, 5: 10.718717586, 6: 10.716573843, 7: 10.714430528, 8: 11.612287642, 9: 11.609965185, 10: 12.507643192, 11: 13.405141663, 12: 14.302460635, 13: 13.299600142, 14: 12.296940222, 15: 13.194480834, 16: 12.191841938, 17: 11.18940357, 18: 10.187165689, 19: 9.185128256, 20: 8.18329123, 21: 9.081654572, 22: 9.079838240999999, 23: 8.078022273, 24: 8.976406668999999, 25: 9.874611388, 26: 8.872636464999999, 27: 7.870861938, 28: 7.869287766, 29: 7.867713908, 30: 7.866140365, 31: 6.864567137, 32: 7.763194224, 33: 7.761641585, 34: 7.760089257, 35: 6.758537239, 36: 6.757185531, 37: 5.755834094, 38: 5.754682928, 39: 4.753531991, 40: 3.752581285, 41: 2.751830768, 42: 2.751280402, 43: 3.650730146, 44: 2.65, 45: 3.54947, 46: 3.548760106, 47: 4.448050354, 48: 5.347160744, 49: 6.246091312, 50: 6.244842093, 51: 5.243593125, 52: 4.242544406, 53: 5.141695898, 54: 5.140667558, 55: 5.139639425, 56: 6.038611497, 57: 5.037403775, 58: 5.936396294, 59: 5.935209015, 60: 4.934021973, 61: 4.933035168, 62: 3.932048561, 63: 3.808451967, 64: 2.807690276, 65: 3.707128738, 66: 4.606387312, 67: 3.605466035, 68: 4.504744942, 69: 4.503843993, 70: 3.502943224, 71: 4.402242635, 72: 4.401362187, 73: 3.400481914, 74: 4.299801818, 75: 3.298941858, 76: 4.198282069, 77: 5.097442413, 78: 4.096422924, 79: 4.09560364, 80: 4.094784519, 81: 4.993965562, 82: 5.892966769, 83: 5.891788176, 84: 6.790609818, 85: 7.689251696, 86: 8.587713846, 87: 9.485996303, 88: 8.484099104, 89: 9.382402283999999, 90: 10.280525803, 91: 11.178469698, 92: 12.076234004, 93: 12.973818757, 94: 11.971223994, 95: 12.868829749];
cost = [0: 0.205524578, 1: 0.0, 2: 0.206746378, 3: 0.908211863, 4: 0.0, 5: 0.693945688, 6: 0.179011518, 7: 0.179744598, 8: 0.903324663, 9: 0.151948648, 10: 0.876139613, 11: 0.882248613, 12: 0.882431883, 13: 0.0, 14: 0.0, 15: 0.893672443, 16: 0.0, 17: 0.0, 18: 0.0, 19: 0.0, 20: 0.0, 21: 0.900453433, 22: 0.170153468, 23: 0.0, 24: 1.567978382, 25: 1.751533662, 26: 0.0, 27: 0.0, 28: 0.009670457, 29: 0.275427097, 30: 0.281256137, 31: 0.0, 32: 0.472951582, 33: 0.127797737, 34: 0.0, 35: 0.0, 36: 0.0, 37: 0.0, 38: 0.125775417, 39: 0.0, 40: 0.0, 41: 0.0, 42: 0.141597097, 43: 1.440453262, 44: 0.0, 45: 0.450943982, 46: 0.0, 47: 0.166986462, 48: 1.436884462, 49: 1.429984782, 50: 0.0, 51: 0.0, 52: 0.0, 53: 0.118178165, 54: 0.339800398, 55: 0.0, 56: 0.798372043, 57: 0.0, 58: 1.009743443, 59: 0.266309128, 60: 0.0, 61: 0.0, 62: 0.0, 63: 0.0, 64: 0.0, 65: 1.452230302, 66: 1.453419902, 67: 0.0, 68: 1.380259502, 69: 0.108764137, 70: 0.0, 71: 1.437479262, 72: 0.142072937, 73: 0.0, 74: 1.450445902, 75: 0.0, 76: 1.461509182, 77: 1.451635502, 78: 0.0, 79: 0.136481817, 80: 0.145998617, 81: 1.452825102, 82: 1.442713502, 83: 0.134102617, 84: 1.453419902, 85: 1.452825102, 86: 1.452230302, 87: 1.445211662, 88: 0.0, 89: 0.883470413, 90: 0.942300083, 91: 0.941200463, 92: 0.936618713, 93: 0.940467383, 94: 0.0, 95: 0.9027137629999999];
earn = [0: 0.0, 1: 0.332745933, 2: 0.0, 3: 0.0, 4: 0.0, 5: 0.0, 6: 0.0, 7: 0.0, 8: 0.0, 9: 0.0, 10: 0.0, 11: 0.0, 12: 0.0, 13: 0.371995, 14: 0.3717118, 15: 0.0, 16: 0.348913859, 17: 0.354631446, 18: 0.358913946, 19: 0.359199446, 20: 0.361077922, 21: 0.0, 22: 0.0, 23: 0.367853828, 24: 0.0, 25: 0.0, 26: 0.362981897, 27: 0.451939333, 28: 0.0, 29: 0.0, 30: 0.0, 31: 0.676659056, 32: 0.0, 33: 0.0, 34: 0.112202987, 35: 0.278118477, 36: 0.342574246, 37: 0.192420861, 38: 0.0, 39: 0.125780977, 40: 0.362965015, 41: 0.260130153, 42: 0.0, 43: 0.0, 44: 0.030889355, 45: 0.0, 46: 0.027222271, 47: 0.0, 48: 0.0, 49: 0.0, 50: 0.051576628, 51: 0.090463272, 52: 0.137704359, 53: 0.003144603, 54: 0.0, 55: 0.04600911, 56: 0.0, 57: 0.282633629, 58: 0.0, 59: 0.0, 60: 0.726367319, 61: 0.220137002, 62: 0.737339423, 63: 0.0, 64: 0.640742738, 65: 0.0, 66: 0.0, 67: 0.444995435, 68: 0.0, 69: 0.0, 70: 0.548630932, 71: 0.0, 72: 0.0, 73: 0.611031254, 74: 0.0, 75: 0.628431475, 76: 0.0, 77: 0.0, 78: 0.632066573, 79: 0.0, 80: 0.0, 81: 0.0, 82: 0.0, 83: 0.0, 84: 0.0, 85: 0.0, 86: 0.0, 87: 0.0, 88: 0.513527654, 89: 0.0, 90: 0.0, 91: 0.0, 92: 0.0, 93: 0.0, 94: 0.359369325, 95: 0.0];
total_cost = 45.245597153;
total_earn = 13.12509854;
% _objective = 32.120498613;