production = [0: 0.0, 1: 0.0, 2: 0.0, 3: 0.0, 4: 0.0, 5: 0.0, 6: 0.0, 7: 0.0, 8: 0.0, 9: 0.0, 10: 0.0, 11: 0.0, 12: 0.0, 13: 0.0, 14: 0.0, 15: 0.0, 16: 0.0, 17: 0.0, 18: 0.0, 19: 0.0, 20: 0.0, 21: 0.0, 22: 0.0, 23: 0.0127, 24: 0.0475, 25: 0.0, 26: 0.0, 27: 0.0, 28: 0.0, 29: 0.333, 30: 0.4783, 31: 0.662, 32: 0.8185, 33: 0.0, 34: 0.3912, 35: 0.0, 36: 1.2192, 37: 1.283, 38: 0.0, 39: 0.588, 40: 0.0, 41: 1.7255, 42: 0.0, 43: 1.111529167, 44: 1.4155, 45: 0.0, 46: 0.0, 47: 1.0755, 48: 1.0108, 49: 0.0, 50: 1.8355, 51: 1.8028, 52: 1.7512, 53: 1.7035, 54: 1.6607, 55: 1.5855, 56: 1.51, 57: 0.0, 58: 0.0, 59: 0.0, 60: 0.0, 61: 0.0, 62: 0.0, 63: 0.8705000000000001, 64: 0.3648, 65: 0.0, 66: 0.287, 67: 0.0, 68: 0.053, 69: 0.0, 70: 0.0, 71: 0.0145, 72: 0.001, 73: 0.0, 74: 0.0, 75: 0.0, 76: 0.0, 77: 0.0, 78: 0.0, 79: 0.0, 80: 0.0, 81: 0.0, 82: 0.0, 83: 0.0, 84: 0.0, 85: 0.0, 86: 0.0, 87: 0.0, 88: 0.0, 89: 0.0, 90: 0.0, 91: 0.0, 92: 0.0, 93: 0.0, 94: 0.0, 95: 0.0];
buy = [0: 1.336429167, 1: 0.337929167, 2: 0.0, 3: 0.293229167, 4: 0.0, 5: 1.281729167, 6: 0.0, 7: 1.294229167, 8: 0.0, 9: 0.0, 10: 0.0, 11: 0.0, 12: 0.0, 13: 0.0, 14: 0.0, 15: 0.269429167, 16: 0.0, 17: 1.278929167, 18: 0.271428571, 19: 1.270929167, 20: 0.0, 21: 1.280529167, 22: 1.280529167, 23: 0.0, 24: 0.218729167, 25: 0.373029167, 26: 0.0, 27: 0.255729167, 28: 1.240429167, 29: 0.898529167, 30: 0.758129167, 31: 0.453529167, 32: 0.298229167, 33: 1.107429167, 34: 0.0, 35: 1.117229167, 36: 0.0, 37: 0.0, 38: 0.105729167, 39: 0.0, 40: 0.0, 41: 0.0, 42: 0.0, 43: 0.0, 44: 0.0, 45: 1.118029167, 46: 0.0, 47: 0.041029167, 48: 0.0, 49: 1.102729167, 50: 0.0, 51: 0.0, 52: 0.0, 53: 0.0, 54: 0.0, 55: 0.282229167, 56: 0.0, 57: 1.417729167, 58: 1.459429167, 59: 1.435929167, 60: 0.122929167, 61: 1.124529167, 62: 0.110029167, 63: 0.0, 64: 0.0, 65: 0.0, 66: 0.0, 67: 0.0, 68: 1.060929167, 69: 1.115229167, 70: 1.123229167, 71: 1.109029167, 72: 1.119429167, 73: 0.0, 74: 1.119929167, 75: 1.128729167, 76: 0.129229167, 77: 0.0, 78: 0.0, 79: 0.0, 80: 1.122729167, 81: 0.0, 82: 0.0, 83: 1.112729167, 84: 1.122429167, 85: 0.0, 86: 0.638826412, 87: 1.115529167, 88: 1.114429167, 89: 0.252729167, 90: 0.349029167, 91: 0.0, 92: 1.339729167, 93: 1.346029167, 94: 0.316229167, 95: 1.284229167];
sell = [0: 0.0, 1: 0.0, 2: 0.561570833, 3: 0.0, 4: 0.617970833, 5: 0.0, 6: 0.606970833, 7: 0.0, 8: 0.614770833, 9: 0.651270833, 10: 0.659270833, 11: 0.649270833, 12: 0.648970833, 13: 0.226378547, 14: 0.656270833, 15: 0.0, 16: 0.618970833, 17: 0.0, 18: 0.0, 19: 0.0, 20: 0.628070833, 21: 0.0, 22: 0.0, 23: 0.645470833, 24: 0.0, 25: 0.0, 26: 0.643470833, 27: 0.0, 28: 0.0, 29: 0.0, 30: 0.0, 31: 0.0, 32: 0.0, 33: 0.0, 34: 1.183770833, 35: 0.0, 36: 2.001170833, 37: 0.168070833, 38: 0.0, 39: 0.481570833, 40: 0.7807708330000001, 41: 1.606070833, 42: 0.0, 43: 0.0, 44: 2.209570833, 45: 0.0, 46: 0.0, 47: 0.0, 48: 1.802270833, 49: 0.0, 50: 2.624970833, 51: 0.6920708330000001, 52: 0.6406708330000001, 53: 1.957070833, 54: 2.004470833, 55: 0.0, 56: 0.396570833, 57: 0.0, 58: 0.0, 59: 0.0, 60: 0.0, 61: 0.0, 62: 0.0, 63: 1.659970833, 64: 0.243570833, 65: 0.778571429, 66: 1.064570833, 67: 0.776470833, 68: 0.0, 69: 0.0, 70: 0.0, 71: 0.0, 72: 0.0, 73: 0.0, 74: 0.0, 75: 0.0, 76: 0.0, 77: 0.779070833, 78: 0.779270833, 79: 0.785270833, 80: 0.0, 81: 0.778070833, 82: 0.786570833, 83: 0.0, 84: 0.0, 85: 0.778070833, 86: 0.0, 87: 0.0, 88: 0.0, 89: 0.0, 90: 0.0, 91: 0.552770833, 92: 0.0, 93: 0.0, 94: 0.0, 95: 0.0];
charge = [0: 1.0, 1: 0.0, 2: 0.0, 3: 0.0, 4: 0.0, 5: 1.0, 6: 0.0, 7: 1.0, 8: 0.0, 9: 0.0, 10: 0.0, 11: 0.0, 12: 0.0, 13: 0.0, 14: 0.0, 15: 0.0, 16: 0.0, 17: 1.0, 18: 0.0, 19: 1.0, 20: 0.0, 21: 1.0, 22: 1.0, 23: 0.0, 24: 0.0, 25: 0.0, 26: 0.0, 27: 0.0, 28: 1.0, 29: 1.0, 30: 1.0, 31: 1.0, 32: 1.0, 33: 1.0, 34: 0.0, 35: 1.0, 36: 0.0, 37: 1.0, 38: 0.0, 39: 0.0, 40: 0.0, 41: 0.0, 42: 0.0, 43: 1.0, 44: 0.0, 45: 1.0, 46: 0.0, 47: 1.0, 48: 0.0, 49: 1.0, 50: 0.0, 51: 1.0, 52: 1.0, 53: 0.0, 54: 0.0, 55: 1.0, 56: 1.0, 57: 1.0, 58: 1.0, 59: 1.0, 60: 0.0, 61: 1.0, 62: 0.0, 63: 0.0, 64: 0.0, 65: 0.0, 66: 0.0, 67: 0.0, 68: 1.0, 69: 1.0, 70: 1.0, 71: 1.0, 72: 1.0, 73: 0.0, 74: 1.0, 75: 1.0, 76: 0.0, 77: 0.0, 78: 0.0, 79: 0.0, 80: 1.0, 81: 0.0, 82: 0.0, 83: 1.0, 84: 1.0, 85: 0.0, 86: 0.517397246, 87: 1.0, 88: 1.0, 89: 0.0, 90: 0.0, 91: 0.0, 92: 1.0, 93: 1.0, 94: 0.0, 95: 1.0];
discharge = [0: 0.0, 1: 0.0, 2: 1.0, 3: 0.0, 4: 1.0, 5: 0.0, 6: 1.0, 7: 0.0, 8: 1.0, 9: 1.0, 10: 1.0, 11: 1.0, 12: 1.0, 13: 0.521786349, 14: 1.0, 15: 0.0, 16: 1.0, 17: 0.0, 18: 0.0, 19: 0.0, 20: 1.0, 21: 0.0, 22: 0.0, 23: 1.0, 24: 0.0, 25: 0.0, 26: 1.0, 27: 0.0, 28: 0.0, 29: 0.0, 30: 0.0, 31: 0.0, 32: 0.0, 33: 0.0, 34: 1.0, 35: 0.0, 36: 1.0, 37: 0.0, 38: 0.0, 39: 0.0, 40: 1.0, 41: 0.0, 42: 0.13225463, 43: 0.0, 44: 1.0, 45: 0.0, 46: 0.131365741, 47: 0.0, 48: 1.0, 49: 0.0, 50: 1.0, 51: 0.0, 52: 0.0, 53: 1.0, 54: 1.0, 55: 0.0, 56: 0.0, 57: 0.0, 58: 0.0, 59: 0.0, 60: 0.0, 61: 0.0, 62: 0.0, 63: 1.0, 64: 0.0, 65: 1.0, 66: 1.0, 67: 1.0, 68: 0.0, 69: 0.0, 70: 0.0, 71: 0.0, 72: 0.0, 73: 0.132476852, 74: 0.0, 75: 0.0, 76: 0.0, 77: 1.0, 78: 1.0, 79: 1.0, 80: 0.0, 81: 1.0, 82: 1.0, 83: 0.0, 84: 0.0, 85: 1.0, 86: 0.0, 87: 0.0, 88: 0.0, 89: 0.0, 90: 0.0, 91: 1.0, 92: 0.0, 93: 0.0, 94: 0.0, 95: 0.0];
soc = [0: 11.3979, 1: 11.39562042, 2: 10.393341296, 3: 10.391262628, 4: 9.389184374999999, 5: 10.287306538, 6: 9.285249077, 7: 10.183392027, 8: 9.181355349, 9: 8.179519078, 10: 7.177883174, 11: 6.176447597, 12: 5.175212308, 13: 4.652390916, 14: 3.651460438, 15: 3.650730146, 16: 2.65, 17: 3.54947, 18: 3.548760106, 19: 4.448050354, 20: 3.447160744, 21: 4.346471312, 22: 5.245602017, 23: 4.244552897, 24: 4.243703987, 25: 4.242855246, 26: 3.242006675, 27: 3.241358273, 28: 4.140710002, 29: 5.03988186, 30: 5.938873883, 31: 6.837686109, 32: 7.736318571, 33: 8.634771307999999, 34: 7.633044353, 35: 8.531517744, 36: 7.529811441, 37: 8.428305479, 38: 8.426619818000001, 39: 8.424934494, 40: 7.423249507, 41: 7.421764857, 42: 7.288025874, 43: 8.186568269, 44: 7.184930955, 45: 8.083493968999999, 46: 7.95051153, 47: 8.848921427000001, 48: 7.847151643, 49: 8.745582213, 50: 7.743833096, 51: 8.642284330000001, 52: 9.540555873000001, 53: 8.538647762, 54: 7.536940032, 55: 8.435432644, 56: 9.333745557, 57: 10.231878808, 58: 11.129832433, 59: 12.027606466, 60: 12.025200945, 61: 12.922795905, 62: 12.920211345, 63: 11.917627303, 64: 11.915243778, 65: 10.912860729, 66: 9.910678157, 67: 8.908696021000001, 68: 9.806914281999999, 69: 10.704952899, 70: 11.602811909, 71: 12.500491346, 72: 13.397991248, 73: 13.262834798, 74: 14.160182231, 75: 15.057350194, 76: 15.054338724, 77: 14.051327857, 78: 13.048517591, 79: 12.045907888, 80: 12.943498706, 81: 11.940910006, 82: 10.938521824, 83: 11.83633412, 84: 12.733966853, 85: 11.73142006, 86: 12.194731297, 87: 13.09229235, 88: 13.989673892, 89: 13.986875957, 90: 13.984078582, 91: 12.981281766, 92: 13.87868551, 93: 14.775909773, 94: 14.772954591, 95: 15.67];
cost = [0: 0.934602743, 1: 0.206440928, 2: 0.0, 3: 0.179133698, 4: 0.0, 5: 0.901186513, 6: 0.0, 7: 0.908822763, 8: 0.0, 9: 0.0, 10: 0.0, 11: 0.0, 12: 0.0, 13: 0.0, 14: 0.0, 15: 0.164594278, 16: 0.0, 17: 0.899475993, 18: 0.165816078, 19: 0.894588793, 20: 0.0, 21: 0.900453433, 22: 0.900453433, 23: 0.0, 24: 0.260200217, 25: 0.443755497, 26: 0.0, 27: 0.304215417, 28: 1.593792702, 29: 1.187068462, 30: 1.020048622, 31: 0.657696462, 32: 0.472951582, 33: 1.435575902, 34: 0.0, 35: 1.447233982, 36: 0.0, 37: 0.118178165, 38: 0.125775417, 39: 0.0, 40: 0.0, 41: 0.0, 42: 0.0, 43: 0.118178165, 44: 0.0, 45: 1.448185662, 46: 0.0, 47: 0.166986462, 48: 0.0, 49: 1.429984782, 50: 0.0, 51: 0.118178165, 52: 0.118178165, 53: 0.0, 54: 0.0, 55: 0.290591963, 56: 0.118178165, 57: 0.984268913, 58: 1.009743443, 59: 0.995387293, 60: 0.146236537, 61: 1.455918062, 62: 0.130890697, 63: 0.0, 64: 0.0, 65: 0.0, 66: 0.0, 67: 0.0, 68: 1.380259502, 69: 1.444854782, 70: 1.454371582, 71: 1.437479262, 72: 1.449851102, 73: 0.0, 74: 1.450445902, 75: 1.460914382, 76: 0.153731017, 77: 0.0, 78: 0.0, 79: 0.0, 80: 1.453776782, 81: 0.0, 82: 0.0, 83: 1.441880782, 84: 1.453419902, 85: 0.0, 86: 0.821092957, 87: 1.445211662, 88: 0.7989829429999999, 89: 0.154392248, 90: 0.213221918, 91: 0.0, 92: 0.936618713, 93: 0.940467383, 94: 0.193184398, 95: 0.9027137629999999];
earn = [0: 0.0, 1: 0.0, 2: 0.332393776, 3: 0.0, 4: 0.351687201, 5: 0.0, 6: 0.346762437, 7: 0.0, 8: 0.34925131, 9: 0.368814673, 10: 0.373345073, 11: 0.376122594, 12: 0.368810125, 13: 0.128220809, 14: 0.3717118, 15: 0.0, 16: 0.348913859, 17: 0.0, 18: 0.0, 19: 0.0, 20: 0.361077922, 21: 0.0, 22: 0.0, 23: 0.367853828, 24: 0.0, 25: 0.0, 26: 0.362981897, 27: 0.0, 28: 0.0, 29: 0.0, 30: 0.0, 31: 0.0, 32: 0.0, 33: 0.0, 34: 0.468062988, 35: 0.0, 36: 0.622564246, 37: 0.041194161, 38: 0.0, 39: 0.07632897700000001, 40: 0.119536015, 41: 0.166710153, 42: 0.0, 43: 0.0, 44: 0.08595230500000001, 45: 0.0, 46: 0.0, 47: 0.0, 48: 0.05623085, 49: 0.0, 50: 0.078486628, 51: 0.024153272, 52: 0.034724359, 53: 0.107834603, 54: 0.12026825, 55: 0.0, 56: 0.056392372, 57: 0.0, 58: 0.0, 59: 0.0, 60: 0.0, 61: 0.0, 62: 0.0, 63: 0.781846263, 64: 0.136472738, 65: 0.444797517, 66: 0.645023468, 67: 0.444995435, 68: 0.0, 69: 0.0, 70: 0.0, 71: 0.0, 72: 0.0, 73: 0.0, 74: 0.0, 75: 0.0, 76: 0.0, 77: 0.634007844, 78: 0.632066573, 79: 0.623897677, 80: 0.0, 81: 0.588921814, 82: 0.577500306, 83: 0.0, 84: 0.0, 85: 0.537335718, 86: 0.0, 87: 0.0, 88: 0.0, 89: 0.0, 90: 0.0, 91: 0.349627552, 92: 0.0, 93: 0.0, 94: 0.0, 95: 0.0];
total_cost = 45.639838542;
total_earn = 13.262879387;
% _objective = 32.376959155;