production = [0: 0.0, 1: 0.0, 2: 0.0, 3: 0.0, 4: 0.0, 5: 0.0, 6: 0.0, 7: 0.0, 8: 0.0, 9: 0.0, 10: 0.0, 11: 0.0, 12: 0.0, 13: 0.0, 14: 0.0, 15: 0.0, 16: 0.0, 17: 0.0, 18: 0.0, 19: 0.0, 20: 0.0, 21: 0.0, 22: 0.002, 23: 0.0127, 24: 0.0475, 25: 0.0, 26: 0.1482, 27: 0.0, 28: 0.0, 29: 0.333, 30: 0.4783, 31: 0.0, 32: 0.8185, 33: 0.0, 34: 0.3912, 35: 0.0, 36: 1.2192, 37: 1.283, 38: 0.6085, 39: 0.0, 40: 0.0, 41: 0.0, 42: 1.7368, 43: 0.0, 44: 1.4155, 45: 0.8383, 46: 0.905, 47: 0.0, 48: 0.0, 49: 0.0, 50: 1.8355, 51: 1.8028, 52: 1.7512, 53: 0.0, 54: 1.6607, 55: 0.0, 56: 1.51, 57: 0.0, 58: 0.0, 59: 0.0, 60: 0.0, 61: 0.0, 62: 0.92, 63: 0.8705000000000001, 64: 0.3648, 65: 0.0, 66: 0.0, 67: 0.0, 68: 0.053, 69: 0.0238, 70: 0.0323, 71: 0.0, 72: 0.0, 73: 0.0, 74: 0.0, 75: 0.0003, 76: 0.0, 77: 0.0, 78: 0.0, 79: 0.0, 80: 0.0, 81: 0.0, 82: 0.0, 83: 0.0, 84: 0.0, 85: 0.0, 86: 0.0, 87: 0.0, 88: 0.0, 89: 0.0, 90: 0.0, 91: 0.0, 92: 0.0, 93: 0.0, 94: 0.0, 95: 0.0];
buy = [0: 1.336429167, 1: 1.337929167, 2: 1.338429167, 3: 0.0, 4: 1.282029167, 5: 0.281729167, 6: 0.0, 7: 1.294229167, 8: 0.561794122, 9: 0.0, 10: 0.0, 11: 0.0, 12: 0.0, 13: 1.243229167, 14: 0.0, 15: 0.0, 16: 0.0, 17: 0.278929167, 18: 0.0, 19: 0.0, 20: 1.271929167, 21: 0.0, 22: 0.278529167, 23: 1.254529167, 24: 1.218729167, 25: 1.373029167, 26: 1.108329167, 27: 0.0, 28: 1.240429167, 29: 0.0, 30: 0.0, 31: 0.0, 32: 0.0, 33: 0.107429167, 34: 0.7162291670000001, 35: 0.117229167, 36: 0.0, 37: 0.0, 38: 0.497229167, 39: 1.106429167, 40: 0.119229167, 41: 1.119429167, 42: 0.0, 43: 0.111529167, 44: 0.0, 45: 0.279729167, 46: 0.0, 47: 1.116529167, 48: 1.108529167, 49: 0.0, 50: 0.0, 51: 0.0, 52: 0.0, 53: 1.646429167, 54: 0.0, 55: 1.867729167, 56: 0.0, 57: 0.0, 58: 0.0, 59: 0.0, 60: 1.122929167, 61: 0.0, 62: 0.190029167, 63: 0.0, 64: 0.756429167, 65: 1.121429167, 66: 1.122429167, 67: 1.123529167, 68: 0.0, 69: 0.0, 70: 0.09092916700000001, 71: 1.123529167, 72: 1.120429167, 73: 0.119229167, 74: 0.0, 75: 1.128429167, 76: 0.0, 77: 0.120929167, 78: 0.0, 79: 1.114729167, 80: 1.122729167, 81: 1.121929167, 82: 0.0, 83: 0.0, 84: 0.122429167, 85: 1.121929167, 86: 0.0, 87: 1.115529167, 88: 0.0, 89: 1.252729167, 90: 1.349029167, 91: 0.0, 92: 0.0, 93: 1.346029167, 94: 0.0, 95: 1.284229167];
sell = [0: 0.0, 1: 0.0, 2: 0.0, 3: 0.606770833, 4: 0.0, 5: 0.0, 6: 0.606970833, 7: 0.0, 8: 0.0, 9: 0.651270833, 10: 0.659270833, 11: 0.649270833, 12: 0.648970833, 13: 0.0, 14: 0.656270833, 15: 0.6305708330000001, 16: 0.618970833, 17: 0.0, 18: 0.628571429, 19: 0.629070833, 20: 0.0, 21: 0.6194708330000001, 22: 0.0, 23: 0.0, 24: 0.0, 25: 0.0, 26: 0.0, 27: 0.644270833, 28: 0.0, 29: 0.101470833, 30: 1.141870833, 31: 0.784470833, 32: 0.701770833, 33: 0.0, 34: 0.0, 35: 0.0, 36: 0.101170833, 37: 2.068070833, 38: 0.0, 39: 0.0, 40: 0.0, 41: 0.0, 42: 0.617770833, 43: 0.0, 44: 0.309570833, 45: 0.0, 46: 1.686770833, 47: 0.0, 48: 0.0, 49: 0.797270833, 50: 2.624970833, 51: 2.592070833, 52: 0.6406708330000001, 53: 0.0, 54: 0.104470833, 55: 0.0, 56: 0.396570833, 57: 0.482270833, 58: 0.440570833, 59: 0.464070833, 60: 0.0, 61: 0.775470833, 62: 0.0, 63: 1.659970833, 64: 0.0, 65: 0.0, 66: 0.0, 67: 0.0, 68: 0.839070833, 69: 0.808570833, 70: 0.0, 71: 0.0, 72: 0.0, 73: 0.0, 74: 0.780070833, 75: 0.0, 76: 0.770770833, 77: 0.0, 78: 0.779270833, 79: 0.0, 80: 0.0, 81: 0.0, 82: 0.786570833, 83: 0.787270833, 84: 0.0, 85: 0.0, 86: 0.395219549, 87: 0.0, 88: 0.785570833, 89: 0.0, 90: 0.0, 91: 0.0, 92: 0.560270833, 93: 0.0, 94: 0.583770833, 95: 0.0];
charge = [0: 1.0, 1: 1.0, 2: 1.0, 3: 0.0, 4: 1.0, 5: 0.0, 6: 0.0, 7: 1.0, 8: 0.276564955, 9: 0.0, 10: 0.0, 11: 0.0, 12: 0.0, 13: 1.0, 14: 0.0, 15: 0.0, 16: 0.0, 17: 0.0, 18: 0.0, 19: 0.0, 20: 1.0, 21: 0.0, 22: 0.0, 23: 1.0, 24: 1.0, 25: 1.0, 26: 1.0, 27: 0.0, 28: 1.0, 29: 0.0, 30: 0.0, 31: 0.0, 32: 0.0, 33: 0.0, 34: 1.0, 35: 0.0, 36: 1.0, 37: 0.0, 38: 1.0, 39: 1.0, 40: 0.0, 41: 1.0, 42: 1.0, 43: 0.0, 44: 1.0, 45: 1.0, 46: 0.0, 47: 1.0, 48: 1.0, 49: 0.0, 50: 0.0, 51: 0.0, 52: 1.0, 53: 1.0, 54: 1.0, 55: 1.0, 56: 1.0, 57: 0.0, 58: 0.0, 59: 0.0, 60: 1.0, 61: 0.0, 62: 1.0, 63: 0.0, 64: 1.0, 65: 1.0, 66: 1.0, 67: 1.0, 68: 0.0, 69: 0.0, 70: 0.0, 71: 1.0, 72: 1.0, 73: 0.0, 74: 0.0, 75: 1.0, 76: 0.0, 77: 0.0, 78: 0.0, 79: 1.0, 80: 1.0, 81: 1.0, 82: 0.0, 83: 0.0, 84: 0.0, 85: 1.0, 86: 0.0, 87: 1.0, 88: 0.0, 89: 1.0, 90: 1.0, 91: 0.0, 92: 0.0, 93: 1.0, 94: 0.0, 95: 1.0];
discharge = [0: 0.0, 1: 0.0, 2: 0.0, 3: 1.0, 4: 0.0, 5: 0.0, 6: 1.0, 7: 0.0, 8: 0.0, 9: 1.0, 10: 1.0, 11: 1.0, 12: 1.0, 13: 0.0, 14: 1.0, 15: 1.0, 16: 1.0, 17: 0.0, 18: 1.0, 19: 1.0, 20: 0.0, 21: 1.0, 22: 0.0, 23: 0.0, 24: 0.0, 25: 0.0, 26: 0.0, 27: 1.0, 28: 0.0, 29: 0.0, 30: 1.0, 31: 1.0, 32: 0.0, 33: 0.0, 34: 0.0, 35: 0.0, 36: 0.0, 37: 1.0, 38: 0.0, 39: 0.0, 40: 0.0, 41: 0.0, 42: 0.0, 43: 0.0, 44: 0.0, 45: 0.0, 46: 1.0, 47: 0.0, 48: 0.0, 49: 1.0, 50: 1.0, 51: 1.0, 52: 0.0, 53: 0.0, 54: 0.0, 55: 0.0, 56: 0.0, 57: 1.0, 58: 1.0, 59: 1.0, 60: 0.0, 61: 1.0, 62: 0.0, 63: 1.0, 64: 0.0, 65: 0.0, 66: 0.0, 67: 0.0, 68: 1.0, 69: 1.0, 70: 0.0, 71: 0.0, 72: 0.0, 73: 0.0, 74: 1.0, 75: 0.0, 76: 1.0, 77: 0.0, 78: 1.0, 79: 0.0, 80: 0.0, 81: 0.0, 82: 1.0, 83: 1.0, 84: 0.0, 85: 0.0, 86: 0.574054128, 87: 0.0, 88: 1.0, 89: 0.0, 90: 0.0, 91: 0.385810185, 92: 1.0, 93: 0.0, 94: 1.0, 95: 0.0];
soc = [0: 11.3979, 1: 12.29562042, 2: 13.193161296, 3: 12.190522664, 4: 13.088084559, 5: 13.085466942, 6: 12.082849849, 7: 12.980433279, 8: 13.226745652, 9: 12.224100303, 10: 11.221655483, 11: 10.219411152, 12: 9.21736727, 13: 10.115523796, 14: 9.113500691, 15: 8.111677991000001, 16: 7.110055656, 17: 7.108633645, 18: 6.107211918, 19: 5.105990475, 20: 6.004969277, 21: 5.003768283, 22: 5.00276753, 23: 5.901766976, 24: 6.800586623, 25: 7.699226506, 26: 8.597686660000001, 27: 7.595967123, 28: 8.49444793, 29: 8.49274904, 30: 7.49105049, 31: 6.48955228, 32: 6.48825437, 33: 6.486956719, 34: 7.385659327, 35: 7.384182196, 36: 8.282705358999999, 37: 7.281048818, 38: 8.179592608, 39: 9.077956690000001, 40: 9.076141098000001, 41: 9.974325869999999, 42: 10.872331005, 43: 10.870156539, 44: 11.767982507, 45: 12.665628911, 46: 11.663095785, 47: 12.560763166, 48: 13.458251013, 49: 12.455559363, 50: 11.453068251, 51: 10.450777638, 52: 11.348687482, 53: 12.246417745, 54: 13.143968461, 55: 14.041339667, 56: 14.938531399, 57: 13.935543693, 58: 12.932756584, 59: 11.930170033, 60: 12.827783999, 61: 11.825218442, 62: 12.722853399, 63: 11.720308828, 64: 12.617964766, 65: 13.515441173, 66: 14.412738085, 67: 15.309855537, 68: 14.306793566, 69: 13.303932208, 70: 13.301271421, 71: 14.198611167, 72: 15.095771445, 73: 15.09275229, 74: 14.08973374, 75: 14.986915793, 76: 13.98391841, 77: 13.981121626, 78: 12.978325402, 79: 13.875729737, 80: 14.772954591, 81: 15.67, 82: 14.666866, 83: 13.663932627, 84: 13.66119984, 85: 14.5584676, 86: 13.981501778, 87: 14.878705478, 88: 13.875729737, 89: 14.772954591, 90: 15.67, 91: 15.281055815, 92: 14.277999604, 93: 15.175144004, 94: 14.172108975, 95: 15.069274553];
cost = [0: 0.934602743, 1: 0.935519093, 2: 0.935824543, 3: 0.0, 4: 0.901369783, 5: 0.172108348, 6: 0.0, 7: 0.908822763, 8: 0.375883968, 9: 0.0, 10: 0.0, 11: 0.0, 12: 0.0, 13: 0.877666863, 14: 0.0, 15: 0.0, 16: 0.0, 17: 0.170397828, 18: 0.0, 19: 0.0, 20: 0.895199693, 21: 0.0, 22: 0.170153468, 23: 0.884570033, 24: 1.567978382, 25: 1.751533662, 26: 1.436646542, 27: 0.0, 28: 1.593792702, 29: 0.0, 30: 0.0, 31: 0.0, 32: 0.0, 33: 0.127797737, 34: 0.970204382, 35: 0.139455817, 36: 0.118178165, 37: 0.0, 38: 0.709681982, 39: 1.434386302, 40: 0.141835017, 41: 1.449851102, 42: 0.118178165, 43: 0.132675097, 44: 0.118178165, 45: 0.450943982, 46: 0.0, 47: 1.446401262, 48: 1.436884462, 49: 0.0, 50: 0.0, 51: 0.0, 52: 0.118178165, 53: 1.123981743, 54: 0.118178165, 55: 1.259173913, 56: 0.118178165, 57: 0.0, 58: 0.0, 59: 0.0, 60: 1.454014702, 61: 0.0, 62: 0.344236862, 63: 0.0, 64: 1.018026302, 65: 1.452230302, 66: 1.453419902, 67: 1.454728462, 68: 0.0, 69: 0.0, 70: 0.108169337, 71: 1.454728462, 72: 1.451040702, 73: 0.141835017, 74: 0.0, 75: 1.460557502, 76: 0.0, 77: 0.143857337, 78: 0.0, 79: 1.444259982, 80: 1.453776782, 81: 1.452825102, 82: 0.0, 83: 0.0, 84: 0.145641737, 85: 1.452825102, 86: 0.0, 87: 1.445211662, 88: 0.0, 89: 0.883470413, 90: 0.942300083, 91: 0.0, 92: 0.0, 93: 0.940467383, 94: 0.0, 95: 0.9027137629999999];
earn = [0: 0.0, 1: 0.0, 2: 0.0, 3: 0.358176823, 4: 0.0, 5: 0.0, 6: 0.346762437, 7: 0.0, 8: 0.0, 9: 0.368814673, 10: 0.373345073, 11: 0.376122594, 12: 0.368810125, 13: 0.0, 14: 0.3717118, 15: 0.35564195, 16: 0.348913859, 17: 0.0, 18: 0.358913946, 19: 0.359199446, 20: 0.0, 21: 0.355824047, 22: 0.0, 23: 0.0, 24: 0.0, 25: 0.0, 26: 0.0, 27: 0.350483333, 28: 0.0, 29: 0.052683657, 30: 0.575046152, 31: 0.366975456, 32: 0.296077115, 33: 0.0, 34: 0.0, 35: 0.0, 36: 0.031474246, 37: 0.506884161, 38: 0.0, 39: 0.0, 40: 0.0, 41: 0.0, 42: 0.0533754, 43: 0.0, 44: 0.012042305, 45: 0.0, 46: 0.058362271, 47: 0.0, 48: 0.0, 49: 0.020808769, 50: 0.078486628, 51: 0.090463272, 52: 0.034724359, 53: 0.0, 54: 0.00626825, 55: 0.0, 56: 0.056392372, 57: 0.071279629, 58: 0.08053634799999999, 59: 0.099589601, 60: 0.0, 61: 0.282038742, 62: 0.0, 63: 0.781846263, 64: 0.0, 65: 0.0, 66: 0.0, 67: 0.0, 68: 0.526516948, 69: 0.520557903, 70: 0.0, 71: 0.0, 72: 0.0, 73: 0.0, 74: 0.62156044, 75: 0.0, 76: 0.629796848, 77: 0.0, 78: 0.632066573, 79: 0.0, 80: 0.0, 81: 0.0, 82: 0.577500306, 83: 0.5625837380000001, 84: 0.0, 85: 0.0, 86: 0.269816386, 87: 0.0, 88: 0.513527654, 89: 0.0, 90: 0.0, 91: 0.0, 92: 0.360702363, 93: 0.0, 94: 0.359369325, 95: 0.0];
total_cost = 49.044749106;
total_earn = 13.822073582;
