production = [0: 0.0, 1: 0.0, 2: 0.0, 3: 0.0, 4: 0.0, 5: 0.0, 6: 0.0, 7: 0.0, 8: 0.0, 9: 0.0, 10: 0.0, 11: 0.0, 12: 0.0, 13: 0.0, 14: 0.0, 15: 0.0, 16: 0.0, 17: 0.0, 18: 0.0, 19: 0.0, 20: 0.0, 21: 0.0, 22: 0.002, 23: 0.0, 24: 0.0, 25: 0.0828, 26: 0.1482, 27: 0.1865, 28: 0.0, 29: 0.333, 30: 0.0, 31: 0.662, 32: 0.0, 33: 0.0, 34: 0.0, 35: 0.0, 36: 1.2192, 37: 0.0, 38: 0.0, 39: 0.0, 40: 1.59, 41: 0.0, 42: 0.0, 43: 0.0, 44: 1.4155, 45: 0.8383, 46: 0.905, 47: 1.0755, 48: 1.0108, 49: 0.0, 50: 0.0, 51: 1.8028, 52: 0.0, 53: 1.7035, 54: 0.0, 55: 1.5855, 56: 0.0, 57: 1.43, 58: 1.32, 59: 0.0, 60: 0.0, 61: 0.7298, 62: 0.0, 63: 0.0, 64: 0.3648, 65: 0.0, 66: 0.0, 67: 0.0, 68: 0.053, 69: 0.0, 70: 0.0, 71: 0.0, 72: 0.001, 73: 0.0013, 74: 0.0, 75: 0.0003, 76: 0.0, 77: 0.0, 78: 0.0, 79: 0.0, 80: 0.0, 81: 0.0, 82: 0.0, 83: 0.0, 84: 0.0, 85: 0.0, 86: 0.0, 87: 0.0, 88: 0.0, 89: 0.0, 90: 0.0, 91: 0.0, 92: 0.0, 93: 0.0, 94: 0.0, 95: 0.0];
buy = [0: 0.0, 1: 0.0, 2: 0.338429167, 3: 0.0, 4: 0.0, 5: 0.0, 6: 0.0, 7: 0.294229167, 8: 1.285229167, 9: 0.0, 10: 0.240729167, 11: 1.250729167, 12: 1.251029167, 13: 0.0, 14: 0.0, 15: 0.269429167, 16: 1.281029167, 17: 0.999729995, 18: 1.271428571, 19: 0.270929167, 20: 0.0, 21: 1.280529167, 22: 0.0, 23: 0.0, 24: 0.0, 25: 1.290229167, 26: 0.108329167, 27: 0.06922916699999999, 28: 0.240429167, 29: 0.0, 30: 1.236429167, 31: 0.453529167, 32: 1.116729167, 33: 1.107429167, 34: 1.107429167, 35: 1.117229167, 36: 0.0, 37: 0.0, 38: 0.105729167, 39: 1.106429167, 40: 0.0, 41: 1.119429167, 42: 1.119029167, 43: 0.111529167, 44: 0.0, 45: 0.0, 46: 0.213229167, 47: 0.0, 48: 0.0, 49: 1.102729167, 50: 0.0, 51: 0.0, 52: 0.110529167, 53: 0.0, 54: 0.0, 55: 0.282229167, 56: 1.113429167, 57: 0.0, 58: 0.139429167, 59: 0.0, 60: 1.122929167, 61: 0.394729167, 62: 1.110029167, 63: 0.110529167, 64: 0.0, 65: 0.121428571, 66: 0.0, 67: 0.0, 68: 0.0, 69: 1.115229167, 70: 1.123229167, 71: 0.0, 72: 1.119429167, 73: 0.0, 74: 1.119929167, 75: 1.128429167, 76: 0.0, 77: 0.120929167, 78: 1.120729167, 79: 0.0, 80: 0.0, 81: 0.0, 82: 0.113429167, 83: 1.112729167, 84: 1.122429167, 85: 1.121929167, 86: 0.121428571, 87: 0.122492915, 88: 0.0, 89: 0.0, 90: 0.0, 91: 1.347229167, 92: 0.339729167, 93: 1.346029167, 94: 1.316229167, 95: 0.0];
sell = [0: 0.563570833, 1: 0.562070833, 2: 0.0, 3: 0.606770833, 4: 0.617970833, 5: 0.618270833, 6: 0.606970833, 7: 0.0, 8: 0.0, 9: 0.651270833, 10: 0.0, 11: 0.0, 12: 0.0, 13: 0.6567708330000001, 14: 0.656270833, 15: 0.0, 16: 0.0, 17: 0.0, 18: 0.0, 19: 0.0, 20: 0.628070833, 21: 0.0, 22: 0.6214708329999999, 23: 0.632770833, 24: 0.633770833, 25: 0.0, 26: 0.0, 27: 0.0, 28: 0.0, 29: 0.101470833, 30: 0.0, 31: 0.0, 32: 0.0, 33: 0.0, 34: 0.0, 35: 0.0, 36: 1.101170833, 37: 0.785070833, 38: 0.0, 39: 0.0, 40: 2.370770833, 41: 0.0, 42: 0.0, 43: 0.0, 44: 0.309570833, 45: 0.7202708330000001, 46: 0.0, 47: 0.958970833, 48: 1.802270833, 49: 0.0, 50: 0.789470833, 51: 0.6920708330000001, 52: 0.0, 53: 0.057070833, 54: 0.343770833, 55: 0.0, 56: 0.0, 57: 1.912270833, 58: 0.0, 59: 0.464070833, 60: 0.0, 61: 0.0, 62: 0.0, 63: 0.0, 64: 0.243570833, 65: 0.0, 66: 0.0, 67: 0.776470833, 68: 0.839070833, 69: 0.0, 70: 0.0, 71: 0.776470833, 72: 0.0, 73: 0.782070833, 74: 0.0, 75: 0.0, 76: 0.770770833, 77: 0.0, 78: 0.0, 79: 0.399325604, 80: 0.777270833, 81: 0.778070833, 82: 0.0, 83: 0.0, 84: 0.0, 85: 0.0, 86: 0.0, 87: 0.0, 88: 0.785570833, 89: 0.647270833, 90: 0.550970833, 91: 0.0, 92: 0.0, 93: 0.0, 94: 0.0, 95: 0.615770833];
charge = [0: 0.0, 1: 0.0, 2: 0.0, 3: 0.0, 4: 0.0, 5: 0.0, 6: 0.0, 7: 0.0, 8: 1.0, 9: 0.0, 10: 0.0, 11: 1.0, 12: 1.0, 13: 0.0, 14: 0.0, 15: 0.0, 16: 1.0, 17: 0.720800829, 18: 1.0, 19: 0.0, 20: 0.0, 21: 1.0, 22: 0.0, 23: 0.0, 24: 0.0, 25: 1.0, 26: 0.0, 27: 0.0, 28: 0.0, 29: 0.0, 30: 1.0, 31: 1.0, 32: 1.0, 33: 1.0, 34: 1.0, 35: 1.0, 36: 0.0, 37: 0.0, 38: 0.0, 39: 1.0, 40: 0.0, 41: 1.0, 42: 1.0, 43: 0.0, 44: 1.0, 45: 0.0, 46: 1.0, 47: 0.0, 48: 0.0, 49: 1.0, 50: 0.0, 51: 1.0, 52: 0.0, 53: 1.0, 54: 0.0, 55: 1.0, 56: 1.0, 57: 0.0, 58: 1.0, 59: 0.0, 60: 1.0, 61: 1.0, 62: 1.0, 63: 0.0, 64: 0.0, 65: 0.0, 66: 0.0, 67: 0.0, 68: 0.0, 69: 1.0, 70: 1.0, 71: 0.0, 72: 1.0, 73: 0.0, 74: 1.0, 75: 1.0, 76: 0.0, 77: 0.0, 78: 1.0, 79: 0.0, 80: 0.0, 81: 0.0, 82: 0.0, 83: 1.0, 84: 1.0, 85: 1.0, 86: 0.0, 87: 0.006963748, 88: 0.0, 89: 0.0, 90: 0.0, 91: 1.0, 92: 0.0, 93: 1.0, 94: 1.0, 95: 0.0];
discharge = [0: 1.0, 1: 1.0, 2: 0.0, 3: 1.0, 4: 1.0, 5: 1.0, 6: 1.0, 7: 0.0, 8: 0.0, 9: 1.0, 10: 0.0, 11: 0.0, 12: 0.0, 13: 1.0, 14: 1.0, 15: 0.0, 16: 0.0, 17: 0.0, 18: 0.0, 19: 0.0, 20: 1.0, 21: 0.0, 22: 1.0, 23: 1.0, 24: 1.0, 25: 0.0, 26: 0.0, 27: 0.0, 28: 0.0, 29: 0.0, 30: 0.0, 31: 0.0, 32: 0.0, 33: 0.0, 34: 0.0, 35: 0.0, 36: 0.0, 37: 1.0, 38: 0.0, 39: 0.0, 40: 1.0, 41: 0.0, 42: 0.0, 43: 0.0, 44: 0.0, 45: 0.0, 46: 0.0, 47: 0.0, 48: 1.0, 49: 0.0, 50: 1.0, 51: 0.0, 52: 0.0, 53: 0.0, 54: 1.0, 55: 0.0, 56: 0.0, 57: 1.0, 58: 0.0, 59: 1.0, 60: 0.0, 61: 0.0, 62: 0.0, 63: 0.0, 64: 0.0, 65: 0.0, 66: 0.136032407, 67: 1.0, 68: 1.0, 69: 0.0, 70: 0.0, 71: 1.0, 72: 0.0, 73: 1.0, 74: 0.0, 75: 0.0, 76: 1.0, 77: 0.0, 78: 0.0, 79: 0.5711719669999999, 80: 1.0, 81: 1.0, 82: 0.0, 83: 0.0, 84: 0.0, 85: 0.0, 86: 0.0, 87: 0.0, 88: 1.0, 89: 1.0, 90: 1.0, 91: 0.0, 92: 0.0, 93: 0.0, 94: 0.0, 95: 1.0];
soc = [0: 9.4979, 1: 8.49600042, 2: 8.494301220000001, 3: 7.49260236, 4: 6.491103839, 5: 5.489805618, 6: 4.488707657, 7: 4.487809916, 8: 5.386912354, 9: 4.385834971, 10: 4.384957804, 11: 5.284080813, 12: 6.183023997, 13: 5.181787392, 14: 4.180751034, 15: 4.179914884, 16: 5.079078901, 17: 5.726783831, 18: 6.625638474, 19: 6.624313347, 20: 5.622988484, 21: 6.521863886, 22: 5.520559514, 23: 4.519455402, 24: 3.518551511, 25: 4.4178478, 26: 4.416964231, 27: 4.416080838, 28: 4.415197622, 29: 4.414314582, 30: 5.313431719, 31: 6.212369033, 32: 7.111126559, 33: 8.009704334, 34: 8.908102393, 35: 9.806320771999999, 36: 9.804359507999999, 37: 8.802398635999999, 38: 8.800638157, 39: 9.698878028999999, 40: 8.696938253000001, 41: 9.595198866, 42: 10.493279826, 43: 10.49118117, 44: 11.389082934, 45: 11.386805117, 46: 12.284527756, 47: 12.282070851, 48: 11.279614436, 49: 12.177358514, 50: 11.174923042, 51: 12.072688057, 52: 12.07027352, 53: 12.967859465, 54: 11.965265893, 55: 12.86287284, 56: 13.760300265, 57: 12.757548205, 58: 13.654996696, 59: 12.652265696, 60: 13.549735243, 61: 14.447025296, 62: 15.344135891, 63: 15.341067064, 64: 15.33799885, 65: 15.334931251, 66: 15.195831857, 67: 14.192792691, 68: 13.189954132, 69: 14.087316141, 70: 14.984498678, 71: 13.981501778, 72: 14.878705478, 73: 13.875729737, 74: 14.772954591, 75: 15.67, 76: 14.666866, 77: 14.663932627, 78: 15.56099984, 79: 14.986715673, 80: 13.98371833, 81: 12.980921586, 82: 12.978325402, 83: 13.875729737, 84: 14.772954591, 85: 15.67, 86: 15.666866, 87: 15.67, 88: 14.666866, 89: 13.663932627, 90: 12.66119984, 91: 13.5586676, 92: 13.555955867, 93: 14.453244676, 94: 15.350354027, 95: 14.347283956];
cost = [0: 0.0, 1: 0.0, 2: 0.206746378, 3: 0.0, 4: 0.0, 5: 0.0, 6: 0.0, 7: 0.179744598, 8: 0.903324663, 9: 0.0, 10: 0.147061448, 11: 0.882248613, 12: 0.882431883, 13: 0.0, 14: 0.0, 15: 0.164594278, 16: 0.900758883, 17: 0.695917974, 18: 0.894894243, 19: 0.165510628, 20: 0.0, 21: 0.900453433, 22: 0.0, 23: 0.0, 24: 0.0, 25: 1.653034782, 26: 0.128868377, 27: 0.082355017, 28: 0.286014537, 29: 0.0, 30: 1.589034302, 31: 0.657696462, 32: 1.446639182, 33: 1.435575902, 34: 1.435575902, 35: 1.447233982, 36: 0.0, 37: 0.0, 38: 0.125775417, 39: 1.434386302, 40: 0.0, 41: 1.449851102, 42: 1.449375262, 43: 0.132675097, 44: 0.118178165, 45: 0.0, 46: 0.371835582, 47: 0.0, 48: 0.0, 49: 1.429984782, 50: 0.0, 51: 0.118178165, 52: 0.067522268, 53: 0.118178165, 54: 0.0, 55: 0.290591963, 56: 0.798372043, 57: 0.0, 58: 0.203355443, 59: 0.0, 60: 1.454014702, 61: 0.587747982, 62: 1.438668862, 63: 0.131485497, 64: 0.0, 65: 0.144452137, 66: 0.0, 67: 0.0, 68: 0.0, 69: 1.444854782, 70: 1.454371582, 71: 0.0, 72: 1.449851102, 73: 0.0, 74: 1.450445902, 75: 1.460557502, 76: 0.0, 77: 0.143857337, 78: 1.451397582, 79: 0.0, 80: 0.0, 81: 0.0, 82: 0.134935337, 83: 1.441880782, 84: 1.453419902, 85: 1.452825102, 86: 0.144452137, 87: 0.146540534, 88: 0.0, 89: 0.0, 90: 0.0, 91: 0.941200463, 92: 0.207540548, 93: 0.940467383, 94: 0.922262563, 95: 0.0];
earn = [0: 0.329407152, 1: 0.332745933, 2: 0.0, 3: 0.358176823, 4: 0.351687201, 5: 0.350868698, 6: 0.346762437, 7: 0.0, 8: 0.0, 9: 0.368814673, 10: 0.0, 11: 0.0, 12: 0.0, 13: 0.371995, 14: 0.3717118, 15: 0.0, 16: 0.0, 17: 0.0, 18: 0.0, 19: 0.0, 20: 0.361077922, 21: 0.0, 22: 0.360639525, 23: 0.360616098, 24: 0.354721535, 25: 0.0, 26: 0.0, 27: 0.0, 28: 0.0, 29: 0.052683657, 30: 0.0, 31: 0.0, 32: 0.0, 33: 0.0, 34: 0.0, 35: 0.0, 36: 0.342574246, 37: 0.192420861, 38: 0.0, 39: 0.0, 40: 0.362965015, 41: 0.0, 42: 0.0, 43: 0.0, 44: 0.012042305, 45: 0.026577994, 46: 0.0, 47: 0.031646037, 48: 0.05623085, 49: 0.0, 50: 0.023605178, 51: 0.024153272, 52: 0.0, 53: 0.003144603, 54: 0.02062625, 55: 0.0, 56: 0.0, 57: 0.282633629, 58: 0.0, 59: 0.099589601, 60: 0.0, 61: 0.0, 62: 0.0, 63: 0.0, 64: 0.136472738, 65: 0.0, 66: 0.0, 67: 0.444995435, 68: 0.526516948, 69: 0.0, 70: 0.0, 71: 0.53856017, 72: 0.0, 73: 0.612048634, 74: 0.0, 75: 0.0, 76: 0.629796848, 77: 0.0, 78: 0.0, 79: 0.317264192, 80: 0.611789873, 81: 0.588921814, 82: 0.0, 83: 0.0, 84: 0.0, 85: 0.0, 86: 0.0, 87: 0.0, 88: 0.513527654, 89: 0.423574033, 90: 0.355651673, 91: 0.0, 92: 0.0, 93: 0.0, 94: 0.0, 95: 0.359671744];
total_cost = 45.591204946;
total_earn = 12.208910051;
