production = [0: 0.0, 1: 0.0, 2: 0.0, 3: 0.0, 4: 0.0, 5: 0.0, 6: 0.0, 7: 0.0, 8: 0.0, 9: 0.0, 10: 0.0, 11: 0.0, 12: 0.0, 13: 0.0, 14: 0.0, 15: 0.0, 16: 0.0, 17: 0.0, 18: 0.0, 19: 0.0, 20: 0.0, 21: 0.0, 22: 0.0, 23: 0.0005, 24: 0.0, 25: 0.001, 26: 0.0, 27: 0.0, 28: 0.0, 29: 0.0, 30: 0.118, 31: 0.1752, 32: 0.0, 33: 0.0, 34: 0.5723, 35: 0.8383, 36: 0.9507, 37: 0.0, 38: 0.0, 39: 0.0, 40: 1.338, 41: 0.0, 42: 1.5545, 43: 0.0, 44: 1.257104167, 45: 0.0, 46: 0.0, 47: 0.0, 48: 0.0, 49: 1.9652, 50: 1.9638, 51: 1.9423, 52: 0.0, 53: 1.165804167, 54: 1.9552, 55: 0.0, 56: 1.8902, 57: 0.0, 58: 0.0, 59: 1.7477, 60: 0.0, 61: 0.0, 62: 1.4155, 63: 1.3905, 64: 0.0, 65: 1.185, 66: 0.9878, 67: 0.8117, 68: 0.0, 69: 0.0, 70: 0.5972, 71: 0.3782, 72: 0.0, 73: 0.0, 74: 0.1293, 75: 0.0, 76: 0.0445, 77: 0.0, 78: 0.0025, 79: 0.0, 80: 0.0003, 81: 0.0, 82: 0.0, 83: 0.0, 84: 0.0, 85: 0.0, 86: 0.0, 87: 0.0, 88: 0.0, 89: 0.0, 90: 0.0, 91: 0.0, 92: 0.0, 93: 0.0, 94: 0.0, 95: 0.0, 96: 0.0, 97: 0.0, 98: 0.0, 99: 0.0, 100: 0.0, 101: 0.0, 102: 0.0, 103: 0.0, 104: 0.0, 105: 0.0, 106: 0.0, 107: 0.0, 108: 0.0, 109: 0.0, 110: 0.0, 111: 0.0, 112: 0.0, 113: 0.0, 114: 0.0, 115: 0.0, 116: 0.0, 117: 0.0, 118: 0.0, 119: 0.0003, 120: 0.0, 121: 0.0, 122: 0.0035, 123: 0.0, 124: 0.0095, 125: 0.046, 126: 0.0853, 127: 0.1445, 128: 0.0, 129: 0.1415, 130: 0.2617, 131: 0.0, 132: 0.0, 133: 0.272, 134: 0.179, 135: 0.0, 136: 0.652, 137: 0.0, 138: 0.0, 139: 1.0877, 140: 0.0, 141: 0.585, 142: 0.703, 143: 0.0, 144: 0.8087, 145: 0.9323, 146: 0.0, 147: 0.6262, 148: 0.0, 149: 0.0, 150: 2.2435, 151: 0.3625, 152: 0.6835, 153: 0.0, 154: 0.0, 155: 0.0, 156: 0.0, 157: 0.0, 158: 0.6565, 159: 0.6342, 160: 0.0, 161: 0.0, 162: 0.863, 163: 0.9183, 164: 0.8155, 165: 0.6222, 166: 0.5403, 167: 0.4245, 168: 0.0, 169: 0.0, 170: 0.0, 171: 0.0, 172: 0.042, 173: 0.0, 174: 0.0, 175: 0.0, 176: 0.0, 177: 0.0, 178: 0.0, 179: 0.0, 180: 0.0, 181: 0.0, 182: 0.0, 183: 0.0, 184: 0.0, 185: 0.0, 186: 0.0, 187: 0.0, 188: 0.0, 189: 0.0, 190: 0.0, 191: 0.0];
buy = [0: 0.0, 1: 0.0, 2: 1.321304167, 3: 0.280804167, 4: 0.0, 5: 1.296404167, 6: 0.292404167, 7: 0.0, 8: 1.282104167, 9: 0.0, 10: 1.291104167, 11: 1.295904167, 12: 0.294604167, 13: 0.284104167, 14: 1.288404167, 15: 0.297104167, 16: 0.0, 17: 0.298604167, 18: 1.900304167, 19: 1.263404167, 20: 0.0, 21: 1.278487553, 22: 1.345404167, 23: 1.291604167, 24: 0.0, 25: 0.248604167, 26: 0.249804167, 27: 0.0, 28: 0.0, 29: 1.112404167, 30: 0.000104167, 31: 0.0, 32: 1.115804167, 33: 1.111904167, 34: 0.0, 35: 0.0, 36: 0.0, 37: 0.0, 38: 0.111604167, 39: 0.110904167, 40: 0.0, 41: 1.120104167, 42: 0.0, 43: 1.605304167, 44: 0.0, 45: 1.188104167, 46: 0.0, 47: 0.0, 48: 1.164804167, 49: 0.0, 50: 0.0, 51: 0.0, 52: 0.171604167, 53: 0.0, 54: 0.0, 55: 0.0, 56: 0.0, 57: 1.111904167, 58: 1.104104167, 59: 0.0, 60: 0.0, 61: 0.0, 62: 0.0, 63: 0.0, 64: 0.165104167, 65: 0.0, 66: 0.0, 67: 0.0, 68: 1.109904167, 69: 1.112604167, 70: 0.0, 71: 0.0, 72: 1.117104167, 73: 0.109304167, 74: 0.0, 75: 0.0, 76: 1.074904167, 77: 0.0, 78: 0.095604167, 79: 1.099104167, 80: 0.0, 81: 0.106604167, 82: 1.123604167, 83: 0.282404167, 84: 1.337804167, 85: 0.0, 86: 0.354604167, 87: 1.356604167, 88: 0.0, 89: 1.231404167, 90: 0.0, 91: 0.0, 92: 0.232604167, 93: 1.117104167, 94: 1.118404167, 95: 0.0, 96: 1.377304167, 97: 1.351904167, 98: 1.341604167, 99: 0.0, 100: 1.277604167, 101: 1.258404167, 102: 1.258404167, 103: 0.250904167, 104: 0.0, 105: 1.239304167, 106: 0.0, 107: 0.239604167, 108: 0.0, 109: 1.233604167, 110: 1.244804167, 111: 0.242804167, 112: 1.242104167, 113: 0.0, 114: 0.0, 115: 0.306604167, 116: 1.123604167, 117: 1.116604167, 118: 0.114104167, 119: 0.0, 120: 1.123304167, 121: 1.124304167, 122: 1.118604167, 123: 0.109304167, 124: 0.0, 125: 0.0, 126: 1.033604167, 127: 0.0, 128: 0.0, 129: 0.0, 130: 0.855904167, 131: 1.117104167, 132: 1.115604167, 133: 0.0, 134: 0.929604167, 135: 0.116604167, 136: 0.465104167, 137: 0.115304167, 138: 0.0, 139: 0.028104167, 140: 1.116104167, 141: 0.0, 142: 0.0, 143: 1.115804167, 144: 0.850404167, 145: 0.0, 146: 0.0, 147: 0.0, 148: 1.640904167, 149: 0.0, 150: 0.0, 151: 1.054104167, 152: 0.491604167, 153: 1.793604167, 154: 1.926604167, 155: 1.903304167, 156: 0.0, 157: 0.0, 158: 0.0, 159: 0.0, 160: 0.182304167, 161: 0.187604167, 162: 0.0, 163: 0.0, 164: 0.346904167, 165: 0.0, 166: 0.658604167, 167: 0.722904167, 168: 1.175104167, 169: 0.0, 170: 0.155604167, 171: 1.205604167, 172: 0.0, 173: 1.124604167, 174: 1.117104167, 175: 0.0, 176: 1.106604167, 177: 1.187104167, 178: 0.0, 179: 0.0, 180: 0.203104167, 181: 1.201604167, 182: 0.0, 183: 0.0, 184: 0.0, 185: 1.363604167, 186: 0.0, 187: 0.0, 188: 1.268304167, 189: 1.255104167, 190: 0.260604167, 191: 0.0];
sell = [0: 0.569695833, 1: 0.609095833, 2: 0.0, 3: 0.0, 4: 0.602895833, 5: 0.0, 6: 0.0, 7: 0.6138958329999999, 8: 0.0, 9: 0.6118958329999999, 10: 0.0, 11: 0.0, 12: 0.0, 13: 0.0, 14: 0.0, 15: 0.0, 16: 0.602695833, 17: 0.0, 18: 0.0, 19: 0.0, 20: 0.563895833, 21: 0.0, 22: 0.0, 23: 0.0, 24: 0.650395833, 25: 0.0, 26: 0.0, 27: 0.6501958329999999, 28: 0.791395833, 29: 0.0, 30: 0.0, 31: 0.959095833, 32: 0.0, 33: 0.0, 34: 1.362195833, 35: 0.720895833, 36: 0.833295833, 37: 0.782395833, 38: 0.0, 39: 0.0, 40: 2.128395833, 41: 0.0, 42: 0.432895833, 43: 0.0, 44: 0.0, 45: 0.0, 46: 0.7166958329999999, 47: 0.0, 48: 0.0, 49: 0.807595833, 50: 2.692195833, 51: 0.7731958330000001, 52: 0.0, 53: 0.0, 54: 2.689395833, 55: 0.788395833, 56: 2.678295833, 57: 0.0, 58: 0.0, 59: 2.542095833, 60: 0.291395833, 61: 0.012695833, 62: 1.454595833, 63: 1.196595833, 64: 0.0, 65: 1.075395833, 66: 1.767895833, 67: 1.591295833, 68: 0.0, 69: 0.0, 70: 1.384795833, 71: 1.162895833, 72: 0.0, 73: 0.0, 74: 0.018695833, 75: 0.789895833, 76: 0.0, 77: 0.230320318, 78: 0.0, 79: 0.0, 80: 0.803695833, 81: 0.0, 82: 0.0, 83: 0.0, 84: 0.0, 85: 0.552895833, 86: 0.0, 87: 0.0, 88: 0.637895833, 89: 0.0, 90: 0.661695833, 91: 0.666595833, 92: 0.0, 93: 0.0, 94: 0.0, 95: 0.0, 96: 0.0, 97: 0.0, 98: 0.0, 99: 0.314954796, 100: 0.0, 101: 0.0, 102: 0.0, 103: 0.0, 104: 0.646395833, 105: 0.0, 106: 0.660195833, 107: 0.0, 108: 0.0, 109: 0.0, 110: 0.0, 111: 0.0, 112: 0.0, 113: 0.662695833, 114: 0.668095833, 115: 0.0, 116: 0.0, 117: 0.0, 118: 0.0, 119: 0.787395833, 120: 0.0, 121: 0.0, 122: 0.0, 123: 0.0, 124: 0.800895833, 125: 0.829195833, 126: 0.0, 127: 0.927895833, 128: 0.792395833, 129: 0.932195833, 130: 0.0, 131: 0.0, 132: 0.0, 133: 1.063195833, 134: 0.0, 135: 0.0, 136: 0.0, 137: 0.0, 138: 0.790395833, 139: 0.0, 140: 0.0, 141: 1.368395833, 142: 1.485595833, 143: 0.0, 144: 0.0, 145: 0.0, 146: 0.755395833, 147: 0.897295833, 148: 0.0, 149: 0.250695833, 150: 1.094695833, 151: 0.0, 152: 0.0, 153: 0.0, 154: 0.0, 155: 0.0, 156: 0.461195833, 157: 0.457195833, 158: 0.211695833, 159: 1.052795833, 160: 0.0, 161: 0.0, 162: 1.595195833, 163: 0.761195833, 164: 0.0, 165: 0.878595833, 166: 0.0, 167: 0.0, 168: 0.0, 169: 0.741095833, 170: 0.0, 171: 0.0, 172: 0.809895833, 173: 0.0, 174: 0.0, 175: 0.793895833, 176: 0.0, 177: 0.0, 178: 0.7348958330000001, 179: 0.732695833, 180: 0.0, 181: 0.0, 182: 0.739095833, 183: 0.715895833, 184: 0.512395833, 185: 0.0, 186: 0.568195833, 187: 0.608095833, 188: 0.0, 189: 0.0, 190: 0.0, 191: 0.655695833];
charge = [0: 0.0, 1: 0.0, 2: 1.0, 3: 0.0, 4: 0.0, 5: 1.0, 6: 0.0, 7: 0.0, 8: 1.0, 9: 0.0, 10: 1.0, 11: 1.0, 12: 0.0, 13: 0.0, 14: 1.0, 15: 0.0, 16: 0.0, 17: 0.0, 18: 1.0, 19: 1.0, 20: 0.0, 21: 0.927083387, 22: 1.0, 23: 1.0, 24: 0.0, 25: 0.0, 26: 0.0, 27: 0.0, 28: 0.0, 29: 1.0, 30: 0.0, 31: 0.0, 32: 1.0, 33: 1.0, 34: 0.0, 35: 0.0, 36: 0.0, 37: 0.0, 38: 0.0, 39: 0.0, 40: 0.0, 41: 1.0, 42: 1.0, 43: 1.0, 44: 1.0, 45: 1.0, 46: 0.0, 47: 0.0, 48: 1.0, 49: 1.0, 50: 0.0, 51: 1.0, 52: 0.0, 53: 1.0, 54: 0.0, 55: 0.0, 56: 0.0, 57: 1.0, 58: 1.0, 59: 0.0, 60: 0.0, 61: 0.0, 62: 0.0, 63: 0.0, 64: 0.0, 65: 0.0, 66: 0.0, 67: 0.0, 68: 1.0, 69: 1.0, 70: 0.0, 71: 0.0, 72: 1.0, 73: 0.0, 74: 0.0, 75: 0.0, 76: 1.0, 77: 0.0, 78: 0.0, 79: 1.0, 80: 0.0, 81: 0.0, 82: 1.0, 83: 0.0, 84: 1.0, 85: 0.0, 86: 0.0, 87: 1.0, 88: 0.0, 89: 1.0, 90: 0.0, 91: 0.0, 92: 0.0, 93: 1.0, 94: 1.0, 95: 0.0, 96: 1.0, 97: 1.0, 98: 1.0, 99: 0.0, 100: 1.0, 101: 1.0, 102: 1.0, 103: 0.0, 104: 0.0, 105: 1.0, 106: 0.0, 107: 0.0, 108: 0.0, 109: 1.0, 110: 1.0, 111: 0.0, 112: 1.0, 113: 0.0, 114: 0.0, 115: 0.0, 116: 1.0, 117: 1.0, 118: 0.0, 119: 0.0, 120: 1.0, 121: 1.0, 122: 1.0, 123: 0.0, 124: 0.0, 125: 0.0, 126: 1.0, 127: 0.0, 128: 0.0, 129: 0.0, 130: 1.0, 131: 1.0, 132: 1.0, 133: 0.0, 134: 1.0, 135: 0.0, 136: 1.0, 137: 0.0, 138: 0.0, 139: 1.0, 140: 1.0, 141: 0.0, 142: 0.0, 143: 1.0, 144: 1.0, 145: 0.791195833, 146: 0.0, 147: 0.0, 148: 1.0, 149: 0.0, 150: 1.0, 151: 1.0, 152: 1.0, 153: 1.0, 154: 1.0, 155: 1.0, 156: 0.0, 157: 0.0, 158: 0.0, 159: 0.0, 160: 0.0, 161: 0.0, 162: 0.0, 163: 0.0, 164: 0.0, 165: 0.0, 166: 1.0, 167: 1.0, 168: 1.0, 169: 0.0, 170: 0.0, 171: 1.0, 172: 0.0, 173: 1.0, 174: 1.0, 175: 0.0, 176: 1.0, 177: 1.0, 178: 0.0, 179: 0.0, 180: 0.0, 181: 1.0, 182: 0.0, 183: 0.0, 184: 0.0, 185: 1.0, 186: 0.0, 187: 0.0, 188: 1.0, 189: 1.0, 190: 0.0, 191: 0.0];
discharge = [0: 1.0, 1: 1.0, 2: 0.0, 3: 0.0, 4: 1.0, 5: 0.0, 6: 0.0, 7: 1.0, 8: 0.0, 9: 1.0, 10: 0.0, 11: 0.0, 12: 0.0, 13: 0.0, 14: 0.0, 15: 0.0, 16: 1.0, 17: 0.0, 18: 0.0, 19: 0.0, 20: 1.0, 21: 0.0, 22: 0.0, 23: 0.0, 24: 1.0, 25: 0.0, 26: 0.0, 27: 1.0, 28: 1.0, 29: 0.0, 30: 0.0, 31: 1.0, 32: 0.0, 33: 0.0, 34: 1.0, 35: 0.0, 36: 0.0, 37: 1.0, 38: 0.0, 39: 0.0, 40: 1.0, 41: 0.0, 42: 0.0, 43: 0.0, 44: 0.0, 45: 0.0, 46: 1.0, 47: 0.192337963, 48: 0.0, 49: 0.0, 50: 1.0, 51: 0.0, 52: 0.0, 53: 0.0, 54: 1.0, 55: 1.0, 56: 1.0, 57: 0.0, 58: 0.0, 59: 1.0, 60: 1.0, 61: 1.0, 62: 1.0, 63: 0.0, 64: 0.0, 65: 0.0, 66: 1.0, 67: 1.0, 68: 0.0, 69: 0.0, 70: 1.0, 71: 1.0, 72: 0.0, 73: 0.0, 74: 0.0, 75: 1.0, 76: 0.0, 77: 0.387471649, 78: 0.0, 79: 0.0, 80: 1.0, 81: 0.0, 82: 0.0, 83: 0.0, 84: 0.0, 85: 1.0, 86: 0.0, 87: 0.0, 88: 1.0, 89: 0.0, 90: 1.0, 91: 1.0, 92: 0.0, 93: 0.0, 94: 0.0, 95: 0.450115741, 96: 0.0, 97: 0.0, 98: 0.0, 99: 0.66062107, 100: 0.0, 101: 0.0, 102: 0.0, 103: 0.0, 104: 1.0, 105: 0.0, 106: 1.0, 107: 0.0, 108: 0.256560185, 109: 0.0, 110: 0.0, 111: 0.0, 112: 0.0, 113: 1.0, 114: 1.0, 115: 0.0, 116: 0.0, 117: 0.0, 118: 0.0, 119: 1.0, 120: 0.0, 121: 0.0, 122: 0.0, 123: 0.0, 124: 1.0, 125: 1.0, 126: 0.0, 127: 1.0, 128: 1.0, 129: 1.0, 130: 0.0, 131: 0.0, 132: 0.0, 133: 1.0, 134: 0.0, 135: 0.0, 136: 0.0, 137: 0.0, 138: 1.0, 139: 0.0, 140: 0.0, 141: 1.0, 142: 1.0, 143: 0.0, 144: 0.0, 145: 0.0, 146: 1.0, 147: 1.0, 148: 0.0, 149: 1.0, 150: 0.0, 151: 0.0, 152: 0.0, 153: 0.0, 154: 0.0, 155: 0.0, 156: 1.0, 157: 1.0, 158: 0.0, 159: 1.0, 160: 0.0, 161: 0.0, 162: 1.0, 163: 0.0, 164: 0.0, 165: 1.0, 166: 0.0, 167: 0.0, 168: 0.0, 169: 1.0, 170: 0.0, 171: 0.0, 172: 1.0, 173: 0.0, 174: 0.0, 175: 1.0, 176: 0.0, 177: 0.0, 178: 1.0, 179: 1.0, 180: 0.0, 181: 0.0, 182: 1.0, 183: 1.0, 184: 1.0, 185: 0.0, 186: 1.0, 187: 1.0, 188: 0.0, 189: 0.0, 190: 0.0, 191: 1.0];
soc = [0: 4.79884, 1: 3.797880232, 2: 4.697120656, 3: 4.696181232, 4: 3.695241996, 5: 4.594502947, 6: 4.593584047, 7: 3.59266533, 8: 4.491946797, 9: 3.491048407, 10: 4.390350198, 11: 5.289472128, 12: 5.288414233, 13: 5.28735655, 14: 6.186299079, 15: 6.185061819, 16: 5.183824807, 17: 5.182788042, 18: 6.081751484, 19: 6.980535134, 20: 5.979139027, 21: 6.812318247, 22: 7.710955784, 23: 8.609413591999999, 24: 7.60769171, 25: 7.606170171, 26: 7.604648937, 27: 6.603128007, 28: 5.601807382, 29: 6.50068702, 30: 6.499386883, 31: 5.498087006, 32: 6.396987388, 33: 7.295707991, 34: 6.294248849, 35: 6.292989999, 36: 6.291731401, 37: 5.290473055, 38: 5.28941496, 39: 5.288357077, 40: 4.287299406, 41: 5.186441946, 42: 6.085404658, 43: 6.984187577, 44: 7.882790739, 45: 8.781214180999999, 46: 7.779457938, 47: 7.585564084, 48: 8.484046971, 49: 9.382350162, 50: 8.380473692000001, 51: 9.278797597000001, 52: 9.276941837000001, 53: 10.175086449, 54: 9.173051431999999, 55: 8.171216821, 56: 7.169582578, 57: 8.068148661, 58: 8.966535031999999, 59: 7.964741725, 60: 6.963148776, 61: 5.961756147, 62: 4.960563795, 63: 4.959571683, 64: 4.958579768, 65: 4.957588052, 66: 3.956596535, 67: 2.955805215, 68: 3.855214054, 69: 4.754443012, 70: 3.753492123, 71: 2.752741425, 72: 3.652190876, 73: 3.651460438, 74: 3.650730146, 75: 2.65, 76: 3.54947, 77: 3.161288457, 78: 3.160656199, 79: 4.060024068, 80: 3.059212063, 81: 3.058600221, 82: 3.957988501, 83: 3.957196903, 84: 4.856405464, 85: 3.855434182, 86: 3.854663096, 87: 4.753892163, 88: 3.752941385, 89: 4.652190796, 90: 3.651260358, 91: 2.650530106, 92: 2.65, 93: 3.54947, 94: 4.448760106, 95: 3.997754613, 96: 4.896955062, 97: 5.795975671, 98: 6.694816476, 99: 6.032856443, 100: 6.931649872, 101: 7.830263542, 102: 8.728697489, 103: 8.72695175, 104: 7.725206359, 105: 8.623661318, 106: 7.621936586, 107: 7.620412198, 108: 7.362327931, 109: 8.260855465000001, 110: 9.159203293999999, 111: 9.157371453, 112: 10.055539979, 113: 9.053528870999999, 114: 8.051718165, 115: 8.050107821999999, 116: 8.9484978, 117: 9.846708101000001, 118: 9.844738759, 119: 8.842769811, 120: 9.741001257000001, 121: 10.639053057, 122: 11.536925246, 123: 11.534617861, 124: 10.532310938, 125: 9.530204476, 126: 10.428298435, 127: 9.426212775, 128: 8.424327532, 129: 7.422642667, 130: 8.321158137999999, 131: 9.219493907, 132: 10.117650008, 133: 9.115626477999999, 134: 10.013803353, 135: 10.011800592, 136: 10.909798232, 137: 10.907616272, 138: 9.905434748999999, 139: 10.803453662, 140: 11.701292971, 141: 10.698952713, 142: 9.696812921999999, 143: 10.59487356, 144: 11.492754585, 145: 12.202532284, 146: 11.200091777, 147: 10.197851759, 148: 11.095812189, 149: 10.093593026, 150: 10.991574308, 151: 11.889375993, 152: 12.786998118, 153: 13.684440718, 154: 14.58170383, 155: 15.478787489, 156: 14.475691732, 157: 13.472796593, 158: 13.470102034, 159: 12.467408014, 160: 12.464914532, 161: 12.462421549, 162: 11.459929065, 163: 11.457637079, 164: 11.455345552, 165: 10.453054482, 166: 11.350963871, 167: 12.248693679, 168: 13.14624394, 169: 12.143614691, 170: 12.141185968, 171: 13.038757731, 172: 12.03614998, 173: 12.93374275, 174: 13.831156001, 175: 12.82838977, 176: 13.725824092, 177: 14.623078927, 178: 13.620154311, 179: 12.61743028, 180: 12.614906794, 181: 13.512383813, 182: 12.509681336, 183: 11.5071794, 184: 10.504877964, 185: 11.402776988, 186: 10.400496433, 187: 9.398416334, 188: 10.29653665, 189: 11.194477343, 190: 11.192238448, 191: 10.19];
cost = [0: 0.0, 1: 0.0, 2: 0.925362881, 3: 0.171543265, 4: 0.0, 5: 0.910151471, 6: 0.178629705, 7: 0.0, 8: 0.901415601, 9: 0.0, 10: 0.906913701, 11: 0.909846021, 12: 0.179973685, 13: 0.173559235, 14: 0.905264271, 15: 0.181500935, 16: 0.0, 17: 0.182417285, 18: 1.279073981, 19: 0.889991771, 20: 0.0, 21: 0.89058906, 22: 0.940085571, 23: 0.9072191509999999, 24: 0.0, 25: 0.295739517, 26: 0.297167037, 27: 0.0, 28: 0.0, 29: 1.441494162, 30: 0.000123917, 31: 0.0, 32: 1.445538802, 33: 1.440899362, 34: 0.0, 35: 0.0, 36: 0.0, 37: 0.0, 38: 0.132764317, 39: 0.131931597, 40: 0.0, 41: 1.450654082, 42: 0.118178165, 43: 2.027848002, 44: 0.118178165, 45: 1.531546882, 46: 0.0, 47: 0.0, 48: 1.503829202, 49: 0.118178165, 50: 0.0, 51: 0.118178165, 52: 0.104832985, 53: 0.118178165, 54: 0.0, 55: 0.0, 56: 0.0, 57: 0.797440421, 58: 0.792675401, 59: 0.0, 60: 0.0, 61: 0.0, 62: 0.0, 63: 0.0, 64: 0.196407917, 65: 0.0, 66: 0.0, 67: 0.0, 68: 1.438520162, 69: 1.441732082, 70: 0.0, 71: 0.0, 72: 1.447085282, 73: 0.130028237, 74: 0.0, 75: 0.0, 76: 1.396884162, 77: 0.0, 78: 0.113730717, 79: 1.425672482, 80: 0.0, 81: 0.126816317, 82: 1.454817682, 83: 0.335947997, 84: 1.709630002, 85: 0.0, 86: 0.421837117, 87: 1.731994482, 88: 0.0, 89: 0.870442971, 90: 0.0, 91: 0.0, 92: 0.142097885, 93: 0.8006171010000001, 94: 0.801411271, 95: 0.0, 96: 0.9595732809999999, 97: 0.944056421, 98: 0.937764151, 99: 0.0, 100: 0.898666551, 101: 0.886937271, 102: 0.886937271, 103: 0.153277355, 104: 0.0, 105: 0.875269081, 106: 0.0, 107: 0.146374185, 108: 0.0, 109: 0.871786951, 110: 0.878629031, 111: 0.148329065, 112: 0.8769796010000001, 113: 0.0, 114: 0.0, 115: 0.187304485, 116: 0.804587951, 117: 0.800311651, 118: 0.06970623500000001, 119: 0.0, 120: 1.454460802, 121: 1.455650402, 122: 1.448869682, 123: 0.130028237, 124: 0.0, 125: 0.0, 126: 1.347753682, 127: 0.0, 128: 0.0, 129: 0.0, 130: 1.136361762, 131: 1.447085282, 132: 1.445300882, 133: 0.0, 134: 1.224035282, 135: 0.138712317, 136: 0.671466082, 137: 0.137165837, 138: 0.0, 139: 0.151610882, 140: 1.445895682, 141: 0.0, 142: 0.0, 143: 1.445538802, 144: 1.129818962, 145: 0.09350207200000001, 146: 0.0, 147: 0.0, 148: 1.120606521, 149: 0.0, 150: 0.118178165, 151: 0.762130401, 152: 0.418499151, 153: 1.213890951, 154: 1.295140651, 155: 1.280906681, 156: 0.0, 157: 0.0, 158: 0.0, 159: 0.0, 160: 0.216869037, 161: 0.223173917, 162: 0.0, 163: 0.0, 164: 0.412677197, 165: 0.0, 166: 0.901653682, 167: 0.978144962, 168: 1.516082082, 169: 0.0, 170: 0.185106717, 171: 1.552364882, 172: 0.0, 173: 1.456007282, 174: 1.447085282, 175: 0.0, 176: 1.434594482, 177: 1.530357282, 178: 0.0, 179: 0.0, 180: 0.241612717, 181: 1.547606482, 182: 0.0, 183: 0.0, 184: 0.0, 185: 0.951203951, 186: 0.0, 187: 0.0, 188: 0.892985181, 189: 0.884921301, 190: 0.159203085, 191: 0.0];
earn = [0: 0.397248905, 1: 0.404866, 2: 0.0, 3: 0.0, 4: 0.384707831, 5: 0.0, 6: 0.0, 7: 0.374476458, 8: 0.0, 9: 0.3671375, 10: 0.0, 11: 0.0, 12: 0.0, 13: 0.0, 14: 0.0, 15: 0.0, 16: 0.35010601, 17: 0.0, 18: 0.0, 19: 0.0, 20: 0.345837315, 21: 0.0, 22: 0.0, 23: 0.0, 24: 0.483374183, 25: 0.0, 26: 0.0, 27: 0.533095564, 28: 0.683053744, 29: 0.0, 30: 0.0, 31: 0.794610898, 32: 0.0, 33: 0.0, 34: 1.008706015, 35: 0.47067289, 36: 0.466145689, 37: 0.408880063, 38: 0.0, 39: 0.0, 40: 0.930747498, 41: 0.0, 42: 0.152552492, 43: 0.0, 44: 0.0, 45: 0.0, 46: 0.140615723, 47: 0.0, 48: 0.0, 49: 0.094650232, 50: 0.31633301, 51: 0.090386593, 52: 0.0, 53: 0.0, 54: 0.132318275, 55: 0.038316038, 56: 0.303183088, 57: 0.0, 58: 0.0, 59: 0.5366364300000001, 60: 0.080308692, 61: 0.003949674, 62: 0.536600403, 63: 0.474928886, 64: 0.0, 65: 0.548666954, 66: 0.909759196, 67: 0.832884239, 68: 0.0, 69: 0.0, 70: 0.835170367, 71: 0.7147157790000001, 72: 0.0, 73: 0.0, 74: 0.013797525, 75: 0.588472396, 76: 0.0, 77: 0.202290335, 78: 0.0, 79: 0.0, 80: 0.720513315, 81: 0.0, 82: 0.0, 83: 0.0, 84: 0.0, 85: 0.425785081, 86: 0.0, 87: 0.0, 88: 0.460433213, 89: 0.0, 90: 0.451739745, 91: 0.446085932, 92: 0.0, 93: 0.0, 94: 0.0, 95: 0.0, 96: 0.0, 97: 0.0, 98: 0.0, 99: 0.203177339, 100: 0.0, 101: 0.0, 102: 0.0, 103: 0.0, 104: 0.393590423, 105: 0.0, 106: 0.382649505, 107: 0.0, 108: 0.0, 109: 0.0, 110: 0.0, 111: 0.0, 112: 0.0, 113: 0.39291236, 114: 0.393508446, 115: 0.0, 116: 0.0, 117: 0.0, 118: 0.0, 119: 0.488106677, 120: 0.0, 121: 0.0, 122: 0.0, 123: 0.0, 124: 0.539643613, 125: 0.559955946, 126: 0.0, 127: 0.616679571, 128: 0.559906896, 129: 0.611706906, 130: 0.0, 131: 0.0, 132: 0.0, 133: 0.562962194, 134: 0.0, 135: 0.0, 136: 0.0, 137: 0.0, 138: 0.260672546, 139: 0.0, 140: 0.0, 141: 0.294752463, 142: 0.27810354, 143: 0.0, 144: 0.0, 145: 0.0, 146: 0.032179863, 147: 0.011485387, 148: 0.0, 149: 0.005866283, 150: 0.01324582, 151: 0.0, 152: 0.0, 153: 0.0, 154: 0.0, 155: 0.0, 156: 0.023013672, 157: 0.017647759, 158: 0.009970873999999999, 159: 0.07843329, 160: 0.0, 161: 0.0, 162: 0.5205124, 163: 0.287732025, 164: 0.0, 165: 0.452652573, 166: 0.0, 167: 0.0, 168: 0.0, 169: 0.438654624, 170: 0.0, 171: 0.0, 172: 0.6073408850000001, 173: 0.0, 174: 0.0, 175: 0.726494077, 176: 0.0, 177: 0.0, 178: 0.612976615, 179: 0.572162176, 180: 0.0, 181: 0.0, 182: 0.437618643, 183: 0.409349238, 184: 0.286275552, 185: 0.0, 186: 0.310462203, 187: 0.329162275, 188: 0.0, 189: 0.0, 190: 0.0, 191: 0.352174232];
total_cost = 91.775337193;
total_earn = 31.52849906;
% _objective = 60.246838133;