production = [0: 0.0, 1: 0.0, 2: 0.0, 3: 0.0, 4: 0.0, 5: 0.0, 6: 0.0, 7: 0.0, 8: 0.0, 9: 0.0, 10: 0.0, 11: 0.0, 12: 0.0, 13: 0.0, 14: 0.0, 15: 0.0, 16: 0.0, 17: 0.0, 18: 0.0, 19: 0.0, 20: 0.0, 21: 0.0, 22: 0.0, 23: 0.0, 24: 0.0, 25: 0.0, 26: 0.008800000000000001, 27: 0.0, 28: 0.0, 29: 0.0, 30: 0.0, 31: 0.1752, 32: 0.1963, 33: 0.3347, 34: 0.5723, 35: 0.0, 36: 0.9507, 37: 0.0, 38: 1.1632, 39: 1.110904167, 40: 0.0, 41: 1.4732, 42: 0.0, 43: 0.0, 44: 1.7203, 45: 0.188104167, 46: 1.183304167, 47: 1.8927, 48: 0.0, 49: 0.0, 50: 0.0, 51: 1.9423, 52: 1.9623, 53: 0.0, 54: 1.165804167, 55: 1.111604167, 56: 0.0, 57: 0.0, 58: 1.7982, 59: 1.7477, 60: 1.665, 61: 0.0, 62: 0.0, 63: 0.0, 64: 1.2275, 65: 0.0, 66: 0.0, 67: 0.8117, 68: 0.4507, 69: 0.7083, 70: 0.0, 71: 0.0, 72: 0.0, 73: 0.0, 74: 0.1293, 75: 0.0, 76: 0.0, 77: 0.0135, 78: 0.0, 79: 0.0, 80: 0.0, 81: 0.0, 82: 0.0, 83: 0.0, 84: 0.0, 85: 0.0, 86: 0.0, 87: 0.0, 88: 0.0, 89: 0.0, 90: 0.0, 91: 0.0, 92: 0.0, 93: 0.0, 94: 0.0, 95: 0.0, 96: 0.0, 97: 0.0, 98: 0.0, 99: 0.0, 100: 0.0, 101: 0.0, 102: 0.0, 103: 0.0, 104: 0.0, 105: 0.0, 106: 0.0, 107: 0.0, 108: 0.0, 109: 0.0, 110: 0.0, 111: 0.0, 112: 0.0, 113: 0.0, 114: 0.0, 115: 0.0, 116: 0.0, 117: 0.0, 118: 0.0, 119: 0.0, 120: 0.0, 121: 0.0003, 122: 0.0, 123: 0.01, 124: 0.0095, 125: 0.046, 126: 0.0853, 127: 0.1445, 128: 0.1092, 129: 0.1415, 130: 0.0, 131: 0.0, 132: 0.3543, 133: 0.272, 134: 0.179, 135: 0.0, 136: 0.652, 137: 0.0, 138: 0.4637, 139: 0.0, 140: 0.0, 141: 0.0, 142: 0.0, 143: 0.0, 144: 0.8087, 145: 0.0, 146: 1.144604167, 147: 0.6262, 148: 0.5258, 149: 0.8808, 150: 0.0, 151: 0.3625, 152: 0.0, 153: 0.0, 154: 0.0, 155: 0.7765, 156: 0.0, 157: 0.6887, 158: 0.0, 159: 0.6342, 160: 0.7192, 161: 1.277, 162: 0.0, 163: 0.0, 164: 0.0, 165: 0.6222, 166: 0.0, 167: 0.0, 168: 0.2018, 169: 0.225, 170: 0.0, 171: 0.0, 172: 0.042, 173: 0.0, 174: 0.0, 175: 0.0, 176: 0.0, 177: 0.0, 178: 0.0, 179: 0.0, 180: 0.0, 181: 0.0, 182: 0.0, 183: 0.0, 184: 0.0, 185: 0.0, 186: 0.0, 187: 0.0, 188: 0.0, 189: 0.0, 190: 0.0, 191: 0.0];
buy = [0: 1.330304167, 1: 1.290904167, 2: 1.321304167, 3: 1.218141101, 4: 0.297104167, 5: 0.296404167, 6: 1.292404167, 7: 1.286104167, 8: 1.282104167, 9: 0.0, 10: 0.0, 11: 0.295904167, 12: 1.294604167, 13: 0.0, 14: 1.288404167, 15: 0.0, 16: 1.297304167, 17: 1.298604167, 18: 0.000304167, 19: 1.263404167, 20: 0.0, 21: 1.351404167, 22: 1.345404167, 23: 1.292104167, 24: 1.249604167, 25: 0.249604167, 26: 0.0, 27: 1.249804167, 28: 1.108604167, 29: 0.112404167, 30: 0.0, 31: 0.940904167, 32: 0.919504167, 33: 0.0, 34: 0.0, 35: 0.0, 36: 0.166704167, 37: 0.0, 38: 0.0, 39: 0.0, 40: 0.0, 41: 0.0, 42: 0.0, 43: 0.0, 44: 0.0, 45: 0.0, 46: 0.0, 47: 0.0, 48: 0.0, 49: 0.157604167, 50: 0.171604167, 51: 0.0, 52: 0.0, 53: 1.165804167, 54: 0.0, 55: 0.0, 56: 0.111904167, 57: 0.0, 58: 0.0, 59: 0.0, 60: 0.0, 61: 1.887304167, 62: 0.0, 63: 0.0, 64: 0.0, 65: 0.0, 66: 1.119904167, 67: 0.308704167, 68: 0.659204167, 69: 0.0, 70: 1.112404167, 71: 1.115304167, 72: 1.117104167, 73: 0.0, 74: 0.0, 75: 0.110104167, 76: 1.119404167, 77: 1.104904167, 78: 0.0, 79: 1.099104167, 80: 1.096604167, 81: 0.0, 82: 0.0, 83: 0.282404167, 84: 1.337804167, 85: 1.347104167, 86: 0.354604167, 87: 0.0, 88: 0.0, 89: 0.0, 90: 0.238304167, 91: 1.233404167, 92: 1.232604167, 93: 0.0, 94: 0.0, 95: 0.0, 96: 0.0, 97: 0.0, 98: 1.341604167, 99: 1.279604167, 100: 1.277604167, 101: 0.0, 102: 1.258404167, 103: 1.250904167, 104: 0.253604167, 105: 1.239304167, 106: 0.0, 107: 0.0, 108: 0.230904167, 109: 0.0, 110: 1.244804167, 111: 0.242804167, 112: 1.242104167, 113: 1.237304167, 114: 0.0, 115: 0.0, 116: 0.0, 117: 0.0, 118: 1.114104167, 119: 0.0, 120: 0.0, 121: 0.0, 122: 0.0, 123: 0.0, 124: 1.099104167, 125: 0.0, 126: 0.033604167, 127: 0.0, 128: 0.0, 129: 0.0, 130: 0.117604167, 131: 1.117104167, 132: 0.761304167, 133: 0.836804167, 134: 0.0, 135: 1.116604167, 136: 0.0, 137: 0.0, 138: 0.0, 139: 1.115804167, 140: 0.0, 141: 1.116604167, 142: 0.117404167, 143: 0.0, 144: 0.0, 145: 1.141104167, 146: 0.0, 147: 0.0, 148: 0.0, 149: 0.0, 150: 0.0, 151: 1.054104167, 152: 0.0, 153: 1.793604167, 154: 1.926604167, 155: 0.0, 156: 0.438804167, 157: 0.213352224, 158: 0.444804167, 159: 0.0, 160: 0.0, 161: 0.0, 162: 1.167804167, 163: 0.157104167, 164: 0.262404167, 165: 1.021404167, 166: 0.0, 167: 0.147404167, 168: 0.0, 169: 0.933904167, 170: 0.155604167, 171: 1.205604167, 172: 1.090104167, 173: 1.124604167, 174: 1.117104167, 175: 1.106104167, 176: 1.106604167, 177: 0.187104167, 178: 0.0, 179: 1.167304167, 180: 0.0, 181: 0.0, 182: 0.160904167, 183: 1.184104167, 184: 0.387604167, 185: 0.0, 186: 1.331804167, 187: 0.291904167, 188: 0.0, 189: 1.255104167, 190: 1.260604167, 191: 0.244304167];
sell = [0: 0.0, 1: 0.0, 2: 0.0, 3: 0.0, 4: 0.0, 5: 0.0, 6: 0.0, 7: 0.0, 8: 0.0, 9: 0.6118958329999999, 10: 0.6088958330000001, 11: 0.0, 12: 0.0, 13: 0.6158958329999999, 14: 0.0, 15: 0.602895833, 16: 0.0, 17: 0.0, 18: 0.0, 19: 0.0, 20: 0.563895833, 21: 0.0, 22: 0.0, 23: 0.0, 24: 0.0, 25: 0.0, 26: 0.658995833, 27: 0.0, 28: 0.0, 29: 0.0, 30: 0.781895833, 31: 0.0, 32: 0.0, 33: 1.122795833, 34: 0.462195833, 35: 0.66897829, 36: 0.0, 37: 0.782395833, 38: 0.051595833, 39: 0.0, 40: 0.790395833, 41: 1.353095833, 42: 0.778395833, 43: 0.294695833, 44: 0.463195833, 45: 0.0, 46: 0.0, 47: 2.619595833, 48: 0.735195833, 49: 0.0, 50: 0.0, 51: 2.673195833, 52: 0.790695833, 53: 0.0, 54: 0.0, 55: 0.0, 56: 0.0, 57: 0.788095833, 58: 2.594095833, 59: 2.542095833, 60: 1.056395833, 61: 0.0, 62: 0.039095833, 63: 0.706095833, 64: 1.062395833, 65: 0.790395833, 66: 0.0, 67: 0.0, 68: 0.0, 69: 1.495695833, 70: 0.0, 71: 0.0, 72: 0.0, 73: 0.790695833, 74: 0.018695833, 75: 0.0, 76: 0.0, 77: 0.0, 78: 0.801895833, 79: 0.0, 80: 0.0, 81: 0.7933958330000001, 82: 0.776395833, 83: 0.0, 84: 0.0, 85: 0.0, 86: 0.0, 87: 0.0, 88: 0.637895833, 89: 0.668595833, 90: 0.0, 91: 0.0, 92: 0.0, 93: 0.782895833, 94: 0.781595833, 95: 0.0, 96: 0.522695833, 97: 0.548095833, 98: 0.0, 99: 0.0, 100: 0.0, 101: 0.641595833, 102: 0.0, 103: 0.0, 104: 0.0, 105: 0.0, 106: 0.660195833, 107: 0.660395833, 108: 0.0, 109: 0.666395833, 110: 0.0, 111: 0.0, 112: 0.0, 113: 0.0, 114: 0.668095833, 115: 0.593395833, 116: 0.776395833, 117: 0.739788071, 118: 0.0, 119: 0.787095833, 120: 0.776695833, 121: 0.775995833, 122: 0.777895833, 123: 0.800695833, 124: 0.0, 125: 0.829195833, 126: 0.0, 127: 0.927895833, 128: 0.001595833, 129: 0.932195833, 130: 0.0, 131: 0.0, 132: 0.0, 133: 0.0, 134: 0.970395833, 135: 0.0, 136: 1.434895833, 137: 0.784695833, 138: 0.0, 139: 0.0, 140: 0.783895833, 141: 0.0, 142: 0.0, 143: 0.784195833, 144: 1.049595833, 145: 0.0, 146: 0.0, 147: 0.897295833, 148: 0.784895833, 149: 0.231495833, 150: 0.751195833, 151: 0.0, 152: 0.724895833, 153: 0.0, 154: 0.0, 155: 0.7731958330000001, 156: 0.0, 157: 0.0, 158: 0.0, 159: 0.152795833, 160: 0.536895833, 161: 1.089395833, 162: 0.0, 163: 0.0, 164: 0.0, 165: 0.0, 166: 0.0, 167: 0.0, 168: 0.026695833, 169: 0.0, 170: 0.0, 171: 0.0, 172: 0.0, 173: 0.0, 174: 0.0, 175: 0.0, 176: 0.0, 177: 0.0, 178: 0.7348958330000001, 179: 0.0, 180: 0.696895833, 181: 0.698395833, 182: 0.0, 183: 0.0, 184: 0.0, 185: 0.536395833, 186: 0.0, 187: 0.0, 188: 0.631695833, 189: 0.0, 190: 0.0, 191: 0.0];
charge = [0: 1.0, 1: 1.0, 2: 1.0, 3: 0.937336935, 4: 0.0, 5: 0.0, 6: 1.0, 7: 1.0, 8: 1.0, 9: 0.0, 10: 0.0, 11: 0.0, 12: 1.0, 13: 0.0, 14: 1.0, 15: 0.0, 16: 1.0, 17: 1.0, 18: 0.0, 19: 1.0, 20: 0.0, 21: 1.0, 22: 1.0, 23: 1.0, 24: 1.0, 25: 0.0, 26: 0.0, 27: 1.0, 28: 1.0, 29: 0.0, 30: 0.0, 31: 1.0, 32: 1.0, 33: 0.0, 34: 0.0, 35: 0.0, 36: 1.0, 37: 0.0, 38: 1.0, 39: 1.0, 40: 0.0, 41: 0.0, 42: 0.0, 43: 0.0, 44: 1.0, 45: 0.0, 46: 1.0, 47: 0.0, 48: 0.0, 49: 0.0, 50: 0.0, 51: 0.0, 52: 1.0, 53: 1.0, 54: 1.0, 55: 1.0, 56: 0.0, 57: 0.0, 58: 0.0, 59: 0.0, 60: 0.0, 61: 1.0, 62: 0.0, 63: 0.0, 64: 0.0, 65: 0.0, 66: 1.0, 67: 1.0, 68: 1.0, 69: 0.0, 70: 1.0, 71: 1.0, 72: 1.0, 73: 0.0, 74: 0.0, 75: 0.0, 76: 1.0, 77: 1.0, 78: 0.0, 79: 1.0, 80: 1.0, 81: 0.0, 82: 0.0, 83: 0.0, 84: 1.0, 85: 1.0, 86: 0.0, 87: 0.0, 88: 0.0, 89: 0.0, 90: 0.0, 91: 1.0, 92: 1.0, 93: 0.0, 94: 0.0, 95: 0.0, 96: 0.0, 97: 0.0, 98: 1.0, 99: 1.0, 100: 1.0, 101: 0.0, 102: 1.0, 103: 1.0, 104: 0.0, 105: 1.0, 106: 0.0, 107: 0.0, 108: 0.0, 109: 0.0, 110: 1.0, 111: 0.0, 112: 1.0, 113: 1.0, 114: 0.0, 115: 0.0, 116: 0.0, 117: 0.0, 118: 1.0, 119: 0.0, 120: 0.0, 121: 0.0, 122: 0.0, 123: 0.0, 124: 1.0, 125: 0.0, 126: 0.0, 127: 0.0, 128: 0.0, 129: 0.0, 130: 0.0, 131: 1.0, 132: 1.0, 133: 1.0, 134: 0.0, 135: 1.0, 136: 0.0, 137: 0.0, 138: 0.354095833, 139: 1.0, 140: 0.0, 141: 1.0, 142: 0.0, 143: 0.0, 144: 0.0, 145: 1.0, 146: 1.0, 147: 0.0, 148: 0.0, 149: 0.0, 150: 0.0, 151: 1.0, 152: 0.0, 153: 1.0, 154: 1.0, 155: 0.0, 156: 0.0, 157: 0.459248057, 158: 0.0, 159: 0.0, 160: 0.0, 161: 0.0, 162: 1.0, 163: 0.0, 164: 0.0, 165: 1.0, 166: 0.0, 167: 0.0, 168: 0.0, 169: 1.0, 170: 0.0, 171: 1.0, 172: 1.0, 173: 1.0, 174: 1.0, 175: 1.0, 176: 1.0, 177: 0.0, 178: 0.0, 179: 1.0, 180: 0.0, 181: 0.0, 182: 0.0, 183: 1.0, 184: 0.0, 185: 0.0, 186: 1.0, 187: 0.0, 188: 0.0, 189: 1.0, 190: 1.0, 191: 0.0];
discharge = [0: 0.0, 1: 0.0, 2: 0.0, 3: 0.0, 4: 0.0, 5: 0.0, 6: 0.0, 7: 0.0, 8: 0.0, 9: 1.0, 10: 1.0, 11: 0.0, 12: 0.0, 13: 1.0, 14: 0.0, 15: 1.0, 16: 0.0, 17: 0.0, 18: 1.0, 19: 0.0, 20: 1.0, 21: 0.0, 22: 0.0, 23: 0.0, 24: 0.0, 25: 0.0, 26: 1.0, 27: 0.0, 28: 0.0, 29: 0.0, 30: 1.0, 31: 0.0, 32: 0.0, 33: 1.0, 34: 0.0, 35: 0.873758285, 36: 0.0, 37: 1.0, 38: 0.0, 39: 0.0, 40: 1.0, 41: 0.0, 42: 1.0, 43: 1.0, 44: 0.0, 45: 0.0, 46: 0.0, 47: 1.0, 48: 1.0, 49: 0.0, 50: 0.0, 51: 1.0, 52: 0.0, 53: 0.0, 54: 0.0, 55: 0.0, 56: 0.0, 57: 1.0, 58: 1.0, 59: 1.0, 60: 0.0, 61: 0.0, 62: 1.0, 63: 1.0, 64: 0.0, 65: 1.0, 66: 0.0, 67: 0.0, 68: 0.0, 69: 1.0, 70: 0.0, 71: 0.0, 72: 0.0, 73: 1.0, 74: 0.0, 75: 0.0, 76: 0.0, 77: 0.0, 78: 1.0, 79: 0.0, 80: 0.0, 81: 1.0, 82: 1.0, 83: 0.0, 84: 0.0, 85: 0.0, 86: 0.0, 87: 0.396226852, 88: 1.0, 89: 1.0, 90: 0.0, 91: 0.0, 92: 0.0, 93: 1.0, 94: 1.0, 95: 0.450115741, 96: 1.0, 97: 1.0, 98: 0.0, 99: 0.0, 100: 0.0, 101: 1.0, 102: 0.0, 103: 0.0, 104: 0.0, 105: 0.0, 106: 1.0, 107: 1.0, 108: 0.0, 109: 1.0, 110: 0.0, 111: 0.0, 112: 0.0, 113: 0.0, 114: 1.0, 115: 1.0, 116: 1.0, 117: 0.95154693, 118: 0.0, 119: 1.0, 120: 1.0, 121: 1.0, 122: 1.0, 123: 1.0, 124: 0.0, 125: 1.0, 126: 0.0, 127: 1.0, 128: 0.0, 129: 1.0, 130: 0.0, 131: 0.0, 132: 0.0, 133: 0.0, 134: 1.0, 135: 0.0, 136: 1.0, 137: 1.0, 138: 0.0, 139: 0.0, 140: 1.0, 141: 0.0, 142: 0.0, 143: 1.0, 144: 1.0, 145: 0.0, 146: 0.0, 147: 1.0, 148: 1.0, 149: 0.0, 150: 1.0, 151: 0.0, 152: 1.0, 153: 0.0, 154: 0.0, 155: 1.0, 156: 0.0, 157: 0.0, 158: 0.0, 159: 0.0, 160: 0.0, 161: 0.0, 162: 0.0, 163: 0.0, 164: 1.0, 165: 0.0, 166: 0.22100463, 167: 0.0, 168: 0.0, 169: 0.0, 170: 0.0, 171: 0.0, 172: 0.0, 173: 0.0, 174: 0.0, 175: 0.0, 176: 0.0, 177: 0.0, 178: 1.0, 179: 0.0, 180: 1.0, 181: 1.0, 182: 0.0, 183: 0.0, 184: 0.0, 185: 1.0, 186: 0.0, 187: 0.0, 188: 1.0, 189: 0.0, 190: 0.0, 191: 0.0];
soc = [0: 6.69884, 1: 7.597500232, 2: 8.495980732, 3: 9.337884776999999, 4: 9.336017200000001, 5: 9.334149997000001, 6: 10.232283167, 7: 11.13023671, 8: 12.028010663, 9: 11.02560506, 10: 10.023399939, 11: 10.021395259, 12: 10.91939098, 13: 9.917207102000001, 14: 10.815223661, 15: 9.813060616, 16: 10.711098004, 17: 11.608955784, 18: 10.606633993, 19: 11.504512666, 20: 10.502211764, 21: 11.400111322, 22: 12.297831299, 23: 13.195371733, 24: 14.092732659, 25: 14.089914112, 26: 13.087096129, 27: 13.98447871, 28: 14.881681814, 29: 14.878705478, 30: 13.875729737, 31: 14.772954591, 32: 15.67, 33: 14.666866, 34: 14.663932627, 35: 13.787241555, 36: 14.684484107, 37: 13.68154721, 38: 14.578810901, 39: 15.475895138, 40: 14.472799959, 41: 14.469905399, 42: 13.467011418, 43: 12.464318016, 44: 13.361825152, 45: 13.359152787, 46: 14.256480957, 47: 13.253629661, 48: 12.250978935, 49: 12.248528739, 50: 12.246079033, 51: 11.243629817, 52: 12.141381091, 53: 13.038952815, 54: 13.936345025, 55: 14.833557756, 56: 14.830591044, 57: 13.827624926, 58: 12.824859401, 59: 11.822294429, 60: 11.81992997, 61: 12.717565984, 62: 11.715022471, 63: 10.712679466, 64: 10.71053693, 65: 9.708394823000001, 66: 10.606453144, 67: 11.504331854, 68: 12.402030987, 69: 11.399550581, 70: 12.297270671, 71: 13.194811217, 72: 14.092172254, 73: 13.08935382, 74: 13.086735949, 75: 13.084118602, 76: 13.981501778, 77: 14.878705478, 78: 13.875729737, 79: 14.772954591, 80: 15.67, 81: 14.666866, 82: 13.663932627, 83: 13.66119984, 84: 14.5584676, 85: 15.455555907, 86: 15.452464796, 87: 15.053147451, 88: 14.050136821, 89: 13.047326794, 90: 13.044717329, 91: 13.942108385, 92: 14.839319963, 93: 13.836352099, 94: 12.833584829, 95: 12.380902371, 96: 11.378426191, 97: 10.376150506, 98: 11.274075276, 99: 12.17182046, 100: 13.069386096, 101: 12.066772219, 102: 12.964358865, 103: 13.861765993, 104: 13.85899364, 105: 14.756221841, 106: 13.753270597, 107: 12.750519943, 108: 12.747969839, 109: 11.745420245, 110: 12.643071161, 111: 12.640542546, 112: 13.538014438, 113: 14.435306835, 114: 13.432419774, 115: 12.42973329, 116: 11.427247343, 117: 10.473414963, 118: 11.37132028, 119: 10.369046016, 120: 9.366972207, 121: 8.365098811999999, 122: 7.363425793, 123: 6.361953107, 124: 7.260680717, 125: 6.259228581, 126: 6.257976735, 127: 5.25672514, 128: 5.255673794, 129: 4.25462266, 130: 4.253771735, 131: 5.152920981, 132: 6.051890397, 133: 6.950680019, 134: 5.949289883, 135: 6.848100025, 136: 5.846730405, 137: 4.845561059, 138: 5.163278196, 139: 6.062245541, 140: 5.061033092, 141: 5.960020885, 142: 5.958828881, 143: 4.957637115, 144: 3.956645588, 145: 4.855854258, 146: 5.754883088, 147: 4.753732111, 148: 3.752781365, 149: 3.752030808, 150: 2.751280402, 151: 3.650730146, 152: 2.65, 153: 3.54947, 154: 4.448760106, 155: 3.447870354, 156: 3.44718078, 157: 3.859814595, 158: 3.859042632, 159: 3.858270824, 160: 3.85749917, 161: 3.85672767, 162: 4.755956324, 163: 4.755005133, 164: 3.754054132, 165: 4.653303321, 166: 4.431368031, 167: 4.430481757, 168: 4.429595661, 169: 5.328709742, 170: 5.327644, 171: 6.226578471, 172: 7.125333155, 173: 8.023908089000001, 174: 8.922303307, 175: 9.820518846000001, 176: 10.718554743, 177: 10.716411032, 178: 9.714267748999999, 179: 10.612324896, 180: 9.610202430999999, 181: 8.608280389999999, 182: 8.606558734, 183: 9.504837423, 184: 9.502936455, 185: 8.501035868000001, 186: 9.399335661, 187: 9.397455794000001, 188: 8.395576302, 189: 9.293897187000001, 190: 10.192038408, 191: 10.19];
cost = [0: 0.930860981, 1: 0.906791521, 2: 0.925362881, 3: 0.854935158, 4: 0.181500935, 5: 0.181073305, 6: 0.9077078710000001, 7: 0.9038592009999999, 8: 0.901415601, 9: 0.0, 10: 0.0, 11: 0.180767855, 12: 0.909051851, 13: 0.0, 14: 0.905264271, 15: 0.0, 16: 0.910701281, 17: 0.911495451, 18: 0.000185815, 19: 0.889991771, 20: 0.0, 21: 0.943750971, 22: 0.940085571, 23: 0.907524601, 24: 1.604707282, 25: 0.296929117, 26: 0.0, 27: 1.604945202, 28: 1.436973682, 29: 0.133715997, 30: 0.0, 31: 1.237477762, 32: 1.212020322, 33: 0.0, 34: 0.0, 35: 0.0, 36: 0.316489442, 37: 0.0, 38: 0.118178165, 39: 0.118178165, 40: 0.0, 41: 0.0, 42: 0.0, 43: 0.0, 44: 0.118178165, 45: 0.0, 46: 0.118178165, 47: 0.0, 48: 0.0, 49: 0.187485917, 50: 0.204140317, 51: 0.0, 52: 0.118178165, 53: 0.8303679309999999, 54: 0.118178165, 55: 0.118178165, 56: 0.068362255, 57: 0.0, 58: 0.0, 59: 0.0, 60: 0.0, 61: 2.363315202, 62: 0.0, 63: 0.0, 64: 0.0, 65: 0.0, 66: 1.450416162, 67: 0.485412642, 68: 0.902367442, 69: 0.0, 70: 1.441494162, 71: 1.444944002, 72: 1.447085282, 73: 0.0, 74: 0.0, 75: 0.130979917, 76: 1.449821362, 77: 1.432572162, 78: 0.0, 79: 1.425672482, 80: 1.422698482, 81: 0.0, 82: 0.0, 83: 0.335947997, 84: 1.709630002, 85: 1.720693282, 86: 0.421837117, 87: 0.0, 88: 0.0, 89: 0.0, 90: 0.145580015, 91: 0.8716647709999999, 92: 0.871176051, 93: 0.0, 94: 0.0, 95: 0.0, 96: 0.0, 97: 0.0, 98: 0.937764151, 99: 0.899888351, 100: 0.898666551, 101: 0.0, 102: 0.886937271, 103: 0.882355521, 104: 0.154926785, 105: 0.875269081, 106: 0.0, 107: 0.0, 108: 0.141059355, 109: 0.0, 110: 0.878629031, 111: 0.148329065, 112: 0.8769796010000001, 113: 0.874047281, 114: 0.0, 115: 0.0, 116: 0.0, 117: 0.0, 118: 0.798784401, 119: 0.0, 120: 0.0, 121: 0.0, 122: 0.0, 123: 0.0, 124: 1.425672482, 125: 0.0, 126: 0.039975517, 127: 0.0, 128: 0.0, 129: 0.0, 130: 0.139901917, 131: 1.447085282, 132: 1.023825602, 133: 1.113640402, 134: 0.0, 135: 1.446490482, 136: 0.0, 137: 0.0, 138: 0.041846396, 139: 1.445538802, 140: 0.0, 141: 1.446490482, 142: 0.139663997, 143: 0.0, 144: 0.0, 145: 1.475635682, 146: 0.118178165, 147: 0.0, 148: 0.0, 149: 0.0, 150: 0.0, 151: 0.762130401, 152: 0.0, 153: 1.213890951, 154: 1.295140651, 155: 0.0, 156: 0.522001437, 157: 0.308076898, 158: 0.529139037, 159: 0.0, 160: 0.0, 161: 0.0, 162: 1.507398002, 163: 0.186891117, 164: 0.312155997, 165: 1.333240562, 166: 0.0, 167: 0.175351997, 168: 0.0, 169: 1.229150562, 170: 0.185106717, 171: 1.552364882, 172: 1.414966082, 173: 1.456007282, 174: 1.447085282, 175: 1.433999682, 176: 1.434594482, 177: 0.222579117, 178: 0.0, 179: 1.506803202, 180: 0.0, 181: 0.0, 182: 0.191411597, 183: 1.526788482, 184: 0.236787385, 185: 0.0, 186: 0.931777331, 187: 0.178324255, 188: 0.0, 189: 0.884921301, 190: 0.888281251, 191: 0.149245415];
earn = [0: 0.0, 1: 0.0, 2: 0.0, 3: 0.0, 4: 0.0, 5: 0.0, 6: 0.0, 7: 0.0, 8: 0.0, 9: 0.3671375, 10: 0.364302377, 11: 0.0, 12: 0.0, 13: 0.357096404, 14: 0.0, 15: 0.354020433, 16: 0.0, 17: 0.0, 18: 0.0, 19: 0.0, 20: 0.345837315, 21: 0.0, 22: 0.0, 23: 0.0, 24: 0.0, 25: 0.0, 26: 0.535434115, 27: 0.0, 28: 0.0, 29: 0.0, 30: 0.671257573, 31: 0.0, 32: 0.0, 33: 0.830419798, 34: 0.342256015, 35: 0.436775926, 36: 0.0, 37: 0.408880063, 38: 0.026515099, 39: 0.0, 40: 0.345640098, 41: 0.499833601, 42: 0.274306692, 43: 0.102082637, 44: 0.126823019, 45: 0.0, 46: 0.0, 47: 0.369624972, 48: 0.13417324, 49: 0.0, 50: 0.0, 51: 0.312496593, 52: 0.040562696, 53: 0.0, 54: 0.0, 55: 0.0, 56: 0.0, 57: 0.142802965, 58: 0.490024703, 59: 0.5366364300000001, 60: 0.291142692, 61: 0.0, 62: 0.014422453, 63: 0.280249436, 64: 0.51770549, 65: 0.403259954, 66: 0.0, 67: 0.0, 68: 0.0, 69: 0.871093253, 70: 0.0, 71: 0.0, 72: 0.0, 73: 0.562026598, 74: 0.013797525, 75: 0.0, 76: 0.0, 77: 0.0, 78: 0.7231496630000001, 79: 0.0, 80: 0.0, 81: 0.692158525, 82: 0.672514071, 83: 0.0, 84: 0.0, 85: 0.0, 86: 0.0, 87: 0.0, 88: 0.460433213, 89: 0.47008973, 90: 0.0, 91: 0.0, 92: 0.0, 93: 0.494790167, 94: 0.502409802, 95: 0.0, 96: 0.358151185, 97: 0.368210781, 98: 0.0, 99: 0.0, 100: 0.0, 101: 0.391886735, 102: 0.0, 103: 0.0, 104: 0.0, 105: 0.0, 106: 0.382649505, 107: 0.385274929, 108: 0.0, 109: 0.385110152, 110: 0.0, 111: 0.0, 112: 0.0, 113: 0.0, 114: 0.393508446, 115: 0.348204675, 116: 0.468787804, 117: 0.451418681, 118: 0.0, 119: 0.487920707, 120: 0.503143561, 121: 0.518753215, 122: 0.528658008, 123: 0.545113723, 124: 0.0, 125: 0.559955946, 126: 0.0, 127: 0.616679571, 128: 0.001127616, 129: 0.611706906, 130: 0.0, 131: 0.0, 132: 0.0, 133: 0.0, 134: 0.513048277, 135: 0.0, 136: 0.7302184900000001, 137: 0.32392244, 138: 0.0, 139: 0.0, 140: 0.190721856, 141: 0.0, 142: 0.0, 143: 0.112688941, 144: 0.124587025, 145: 0.0, 146: 0.0, 147: 0.011485387, 148: 0.037439531, 149: 0.005417003, 150: 0.009089470000000001, 151: 0.0, 152: 0.004276885, 153: 0.0, 154: 0.0, 155: 0.010051546, 156: 0.0, 157: 0.0, 158: 0.0, 159: 0.01138329, 160: 0.100399521, 161: 0.248818008, 162: 0.0, 163: 0.0, 164: 0.0, 165: 0.0, 166: 0.0, 167: 0.0, 168: 0.015195268, 169: 0.0, 170: 0.0, 171: 0.0, 172: 0.0, 173: 0.0, 174: 0.0, 175: 0.0, 176: 0.0, 177: 0.0, 178: 0.612976615, 179: 0.0, 180: 0.469080585, 181: 0.4290944, 182: 0.0, 183: 0.0, 184: 0.0, 185: 0.292979404, 186: 0.0, 187: 0.0, 188: 0.388619277, 189: 0.0, 190: 0.0, 191: 0.0];
total_cost = 91.199690816;
total_earn = 28.331938197;
% _objective = 62.867752619;