production = [0: 0.0, 1: 0.0, 2: 0.0, 3: 0.0, 4: 0.0, 5: 0.0, 6: 0.0, 7: 0.0, 8: 0.0, 9: 0.0, 10: 0.0, 11: 0.0, 12: 0.0, 13: 0.0, 14: 0.0, 15: 0.0, 16: 0.0, 17: 0.0, 18: 0.0, 19: 0.0, 20: 0.0, 21: 0.0, 22: 0.0, 23: 0.0005, 24: 0.0, 25: 0.0, 26: 0.008800000000000001, 27: 0.0, 28: 0.0, 29: 0.08450000000000001, 30: 0.0, 31: 0.1752, 32: 0.0, 33: 0.0, 34: 0.5723, 35: 0.8383, 36: 0.0, 37: 1.0655, 38: 0.0, 39: 0.0, 40: 1.338, 41: 1.4732, 42: 1.5545, 43: 1.6453, 44: 0.0, 45: 0.0, 46: 1.8447, 47: 1.173104167, 48: 1.9403, 49: 1.9652, 50: 1.9638, 51: 0.0, 52: 0.0, 53: 1.165804167, 54: 0.0, 55: 0.111604167, 56: 0.0, 57: 0.0, 58: 0.0, 59: 1.7477, 60: 1.608604167, 61: 0.0, 62: 0.0, 63: 1.3905, 64: 0.0, 65: 0.0, 66: 0.9878, 67: 0.8117, 68: 0.0, 69: 0.7083, 70: 0.5972, 71: 0.0, 72: 0.2502, 73: 0.1995, 74: 0.1293, 75: 0.0, 76: 0.0, 77: 0.0, 78: 0.0025, 79: 0.0, 80: 0.0, 81: 0.0, 82: 0.0, 83: 0.0, 84: 0.0, 85: 0.0, 86: 0.0, 87: 0.0, 88: 0.0, 89: 0.0, 90: 0.0, 91: 0.0, 92: 0.0, 93: 0.0, 94: 0.0, 95: 0.0, 96: 0.0, 97: 0.0, 98: 0.0, 99: 0.0, 100: 0.0, 101: 0.0, 102: 0.0, 103: 0.0, 104: 0.0, 105: 0.0, 106: 0.0, 107: 0.0, 108: 0.0, 109: 0.0, 110: 0.0, 111: 0.0, 112: 0.0, 113: 0.0, 114: 0.0, 115: 0.0, 116: 0.0, 117: 0.0, 118: 0.0, 119: 0.0003, 120: 0.0, 121: 0.0, 122: 0.0, 123: 0.01, 124: 0.0095, 125: 0.0, 126: 0.0, 127: 0.0, 128: 0.0, 129: 0.0, 130: 0.0, 131: 0.2722, 132: 0.0, 133: 0.0, 134: 0.0, 135: 0.0, 136: 0.0, 137: 0.5697, 138: 0.4637, 139: 0.0, 140: 0.792, 141: 0.585, 142: 0.703, 143: 0.0, 144: 0.8087, 145: 0.9323, 146: 0.0, 147: 0.0, 148: 0.0, 149: 0.0, 150: 0.0, 151: 0.0, 152: 0.6835, 153: 0.7702, 154: 0.6315, 155: 0.7765, 156: 0.0, 157: 0.6887, 158: 0.6565, 159: 0.0, 160: 0.7192, 161: 1.277, 162: 0.0, 163: 0.9183, 164: 0.8155, 165: 0.0, 166: 0.5403, 167: 0.0, 168: 0.2018, 169: 0.0, 170: 0.0, 171: 0.0, 172: 0.0, 173: 0.0, 174: 0.003, 175: 0.0, 176: 0.0, 177: 0.0, 178: 0.0, 179: 0.0, 180: 0.0, 181: 0.0, 182: 0.0, 183: 0.0, 184: 0.0, 185: 0.0, 186: 0.0, 187: 0.0, 188: 0.0, 189: 0.0, 190: 0.0, 191: 0.0];
buy = [0: 1.330304167, 1: 0.290904167, 2: 0.321304167, 3: 1.280804167, 4: 1.297104167, 5: 0.296404167, 6: 1.292404167, 7: 0.286104167, 8: 1.282104167, 9: 1.288104167, 10: 1.291104167, 11: 1.295904167, 12: 0.294604167, 13: 0.284104167, 14: 0.0, 15: 0.0, 16: 0.0, 17: 0.0, 18: 0.000304167, 19: 0.0, 20: 0.336104167, 21: 0.0, 22: 0.0, 23: 0.291604167, 24: 0.249604167, 25: 0.249604167, 26: 0.0, 27: 1.249804167, 28: 0.108604167, 29: 1.027904167, 30: 0.0, 31: 0.940904167, 32: 0.115804167, 33: 0.111904167, 34: 0.0, 35: 0.0, 36: 0.0, 37: 0.0, 38: 0.111604167, 39: 1.110904167, 40: 0.0, 41: 0.0, 42: 0.0, 43: 0.0, 44: 0.0, 45: 0.0, 46: 0.0, 47: 0.0, 48: 0.0, 49: 0.0, 50: 0.0, 51: 1.169104167, 52: 1.171604167, 53: 0.0, 54: 0.165804167, 55: 0.0, 56: 0.0, 57: 1.111904167, 58: 0.0, 59: 0.0, 60: 0.0, 61: 1.887304167, 62: 1.860904167, 63: 0.0, 64: 1.165104167, 65: 0.0, 66: 0.0, 67: 0.308704167, 68: 1.109904167, 69: 0.0, 70: 0.0, 71: 0.115304167, 72: 0.8669041669999999, 73: 0.909804167, 74: 0.0, 75: 0.110104167, 76: 0.0, 77: 1.118404167, 78: 1.095604167, 79: 0.0, 80: 0.048254279, 81: 0.0, 82: 1.123604167, 83: 0.0, 84: 0.337804167, 85: 0.0, 86: 0.354604167, 87: 0.0, 88: 0.0, 89: 0.0, 90: 0.0, 91: 0.0, 92: 1.232604167, 93: 0.0, 94: 1.118404167, 95: 1.405104167, 96: 1.377304167, 97: 1.351904167, 98: 0.341604167, 99: 0.0, 100: 0.277604167, 101: 0.258404167, 102: 1.258404167, 103: 0.0, 104: 0.0, 105: 0.0, 106: 1.239804167, 107: 0.239604167, 108: 0.0, 109: 0.233604167, 110: 1.244804167, 111: 1.242804167, 112: 1.242104167, 113: 1.237304167, 114: 0.231904167, 115: 0.306604167, 116: 1.123604167, 117: 0.600383543, 118: 0.0, 119: 0.0, 120: 0.0, 121: 0.0, 122: 1.122104167, 123: 0.0, 124: 1.099104167, 125: 0.116804167, 126: 0.0, 127: 0.0, 128: 1.107604167, 129: 0.0, 130: 1.117604167, 131: 0.844904167, 132: 1.115604167, 133: 1.108804167, 134: 0.108604167, 135: 0.0, 136: 0.117104167, 137: 0.0, 138: 0.0, 139: 1.115804167, 140: 0.0, 141: 0.0, 142: 0.0, 143: 1.115804167, 144: 0.850404167, 145: 0.0, 146: 1.144604167, 147: 0.0, 148: 1.640904167, 149: 1.649304167, 150: 1.148804167, 151: 1.416604167, 152: 0.0, 153: 0.0, 154: 1.295104167, 155: 0.0, 156: 1.438804167, 157: 0.754104167, 158: 0.0, 159: 0.0, 160: 0.0, 161: 0.0, 162: 0.167804167, 163: 0.0, 164: 0.72529581, 165: 0.0, 166: 0.658604167, 167: 1.147404167, 168: 0.0, 169: 1.158904167, 170: 0.0, 171: 0.205604167, 172: 1.132104167, 173: 0.0, 174: 1.114104167, 175: 1.106104167, 176: 0.106604167, 177: 0.0, 178: 1.165104167, 179: 1.167304167, 180: 0.203104167, 181: 1.201604167, 182: 0.160904167, 183: 1.184104167, 184: 0.0, 185: 1.363604167, 186: 1.331804167, 187: 0.291904167, 188: 0.0, 189: 1.255104167, 190: 0.0, 191: 0.0];
sell = [0: 0.0, 1: 0.0, 2: 0.0, 3: 0.0, 4: 0.0, 5: 0.0, 6: 0.0, 7: 0.0, 8: 0.0, 9: 0.0, 10: 0.0, 11: 0.0, 12: 0.0, 13: 0.0, 14: 0.0, 15: 0.602895833, 16: 0.0, 17: 0.601395833, 18: 0.0, 19: 0.636595833, 20: 0.0, 21: 0.548595833, 22: 0.554595833, 23: 0.0, 24: 0.0, 25: 0.0, 26: 0.658995833, 27: 0.0, 28: 0.0, 29: 0.0, 30: 0.781895833, 31: 0.0, 32: 0.0, 33: 0.0, 34: 1.362195833, 35: 0.720895833, 36: 0.782595833, 37: 1.847895833, 38: 0.0, 39: 0.0, 40: 0.228395833, 41: 1.353095833, 42: 1.432895833, 43: 0.039995833, 44: 0.642895833, 45: 0.711895833, 46: 2.561395833, 47: 0.0, 48: 2.675495833, 49: 0.807595833, 50: 0.792195833, 51: 0.0, 52: 0.0, 53: 0.0, 54: 0.0, 55: 0.0, 56: 0.788095833, 57: 0.0, 58: 0.795895833, 59: 2.542095833, 60: 0.0, 61: 0.0, 62: 0.0, 63: 1.196595833, 64: 0.0, 65: 0.790395833, 66: 0.8678958329999999, 67: 0.0, 68: 0.0, 69: 0.595695833, 70: 1.384795833, 71: 0.0, 72: 0.0, 73: 0.0, 74: 0.918695833, 75: 0.0, 76: 0.780595833, 77: 0.0, 78: 0.0, 79: 0.800895833, 80: 0.0, 81: 0.7933958330000001, 82: 0.0, 83: 0.617595833, 84: 0.0, 85: 0.552895833, 86: 0.0, 87: 0.5433958330000001, 88: 0.637895833, 89: 0.668595833, 90: 0.661695833, 91: 0.666595833, 92: 0.0, 93: 0.782895833, 94: 0.0, 95: 0.0, 96: 0.0, 97: 0.0, 98: 0.0, 99: 0.620395833, 100: 0.0, 101: 0.0, 102: 0.0, 103: 0.649095833, 104: 0.646395833, 105: 0.660695833, 106: 0.0, 107: 0.0, 108: 0.669095833, 109: 0.0, 110: 0.0, 111: 0.0, 112: 0.0, 113: 0.0, 114: 0.0, 115: 0.0, 116: 0.0, 117: 0.0, 118: 0.785895833, 119: 0.787395833, 120: 0.776695833, 121: 0.775695833, 122: 0.0, 123: 0.800695833, 124: 0.0, 125: 0.0, 126: 0.781095833, 127: 0.783395833, 128: 0.0, 129: 0.790695833, 130: 0.0, 131: 0.0, 132: 0.0, 133: 0.0, 134: 0.0, 135: 0.783395833, 136: 0.0, 137: 1.354395833, 138: 1.254095833, 139: 0.0, 140: 0.675895833, 141: 0.468395833, 142: 1.485595833, 143: 0.0, 144: 0.0, 145: 0.791195833, 146: 0.0, 147: 0.271095833, 148: 0.0, 149: 0.0, 150: 0.0, 151: 0.0, 152: 1.408395833, 153: 0.876595833, 154: 0.0, 155: 0.7731958330000001, 156: 0.0, 157: 0.0, 158: 0.0, 159: 0.418595833, 160: 0.536895833, 161: 0.08939583299999999, 162: 0.0, 163: 1.661195833, 164: 0.0, 165: 0.256395833, 166: 0.0, 167: 0.0, 168: 0.926695833, 169: 0.0, 170: 0.744395833, 171: 0.0, 172: 0.0, 173: 0.775395833, 174: 0.0, 175: 0.0, 176: 0.0, 177: 0.712895833, 178: 0.0, 179: 0.0, 180: 0.0, 181: 0.0, 182: 0.0, 183: 0.0, 184: 0.512395833, 185: 0.0, 186: 0.0, 187: 0.0, 188: 0.631695833, 189: 0.0, 190: 0.639395833, 191: 0.655695833];
charge = [0: 1.0, 1: 0.0, 2: 0.0, 3: 1.0, 4: 1.0, 5: 0.0, 6: 1.0, 7: 0.0, 8: 1.0, 9: 1.0, 10: 1.0, 11: 1.0, 12: 0.0, 13: 0.0, 14: 0.0, 15: 0.0, 16: 0.0, 17: 0.0, 18: 0.0, 19: 0.0, 20: 0.0, 21: 0.0, 22: 0.0, 23: 0.0, 24: 0.0, 25: 0.0, 26: 0.0, 27: 1.0, 28: 0.0, 29: 1.0, 30: 0.0, 31: 1.0, 32: 0.0, 33: 0.0, 34: 0.0, 35: 0.0, 36: 0.0, 37: 0.0, 38: 0.0, 39: 1.0, 40: 1.0, 41: 0.0, 42: 0.0, 43: 1.0, 44: 0.0, 45: 0.0, 46: 0.0, 47: 1.0, 48: 0.0, 49: 1.0, 50: 1.0, 51: 1.0, 52: 1.0, 53: 1.0, 54: 0.0, 55: 0.0, 56: 0.0, 57: 1.0, 58: 0.0, 59: 0.0, 60: 1.0, 61: 1.0, 62: 1.0, 63: 0.0, 64: 1.0, 65: 0.0, 66: 0.0, 67: 1.0, 68: 1.0, 69: 0.0, 70: 0.0, 71: 0.0, 72: 1.0, 73: 1.0, 74: 0.0, 75: 0.0, 76: 0.0, 77: 1.0, 78: 1.0, 79: 0.0, 80: 0.0, 81: 0.0, 82: 1.0, 83: 0.0, 84: 0.0, 85: 0.0, 86: 0.0, 87: 0.0, 88: 0.0, 89: 0.0, 90: 0.0, 91: 0.0, 92: 1.0, 93: 0.0, 94: 1.0, 95: 1.0, 96: 1.0, 97: 1.0, 98: 0.0, 99: 0.0, 100: 0.0, 101: 0.0, 102: 1.0, 103: 0.0, 104: 0.0, 105: 0.0, 106: 1.0, 107: 0.0, 108: 0.0, 109: 0.0, 110: 1.0, 111: 1.0, 112: 1.0, 113: 1.0, 114: 0.0, 115: 0.0, 116: 1.0, 117: 0.483779376, 118: 0.0, 119: 0.0, 120: 0.0, 121: 0.0, 122: 1.0, 123: 0.0, 124: 1.0, 125: 0.0, 126: 0.0, 127: 0.0, 128: 1.0, 129: 0.0, 130: 1.0, 131: 1.0, 132: 1.0, 133: 1.0, 134: 0.0, 135: 0.0, 136: 0.0, 137: 0.0, 138: 0.0, 139: 1.0, 140: 0.0, 141: 0.0, 142: 0.0, 143: 1.0, 144: 1.0, 145: 0.0, 146: 1.0, 147: 0.0, 148: 1.0, 149: 1.0, 150: 1.0, 151: 1.0, 152: 0.0, 153: 0.0, 154: 1.0, 155: 0.0, 156: 1.0, 157: 1.0, 158: 0.211695833, 159: 0.0, 160: 0.0, 161: 1.0, 162: 0.0, 163: 0.0, 164: 0.378391644, 165: 0.0, 166: 1.0, 167: 1.0, 168: 0.0, 169: 1.0, 170: 0.0, 171: 0.0, 172: 1.0, 173: 0.0, 174: 1.0, 175: 1.0, 176: 0.0, 177: 0.0, 178: 1.0, 179: 1.0, 180: 0.0, 181: 1.0, 182: 0.0, 183: 1.0, 184: 0.0, 185: 1.0, 186: 1.0, 187: 0.0, 188: 0.0, 189: 1.0, 190: 0.0, 191: 0.0];
discharge = [0: 0.0, 1: 0.0, 2: 0.0, 3: 0.0, 4: 0.0, 5: 0.0, 6: 0.0, 7: 0.0, 8: 0.0, 9: 0.0, 10: 0.0, 11: 0.0, 12: 0.0, 13: 0.0, 14: 0.320449074, 15: 1.0, 16: 0.330337963, 17: 1.0, 18: 1.0, 19: 1.0, 20: 0.0, 21: 1.0, 22: 1.0, 23: 0.0, 24: 0.0, 25: 0.0, 26: 1.0, 27: 0.0, 28: 0.0, 29: 0.0, 30: 1.0, 31: 0.0, 32: 0.0, 33: 0.0, 34: 1.0, 35: 0.0, 36: 1.0, 37: 1.0, 38: 0.0, 39: 0.0, 40: 0.0, 41: 0.0, 42: 0.0, 43: 0.0, 44: 1.0, 45: 1.0, 46: 1.0, 47: 0.0, 48: 1.0, 49: 0.0, 50: 0.0, 51: 0.0, 52: 0.0, 53: 0.0, 54: 0.0, 55: 0.0, 56: 1.0, 57: 0.0, 58: 1.0, 59: 1.0, 60: 0.0, 61: 0.0, 62: 0.0, 63: 0.0, 64: 0.0, 65: 1.0, 66: 0.0, 67: 0.0, 68: 0.0, 69: 0.0, 70: 1.0, 71: 0.0, 72: 0.0, 73: 0.0, 74: 1.0, 75: 0.0, 76: 1.0, 77: 0.0, 78: 0.0, 79: 1.0, 80: 0.053722097, 81: 1.0, 82: 0.0, 83: 1.0, 84: 0.0, 85: 1.0, 86: 0.0, 87: 1.0, 88: 1.0, 89: 1.0, 90: 1.0, 91: 1.0, 92: 0.0, 93: 1.0, 94: 0.0, 95: 0.0, 96: 0.0, 97: 0.0, 98: 0.0, 99: 1.0, 100: 0.0, 101: 0.0, 102: 0.0, 103: 1.0, 104: 1.0, 105: 1.0, 106: 0.0, 107: 0.0, 108: 1.0, 109: 0.0, 110: 0.0, 111: 0.0, 112: 0.0, 113: 0.0, 114: 0.0, 115: 0.0, 116: 0.0, 117: 0.0, 118: 1.0, 119: 1.0, 120: 1.0, 121: 1.0, 122: 0.0, 123: 1.0, 124: 0.0, 125: 0.0, 126: 1.0, 127: 1.0, 128: 0.0, 129: 1.0, 130: 0.0, 131: 0.0, 132: 0.0, 133: 0.0, 134: 0.0, 135: 1.0, 136: 0.0, 137: 1.0, 138: 1.0, 139: 0.0, 140: 0.0, 141: 0.0, 142: 1.0, 143: 0.0, 144: 0.0, 145: 0.0, 146: 0.0, 147: 1.0, 148: 0.0, 149: 0.0, 150: 0.0, 151: 0.0, 152: 1.0, 153: 1.0, 154: 0.0, 155: 1.0, 156: 0.0, 157: 0.0, 158: 0.0, 159: 1.0, 160: 0.0, 161: 0.0, 162: 0.0, 163: 1.0, 164: 0.0, 165: 1.0, 166: 0.0, 167: 0.0, 168: 1.0, 169: 0.0, 170: 1.0, 171: 0.0, 172: 0.0, 173: 1.0, 174: 0.0, 175: 0.0, 176: 0.0, 177: 1.0, 178: 0.0, 179: 0.0, 180: 0.0, 181: 0.0, 182: 0.0, 183: 0.0, 184: 1.0, 185: 0.0, 186: 0.0, 187: 0.0, 188: 1.0, 189: 0.0, 190: 1.0, 191: 1.0];
soc = [0: 6.69884, 1: 6.697500232, 2: 6.696160732, 3: 7.5948215, 4: 8.493302536, 5: 8.491603874999999, 6: 9.389905554, 7: 9.388027573, 8: 10.286149968, 9: 11.184092738, 10: 12.081855919, 11: 12.979439548, 12: 12.97684366, 13: 12.974248291, 14: 12.651204368, 15: 11.648674127, 16: 11.316006429, 17: 10.313743228, 18: 9.311680479, 19: 8.309818142999999, 20: 8.308156178999999, 21: 7.306494548, 22: 6.305033249, 23: 6.303772242, 24: 6.302511488, 25: 6.301250986, 26: 5.299990735, 27: 6.198930737, 28: 6.197690951, 29: 7.096451413, 30: 6.095032123, 31: 6.993813116, 32: 6.992414354, 33: 6.991015871, 34: 5.989617668, 35: 5.988419744, 36: 4.98722206, 37: 3.986224616, 38: 3.985427371, 39: 4.884630285, 40: 5.783653359, 41: 5.782496629, 42: 5.781340129, 43: 6.680183861, 44: 5.678847824, 45: 4.677712055, 46: 3.676776512, 47: 4.576041157, 48: 3.575125949, 49: 4.474410924, 50: 5.373516042, 51: 6.272441338, 52: 7.17118685, 53: 8.069752613, 54: 8.068138662000001, 55: 8.066525034, 56: 7.064911729, 57: 7.963498747, 58: 6.961906047, 59: 5.960513666, 60: 6.859321563, 61: 7.757949699, 62: 8.656398109, 63: 8.65466683, 64: 9.552935895999999, 65: 8.551025309, 66: 8.549315104, 67: 9.447605241, 68: 10.34571572, 69: 10.343646577, 70: 9.341577847, 71: 9.339709532000001, 72: 10.23784159, 73: 11.135794022, 74: 10.133566863, 75: 10.131540149, 76: 9.129513841, 77: 10.027687939, 78: 10.925682401, 79: 9.923497265, 80: 9.867790468000001, 81: 8.865816909999999, 82: 9.764043747000001, 83: 8.762090938, 84: 8.760338519999999, 85: 7.758586452, 86: 7.757034735, 87: 6.755483328, 88: 5.754132231, 89: 4.752981405, 90: 3.752030808, 91: 2.751280402, 92: 3.650730146, 93: 2.65, 94: 3.54947, 95: 4.448760106, 96: 5.347870354, 97: 6.24680078, 98: 6.24555142, 99: 5.244302309, 100: 5.243253449, 101: 5.242204798, 102: 6.141156357, 103: 5.139928126, 104: 4.13890014, 105: 3.13807236, 106: 4.037444746, 107: 4.036637257, 108: 3.03582993, 109: 3.035222764, 110: 3.934615719, 111: 4.833828796, 112: 5.73286203, 113: 6.631715458, 114: 6.630389115, 115: 6.629063037, 116: 7.527737224, 117: 7.961633116, 118: 6.960040789, 119: 5.958648781, 120: 4.957457051, 121: 3.95646556, 122: 4.855674266, 123: 3.854703132, 124: 4.753932191, 125: 4.752981405, 126: 3.752030808, 127: 2.751280402, 128: 3.650730146, 129: 2.65, 130: 3.54947, 131: 4.448760106, 132: 5.347870354, 133: 6.24680078, 134: 6.24555142, 135: 5.244302309, 136: 5.243253449, 137: 4.242204798, 138: 3.241356357, 139: 4.140708086, 140: 4.139879944, 141: 4.139051968, 142: 3.138224158, 143: 4.037596513, 144: 4.936788994, 145: 4.935801636, 146: 5.834814476, 147: 4.833647513, 148: 5.732680783, 149: 6.631534247, 150: 7.53020794, 151: 8.428701899, 152: 7.427016158, 153: 6.425530755, 154: 7.324245649, 155: 6.3227808, 156: 7.221516244, 157: 8.120071941000001, 158: 8.308974176, 159: 7.307312381, 160: 7.305850919, 161: 8.204389749000001, 162: 8.202748871000001, 163: 7.201108321, 164: 7.540220579, 165: 6.538712534, 166: 7.437404792, 167: 8.335917310999999, 168: 7.334250128, 169: 8.232783277999999, 170: 7.231136721, 171: 7.229690494, 172: 8.128244555, 173: 7.126618906, 174: 8.025193583, 175: 8.923588543999999, 176: 8.921803826, 177: 7.920019466, 178: 8.818435462, 179: 9.716671775, 180: 9.71472844, 181: 10.612785494, 182: 10.610662937, 183: 11.508540805, 184: 10.506239097, 185: 11.404137849, 186: 12.301857021, 187: 12.29939665, 188: 11.296936771, 189: 12.194677383, 190: 11.192238448, 191: 10.19];
cost = [0: 0.930860981, 1: 0.177713355, 2: 0.196284715, 3: 0.900621431, 4: 0.9105791009999999, 5: 0.181073305, 6: 0.9077078710000001, 7: 0.174781035, 8: 0.901415601, 9: 0.905081001, 10: 0.906913701, 11: 0.909846021, 12: 0.179973685, 13: 0.173559235, 14: 0.0, 15: 0.0, 16: 0.0, 17: 0.0, 18: 0.000185815, 19: 0.0, 20: 0.205326035, 21: 0.0, 22: 0.0, 23: 0.178140985, 24: 0.296929117, 25: 0.296929117, 26: 0.0, 27: 1.604945202, 28: 0.129195517, 29: 1.340972962, 30: 0.0, 31: 1.237477762, 32: 0.137760637, 33: 0.133121197, 34: 0.0, 35: 0.0, 36: 0.0, 37: 0.0, 38: 0.132764317, 39: 1.439709762, 40: 0.118178165, 41: 0.0, 42: 0.0, 43: 0.118178165, 44: 0.0, 45: 0.0, 46: 0.0, 47: 0.118178165, 48: 0.0, 49: 0.118178165, 50: 0.118178165, 51: 1.508944482, 52: 0.833911151, 53: 0.118178165, 54: 0.101289765, 55: 0.0, 56: 0.0, 57: 0.797440421, 58: 0.0, 59: 0.0, 60: 0.118178165, 61: 2.363315202, 62: 2.331909762, 63: 0.0, 64: 1.504186082, 65: 0.0, 66: 0.0, 67: 0.485412642, 68: 1.438520162, 69: 0.0, 70: 0.0, 71: 0.137165837, 72: 1.149447362, 73: 1.200481202, 74: 0.0, 75: 0.130979917, 76: 0.0, 77: 1.448631762, 78: 1.421508882, 79: 0.0, 80: 0.057403291, 81: 0.0, 82: 1.454817682, 83: 0.0, 84: 0.401851837, 85: 0.0, 86: 0.421837117, 87: 0.0, 88: 0.0, 89: 0.0, 90: 0.0, 91: 0.0, 92: 0.871176051, 93: 0.0, 94: 0.801411271, 95: 0.976556301, 96: 0.9595732809999999, 97: 0.944056421, 98: 0.208685985, 99: 0.0, 100: 0.169588385, 101: 0.157859105, 102: 0.886937271, 103: 0.0, 104: 0.0, 105: 0.0, 106: 0.875574531, 107: 0.146374185, 108: 0.0, 109: 0.142708785, 110: 0.878629031, 111: 0.877407231, 112: 0.8769796010000001, 113: 0.874047281, 114: 0.141670255, 115: 0.187304485, 116: 0.804587951, 117: 0.423946466, 118: 0.0, 119: 0.0, 120: 0.0, 121: 0.0, 122: 1.453033282, 123: 0.0, 124: 1.425672482, 125: 0.138950237, 126: 0.0, 127: 0.0, 128: 1.435784082, 129: 0.0, 130: 1.447680082, 131: 1.123276162, 132: 1.445300882, 133: 1.437211602, 134: 0.129195517, 135: 0.0, 136: 0.139307117, 137: 0.0, 138: 0.0, 139: 1.445538802, 140: 0.0, 141: 0.0, 142: 0.0, 143: 1.445538802, 144: 1.129818962, 145: 0.0, 146: 1.479799282, 147: 0.0, 148: 1.120606521, 149: 1.125738081, 150: 0.819982631, 151: 0.9835816509999999, 152: 0.0, 153: 0.0, 154: 0.909357301, 155: 0.0, 156: 1.829779602, 157: 1.015260482, 158: 0.025017825, 159: 0.0, 160: 0.0, 161: 0.118178165, 162: 0.199619837, 163: 0.0, 164: 0.907529526, 165: 0.0, 166: 0.901653682, 167: 1.483130162, 168: 0.0, 169: 1.496810562, 170: 0.0, 171: 0.244586717, 172: 1.464929282, 173: 0.0, 174: 1.443516482, 175: 1.433999682, 176: 0.126816317, 177: 0.0, 178: 1.504186082, 179: 1.506803202, 180: 0.241612717, 181: 1.547606482, 182: 0.191411597, 183: 1.526788482, 184: 0.0, 185: 0.951203951, 186: 0.931777331, 187: 0.178324255, 188: 0.0, 189: 0.884921301, 190: 0.0, 191: 0.0];
earn = [0: 0.0, 1: 0.0, 2: 0.0, 3: 0.0, 4: 0.0, 5: 0.0, 6: 0.0, 7: 0.0, 8: 0.0, 9: 0.0, 10: 0.0, 11: 0.0, 12: 0.0, 13: 0.0, 14: 0.0, 15: 0.354020433, 16: 0.0, 17: 0.348869723, 18: 0.0, 19: 0.377628648, 20: 0.0, 21: 0.341884923, 22: 0.353943061, 23: 0.0, 24: 0.0, 25: 0.0, 26: 0.535434115, 27: 0.0, 28: 0.0, 29: 0.0, 30: 0.671257573, 31: 0.0, 32: 0.0, 33: 0.0, 34: 1.008706015, 35: 0.47067289, 36: 0.437784109, 37: 0.965710362, 38: 0.0, 39: 0.0, 40: 0.099877498, 41: 0.499833601, 42: 0.504952492, 43: 0.013854557, 44: 0.176024879, 45: 0.18459459, 46: 0.502545863, 47: 0.0, 48: 0.48827799, 49: 0.094650232, 50: 0.09308300999999999, 51: 0.0, 52: 0.0, 53: 0.0, 54: 0.0, 55: 0.0, 56: 0.089212448, 57: 0.0, 58: 0.150344723, 59: 0.5366364300000001, 60: 0.0, 61: 0.0, 62: 0.0, 63: 0.474928886, 64: 0.0, 65: 0.403259954, 66: 0.446619196, 67: 0.0, 68: 0.0, 69: 0.346933253, 70: 0.835170367, 71: 0.0, 72: 0.0, 73: 0.0, 74: 0.677997525, 75: 0.0, 76: 0.668346153, 77: 0.0, 78: 0.0, 79: 0.743151244, 80: 0.0, 81: 0.692158525, 82: 0.0, 83: 0.5218067199999999, 84: 0.0, 85: 0.425785081, 86: 0.0, 87: 0.393527263, 88: 0.460433213, 89: 0.47008973, 90: 0.451739745, 91: 0.446085932, 92: 0.0, 93: 0.494790167, 94: 0.0, 95: 0.0, 96: 0.0, 97: 0.0, 98: 0.0, 99: 0.400217352, 100: 0.0, 101: 0.0, 102: 0.0, 103: 0.382966542, 104: 0.393590423, 105: 0.390999794, 106: 0.0, 107: 0.0, 108: 0.389882142, 109: 0.0, 110: 0.0, 111: 0.0, 112: 0.0, 113: 0.0, 114: 0.0, 115: 0.0, 116: 0.0, 117: 0.0, 118: 0.475702748, 119: 0.488106677, 120: 0.503143561, 121: 0.518552665, 122: 0.0, 123: 0.545113723, 124: 0.0, 125: 0.0, 126: 0.526380482, 127: 0.520644871, 128: 0.0, 129: 0.518854606, 130: 0.0, 131: 0.0, 132: 0.0, 133: 0.0, 134: 0.0, 135: 0.375089925, 136: 0.0, 137: 0.5590946, 138: 0.413600806, 139: 0.0, 140: 0.164445456, 141: 0.100892463, 142: 0.27810354, 143: 0.0, 144: 0.0, 145: 0.059893525, 146: 0.0, 147: 0.003470027, 148: 0.0, 149: 0.0, 150: 0.0, 151: 0.0, 152: 0.008309535, 153: 0.002629788, 154: 0.0, 155: 0.010051546, 156: 0.0, 157: 0.0, 158: 0.0, 159: 0.03118539, 160: 0.100399521, 161: 0.020418008, 162: 0.0, 163: 0.627932025, 164: 0.0, 165: 0.132095133, 166: 0.0, 167: 0.0, 168: 0.527475268, 169: 0.0, 170: 0.466512869, 171: 0.0, 172: 0.0, 173: 0.607057398, 174: 0.0, 175: 0.0, 176: 0.0, 177: 0.611593335, 178: 0.0, 179: 0.0, 180: 0.0, 181: 0.0, 182: 0.0, 183: 0.0, 184: 0.286275552, 185: 0.0, 186: 0.0, 187: 0.0, 188: 0.388619277, 189: 0.0, 190: 0.343931019, 191: 0.352174232];
total_cost = 90.50208225199999;
total_earn = 30.778028939;
