production = [0: 0.0, 1: 0.0, 2: 0.0, 3: 0.0, 4: 0.0, 5: 0.0, 6: 0.0, 7: 0.0, 8: 0.0, 9: 0.0, 10: 0.0, 11: 0.0, 12: 0.0, 13: 0.0, 14: 0.0, 15: 0.0, 16: 0.0, 17: 0.0, 18: 0.0, 19: 0.0, 20: 0.0, 21: 0.0, 22: 0.0, 23: 0.0, 24: 0.0, 25: 0.001, 26: 0.008800000000000001, 27: 0.0325, 28: 0.0, 29: 0.08450000000000001, 30: 0.118, 31: 0.1752, 32: 0.0, 33: 0.3347, 34: 0.0, 35: 0.8383, 36: 0.0, 37: 1.0655, 38: 0.0, 39: 1.2303, 40: 1.338, 41: 0.0, 42: 1.5545, 43: 0.0, 44: 0.0, 45: 0.0, 46: 1.8447, 47: 0.0, 48: 1.9403, 49: 0.0, 50: 1.9638, 51: 0.0, 52: 0.0, 53: 0.0, 54: 1.9552, 55: 1.9115, 56: 0.0, 57: 1.856, 58: 1.7982, 59: 1.105604167, 60: 0.0, 61: 0.0, 62: 0.0, 63: 0.0, 64: 1.2275, 65: 1.109604167, 66: 0.0, 67: 0.0, 68: 0.4507, 69: 0.7083, 70: 0.5972, 71: 0.3782, 72: 0.2502, 73: 0.0, 74: 0.0, 75: 0.103, 76: 0.0, 77: 0.0, 78: 0.0, 79: 0.0, 80: 0.0003, 81: 0.0, 82: 0.0, 83: 0.0, 84: 0.0, 85: 0.0, 86: 0.0, 87: 0.0, 88: 0.0, 89: 0.0, 90: 0.0, 91: 0.0, 92: 0.0, 93: 0.0, 94: 0.0, 95: 0.0, 96: 0.0, 97: 0.0, 98: 0.0, 99: 0.0, 100: 0.0, 101: 0.0, 102: 0.0, 103: 0.0, 104: 0.0, 105: 0.0, 106: 0.0, 107: 0.0, 108: 0.0, 109: 0.0, 110: 0.0, 111: 0.0, 112: 0.0, 113: 0.0, 114: 0.0, 115: 0.0, 116: 0.0, 117: 0.0, 118: 0.0, 119: 0.0, 120: 0.0, 121: 0.0, 122: 0.0, 123: 0.0, 124: 0.0095, 125: 0.0, 126: 0.0, 127: 0.1445, 128: 0.0, 129: 0.0, 130: 0.2617, 131: 0.2722, 132: 0.0, 133: 0.0, 134: 0.0, 135: 0.0, 136: 0.0, 137: 0.0, 138: 0.4637, 139: 1.0877, 140: 0.0, 141: 0.585, 142: 0.703, 143: 0.0, 144: 0.8087, 145: 0.0, 146: 2.9007, 147: 0.0, 148: 0.5258, 149: 0.8808, 150: 2.2435, 151: 0.3625, 152: 0.0, 153: 0.7702, 154: 0.0, 155: 0.0, 156: 0.6175, 157: 0.6887, 158: 0.6565, 159: 0.0, 160: 0.0, 161: 0.0, 162: 0.0, 163: 0.9183, 164: 0.8155, 165: 0.0, 166: 0.0, 167: 0.0, 168: 0.0, 169: 0.225, 170: 0.0, 171: 0.0, 172: 0.0, 173: 0.0, 174: 0.0, 175: 0.0, 176: 0.0, 177: 0.0, 178: 0.0, 179: 0.0, 180: 0.0, 181: 0.0, 182: 0.0, 183: 0.0, 184: 0.0, 185: 0.0, 186: 0.0, 187: 0.0, 188: 0.0, 189: 0.0, 190: 0.0, 191: 0.0];
buy = [0: 0.330304167, 1: 0.290904167, 2: 1.321304167, 3: 0.280804167, 4: 0.0, 5: 0.296404167, 6: 0.0, 7: 0.0, 8: 0.282104167, 9: 0.288104167, 10: 1.291104167, 11: 1.295904167, 12: 0.294604167, 13: 0.284104167, 14: 0.288404167, 15: 1.297104167, 16: 0.297304167, 17: 1.298604167, 18: 1.900304167, 19: 1.263404167, 20: 1.336104167, 21: 0.351404167, 22: 1.345404167, 23: 0.0, 24: 0.0, 25: 1.248604167, 26: 1.241004167, 27: 0.0, 28: 0.0, 29: 1.027904167, 30: 1.000104167, 31: 0.940904167, 32: 0.115804167, 33: 0.7772041669999999, 34: 0.110104167, 35: 0.0, 36: 1.117404167, 37: 0.0, 38: 1.111604167, 39: 0.0, 40: 0.0, 41: 0.0, 42: 0.0, 43: 1.605304167, 44: 0.257104167, 45: 0.188104167, 46: 0.0, 47: 0.0, 48: 0.0, 49: 1.157604167, 50: 0.0, 51: 0.0, 52: 0.0, 53: 1.165804167, 54: 0.0, 55: 0.0, 56: 0.0, 57: 0.0, 58: 0.0, 59: 0.0, 60: 0.608604167, 61: 1.887304167, 62: 1.860904167, 63: 0.0, 64: 0.0, 65: 0.0, 66: 1.119904167, 67: 1.120404167, 68: 0.0, 69: 0.0, 70: 0.0, 71: 0.737104167, 72: 0.0, 73: 0.109304167, 74: 1.110604167, 75: 0.007104167, 76: 0.0, 77: 0.0, 78: 1.098104167, 79: 1.099104167, 80: 0.0, 81: 0.0, 82: 1.123604167, 83: 0.0, 84: 1.337804167, 85: 0.347104167, 86: 1.354604167, 87: 1.356604167, 88: 0.0, 89: 0.0, 90: 1.238304167, 91: 1.233404167, 92: 0.0, 93: 0.0, 94: 0.0, 95: 0.0, 96: 0.0, 97: 0.0, 98: 1.341604167, 99: 0.0, 100: 0.277604167, 101: 1.258404167, 102: 0.258404167, 103: 1.250904167, 104: 0.0, 105: 0.239304167, 106: 1.239804167, 107: 0.0, 108: 1.230904167, 109: 0.233604167, 110: 1.244804167, 111: 1.242804167, 112: 0.0, 113: 0.237304167, 114: 0.231904167, 115: 0.0, 116: 0.123604167, 117: 1.116604167, 118: 1.114104167, 119: 1.112904167, 120: 1.123304167, 121: 1.124304167, 122: 0.0, 123: 0.0, 124: 0.0, 125: 0.0, 126: 1.118904167, 127: 0.0, 128: 0.0, 129: 0.109304167, 130: 0.855904167, 131: 0.0, 132: 1.115604167, 133: 0.0, 134: 0.0, 135: 0.0, 136: 0.0, 137: 1.115304167, 138: 0.645904167, 139: 0.028104167, 140: 0.0, 141: 0.0, 142: 0.414404167, 143: 0.0, 144: 0.0, 145: 0.141104167, 146: 0.0, 147: 0.0, 148: 0.115104167, 149: 0.0, 150: 0.0, 151: 0.054104167, 152: 1.175104167, 153: 0.023404167, 154: 0.926604167, 155: 0.003304167, 156: 0.821304167, 157: 0.754104167, 158: 0.0, 159: 0.0, 160: 0.182304167, 161: 1.187604167, 162: 0.167804167, 163: 0.0, 164: 0.346904167, 165: 1.643604167, 166: 0.198904167, 167: 1.147404167, 168: 0.0, 169: 0.0, 170: 0.155604167, 171: 0.0, 172: 0.0, 173: 0.0, 174: 0.117104167, 175: 1.106104167, 176: 1.106604167, 177: 1.187104167, 178: 0.165104167, 179: 0.0, 180: 1.203104167, 181: 1.201604167, 182: 1.160904167, 183: 1.184104167, 184: 1.387604167, 185: 0.0, 186: 0.331804167, 187: 1.291904167, 188: 0.0, 189: 1.255104167, 190: 0.0, 191: 0.244304167];
sell = [0: 0.0, 1: 0.0, 2: 0.0, 3: 0.0, 4: 0.602895833, 5: 0.0, 6: 0.607595833, 7: 0.6138958329999999, 8: 0.0, 9: 0.0, 10: 0.0, 11: 0.0, 12: 0.0, 13: 0.0, 14: 0.0, 15: 0.0, 16: 0.0, 17: 0.0, 18: 0.0, 19: 0.0, 20: 0.0, 21: 0.0, 22: 0.0, 23: 0.6078958330000001, 24: 0.650395833, 25: 0.0, 26: 0.0, 27: 0.682695833, 28: 0.791395833, 29: 0.0, 30: 0.0, 31: 0.0, 32: 0.0, 33: 0.0, 34: 0.0, 35: 0.720895833, 36: 0.0, 37: 1.847895833, 38: 0.0, 39: 0.119395833, 40: 1.228395833, 41: 0.779895833, 42: 1.432895833, 43: 0.0, 44: 0.0, 45: 0.0, 46: 2.561395833, 47: 0.726895833, 48: 1.775495833, 49: 0.0, 50: 0.792195833, 51: 0.7308958330000001, 52: 0.728395833, 53: 0.0, 54: 0.789395833, 55: 1.799895833, 56: 0.788095238, 57: 1.744095833, 58: 2.594095833, 59: 0.0, 60: 0.0, 61: 0.0, 62: 0.0, 63: 0.499465122, 64: 1.962395833, 65: 0.0, 66: 0.0, 67: 0.0, 68: 0.340795833, 69: 0.0, 70: 1.384795833, 71: 0.0, 72: 1.033095833, 73: 0.0, 74: 0.0, 75: 0.0, 76: 0.780595833, 77: 0.781595833, 78: 0.0, 79: 0.0, 80: 0.803695833, 81: 0.7933958330000001, 82: 0.0, 83: 0.617595833, 84: 0.0, 85: 0.0, 86: 0.0, 87: 0.0, 88: 0.637895833, 89: 0.668595833, 90: 0.0, 91: 0.0, 92: 0.667395833, 93: 0.782895833, 94: 0.781595833, 95: 0.494895833, 96: 0.522695833, 97: 0.548095833, 98: 0.0, 99: 0.620395833, 100: 0.0, 101: 0.0, 102: 0.0, 103: 0.0, 104: 0.646395833, 105: 0.0, 106: 0.0, 107: 0.660395833, 108: 0.0, 109: 0.0, 110: 0.0, 111: 0.0, 112: 0.657895833, 113: 0.0, 114: 0.0, 115: 0.593395833, 116: 0.0, 117: 0.0, 118: 0.0, 119: 0.0, 120: 0.0, 121: 0.0, 122: 0.0, 123: 0.790695833, 124: 0.800895833, 125: 0.783195833, 126: 0.0, 127: 0.927895833, 128: 0.792395833, 129: 0.0, 130: 0.0, 131: 1.055095833, 132: 0.0, 133: 0.0, 134: 0.791395833, 135: 0.783395833, 136: 0.782895833, 137: 0.0, 138: 0.0, 139: 0.0, 140: 0.783895833, 141: 1.368395833, 142: 0.0, 143: 0.784195833, 144: 0.0, 145: 0.0, 146: 3.656095833, 147: 0.271095833, 148: 0.0, 149: 1.131495833, 150: 1.094695833, 151: 0.0, 152: 0.0, 153: 0.0, 154: 0.0, 155: 0.0, 156: 0.0, 157: 0.0, 158: 0.211695833, 159: 0.0, 160: 0.0, 161: 0.0, 162: 0.0, 163: 0.761195833, 164: 0.0, 165: 0.0, 166: 0.0, 167: 0.0, 168: 0.724895833, 169: 0.966095833, 170: 0.0, 171: 0.694395833, 172: 0.767895833, 173: 0.775395833, 174: 0.0, 175: 0.0, 176: 0.0, 177: 0.0, 178: 0.0, 179: 0.732695833, 180: 0.0, 181: 0.0, 182: 0.0, 183: 0.0, 184: 0.0, 185: 0.536395833, 186: 0.0, 187: 0.0, 188: 0.631695833, 189: 0.0, 190: 0.639395833, 191: 0.0];
charge = [0: 0.0, 1: 0.0, 2: 1.0, 3: 0.0, 4: 0.0, 5: 0.0, 6: 0.0, 7: 0.0, 8: 0.0, 9: 0.0, 10: 1.0, 11: 1.0, 12: 0.0, 13: 0.0, 14: 0.0, 15: 1.0, 16: 0.0, 17: 1.0, 18: 1.0, 19: 1.0, 20: 1.0, 21: 0.0, 22: 1.0, 23: 0.0, 24: 0.0, 25: 1.0, 26: 1.0, 27: 0.0, 28: 0.0, 29: 1.0, 30: 1.0, 31: 1.0, 32: 0.0, 33: 1.0, 34: 0.0, 35: 0.0, 36: 1.0, 37: 0.0, 38: 1.0, 39: 1.0, 40: 0.0, 41: 0.0, 42: 0.0, 43: 1.0, 44: 0.0, 45: 0.0, 46: 0.0, 47: 0.0, 48: 0.0, 49: 1.0, 50: 1.0, 51: 0.0, 52: 0.0, 53: 1.0, 54: 1.0, 55: 0.0, 56: 0.0, 57: 0.0, 58: 0.0, 59: 1.0, 60: 0.0, 61: 1.0, 62: 1.0, 63: 0.0, 64: 0.0, 65: 1.0, 66: 1.0, 67: 1.0, 68: 0.0, 69: 0.595695833, 70: 0.0, 71: 1.0, 72: 0.0, 73: 0.0, 74: 1.0, 75: 0.0, 76: 0.0, 77: 0.0, 78: 1.0, 79: 1.0, 80: 0.0, 81: 0.0, 82: 1.0, 83: 0.0, 84: 1.0, 85: 0.0, 86: 1.0, 87: 1.0, 88: 0.0, 89: 0.0, 90: 1.0, 91: 1.0, 92: 0.0, 93: 0.0, 94: 0.0, 95: 0.0, 96: 0.0, 97: 0.0, 98: 1.0, 99: 0.0, 100: 0.0, 101: 1.0, 102: 0.0, 103: 1.0, 104: 0.0, 105: 0.0, 106: 1.0, 107: 0.0, 108: 1.0, 109: 0.0, 110: 1.0, 111: 1.0, 112: 0.0, 113: 0.0, 114: 0.0, 115: 0.0, 116: 0.0, 117: 1.0, 118: 1.0, 119: 1.0, 120: 1.0, 121: 1.0, 122: 0.0, 123: 0.0, 124: 0.0, 125: 0.0, 126: 1.0, 127: 0.0, 128: 0.0, 129: 0.0, 130: 1.0, 131: 0.0, 132: 1.0, 133: 0.0, 134: 0.0, 135: 0.0, 136: 0.0, 137: 1.0, 138: 1.0, 139: 1.0, 140: 0.0, 141: 0.0, 142: 1.0, 143: 0.0, 144: 0.149595833, 145: 0.0, 146: 0.0, 147: 0.0, 148: 0.0, 149: 0.0, 150: 1.0, 151: 0.0, 152: 1.0, 153: 0.0, 154: 0.0, 155: 0.0, 156: 1.0, 157: 1.0, 158: 0.0, 159: 0.0, 160: 0.0, 161: 1.0, 162: 0.0, 163: 0.0, 164: 0.0, 165: 1.0, 166: 0.0, 167: 1.0, 168: 0.0, 169: 0.0, 170: 0.0, 171: 0.0, 172: 0.0, 173: 0.0, 174: 0.0, 175: 1.0, 176: 1.0, 177: 1.0, 178: 0.0, 179: 0.0, 180: 1.0, 181: 1.0, 182: 1.0, 183: 1.0, 184: 1.0, 185: 0.0, 186: 0.0, 187: 1.0, 188: 0.0, 189: 1.0, 190: 0.0, 191: 0.0];
discharge = [0: 0.0, 1: 0.0, 2: 0.0, 3: 0.0, 4: 1.0, 5: 0.0, 6: 1.0, 7: 1.0, 8: 0.0, 9: 0.0, 10: 0.0, 11: 0.0, 12: 0.0, 13: 0.0, 14: 0.0, 15: 0.0, 16: 0.0, 17: 0.0, 18: 0.0, 19: 0.0, 20: 0.0, 21: 0.0, 22: 0.0, 23: 1.0, 24: 1.0, 25: 0.0, 26: 0.0, 27: 1.0, 28: 1.0, 29: 0.0, 30: 0.0, 31: 0.0, 32: 0.0, 33: 0.0, 34: 0.0, 35: 0.0, 36: 0.0, 37: 1.0, 38: 0.0, 39: 0.0, 40: 0.0, 41: 1.0, 42: 0.0, 43: 0.0, 44: 0.0, 45: 0.0, 46: 1.0, 47: 1.0, 48: 0.0, 49: 0.0, 50: 0.0, 51: 1.0, 52: 1.0, 53: 0.0, 54: 0.0, 55: 0.0, 56: 1.0, 57: 0.0, 58: 1.0, 59: 0.0, 60: 0.0, 61: 0.0, 62: 0.0, 63: 0.770410321, 64: 1.0, 65: 0.0, 66: 0.0, 67: 0.0, 68: 0.0, 69: 0.0, 70: 1.0, 71: 0.0, 72: 1.0, 73: 0.0, 74: 0.0, 75: 0.0, 76: 1.0, 77: 1.0, 78: 0.0, 79: 0.0, 80: 1.0, 81: 1.0, 82: 0.0, 83: 1.0, 84: 0.0, 85: 0.0, 86: 0.0, 87: 0.0, 88: 1.0, 89: 1.0, 90: 0.0, 91: 0.0, 92: 1.0, 93: 1.0, 94: 1.0, 95: 1.0, 96: 1.0, 97: 1.0, 98: 0.0, 99: 1.0, 100: 0.0, 101: 0.0, 102: 0.0, 103: 0.0, 104: 1.0, 105: 0.0, 106: 0.0, 107: 1.0, 108: 0.0, 109: 0.0, 110: 0.0, 111: 0.0, 112: 1.0, 113: 0.0, 114: 0.0, 115: 1.0, 116: 0.0, 117: 0.0, 118: 0.0, 119: 0.0, 120: 0.0, 121: 0.0, 122: 0.135671296, 123: 1.0, 124: 1.0, 125: 1.0, 126: 0.0, 127: 1.0, 128: 1.0, 129: 0.0, 130: 0.0, 131: 1.0, 132: 0.0, 133: 0.120893519, 134: 1.0, 135: 1.0, 136: 1.0, 137: 0.0, 138: 0.0, 139: 0.0, 140: 1.0, 141: 1.0, 142: 0.0, 143: 1.0, 144: 0.0, 145: 0.0, 146: 1.0, 147: 1.0, 148: 0.0, 149: 1.0, 150: 0.0, 151: 0.0, 152: 0.0, 153: 0.0, 154: 0.0, 155: 1.0, 156: 0.0, 157: 0.0, 158: 0.0, 159: 0.534893519, 160: 0.0, 161: 0.0, 162: 0.0, 163: 0.0, 164: 0.0, 165: 0.0, 166: 0.0, 167: 0.0, 168: 1.0, 169: 1.0, 170: 0.0, 171: 1.0, 172: 1.0, 173: 1.0, 174: 0.0, 175: 0.0, 176: 0.0, 177: 0.0, 178: 0.0, 179: 1.0, 180: 0.0, 181: 0.0, 182: 0.0, 183: 0.0, 184: 0.0, 185: 1.0, 186: 0.0, 187: 0.0, 188: 1.0, 189: 0.0, 190: 1.0, 191: 0.0];
soc = [0: 5.79884, 1: 5.797680232, 2: 6.696520696, 3: 6.695181392, 4: 5.693842356, 5: 5.692703587, 6: 4.691565046, 7: 3.690626733, 8: 3.689888608, 9: 3.68915063, 10: 4.5884128, 11: 5.487495118, 12: 5.486397619, 13: 5.485300339, 14: 5.484203279, 15: 6.383106438, 16: 6.381829817, 17: 7.280553451, 18: 8.17909734, 19: 9.077461521, 20: 9.975646029, 21: 9.973650899000001, 22: 10.871656169, 23: 9.869481838, 24: 8.867507942, 25: 9.765734439999999, 26: 10.663781293, 27: 9.661648537, 28: 8.659716207000001, 29: 9.557984264, 30: 10.456072667, 31: 11.353981453, 32: 11.351710656, 33: 12.249440314, 34: 12.246990426, 35: 12.244541028, 36: 13.14209212, 37: 12.139463701, 38: 13.037035809, 39: 13.934428401, 40: 13.931641516, 41: 12.928855187, 42: 12.926269416, 43: 13.823684163, 44: 13.820919426, 45: 13.818155242, 46: 12.815391611, 47: 11.812828532, 48: 11.810465967, 49: 12.708103874, 50: 13.605562253, 51: 12.60284114, 52: 11.600320572, 53: 12.498000508, 54: 13.395500908, 55: 13.392821808, 56: 12.390143243, 57: 12.387665215, 58: 11.385187682, 59: 12.282910644, 60: 12.280454062, 61: 13.177997971, 62: 14.075362372, 63: 13.302136978, 64: 12.299476551, 65: 13.197016655, 66: 14.094377252, 67: 14.991558377, 68: 14.988560065, 69: 15.521688603, 70: 14.518584265, 71: 15.415680548, 72: 14.412597412, 73: 14.409714893, 74: 15.30683295, 75: 15.303771583, 76: 14.300710829, 77: 13.297850687, 78: 14.195191116, 79: 15.092352078, 80: 14.089333608, 81: 13.086515741, 82: 13.983898438, 83: 12.981101658, 84: 13.878505438, 85: 13.875729737, 86: 14.772954591, 87: 15.67, 88: 14.666866, 89: 13.663932627, 90: 14.56119984, 91: 15.4582876, 92: 14.455195943, 93: 13.452304904, 94: 12.449614443, 95: 11.44712452, 96: 10.444835095, 97: 9.442746128, 98: 10.340857579, 99: 9.338789407, 100: 9.336921649000001, 101: 10.235054265, 102: 10.233007254, 103: 11.130960653, 104: 10.12873446, 105: 10.126708714, 106: 11.024683372, 107: 10.022478435, 108: 10.920473939, 109: 10.918289845, 110: 11.816106187, 111: 12.713742965, 112: 11.711200217, 113: 11.708857977, 114: 11.706516205, 115: 10.704174902, 116: 10.702034067, 117: 11.59989366, 118: 12.497573681, 119: 13.395074167, 120: 14.292395152, 121: 15.189536673, 122: 15.050827469, 123: 14.047817304, 124: 13.04500774, 125: 12.042398739, 126: 12.939990259, 127: 11.937402261, 128: 10.93501478, 129: 10.932827777, 130: 11.830641212, 131: 10.828275084, 132: 11.726109429, 133: 11.602870688, 134: 10.600550114, 135: 9.598430004000001, 136: 8.596510318, 137: 9.494791016000001, 138: 10.392892058, 139: 11.290813479, 140: 10.288555317, 141: 9.286497605999999, 142: 10.184640306, 143: 9.182603378, 144: 9.315403107, 145: 9.313540027, 146: 8.311677318999999, 147: 7.310014983, 148: 7.30855298, 149: 6.30709127, 150: 7.205829851, 151: 7.204388686, 152: 8.102947808, 153: 8.101327218, 154: 8.099706953, 155: 7.098087011, 156: 7.996667394, 157: 8.89506806, 158: 8.893289047, 159: 8.356616871, 160: 8.354945547, 161: 9.253274557999999, 162: 9.251423902999999, 163: 9.249573617999999, 164: 9.247723704, 165: 10.145874159, 166: 10.143844984, 167: 11.041816215, 168: 10.039607852, 169: 9.037599930000001, 170: 9.035792410000001, 171: 8.033985252000001, 172: 7.032378455, 173: 6.030971979, 174: 6.029765785, 175: 6.928559832, 176: 7.82717412, 177: 8.725608684999999, 178: 8.723863563, 179: 7.72211879, 180: 8.620574367, 181: 9.518850252, 182: 10.416946482, 183: 11.314863092, 184: 12.21260012, 185: 11.2101576, 186: 11.207915568, 187: 12.105673985, 188: 11.10325285, 189: 12.0010322, 190: 10.998631993, 191: 10.996432267];
cost = [0: 0.201782815, 1: 0.177713355, 2: 0.925362881, 3: 0.171543265, 4: 0.0, 5: 0.181073305, 6: 0.0, 7: 0.0, 8: 0.172337435, 9: 0.176002835, 10: 0.906913701, 11: 0.909846021, 12: 0.179973685, 13: 0.173559235, 14: 0.176186105, 15: 0.9105791009999999, 16: 0.181623115, 17: 0.911495451, 18: 1.279073981, 19: 0.889991771, 20: 0.934404201, 21: 0.214672805, 22: 0.940085571, 23: 0.0, 24: 0.0, 25: 1.603517682, 26: 1.594476722, 27: 0.0, 28: 0.0, 29: 1.340972962, 30: 1.307902082, 31: 1.237477762, 32: 0.137760637, 33: 1.042740242, 34: 0.130979917, 35: 0.0, 36: 1.447442162, 37: 0.0, 38: 1.440542482, 39: 0.118178165, 40: 0.0, 41: 0.0, 42: 0.0, 43: 2.027848002, 44: 0.305851117, 45: 0.223768717, 46: 0.0, 47: 0.0, 48: 0.0, 49: 1.495264082, 50: 0.118178165, 51: 0.0, 52: 0.0, 53: 0.8303679309999999, 54: 0.118178165, 55: 0.0, 56: 0.0, 57: 0.0, 58: 0.0, 59: 0.118178165, 60: 0.723995517, 61: 2.363315202, 62: 2.331909762, 63: 0.0, 64: 0.0, 65: 0.118178165, 66: 1.450416162, 67: 1.451010962, 68: 0.0, 69: 0.070398241, 70: 0.0, 71: 0.995037282, 72: 0.0, 73: 0.130028237, 74: 1.439352882, 75: 0.008451116999999999, 76: 0.0, 77: 0.0, 78: 1.424482882, 79: 1.425672482, 80: 0.0, 81: 0.0, 82: 1.454817682, 83: 0.0, 84: 1.709630002, 85: 0.412915117, 86: 1.729615282, 87: 1.731994482, 88: 0.0, 89: 0.0, 90: 0.874658181, 91: 0.8716647709999999, 92: 0.0, 93: 0.0, 94: 0.0, 95: 0.0, 96: 0.0, 97: 0.0, 98: 0.937764151, 99: 0.0, 100: 0.169588385, 101: 0.886937271, 102: 0.157859105, 103: 0.882355521, 104: 0.0, 105: 0.146190915, 106: 0.875574531, 107: 0.0, 108: 0.870137521, 109: 0.142708785, 110: 0.878629031, 111: 0.877407231, 112: 0.0, 113: 0.144969115, 114: 0.141670255, 115: 0.0, 116: 0.075509785, 117: 0.800311651, 118: 0.798784401, 119: 0.798051321, 120: 1.454460802, 121: 1.455650402, 122: 0.0, 123: 0.0, 124: 0.0, 125: 0.0, 126: 1.449226562, 127: 0.0, 128: 0.0, 129: 0.130028237, 130: 1.136361762, 131: 0.0, 132: 1.445300882, 133: 0.0, 134: 0.0, 135: 0.0, 136: 0.0, 137: 1.444944002, 138: 0.886545762, 139: 0.151610882, 140: 0.0, 141: 0.0, 142: 0.611153362, 143: 0.0, 144: 0.017678961, 145: 0.167857517, 146: 0.0, 147: 0.0, 148: 0.070317135, 149: 0.0, 150: 0.118178165, 151: 0.033052235, 152: 0.836049301, 153: 0.014297605, 154: 0.566062485, 155: 0.002018515, 156: 1.095201602, 157: 1.015260482, 158: 0.0, 159: 0.0, 160: 0.216869037, 161: 1.530952381, 162: 0.199619837, 163: 0.0, 164: 0.412677197, 165: 2.073409682, 166: 0.236616397, 167: 1.483130162, 168: 0.0, 169: 0.0, 170: 0.185106717, 171: 0.0, 172: 0.0, 173: 0.0, 174: 0.139307117, 175: 1.433999682, 176: 1.434594482, 177: 1.530357282, 178: 0.196407917, 179: 0.0, 180: 1.549390882, 181: 1.547606482, 182: 1.499189762, 183: 1.526788482, 184: 0.965865551, 185: 0.0, 186: 0.202699165, 187: 0.907402421, 188: 0.0, 189: 0.884921002, 190: 0.0, 191: 0.149245415];
earn = [0: 0.0, 1: 0.0, 2: 0.0, 3: 0.0, 4: 0.384707831, 5: 0.0, 6: 0.373671438, 7: 0.374476458, 8: 0.0, 9: 0.0, 10: 0.0, 11: 0.0, 12: 0.0, 13: 0.0, 14: 0.0, 15: 0.0, 16: 0.0, 17: 0.0, 18: 0.0, 19: 0.0, 20: 0.0, 21: 0.0, 22: 0.0, 23: 0.413429956, 24: 0.483374183, 25: 0.0, 26: 0.0, 27: 0.559742314, 28: 0.683053744, 29: 0.0, 30: 0.0, 31: 0.0, 32: 0.0, 33: 0.0, 34: 0.0, 35: 0.47067289, 36: 0.0, 37: 0.965710362, 38: 0.0, 39: 0.057680127, 40: 0.537177498, 41: 0.288093521, 42: 0.504952492, 43: 0.0, 44: 0.0, 45: 0.0, 46: 0.502545863, 47: 0.102565002, 48: 0.32402799, 49: 0.0, 50: 0.09308300999999999, 51: 0.085441723, 52: 0.037366706, 53: 0.0, 54: 0.038838275, 55: 0.087474937, 56: 0.089212448, 57: 0.316030165, 58: 0.490024703, 59: 0.0, 60: 0.0, 61: 0.0, 62: 0.0, 63: 0.198237707, 64: 0.95627549, 65: 0.0, 66: 0.0, 67: 0.0, 68: 0.197388947, 69: 0.0, 70: 0.835170367, 71: 0.0, 72: 0.7177949850000001, 73: 0.0, 74: 0.0, 75: 0.0, 76: 0.668346153, 77: 0.68647562, 78: 0.0, 79: 0.0, 80: 0.720513315, 81: 0.692158525, 82: 0.0, 83: 0.5218067199999999, 84: 0.0, 85: 0.0, 86: 0.0, 87: 0.0, 88: 0.460433213, 89: 0.47008973, 90: 0.0, 91: 0.0, 92: 0.43080401, 93: 0.494790167, 94: 0.502409802, 95: 0.297778823, 96: 0.358151185, 97: 0.368210781, 98: 0.0, 99: 0.400217352, 100: 0.0, 101: 0.0, 102: 0.0, 103: 0.0, 104: 0.393590423, 105: 0.0, 106: 0.0, 107: 0.385274929, 108: 0.0, 109: 0.0, 110: 0.0, 111: 0.0, 112: 0.388816438, 113: 0.0, 114: 0.0, 115: 0.348204675, 116: 0.0, 117: 0.0, 118: 0.0, 119: 0.0, 120: 0.0, 121: 0.0, 122: 0.0, 123: 0.538305723, 124: 0.539643613, 125: 0.528892146, 126: 0.0, 127: 0.616679571, 128: 0.559906896, 129: 0.0, 130: 0.0, 131: 0.611850074, 132: 0.0, 133: 0.0, 134: 0.418410977, 135: 0.375089925, 136: 0.39841569, 137: 0.0, 138: 0.0, 139: 0.0, 140: 0.190721856, 141: 0.294752463, 142: 0.0, 143: 0.112688941, 144: 0.0, 145: 0.0, 146: 0.155749683, 147: 0.003470027, 148: 0.0, 149: 0.026477003, 150: 0.01324582, 151: 0.0, 152: 0.0, 153: 0.0, 154: 0.0, 155: 0.0, 156: 0.0, 157: 0.0, 158: 0.009970873999999999, 159: 0.0, 160: 0.0, 161: 0.0, 162: 0.0, 163: 0.287732025, 164: 0.0, 165: 0.0, 166: 0.0, 167: 0.0, 168: 0.412610708, 169: 0.5718321240000001, 170: 0.0, 171: 0.460245558, 172: 0.575845085, 173: 0.607057398, 174: 0.0, 175: 0.0, 176: 0.0, 177: 0.0, 178: 0.0, 179: 0.572162176, 180: 0.0, 181: 0.0, 182: 0.0, 183: 0.0, 184: 0.0, 185: 0.292979404, 186: 0.0, 187: 0.0, 188: 0.388619277, 189: 0.0, 190: 0.343931019, 191: 0.0];
total_cost = 93.963252893;
total_earn = 29.663579045;
% _objective = 64.299673848;