production = [0: 0.0, 1: 0.0, 2: 0.0, 3: 0.0, 4: 0.0, 5: 0.0, 6: 0.0, 7: 0.0, 8: 0.0, 9: 0.0, 10: 0.0, 11: 0.0, 12: 0.0, 13: 0.0, 14: 0.0, 15: 0.0, 16: 0.0, 17: 0.0, 18: 0.0, 19: 0.0, 20: 0.0, 21: 0.0, 22: 0.0, 23: 0.0, 24: 0.0, 25: 0.0, 26: 0.008800000000000001, 27: 0.0, 28: 0.057, 29: 0.08450000000000001, 30: 0.0, 31: 0.1752, 32: 0.0, 33: 0.3347, 34: 0.5723, 35: 0.0, 36: 0.9507, 37: 0.0, 38: 1.1632, 39: 0.0, 40: 1.338, 41: 0.0, 42: 0.0, 43: 1.6453, 44: 0.0, 45: 1.7745, 46: 0.0, 47: 0.0, 48: 0.0, 49: 1.9652, 50: 0.0, 51: 1.9423, 52: 1.9623, 53: 1.9503, 54: 0.0, 55: 1.9115, 56: 1.111904762, 57: 0.0, 58: 0.0, 59: 1.7477, 60: 1.665, 61: 0.0, 62: 1.4155, 63: 0.0, 64: 1.2275, 65: 1.185, 66: 0.9878, 67: 0.8117, 68: 0.0, 69: 0.0, 70: 0.5972, 71: 0.0, 72: 0.2502, 73: 0.1995, 74: 0.1293, 75: 0.0, 76: 0.0, 77: 0.0135, 78: 0.0, 79: 0.0, 80: 0.0, 81: 0.0, 82: 0.0, 83: 0.0, 84: 0.0, 85: 0.0, 86: 0.0, 87: 0.0, 88: 0.0, 89: 0.0, 90: 0.0, 91: 0.0, 92: 0.0, 93: 0.0, 94: 0.0, 95: 0.0, 96: 0.0, 97: 0.0, 98: 0.0, 99: 0.0, 100: 0.0, 101: 0.0, 102: 0.0, 103: 0.0, 104: 0.0, 105: 0.0, 106: 0.0, 107: 0.0, 108: 0.0, 109: 0.0, 110: 0.0, 111: 0.0, 112: 0.0, 113: 0.0, 114: 0.0, 115: 0.0, 116: 0.0, 117: 0.0, 118: 0.0, 119: 0.0003, 120: 0.0003, 121: 0.0003, 122: 0.0035, 123: 0.01, 124: 0.0, 125: 0.0, 126: 0.0, 127: 0.1445, 128: 0.0, 129: 0.1415, 130: 0.2617, 131: 0.0, 132: 0.3543, 133: 0.272, 134: 0.179, 135: 0.0, 136: 0.0, 137: 0.0, 138: 0.4637, 139: 1.0877, 140: 0.0, 141: 0.585, 142: 0.703, 143: 0.8758, 144: 0.8087, 145: 0.0, 146: 0.0, 147: 0.0, 148: 0.0, 149: 0.8808, 150: 2.2435, 151: 0.3625, 152: 0.6835, 153: 0.0, 154: 0.0, 155: 0.7765, 156: 0.0, 157: 0.0, 158: 0.6565, 159: 0.0, 160: 0.7192, 161: 1.277, 162: 0.0, 163: 0.0, 164: 0.8155, 165: 0.6222, 166: 0.5403, 167: 0.0, 168: 0.0, 169: 0.225, 170: 0.0, 171: 0.0732, 172: 0.0, 173: 0.0203, 174: 0.003, 175: 0.0, 176: 0.0, 177: 0.0, 178: 0.0, 179: 0.0, 180: 0.0, 181: 0.0, 182: 0.0, 183: 0.0, 184: 0.0, 185: 0.0, 186: 0.0, 187: 0.0, 188: 0.0, 189: 0.0, 190: 0.0, 191: 0.0];
buy = [0: 1.330304167, 1: 0.0, 2: 0.0, 3: 0.280804167, 4: 0.0, 5: 0.0, 6: 1.292404167, 7: 0.286104167, 8: 1.282104167, 9: 1.288104167, 10: 0.291104167, 11: 1.295904167, 12: 1.294604167, 13: 0.0, 14: 1.288404167, 15: 0.0, 16: 1.165961683, 17: 0.0, 18: 0.900304167, 19: 1.263404167, 20: 0.0, 21: 0.0, 22: 0.345404167, 23: 0.292104167, 24: 0.249604167, 25: 0.0, 26: 0.241004167, 27: 0.249804167, 28: 1.051604167, 29: 0.0, 30: 0.0, 31: 0.940904167, 32: 0.115804167, 33: 0.7772041669999999, 34: 0.537804167, 35: 0.117404167, 36: 0.0, 37: 1.117604167, 38: 0.0, 39: 0.0, 40: 0.0, 41: 0.0, 42: 1.121604167, 43: 0.0, 44: 1.257104167, 45: 0.0, 46: 1.183304167, 47: 0.0, 48: 0.0, 49: 0.0, 50: 1.171604167, 51: 0.0, 52: 0.0, 53: 0.0, 54: 1.165804167, 55: 0.0, 56: 0.0, 57: 0.111904762, 58: 1.104104167, 59: 0.0, 60: 0.0, 61: 1.887304167, 62: 0.445404167, 63: 0.0, 64: 0.0, 65: 0.0, 66: 0.132104167, 67: 0.0, 68: 0.109904167, 69: 1.112604167, 70: 0.0, 71: 1.115304167, 72: 0.0, 73: 0.822925022, 74: 0.0, 75: 0.110104167, 76: 0.0, 77: 0.0, 78: 0.0, 79: 0.09910416700000001, 80: 0.096604167, 81: 0.749691484, 82: 1.123604167, 83: 1.282404167, 84: 0.337804167, 85: 0.347104167, 86: 1.354604167, 87: 0.356604167, 88: 0.262104167, 89: 1.231404167, 90: 0.0, 91: 0.0, 92: 1.232604167, 93: 0.0, 94: 0.0, 95: 0.0, 96: 1.377304167, 97: 1.351904167, 98: 0.341604167, 99: 1.279604167, 100: 1.277604167, 101: 0.0, 102: 1.258404167, 103: 1.250904167, 104: 0.0, 105: 0.0, 106: 0.239804167, 107: 1.239604167, 108: 1.230904167, 109: 1.233604167, 110: 0.0, 111: 0.0, 112: 0.242104167, 113: 0.0, 114: 1.231904167, 115: 1.306604167, 116: 1.123604167, 117: 0.0, 118: 1.114104167, 119: 0.112604167, 120: 1.123004167, 121: 1.124004167, 122: 0.0, 123: 1.099304167, 124: 1.108604167, 125: 0.116804167, 126: 0.0, 127: 0.972104167, 128: 0.0, 129: 0.0, 130: 0.0, 131: 1.117104167, 132: 0.0, 133: 0.0, 134: 0.0, 135: 0.116604167, 136: 1.117104167, 137: 0.0, 138: 0.0, 139: 0.0, 140: 0.116104167, 141: 0.0, 142: 0.0, 143: 0.0, 144: 0.850404167, 145: 0.0, 146: 1.144604167, 147: 0.0, 148: 1.640904167, 149: 0.0, 150: 0.0, 151: 0.0, 152: 0.491604167, 153: 0.793604167, 154: 0.926604167, 155: 1.126804167, 156: 0.438804167, 157: 0.0, 158: 0.7883041669999999, 159: 0.481404167, 160: 0.0, 161: 0.0, 162: 0.167804167, 163: 0.0, 164: 1.346904167, 165: 0.021404167, 166: 0.658604167, 167: 0.147404167, 168: 1.175104167, 169: 0.933904167, 170: 1.155604167, 171: 0.0, 172: 1.132104167, 173: 1.104304167, 174: 0.114104167, 175: 1.106104167, 176: 0.106604167, 177: 1.187104167, 178: 1.165104167, 179: 1.167304167, 180: 0.203104167, 181: 0.0, 182: 0.0, 183: 1.184104167, 184: 0.0, 185: 1.363604167, 186: 1.331804167, 187: 0.291904167, 188: 0.0, 189: 0.255104167, 190: 0.0, 191: 0.0];
sell = [0: 0.0, 1: 0.609095833, 2: 0.578695833, 3: 0.0, 4: 0.602895833, 5: 0.603595833, 6: 0.0, 7: 0.0, 8: 0.0, 9: 0.0, 10: 0.0, 11: 0.0, 12: 0.0, 13: 0.6158958329999999, 14: 0.0, 15: 0.602895833, 16: 0.0, 17: 0.601395833, 18: 0.0, 19: 0.0, 20: 0.563895833, 21: 0.548595833, 22: 0.0, 23: 0.0, 24: 0.0, 25: 0.650395833, 26: 0.0, 27: 0.0, 28: 0.0, 29: 0.872095833, 30: 0.781895833, 31: 0.0, 32: 0.0, 33: 0.0, 34: 0.0, 35: 0.0, 36: 1.089930871, 37: 0.0, 38: 1.951595833, 39: 0.789095833, 40: 1.228395833, 41: 0.779895833, 42: 0.0, 43: 1.939995833, 44: 0.0, 45: 1.586395833, 46: 0.0, 47: 0.726895833, 48: 0.735195833, 49: 1.693661566, 50: 0.0, 51: 1.773195833, 52: 2.690695833, 53: 1.671373164, 54: 0.0, 55: 2.699895833, 56: 0.0, 57: 0.0, 58: 0.0, 59: 2.542095833, 60: 0.056395833, 61: 0.0, 62: 0.0, 63: 0.706095833, 64: 1.962395833, 65: 1.075396825, 66: 0.0, 67: 1.591295833, 68: 0.0, 69: 0.0, 70: 1.384795833, 71: 0.0, 72: 0.133095833, 73: 0.0, 74: 0.018695833, 75: 0.0, 76: 0.780595833, 77: 0.795095833, 78: 0.801895833, 79: 0.0, 80: 0.0, 81: 0.0, 82: 0.0, 83: 0.0, 84: 0.0, 85: 0.0, 86: 0.0, 87: 0.0, 88: 0.0, 89: 0.0, 90: 0.661695833, 91: 0.666595833, 92: 0.0, 93: 0.782895833, 94: 0.781595833, 95: 0.494895833, 96: 0.0, 97: 0.0, 98: 0.0, 99: 0.0, 100: 0.0, 101: 0.641595833, 102: 0.0, 103: 0.0, 104: 0.646395833, 105: 0.660695833, 106: 0.0, 107: 0.0, 108: 0.0, 109: 0.0, 110: 0.6551958329999999, 111: 0.657195833, 112: 0.0, 113: 0.662695833, 114: 0.0, 115: 0.0, 116: 0.0, 117: 0.783395833, 118: 0.0, 119: 0.0, 120: 0.0, 121: 0.0, 122: 0.781395833, 123: 0.0, 124: 0.0, 125: 0.0, 126: 0.781095833, 127: 0.0, 128: 0.792395833, 129: 0.932195833, 130: 0.144095833, 131: 0.0, 132: 1.138695833, 133: 0.163195833, 134: 0.970395833, 135: 0.0, 136: 0.0, 137: 0.784695833, 138: 1.254095833, 139: 1.871895833, 140: 0.0, 141: 1.368395833, 142: 0.585595833, 143: 1.659995833, 144: 0.0, 145: 0.667779929, 146: 0.0, 147: 0.01818216, 148: 0.0, 149: 0.231495833, 150: 1.094695833, 151: 0.845895833, 152: 0.0, 153: 0.0, 154: 0.0, 155: 0.0, 156: 0.0, 157: 0.0, 158: 0.0, 159: 0.0, 160: 0.536895833, 161: 1.989395833, 162: 0.0, 163: 0.7428958329999999, 164: 0.0, 165: 0.0, 166: 0.0, 167: 0.0, 168: 0.0, 169: 0.0, 170: 0.0, 171: 0.767595833, 172: 0.0, 173: 0.0, 174: 0.0, 175: 0.0, 176: 0.0, 177: 0.0, 178: 0.0, 179: 0.0, 180: 0.0, 181: 0.698395833, 182: 0.0, 183: 0.0, 184: 0.512395833, 185: 0.0, 186: 0.0, 187: 0.0, 188: 0.631695833, 189: 0.0, 190: 0.639395833, 191: 0.655695833];
charge = [0: 1.0, 1: 0.0, 2: 0.0, 3: 0.0, 4: 0.0, 5: 0.0, 6: 1.0, 7: 0.0, 8: 1.0, 9: 1.0, 10: 0.0, 11: 1.0, 12: 1.0, 13: 0.0, 14: 1.0, 15: 0.0, 16: 0.868657516, 17: 0.0, 18: 0.0, 19: 1.0, 20: 0.0, 21: 0.0, 22: 0.0, 23: 0.0, 24: 0.0, 25: 0.0, 26: 0.0, 27: 0.0, 28: 1.0, 29: 0.0, 30: 0.0, 31: 1.0, 32: 0.0, 33: 1.0, 34: 1.0, 35: 0.0, 36: 0.0, 37: 1.0, 38: 0.0, 39: 0.0, 40: 0.0, 41: 0.0, 42: 1.0, 43: 0.0, 44: 1.0, 45: 0.0, 46: 1.0, 47: 0.0, 48: 0.0, 49: 0.113934267, 50: 1.0, 51: 0.0, 52: 0.0, 53: 0.113122669, 54: 1.0, 55: 0.0, 56: 1.0, 57: 0.0, 58: 1.0, 59: 0.0, 60: 1.0, 61: 1.0, 62: 1.0, 63: 0.0, 64: 0.0, 65: 0.0, 66: 1.0, 67: 0.0, 68: 0.0, 69: 1.0, 70: 0.0, 71: 1.0, 72: 0.0, 73: 0.913120856, 74: 0.0, 75: 0.0, 76: 0.0, 77: 0.0, 78: 0.0, 79: 0.0, 80: 0.0, 81: 0.643087318, 82: 1.0, 83: 1.0, 84: 0.0, 85: 0.0, 86: 1.0, 87: 0.0, 88: 0.0, 89: 1.0, 90: 0.0, 91: 0.0, 92: 1.0, 93: 0.0, 94: 0.0, 95: 0.0, 96: 1.0, 97: 1.0, 98: 0.0, 99: 1.0, 100: 1.0, 101: 0.0, 102: 1.0, 103: 1.0, 104: 0.0, 105: 0.0, 106: 0.0, 107: 1.0, 108: 1.0, 109: 1.0, 110: 0.0, 111: 0.0, 112: 0.0, 113: 0.0, 114: 1.0, 115: 1.0, 116: 1.0, 117: 0.0, 118: 1.0, 119: 0.0, 120: 1.0, 121: 1.0, 122: 0.0, 123: 1.0, 124: 1.0, 125: 0.0, 126: 0.0, 127: 1.0, 128: 0.0, 129: 0.0, 130: 0.0, 131: 1.0, 132: 0.0, 133: 0.0, 134: 0.0, 135: 0.0, 136: 1.0, 137: 0.0, 138: 0.0, 139: 0.0, 140: 0.0, 141: 0.0, 142: 0.0, 143: 0.0, 144: 1.0, 145: 0.0, 146: 1.0, 147: 0.0, 148: 1.0, 149: 0.0, 150: 1.0, 151: 0.0, 152: 1.0, 153: 0.0, 154: 0.0, 155: 1.0, 156: 0.0, 157: 0.0, 158: 1.0, 159: 0.0, 160: 0.0, 161: 0.0, 162: 0.0, 163: 0.0, 164: 1.0, 165: 0.0, 166: 1.0, 167: 0.0, 168: 1.0, 169: 1.0, 170: 1.0, 171: 0.0, 172: 1.0, 173: 1.0, 174: 0.0, 175: 1.0, 176: 0.0, 177: 1.0, 178: 1.0, 179: 1.0, 180: 0.0, 181: 0.0, 182: 0.0, 183: 1.0, 184: 0.0, 185: 1.0, 186: 1.0, 187: 0.0, 188: 0.0, 189: 0.0, 190: 0.0, 191: 0.0];
discharge = [0: 0.0, 1: 1.0, 2: 1.0, 3: 0.0, 4: 1.0, 5: 1.0, 6: 0.0, 7: 0.0, 8: 0.0, 9: 0.0, 10: 0.0, 11: 0.0, 12: 0.0, 13: 1.0, 14: 0.0, 15: 1.0, 16: 0.0, 17: 1.0, 18: 0.0, 19: 0.0, 20: 1.0, 21: 1.0, 22: 0.0, 23: 0.0, 24: 0.0, 25: 1.0, 26: 0.0, 27: 0.0, 28: 0.0, 29: 1.0, 30: 1.0, 31: 0.0, 32: 0.0, 33: 0.0, 34: 0.0, 35: 0.0, 36: 0.285150042, 37: 0.0, 38: 1.0, 39: 1.0, 40: 0.0, 41: 1.0, 42: 0.0, 43: 1.0, 44: 0.0, 45: 0.0, 46: 0.0, 47: 1.0, 48: 1.0, 49: 0.0, 50: 0.0, 51: 0.0, 52: 1.0, 53: 0.0, 54: 0.0, 55: 1.0, 56: 0.0, 57: 0.0, 58: 0.0, 59: 1.0, 60: 0.0, 61: 0.0, 62: 0.0, 63: 1.0, 64: 1.0, 65: 0.0, 66: 0.0, 67: 1.0, 68: 0.0, 69: 0.0, 70: 1.0, 71: 0.0, 72: 0.0, 73: 0.0, 74: 0.0, 75: 0.0, 76: 1.0, 77: 1.0, 78: 1.0, 79: 0.0, 80: 0.0, 81: 0.0, 82: 0.0, 83: 0.0, 84: 0.0, 85: 0.0, 86: 0.0, 87: 0.0, 88: 0.0, 89: 0.0, 90: 1.0, 91: 1.0, 92: 0.0, 93: 1.0, 94: 1.0, 95: 1.0, 96: 0.0, 97: 0.0, 98: 0.0, 99: 0.0, 100: 0.0, 101: 1.0, 102: 0.0, 103: 0.0, 104: 1.0, 105: 1.0, 106: 0.0, 107: 0.0, 108: 0.0, 109: 0.0, 110: 1.0, 111: 1.0, 112: 0.0, 113: 1.0, 114: 0.0, 115: 0.0, 116: 0.0, 117: 1.0, 118: 0.0, 119: 0.0, 120: 0.0, 121: 0.0, 122: 1.0, 123: 0.0, 124: 0.0, 125: 0.0, 126: 1.0, 127: 0.0, 128: 1.0, 129: 1.0, 130: 0.0, 131: 0.0, 132: 1.0, 133: 0.0, 134: 1.0, 135: 0.0, 136: 0.0, 137: 1.0, 138: 1.0, 139: 1.0, 140: 0.0, 141: 1.0, 142: 0.0, 143: 1.0, 144: 0.0, 145: 0.898760106, 146: 0.0, 147: 0.718984807, 148: 0.0, 149: 0.0, 150: 0.0, 151: 1.0, 152: 0.0, 153: 0.0, 154: 0.0, 155: 0.0, 156: 0.0, 157: 0.49200463, 158: 0.0, 159: 0.0, 160: 0.0, 161: 1.0, 162: 0.0, 163: 1.0, 164: 0.0, 165: 0.0, 166: 0.0, 167: 0.0, 168: 0.0, 169: 0.0, 170: 0.0, 171: 1.0, 172: 0.0, 173: 0.0, 174: 0.0, 175: 0.0, 176: 0.0, 177: 0.0, 178: 0.0, 179: 0.0, 180: 0.0, 181: 1.0, 182: 0.178782407, 183: 0.0, 184: 1.0, 185: 0.0, 186: 0.0, 187: 0.0, 188: 1.0, 189: 0.0, 190: 1.0, 191: 1.0];
soc = [0: 6.69884, 1: 5.697500232, 2: 4.696360732, 3: 4.69542146, 4: 3.694482376, 5: 2.693743479, 6: 3.59320473, 7: 3.592486089, 8: 4.491767592, 9: 5.390869239, 10: 5.389791065, 11: 6.288713107, 12: 7.187455364, 13: 6.186017873, 14: 7.084780669, 15: 6.083363713, 16: 6.863938805, 17: 5.862566017, 18: 5.861393504, 19: 6.760221225, 20: 5.758869181, 21: 4.757717407, 22: 4.756765864, 23: 4.755814511, 24: 4.754863348, 25: 3.753912375, 26: 3.753161593, 27: 3.75241096, 28: 4.651660478, 29: 3.650730146, 30: 2.65, 31: 3.54947, 32: 3.548760106, 33: 4.448050354, 34: 5.347160744, 35: 5.346091312, 36: 5.059872051, 37: 5.958860077, 38: 4.957668305, 39: 3.956676771, 40: 3.955885436, 41: 2.955094259, 42: 3.85450324, 43: 2.853732339, 44: 3.753161593, 45: 3.75241096, 46: 4.651660478, 47: 3.650730146, 48: 2.65, 49: 2.75201084, 50: 3.651460438, 51: 3.650730146, 52: 2.65, 53: 2.751280402, 54: 3.650730146, 55: 2.65, 56: 3.54947, 57: 3.548760106, 58: 4.448050354, 59: 3.447160744, 60: 4.346471312, 61: 5.245602017, 62: 6.144552897, 63: 5.143323987, 64: 4.142295322, 65: 4.141466863, 66: 5.040638569, 67: 4.039630442, 68: 4.038822515, 69: 4.938014751, 70: 3.937027148, 71: 4.836239743, 72: 4.835272495, 73: 5.65611421, 74: 5.654982987, 75: 5.653851991, 76: 4.65272122, 77: 3.651790676, 78: 2.651060318, 79: 2.650530106, 80: 2.65, 81: 3.228248586, 82: 4.127602936, 83: 5.026777416, 84: 5.02577206, 85: 5.024766906, 86: 5.923761952, 87: 5.9225772, 88: 5.921392685, 89: 6.820208406, 90: 5.818844364, 91: 4.817680595, 92: 5.716717059, 93: 4.715573716, 94: 3.714630601, 95: 2.713887675, 96: 3.613344898, 97: 4.512622229, 98: 4.511719704, 99: 5.41081736, 100: 6.309735197, 101: 5.30847325, 102: 6.207411555, 103: 7.106170073, 104: 6.104748839, 105: 5.103527889, 106: 5.102507183, 107: 6.001486682, 108: 6.900286385, 109: 7.798906327, 110: 6.797346546, 111: 5.795987077, 112: 5.794827879, 113: 4.793668914, 114: 5.69271018, 115: 6.591571638, 116: 7.490253324, 117: 6.488755273, 118: 7.387457522, 119: 7.38598003, 120: 8.284502834, 121: 9.182845933999999, 122: 8.181009365, 123: 9.079373163, 124: 9.977557288, 125: 9.975561776999999, 126: 8.973566664, 127: 9.871771950999999, 128: 8.869797597, 129: 7.868023637, 130: 7.866450032, 131: 8.764876742, 132: 7.763123767, 133: 7.761571142, 134: 6.760018828, 135: 6.758666824, 136: 7.657315091, 137: 6.655783628, 138: 5.654452471, 139: 4.653321581, 140: 4.652390916, 141: 3.651460438, 142: 3.650730146, 143: 2.65, 144: 3.54947, 145: 2.65, 146: 3.54947, 147: 2.829775299, 148: 3.729209344, 149: 3.728463502, 150: 4.627717809, 151: 3.626792266, 152: 4.526066907, 153: 4.525161694, 154: 4.524256662, 155: 5.42335181, 156: 5.42226714, 157: 4.929178057, 158: 5.828192221, 159: 5.827026583, 160: 5.825861178, 161: 4.824696005, 162: 4.823731066, 163: 3.82276632, 164: 4.722001767, 165: 4.721057366, 166: 5.620113155, 167: 5.618989132, 168: 6.517865334, 169: 7.416561761, 170: 8.315078449, 171: 7.313415433, 172: 8.21195275, 173: 9.11031036, 174: 9.108488297999999, 175: 10.0066666, 176: 10.004665267, 177: 10.902664334, 178: 11.800483801, 179: 12.698123704, 180: 12.695584079, 181: 11.693044962, 182: 11.511923946, 183: 12.409621561, 184: 11.407139637, 185: 12.304858209, 186: 13.202397237, 187: 13.199756758, 188: 12.197116807, 189: 12.194677383, 190: 11.192238448, 191: 10.19];
cost = [0: 0.930860981, 1: 0.0, 2: 0.0, 3: 0.171543265, 4: 0.0, 5: 0.0, 6: 0.9077078710000001, 7: 0.174781035, 8: 0.901415601, 9: 0.905081001, 10: 0.177835535, 11: 0.909846021, 12: 0.909051851, 13: 0.0, 14: 0.905264271, 15: 0.0, 16: 0.814942344, 17: 0.0, 18: 0.5499958150000001, 19: 0.889991771, 20: 0.0, 21: 0.0, 22: 0.211007405, 23: 0.178446435, 24: 0.296929117, 25: 0.0, 26: 0.286698557, 27: 0.297167037, 28: 1.369166482, 29: 0.0, 30: 0.0, 31: 1.237477762, 32: 0.137760637, 33: 1.042740242, 34: 0.757950002, 35: 0.139663997, 36: 0.0, 37: 1.447680082, 38: 0.0, 39: 0.0, 40: 0.0, 41: 0.0, 42: 1.452438482, 43: 0.0, 44: 1.613629282, 45: 0.0, 46: 1.525836802, 47: 0.0, 48: 0.0, 49: 0.013464543, 50: 1.511918482, 51: 0.0, 52: 0.0, 53: 0.013368629, 54: 0.8303679309999999, 55: 0.0, 56: 0.118178165, 57: 0.068362255, 58: 0.792675401, 59: 0.0, 60: 0.118178165, 61: 2.363315202, 62: 0.648030962, 63: 0.0, 64: 0.0, 65: 0.0, 66: 0.275329282, 67: 0.0, 68: 0.130741997, 69: 1.441732082, 70: 0.0, 71: 1.444944002, 72: 0.0, 73: 1.086862554, 74: 0.0, 75: 0.130979917, 76: 0.0, 77: 0.0, 78: 0.0, 79: 0.117894317, 80: 0.114920317, 81: 0.967831869, 82: 1.454817682, 83: 1.643726162, 84: 0.401851837, 85: 0.412915117, 86: 1.729615282, 87: 0.424216317, 88: 0.160119435, 89: 0.870442971, 90: 0.0, 91: 0.0, 92: 0.871176051, 93: 0.0, 94: 0.0, 95: 0.0, 96: 0.9595732809999999, 97: 0.944056421, 98: 0.208685985, 99: 0.899888351, 100: 0.898666551, 101: 0.0, 102: 0.886937271, 103: 0.882355521, 104: 0.0, 105: 0.0, 106: 0.146496365, 107: 0.875452351, 108: 0.870137521, 109: 0.871786951, 110: 0.0, 111: 0.0, 112: 0.147901435, 113: 0.0, 114: 0.8707484210000001, 115: 0.916382651, 116: 0.804587951, 117: 0.0, 118: 0.798784401, 119: 0.068789885, 120: 1.454103922, 121: 1.455293522, 122: 0.0, 123: 1.425910402, 124: 1.436973682, 125: 0.138950237, 126: 0.0, 127: 1.274593282, 128: 0.0, 129: 0.0, 130: 0.0, 131: 1.447085282, 132: 0.0, 133: 0.0, 134: 0.0, 135: 0.138712317, 136: 1.447085282, 137: 0.0, 138: 0.0, 139: 0.0, 140: 0.138117517, 141: 0.0, 142: 0.0, 143: 0.0, 144: 1.129818962, 145: 0.0, 146: 1.479799282, 147: 0.0, 148: 1.120606521, 149: 0.0, 150: 0.118178165, 151: 0.0, 152: 0.418499151, 153: 0.484812785, 154: 0.566062485, 155: 0.806542831, 156: 0.522001437, 157: 0.0, 158: 1.055944802, 159: 0.572678397, 160: 0.0, 161: 0.0, 162: 0.199619837, 163: 0.0, 164: 1.720455362, 165: 0.025462397, 166: 0.901653682, 167: 0.175351997, 168: 1.516082082, 169: 1.229150562, 170: 1.492884882, 171: 0.0, 172: 1.464929282, 173: 1.431858402, 174: 0.135738317, 175: 1.433999682, 176: 0.126816317, 177: 1.530357282, 178: 1.504186082, 179: 1.506803202, 180: 0.241612717, 181: 0.0, 182: 0.0, 183: 1.526788482, 184: 0.0, 185: 0.951203951, 186: 0.931777331, 187: 0.178324255, 188: 0.0, 189: 0.155843135, 190: 0.0, 191: 0.0];
earn = [0: 0.0, 1: 0.404866, 2: 0.373316682, 3: 0.0, 4: 0.384707831, 5: 0.375376249, 6: 0.0, 7: 0.0, 8: 0.0, 9: 0.0, 10: 0.0, 11: 0.0, 12: 0.0, 13: 0.357096404, 14: 0.0, 15: 0.354020433, 16: 0.0, 17: 0.348869723, 18: 0.0, 19: 0.0, 20: 0.345837315, 21: 0.341884923, 22: 0.0, 23: 0.0, 24: 0.0, 25: 0.511861521, 26: 0.0, 27: 0.0, 28: 0.0, 29: 0.758287327, 30: 0.671257573, 31: 0.0, 32: 0.0, 33: 0.0, 34: 0.0, 35: 0.0, 36: 0.609707329, 37: 0.0, 38: 1.002925099, 39: 0.381212197, 40: 0.537177498, 41: 0.288093521, 42: 0.0, 43: 0.672014557, 44: 0.0, 45: 0.41135244, 46: 0.0, 47: 0.102565002, 48: 0.13417324, 49: 0.198497136, 50: 0.0, 51: 0.207286593, 52: 0.138032696, 53: 0.08223156, 54: 0.0, 55: 0.131214938, 56: 0.0, 57: 0.0, 58: 0.0, 59: 0.5366364300000001, 60: 0.015542692, 61: 0.0, 62: 0.0, 63: 0.280249436, 64: 0.95627549, 65: 0.548666954, 66: 0.0, 67: 0.832884239, 68: 0.0, 69: 0.0, 70: 0.835170367, 71: 0.0, 72: 0.092474985, 73: 0.0, 74: 0.013797525, 75: 0.0, 76: 0.668346153, 77: 0.69833267, 78: 0.7231496630000001, 79: 0.0, 80: 0.0, 81: 0.0, 82: 0.0, 83: 0.0, 84: 0.0, 85: 0.0, 86: 0.0, 87: 0.0, 88: 0.0, 89: 0.0, 90: 0.451739745, 91: 0.446085932, 92: 0.0, 93: 0.494790167, 94: 0.502409802, 95: 0.297778823, 96: 0.0, 97: 0.0, 98: 0.0, 99: 0.0, 100: 0.0, 101: 0.391886735, 102: 0.0, 103: 0.0, 104: 0.393590423, 105: 0.390999794, 106: 0.0, 107: 0.0, 108: 0.0, 109: 0.0, 110: 0.377065202, 111: 0.383802367, 112: 0.0, 113: 0.39291236, 114: 0.0, 115: 0.0, 116: 0.0, 117: 0.478028138, 118: 0.0, 119: 0.0, 120: 0.0, 121: 0.0, 122: 0.531036608, 123: 0.0, 124: 0.0, 125: 0.0, 126: 0.526380482, 127: 0.0, 128: 0.559906896, 129: 0.611706906, 130: 0.092250152, 131: 0.0, 132: 0.706902373, 133: 0.086412194, 134: 0.513048277, 135: 0.0, 136: 0.0, 137: 0.32392244, 138: 0.413600806, 139: 0.567371627, 140: 0.0, 141: 0.294752463, 142: 0.10962354, 143: 0.238541401, 144: 0.0, 145: 0.050550941, 146: 0.0, 147: 0.000232732, 148: 0.0, 149: 0.005417003, 150: 0.01324582, 151: 0.002706867, 152: 0.0, 153: 0.0, 154: 0.0, 155: 0.0, 156: 0.0, 157: 0.0, 158: 0.0, 159: 0.0, 160: 0.100399521, 161: 0.454378008, 162: 0.0, 163: 0.280814625, 164: 0.0, 165: 0.0, 166: 0.0, 167: 0.0, 168: 0.0, 169: 0.0, 170: 0.0, 171: 0.5087625180000001, 172: 0.0, 173: 0.0, 174: 0.0, 175: 0.0, 176: 0.0, 177: 0.0, 178: 0.0, 179: 0.0, 180: 0.0, 181: 0.4290944, 182: 0.0, 183: 0.0, 184: 0.286275552, 185: 0.0, 186: 0.0, 187: 0.0, 188: 0.388619277, 189: 0.0, 190: 0.343931019, 191: 0.352174232];
total_cost = 92.364787421;
total_earn = 30.118540554;
% _objective = 62.246246867;