production = [0: 0.0, 1: 0.0, 2: 0.0, 3: 0.0, 4: 0.0, 5: 0.0, 6: 0.0, 7: 0.0, 8: 0.0, 9: 0.0, 10: 0.0, 11: 0.0, 12: 0.0, 13: 0.0, 14: 0.0, 15: 0.0, 16: 0.0, 17: 0.0, 18: 0.0, 19: 0.0, 20: 0.0, 21: 0.0, 22: 0.0, 23: 0.0005, 24: 0.0, 25: 0.001, 26: 0.0, 27: 0.0325, 28: 0.0, 29: 0.08450000000000001, 30: 0.118, 31: 0.1752, 32: 0.1963, 33: 0.0, 34: 0.0, 35: 0.8383, 36: 0.0, 37: 1.0655, 38: 0.0, 39: 1.2303, 40: 0.0, 41: 0.0, 42: 1.5545, 43: 0.605304167, 44: 0.0, 45: 0.0, 46: 0.0, 47: 1.8927, 48: 1.9403, 49: 0.0, 50: 0.0, 51: 0.0, 52: 1.9623, 53: 0.0, 54: 1.9552, 55: 1.9115, 56: 0.0, 57: 1.856, 58: 0.0, 59: 1.7477, 60: 0.0, 61: 1.586, 62: 1.4155, 63: 0.0, 64: 1.2275, 65: 1.185, 66: 0.0, 67: 0.8117, 68: 0.4507, 69: 0.7083, 70: 0.5972, 71: 0.0, 72: 0.2502, 73: 0.0, 74: 0.1293, 75: 0.103, 76: 0.0, 77: 0.0135, 78: 0.0025, 79: 0.0, 80: 0.0003, 81: 0.0, 82: 0.0, 83: 0.0, 84: 0.0, 85: 0.0, 86: 0.0, 87: 0.0, 88: 0.0, 89: 0.0, 90: 0.0, 91: 0.0, 92: 0.0, 93: 0.0, 94: 0.0, 95: 0.0, 96: 0.0, 97: 0.0, 98: 0.0, 99: 0.0, 100: 0.0, 101: 0.0, 102: 0.0, 103: 0.0, 104: 0.0, 105: 0.0, 106: 0.0, 107: 0.0, 108: 0.0, 109: 0.0, 110: 0.0, 111: 0.0, 112: 0.0, 113: 0.0, 114: 0.0, 115: 0.0, 116: 0.0, 117: 0.0, 118: 0.0, 119: 0.0003, 120: 0.0, 121: 0.0, 122: 0.0, 123: 0.0, 124: 0.0, 125: 0.046, 126: 0.0, 127: 0.1445, 128: 0.1092, 129: 0.1415, 130: 0.0, 131: 0.2722, 132: 0.3543, 133: 0.272, 134: 0.0, 135: 0.0, 136: 0.0, 137: 0.5697, 138: 0.4637, 139: 0.0, 140: 0.0, 141: 0.585, 142: 0.703, 143: 0.8758, 144: 0.0, 145: 0.0, 146: 2.9007, 147: 0.6262, 148: 0.0, 149: 0.8808, 150: 2.2435, 151: 0.3625, 152: 0.6835, 153: 0.0, 154: 0.6315, 155: 0.0, 156: 0.0, 157: 0.6887, 158: 0.6565, 159: 0.6342, 160: 0.0, 161: 1.277, 162: 0.863, 163: 0.9183, 164: 0.8155, 165: 0.0, 166: 0.0, 167: 0.0, 168: 0.2018, 169: 0.0, 170: 0.0823, 171: 0.0, 172: 0.042, 173: 0.0, 174: 0.0, 175: 0.0, 176: 0.0, 177: 0.0, 178: 0.0, 179: 0.0, 180: 0.0, 181: 0.0, 182: 0.0, 183: 0.0, 184: 0.0, 185: 0.0, 186: 0.0, 187: 0.0, 188: 0.0, 189: 0.0, 190: 0.0, 191: 0.0];
buy = [0: 1.330304167, 1: 1.290904167, 2: 0.321304167, 3: 0.280804167, 4: 0.0, 5: 0.296404167, 6: 0.0, 7: 0.286104167, 8: 0.0, 9: 0.288104167, 10: 0.0, 11: 0.295904167, 12: 0.294604167, 13: 1.284104167, 14: 0.288404167, 15: 1.297104167, 16: 0.297304167, 17: 0.0, 18: 0.900304167, 19: 0.263404167, 20: 0.336104167, 21: 0.351404167, 22: 0.345404167, 23: 1.291604167, 24: 1.249604167, 25: 1.248604167, 26: 1.249804167, 27: 0.217304167, 28: 0.0, 29: 0.0, 30: 1.000104167, 31: 0.940904167, 32: 0.919504167, 33: 0.0, 34: 1.110104167, 35: 0.0, 36: 1.117404167, 37: 0.0, 38: 0.0, 39: 0.0, 40: 1.109604167, 41: 1.120104167, 42: 0.0, 43: 0.0, 44: 0.257104167, 45: 1.188104167, 46: 0.0, 47: 0.0, 48: 0.0, 49: 1.157604167, 50: 1.171604167, 51: 1.169104167, 52: 0.0, 53: 1.165804167, 54: 0.0, 55: 0.0, 56: 0.0, 57: 0.0, 58: 0.104104167, 59: 0.0, 60: 1.608604167, 61: 0.301304167, 62: 0.0, 63: 0.0, 64: 0.0, 65: 0.0, 66: 0.119904167, 67: 0.308704167, 68: 0.659204167, 69: 0.404304167, 70: 0.515204167, 71: 0.0, 72: 0.0, 73: 0.0, 74: 0.0, 75: 0.0, 76: 1.119404167, 77: 1.104904167, 78: 1.095604167, 79: 0.0, 80: 0.0, 81: 1.106604167, 82: 1.123604167, 83: 1.282404167, 84: 1.337804167, 85: 0.347104167, 86: 0.354604167, 87: 0.356604167, 88: 0.0, 89: 0.231404167, 90: 1.238304167, 91: 0.0, 92: 0.0, 93: 1.117104167, 94: 1.118404167, 95: 0.405104167, 96: 0.0, 97: 0.0, 98: 0.341604167, 99: 0.0, 100: 0.0, 101: 0.258404167, 102: 0.0, 103: 0.0, 104: 0.0, 105: 0.0, 106: 0.0, 107: 0.0, 108: 0.0, 109: 0.0, 110: 1.244804167, 111: 0.0, 112: 1.242104167, 113: 0.237304167, 114: 0.0, 115: 0.306604167, 116: 0.123604167, 117: 0.0, 118: 1.114104167, 119: 0.112604167, 120: 1.123304167, 121: 0.0, 122: 1.122104167, 123: 1.109304167, 124: 0.0, 125: 0.0, 126: 1.118904167, 127: 0.0, 128: 0.998404167, 129: 0.0, 130: 1.117604167, 131: 0.844904167, 132: 0.761304167, 133: 0.0, 134: 0.0, 135: 0.835883458, 136: 0.0, 137: 0.0, 138: 0.0, 139: 1.115804167, 140: 0.0, 141: 0.0, 142: 0.414404167, 143: 0.240004167, 144: 1.659104167, 145: 1.141104167, 146: 0.0, 147: 1.002704167, 148: 0.640904167, 149: 0.0, 150: 0.0, 151: 0.0, 152: 0.491604167, 153: 1.793604167, 154: 1.295104167, 155: 0.003304167, 156: 1.438804167, 157: 0.0, 158: 0.0, 159: 0.0, 160: 0.182304167, 161: 0.0, 162: 0.304804167, 163: 0.0, 164: 1.346904167, 165: 1.643604167, 166: 1.198904167, 167: 0.0, 168: 0.973304167, 169: 1.158904167, 170: 0.0, 171: 1.205604167, 172: 0.090104167, 173: 1.124604167, 174: 0.0, 175: 0.0, 176: 1.106604167, 177: 0.0, 178: 0.0, 179: 0.0, 180: 1.203104167, 181: 1.201604167, 182: 0.0, 183: 1.184104167, 184: 0.387604167, 185: 0.0, 186: 0.0, 187: 1.291904167, 188: 0.0, 189: 1.255104167, 190: 0.0, 191: 1.244304167];
sell = [0: 0.0, 1: 0.0, 2: 0.0, 3: 0.0, 4: 0.602895833, 5: 0.0, 6: 0.607595833, 7: 0.0, 8: 0.6178958329999999, 9: 0.0, 10: 0.6088958330000001, 11: 0.0, 12: 0.0, 13: 0.0, 14: 0.0, 15: 0.0, 16: 0.0, 17: 0.601395833, 18: 0.0, 19: 0.0, 20: 0.0, 21: 0.0, 22: 0.0, 23: 0.0, 24: 0.0, 25: 0.0, 26: 0.0, 27: 0.0, 28: 0.133538982, 29: 0.872095833, 30: 0.0, 31: 0.0, 32: 0.0, 33: 0.788095833, 34: 0.0, 35: 1.620895833, 36: 0.0, 37: 0.947895833, 38: 0.788395833, 39: 1.119395833, 40: 0.0, 41: 0.0, 42: 2.332895833, 43: 0.0, 44: 0.0, 45: 0.0, 46: 0.7166958329999999, 47: 0.719595833, 48: 0.775495833, 49: 0.0, 50: 0.0, 51: 0.0, 52: 1.790695833, 53: 0.0, 54: 0.789395833, 55: 2.699895833, 56: 0.788095833, 57: 0.744095833, 58: 0.0, 59: 2.542095833, 60: 0.0, 61: 0.0, 62: 1.454595833, 63: 0.706095833, 64: 1.962395833, 65: 1.975395833, 66: 0.0, 67: 0.0, 68: 0.0, 69: 0.0, 70: 0.0, 71: 0.784695833, 72: 0.133095833, 73: 0.790695833, 74: 0.018695833, 75: 0.892895833, 76: 0.0, 77: 0.0, 78: 0.0, 79: 0.800895833, 80: 0.803695833, 81: 0.0, 82: 0.0, 83: 0.0, 84: 0.0, 85: 0.0, 86: 0.0, 87: 0.0, 88: 0.637895833, 89: 0.0, 90: 0.0, 91: 0.666595833, 92: 0.370265876, 93: 0.0, 94: 0.0, 95: 0.0, 96: 0.522695833, 97: 0.548095833, 98: 0.0, 99: 0.620395833, 100: 0.622395833, 101: 0.0, 102: 0.641595833, 103: 0.649095833, 104: 0.646395833, 105: 0.660695833, 106: 0.660195833, 107: 0.660395833, 108: 0.669095833, 109: 0.666395833, 110: 0.0, 111: 0.657195833, 112: 0.0, 113: 0.0, 114: 0.471119844, 115: 0.0, 116: 0.0, 117: 0.783395833, 118: 0.0, 119: 0.0, 120: 0.0, 121: 0.775695833, 122: 0.0, 123: 0.0, 124: 0.791395833, 125: 0.829195833, 126: 0.0, 127: 0.027895833, 128: 0.0, 129: 0.032195833, 130: 0.0, 131: 0.0, 132: 0.0, 133: 0.163195833, 134: 0.791395833, 135: 0.0, 136: 0.782895833, 137: 0.454395833, 138: 1.254095833, 139: 0.0, 140: 0.783895833, 141: 1.368395833, 142: 0.0, 143: 0.0, 144: 0.0, 145: 0.0, 146: 3.656095833, 147: 0.0, 148: 0.0, 149: 1.131495833, 150: 1.094695833, 151: 0.845895833, 152: 0.0, 153: 0.0, 154: 0.0, 155: 0.0, 156: 0.0, 157: 1.145895833, 158: 1.111695833, 159: 1.052795833, 160: 0.0, 161: 0.08939583299999999, 162: 0.0, 163: 0.761195833, 164: 0.0, 165: 0.0, 166: 0.0, 167: 0.752595833, 168: 0.0, 169: 0.0, 170: 0.826695833, 171: 0.0, 172: 0.0, 173: 0.0, 174: 0.782895833, 175: 0.793895833, 176: 0.0, 177: 0.0, 178: 0.0, 179: 0.732695833, 180: 0.0, 181: 0.0, 182: 0.739095833, 183: 0.0, 184: 0.0, 185: 0.536395833, 186: 0.568195833, 187: 0.0, 188: 0.631695833, 189: 0.0, 190: 0.639395833, 191: 0.0];
charge = [0: 1.0, 1: 1.0, 2: 0.0, 3: 0.0, 4: 0.0, 5: 0.0, 6: 0.0, 7: 0.0, 8: 0.0, 9: 0.0, 10: 0.0, 11: 0.0, 12: 0.0, 13: 1.0, 14: 0.0, 15: 1.0, 16: 0.0, 17: 0.0, 18: 0.0, 19: 0.0, 20: 0.0, 21: 0.0, 22: 0.0, 23: 1.0, 24: 1.0, 25: 1.0, 26: 1.0, 27: 0.0, 28: 0.0, 29: 0.0, 30: 1.0, 31: 1.0, 32: 1.0, 33: 0.0, 34: 1.0, 35: 0.0, 36: 1.0, 37: 0.0, 38: 0.0, 39: 0.0, 40: 1.0, 41: 1.0, 42: 0.0, 43: 0.0, 44: 0.0, 45: 1.0, 46: 0.0, 47: 1.0, 48: 1.0, 49: 1.0, 50: 1.0, 51: 1.0, 52: 0.0, 53: 1.0, 54: 1.0, 55: 0.0, 56: 0.0, 57: 1.0, 58: 0.0, 59: 0.0, 60: 1.0, 61: 1.0, 62: 0.0, 63: 0.0, 64: 0.0, 65: 0.0, 66: 0.0, 67: 1.0, 68: 1.0, 69: 1.0, 70: 1.0, 71: 0.0, 72: 0.0, 73: 0.0, 74: 0.0, 75: 0.0, 76: 1.0, 77: 1.0, 78: 1.0, 79: 0.0, 80: 0.0, 81: 1.0, 82: 1.0, 83: 1.0, 84: 1.0, 85: 0.0, 86: 0.0, 87: 0.0, 88: 0.0, 89: 0.0, 90: 1.0, 91: 0.0, 92: 0.0, 93: 1.0, 94: 1.0, 95: 0.0, 96: 0.0, 97: 0.0, 98: 0.0, 99: 0.0, 100: 0.0, 101: 0.0, 102: 0.0, 103: 0.0, 104: 0.0, 105: 0.0, 106: 0.0, 107: 0.0, 108: 0.0, 109: 0.0, 110: 1.0, 111: 0.0, 112: 1.0, 113: 0.0, 114: 0.0, 115: 0.0, 116: 0.0, 117: 0.0, 118: 1.0, 119: 0.0, 120: 1.0, 121: 0.0, 122: 1.0, 123: 1.0, 124: 0.0, 125: 0.0, 126: 1.0, 127: 0.0, 128: 1.0, 129: 0.0, 130: 1.0, 131: 1.0, 132: 1.0, 133: 0.0, 134: 0.0, 135: 0.719279292, 136: 0.0, 137: 0.0, 138: 0.0, 139: 1.0, 140: 0.0, 141: 0.0, 142: 1.0, 143: 1.0, 144: 1.0, 145: 1.0, 146: 0.0, 147: 1.0, 148: 0.0, 149: 0.0, 150: 1.0, 151: 0.0, 152: 1.0, 153: 1.0, 154: 1.0, 155: 0.0, 156: 1.0, 157: 0.0, 158: 0.0, 159: 0.0, 160: 0.0, 161: 1.0, 162: 1.0, 163: 0.0, 164: 1.0, 165: 1.0, 166: 1.0, 167: 0.0, 168: 1.0, 169: 1.0, 170: 0.0, 171: 1.0, 172: 0.0, 173: 1.0, 174: 0.0, 175: 0.0, 176: 1.0, 177: 0.0, 178: 0.0, 179: 0.0, 180: 1.0, 181: 1.0, 182: 0.0, 183: 1.0, 184: 0.0, 185: 0.0, 186: 0.0, 187: 1.0, 188: 0.0, 189: 1.0, 190: 0.0, 191: 1.0];
discharge = [0: 0.0, 1: 0.0, 2: 0.0, 3: 0.0, 4: 1.0, 5: 0.0, 6: 1.0, 7: 0.0, 8: 1.0, 9: 0.0, 10: 1.0, 11: 0.0, 12: 0.0, 13: 0.0, 14: 0.0, 15: 0.0, 16: 0.0, 17: 1.0, 18: 0.0, 19: 0.0, 20: 0.0, 21: 0.0, 22: 0.0, 23: 0.0, 24: 0.0, 25: 0.0, 26: 0.0, 27: 0.0, 28: 0.269047943, 29: 1.0, 30: 0.0, 31: 0.0, 32: 0.0, 33: 1.0, 34: 0.0, 35: 1.0, 36: 0.0, 37: 0.0, 38: 1.0, 39: 0.0, 40: 0.0, 41: 0.0, 42: 1.0, 43: 0.0, 44: 0.0, 45: 0.0, 46: 1.0, 47: 0.0, 48: 0.0, 49: 0.0, 50: 0.0, 51: 0.0, 52: 0.0, 53: 0.0, 54: 0.0, 55: 1.0, 56: 1.0, 57: 0.0, 58: 0.0, 59: 1.0, 60: 0.0, 61: 0.0, 62: 1.0, 63: 1.0, 64: 1.0, 65: 1.0, 66: 0.0, 67: 0.0, 68: 0.0, 69: 0.0, 70: 0.0, 71: 1.0, 72: 0.0, 73: 1.0, 74: 0.0, 75: 1.0, 76: 0.0, 77: 0.0, 78: 0.0, 79: 1.0, 80: 1.0, 81: 0.0, 82: 0.0, 83: 0.0, 84: 0.0, 85: 0.0, 86: 0.0, 87: 0.0, 88: 1.0, 89: 0.0, 90: 0.0, 91: 1.0, 92: 0.669855603, 93: 0.0, 94: 0.0, 95: 0.0, 96: 1.0, 97: 1.0, 98: 0.0, 99: 1.0, 100: 1.0, 101: 0.0, 102: 1.0, 103: 1.0, 104: 1.0, 105: 1.0, 106: 1.0, 107: 1.0, 108: 1.0, 109: 1.0, 110: 0.0, 111: 1.0, 112: 0.0, 113: 0.0, 114: 0.781137789, 115: 0.0, 116: 0.0, 117: 1.0, 118: 0.0, 119: 0.0, 120: 0.0, 121: 1.0, 122: 0.0, 123: 0.0, 124: 1.0, 125: 1.0, 126: 0.0, 127: 0.0, 128: 0.0, 129: 0.0, 130: 0.0, 131: 0.0, 132: 0.0, 133: 0.0, 134: 1.0, 135: 0.0, 136: 1.0, 137: 0.0, 138: 1.0, 139: 0.0, 140: 1.0, 141: 1.0, 142: 0.0, 143: 0.0, 144: 0.0, 145: 0.0, 146: 1.0, 147: 0.0, 148: 0.0, 149: 1.0, 150: 0.0, 151: 1.0, 152: 0.0, 153: 0.0, 154: 0.0, 155: 1.0, 156: 0.0, 157: 1.0, 158: 1.0, 159: 1.0, 160: 0.0, 161: 0.0, 162: 0.0, 163: 0.0, 164: 0.0, 165: 0.0, 166: 0.0, 167: 1.0, 168: 0.0, 169: 0.0, 170: 1.0, 171: 0.0, 172: 0.0, 173: 0.0, 174: 1.0, 175: 1.0, 176: 0.0, 177: 0.207893519, 178: 0.183449074, 179: 1.0, 180: 0.0, 181: 0.0, 182: 1.0, 183: 0.0, 184: 0.0, 185: 1.0, 186: 1.0, 187: 0.0, 188: 1.0, 189: 0.0, 190: 1.0, 191: 0.0];
soc = [0: 6.69884, 1: 7.597500232, 2: 7.595980732, 3: 7.594461536, 4: 6.592942644, 5: 6.591624055, 6: 5.59030573, 7: 5.589187669, 8: 4.588069831, 9: 4.587152218, 10: 3.586234787, 11: 3.58551754, 12: 3.584800437, 13: 4.484083477, 14: 4.48318666, 15: 5.382290022, 16: 5.381213564, 17: 4.380137322, 18: 4.379261294, 19: 4.378385442, 20: 4.377509765, 21: 4.376634263, 22: 4.375758936, 23: 5.274883784, 24: 6.173828808, 25: 7.072594042, 26: 7.971179523, 27: 7.969585287, 28: 7.698943427, 29: 6.697403638, 30: 7.596064158, 31: 8.494544944999999, 32: 9.392846036, 33: 8.390967466999999, 34: 9.289289273, 35: 8.287431415, 36: 9.185773929, 37: 9.183936773999999, 38: 8.182099987000001, 39: 8.180463567, 40: 9.078827474000001, 41: 9.977011708999999, 42: 8.975016306000001, 43: 8.973221303000001, 44: 8.971426659, 45: 9.869632374, 46: 8.867658447, 47: 9.765884915000001, 48: 10.663931738, 49: 11.561798952, 50: 12.459486592, 51: 13.356994695, 52: 13.354323296, 53: 14.251652431, 54: 15.148802101, 55: 14.14577234, 56: 13.142943186, 57: 14.040314597, 58: 14.037506534, 59: 13.034699033, 60: 13.932092093, 61: 14.829305675, 62: 13.826339814, 63: 12.823574546, 64: 11.821009831, 65: 10.818645629, 66: 10.8164819, 67: 11.714318603, 68: 12.61197574, 69: 13.509453345, 70: 14.406751454, 71: 13.403870104, 72: 13.40118933, 73: 12.398509092, 74: 12.39602939, 75: 11.393550184, 76: 12.291271474, 77: 13.18881322, 78: 14.086175457, 79: 13.083358222, 80: 12.08074155, 81: 12.978325402, 82: 13.875729737, 83: 14.772954591, 84: 15.67, 85: 15.666866, 86: 15.663732627, 87: 15.66059988, 88: 14.65746776, 89: 14.654536267, 90: 15.551605359, 91: 14.548495038, 92: 13.875729737, 93: 14.772954591, 94: 15.67, 95: 15.666866, 96: 14.663732627, 97: 13.66079988, 98: 13.65806772, 99: 12.655336107, 100: 11.65280504, 101: 11.650474479, 102: 10.648144384, 103: 9.646014754999999, 104: 8.644085552, 105: 7.642356735, 106: 6.640828263, 107: 5.639500098, 108: 4.638372198, 109: 3.637444523, 110: 4.536717034, 111: 3.535809691, 112: 4.435102529, 113: 4.434215508, 114: 3.652190876, 115: 3.651460438, 116: 3.650730146, 117: 2.65, 118: 3.54947, 119: 3.548760106, 120: 4.448050354, 121: 3.447160744, 122: 4.346471312, 123: 5.245602017, 124: 4.244552897, 125: 3.243703987, 126: 4.143055246, 127: 4.142226635, 128: 5.041398189, 129: 5.04038991, 130: 5.939381832, 131: 6.838193955, 132: 7.736826317, 133: 7.735278951, 134: 6.733731896, 135: 7.379736512, 136: 6.378260564, 137: 6.376984912, 138: 5.375709515, 139: 6.274634373, 140: 5.273379446, 141: 4.272324771, 142: 5.171470306, 143: 6.070436012, 144: 6.969221924, 145: 7.86782808, 146: 6.866254514, 147: 7.764881263, 148: 7.763328287, 149: 6.761775622, 150: 7.660423266, 151: 6.658891182, 152: 7.557559404, 153: 8.456047892000001, 154: 9.354356682000001, 155: 8.352485810999999, 156: 9.250815314, 157: 8.248965151, 158: 7.247315358, 159: 6.245865894, 160: 6.244616721, 161: 7.143367798, 162: 8.041939124000001, 163: 8.040330737, 164: 8.938722670000001, 165: 9.836934926, 166: 10.734967539, 167: 9.732820544999999, 168: 10.630873981, 169: 11.528747806, 170: 10.526442057, 171: 11.424336768, 172: 11.422051901, 173: 12.319767491, 174: 11.317303537, 175: 10.315040077, 176: 11.212977069, 177: 11.002840955, 178: 10.817191312, 179: 9.815027874, 180: 10.713064868, 181: 11.610922256, 182: 10.608600071, 183: 11.506478351, 184: 11.504177055, 185: 10.50187622, 186: 9.499775845, 187: 10.39787589, 188: 9.395796314, 189: 10.293917155, 190: 9.291858372, 191: 10.19];
cost = [0: 0.930860981, 1: 0.906791521, 2: 0.196284715, 3: 0.171543265, 4: 0.0, 5: 0.181073305, 6: 0.0, 7: 0.174781035, 8: 0.0, 9: 0.176002835, 10: 0.0, 11: 0.180767855, 12: 0.179973685, 13: 0.902637401, 14: 0.176186105, 15: 0.9105791009999999, 16: 0.181623115, 17: 0.0, 18: 0.5499958150000001, 19: 0.160913605, 20: 0.205326035, 21: 0.214672805, 22: 0.211007405, 23: 0.9072191509999999, 24: 1.604707282, 25: 1.603517682, 26: 1.604945202, 27: 0.258505037, 28: 0.0, 29: 0.0, 30: 1.307902082, 31: 1.237477762, 32: 1.212020322, 33: 0.0, 34: 1.438758082, 35: 0.0, 36: 1.447442162, 37: 0.0, 38: 0.0, 39: 0.0, 40: 1.438163282, 41: 1.450654082, 42: 0.0, 43: 0.0, 44: 0.305851117, 45: 1.531546882, 46: 0.0, 47: 0.118178165, 48: 0.118178165, 49: 1.495264082, 50: 1.511918482, 51: 1.508944482, 52: 0.0, 53: 0.8303679309999999, 54: 0.118178165, 55: 0.0, 56: 0.0, 57: 0.118178165, 58: 0.063597235, 59: 0.0, 60: 2.031773682, 61: 0.476609602, 62: 0.0, 63: 0.0, 64: 0.0, 65: 0.0, 66: 0.142637997, 67: 0.485412642, 68: 0.902367442, 69: 0.599138402, 70: 0.731065042, 71: 0.0, 72: 0.0, 73: 0.0, 74: 0.0, 75: 0.0, 76: 1.449821362, 77: 1.432572162, 78: 1.421508882, 79: 0.0, 80: 0.0, 81: 1.434594482, 82: 1.454817682, 83: 1.643726162, 84: 1.709630002, 85: 0.412915117, 86: 0.421837117, 87: 0.424216317, 88: 0.0, 89: 0.141364805, 90: 0.874658181, 91: 0.0, 92: 0.0, 93: 0.8006171010000001, 94: 0.801411271, 95: 0.247478135, 96: 0.0, 97: 0.0, 98: 0.208685985, 99: 0.0, 100: 0.0, 101: 0.157859105, 102: 0.0, 103: 0.0, 104: 0.0, 105: 0.0, 106: 0.0, 107: 0.0, 108: 0.0, 109: 0.0, 110: 0.878629031, 111: 0.0, 112: 0.8769796010000001, 113: 0.144969115, 114: 0.0, 115: 0.187304485, 116: 0.075509785, 117: 0.0, 118: 0.798784401, 119: 0.068789885, 120: 1.454460802, 121: 0.0, 122: 1.453033282, 123: 1.437806402, 124: 0.0, 125: 0.0, 126: 1.449226562, 127: 0.0, 128: 1.305879762, 129: 0.0, 130: 1.447680082, 131: 1.123276162, 132: 1.023825602, 133: 0.0, 134: 0.0, 135: 1.079370069, 136: 0.0, 137: 0.0, 138: 0.0, 139: 1.445538802, 140: 0.0, 141: 0.0, 142: 0.611153362, 143: 0.403687122, 144: 2.091848482, 145: 1.475635682, 146: 0.0, 147: 1.310995042, 148: 0.391528355, 149: 0.0, 150: 0.118178165, 151: 0.0, 152: 0.418499151, 153: 1.213890951, 154: 0.909357301, 155: 0.002018515, 156: 1.829779602, 157: 0.0, 158: 0.0, 159: 0.0, 160: 0.216869037, 161: 0.118178165, 162: 0.480773202, 163: 0.0, 164: 1.720455362, 165: 2.073409682, 166: 1.544394562, 167: 0.0, 168: 1.276020802, 169: 1.496810562, 170: 0.0, 171: 1.552364882, 172: 0.107187917, 173: 1.456007282, 174: 0.0, 175: 0.0, 176: 1.434594482, 177: 0.0, 178: 0.0, 179: 0.0, 180: 1.549390882, 181: 1.547606482, 182: 0.0, 183: 1.526788482, 184: 0.236787385, 185: 0.0, 186: 0.0, 187: 0.907402421, 188: 0.0, 189: 0.884921301, 190: 0.0, 191: 0.878323581];
earn = [0: 0.0, 1: 0.0, 2: 0.0, 3: 0.0, 4: 0.384707831, 5: 0.0, 6: 0.373671438, 7: 0.0, 8: 0.374506665, 9: 0.0, 10: 0.364302377, 11: 0.0, 12: 0.0, 13: 0.0, 14: 0.0, 15: 0.0, 16: 0.0, 17: 0.348869723, 18: 0.0, 19: 0.0, 20: 0.0, 21: 0.0, 22: 0.0, 23: 0.0, 24: 0.0, 25: 0.0, 26: 0.0, 27: 0.0, 28: 0.115257495, 29: 0.758287327, 30: 0.0, 31: 0.0, 32: 0.0, 33: 0.582875678, 34: 0.0, 35: 1.05828289, 36: 0.0, 37: 0.495370362, 38: 0.405156619, 39: 0.540780127, 40: 0.0, 41: 0.0, 42: 0.822112492, 43: 0.0, 44: 0.0, 45: 0.0, 46: 0.140615723, 47: 0.101534972, 48: 0.14152799, 49: 0.0, 50: 0.0, 51: 0.0, 52: 0.09186269599999999, 53: 0.0, 54: 0.038838275, 55: 0.131214938, 56: 0.089212448, 57: 0.134830165, 58: 0.0, 59: 0.5366364300000001, 60: 0.0, 61: 0.0, 62: 0.536600403, 63: 0.280249436, 64: 0.95627549, 65: 1.007846954, 66: 0.0, 67: 0.0, 68: 0.0, 69: 0.0, 70: 0.0, 71: 0.482274059, 72: 0.092474985, 73: 0.562026598, 74: 0.013797525, 75: 0.665207396, 76: 0.0, 77: 0.0, 78: 0.0, 79: 0.743151244, 80: 0.720513315, 81: 0.0, 82: 0.0, 83: 0.0, 84: 0.0, 85: 0.0, 86: 0.0, 87: 0.0, 88: 0.460433213, 89: 0.0, 90: 0.0, 91: 0.446085932, 92: 0.239006623, 93: 0.0, 94: 0.0, 95: 0.0, 96: 0.358151185, 97: 0.368210781, 98: 0.0, 99: 0.400217352, 100: 0.381715365, 101: 0.0, 102: 0.39265665, 103: 0.382966542, 104: 0.393590423, 105: 0.390999794, 106: 0.382649505, 107: 0.385274929, 108: 0.389882142, 109: 0.385110152, 110: 0.0, 111: 0.383802367, 112: 0.0, 113: 0.0, 114: 0.277489588, 115: 0.0, 116: 0.0, 117: 0.478028138, 118: 0.0, 119: 0.0, 120: 0.0, 121: 0.518552665, 122: 0.0, 123: 0.0, 124: 0.533242513, 125: 0.559955946, 126: 0.0, 127: 0.018539571, 128: 0.0, 129: 0.021126906, 130: 0.0, 131: 0.0, 132: 0.0, 133: 0.086412194, 134: 0.418410977, 135: 0.0, 136: 0.39841569, 137: 0.1875746, 138: 0.413600806, 139: 0.0, 140: 0.190721856, 141: 0.294752463, 142: 0.0, 143: 0.0, 144: 0.0, 145: 0.0, 146: 0.155749683, 147: 0.0, 148: 0.0, 149: 0.026477003, 150: 0.01324582, 151: 0.002706867, 152: 0.0, 153: 0.0, 154: 0.0, 155: 0.0, 156: 0.0, 157: 0.044231579, 158: 0.052360874, 159: 0.07843329, 160: 0.0, 161: 0.020418008, 162: 0.0, 163: 0.287732025, 164: 0.0, 165: 0.0, 166: 0.0, 167: 0.4009078, 168: 0.0, 169: 0.0, 170: 0.518090279, 171: 0.0, 172: 0.0, 173: 0.0, 174: 0.639704185, 175: 0.726494077, 176: 0.0, 177: 0.0, 178: 0.0, 179: 0.572162176, 180: 0.0, 181: 0.0, 182: 0.437618643, 183: 0.0, 184: 0.0, 185: 0.292979404, 186: 0.310462203, 187: 0.0, 188: 0.388619277, 189: 0.0, 190: 0.343931019, 191: 0.0];
total_cost = 98.285176302;
total_earn = 29.940773139;
