production = [0: 0.0, 1: 0.0, 2: 0.0, 3: 0.0, 4: 0.0, 5: 0.0, 6: 0.0, 7: 0.0, 8: 0.0, 9: 0.0, 10: 0.0, 11: 0.0, 12: 0.0, 13: 0.0, 14: 0.0, 15: 0.0, 16: 0.0, 17: 0.0, 18: 0.0, 19: 0.0, 20: 0.0, 21: 0.0, 22: 0.0, 23: 0.0, 24: 0.0, 25: 0.0, 26: 0.0, 27: 0.0, 28: 0.057, 29: 0.0, 30: 0.0, 31: 0.1752, 32: 0.1963, 33: 0.3347, 34: 0.0, 35: 0.8383, 36: 0.9507, 37: 1.0655, 38: 0.0, 39: 1.2303, 40: 0.109604167, 41: 0.0, 42: 0.0, 43: 0.605304167, 44: 1.7203, 45: 0.0, 46: 1.8447, 47: 1.8927, 48: 1.9403, 49: 0.0, 50: 0.0, 51: 1.9423, 52: 1.9623, 53: 0.0, 54: 0.0, 55: 1.9115, 56: 1.8902, 57: 1.856, 58: 1.7982, 59: 0.0, 60: 1.608604167, 61: 1.586, 62: 0.0, 63: 1.3905, 64: 0.0, 65: 1.185, 66: 0.9878, 67: 0.0, 68: 0.0, 69: 0.0, 70: 0.0, 71: 0.0, 72: 0.0, 73: 0.0, 74: 0.0, 75: 0.0, 76: 0.0445, 77: 0.0, 78: 0.0025, 79: 0.0, 80: 0.0003, 81: 0.0, 82: 0.0, 83: 0.0, 84: 0.0, 85: 0.0, 86: 0.0, 87: 0.0, 88: 0.0, 89: 0.0, 90: 0.0, 91: 0.0, 92: 0.0, 93: 0.0, 94: 0.0, 95: 0.0, 96: 0.0, 97: 0.0, 98: 0.0, 99: 0.0, 100: 0.0, 101: 0.0, 102: 0.0, 103: 0.0, 104: 0.0, 105: 0.0, 106: 0.0, 107: 0.0, 108: 0.0, 109: 0.0, 110: 0.0, 111: 0.0, 112: 0.0, 113: 0.0, 114: 0.0, 115: 0.0, 116: 0.0, 117: 0.0, 118: 0.0, 119: 0.0003, 120: 0.0, 121: 0.0003, 122: 0.0035, 123: 0.0, 124: 0.0, 125: 0.0, 126: 0.0853, 127: 0.1445, 128: 0.1092, 129: 0.1415, 130: 0.0, 131: 0.2722, 132: 0.3543, 133: 0.0, 134: 0.0, 135: 0.6142, 136: 0.0, 137: 0.0, 138: 0.0, 139: 1.0877, 140: 0.792, 141: 0.0, 142: 0.703, 143: 0.0, 144: 0.0, 145: 0.0, 146: 2.9007, 147: 0.0, 148: 0.5258, 149: 0.8808, 150: 2.2435, 151: 0.0, 152: 0.0, 153: 0.7702, 154: 0.6315, 155: 0.0, 156: 0.6175, 157: 0.6887, 158: 0.6565, 159: 0.6342, 160: 0.0, 161: 0.0, 162: 0.0, 163: 0.9183, 164: 0.0, 165: 0.6222, 166: 0.0, 167: 0.4245, 168: 0.0, 169: 0.225, 170: 0.0, 171: 0.0, 172: 0.042, 173: 0.0203, 174: 0.0, 175: 0.0, 176: 0.0, 177: 0.0, 178: 0.0, 179: 0.0, 180: 0.0, 181: 0.0, 182: 0.0, 183: 0.0, 184: 0.0, 185: 0.0, 186: 0.0, 187: 0.0, 188: 0.0, 189: 0.0, 190: 0.0, 191: 0.0];
buy = [0: 1.330304167, 1: 0.290904167, 2: 0.0, 3: 1.280804167, 4: 0.0, 5: 1.296404167, 6: 0.0, 7: 1.286104167, 8: 1.282104167, 9: 0.288104167, 10: 0.0, 11: 1.295904167, 12: 0.294604167, 13: 1.284104167, 14: 1.288404167, 15: 0.297104167, 16: 0.0, 17: 0.0, 18: 0.900304167, 19: 0.0, 20: 0.336104167, 21: 1.351404167, 22: 1.345404167, 23: 1.292104167, 24: 1.249604167, 25: 0.249604167, 26: 1.249804167, 27: 1.249804167, 28: 0.051604167, 29: 0.112404167, 30: 1.118104167, 31: 0.0, 32: 0.0, 33: 0.7772041669999999, 34: 0.0, 35: 0.279104167, 36: 0.0, 37: 0.052104167, 38: 1.111604167, 39: 0.0, 40: 0.0, 41: 0.0, 42: 0.0, 43: 0.0, 44: 0.0, 45: 0.188104167, 46: 0.0, 47: 0.0, 48: 0.0, 49: 1.157604167, 50: 1.171604167, 51: 0.0, 52: 0.0, 53: 0.0, 54: 0.0, 55: 0.0, 56: 0.0, 57: 0.0, 58: 0.0, 59: 1.105604167, 60: 0.0, 61: 0.0, 62: 1.860904167, 63: 0.0, 64: 1.165104167, 65: 0.0, 66: 0.0, 67: 0.0, 68: 0.0, 69: 0.0, 70: 0.0, 71: 0.0, 72: 0.117104167, 73: 0.109304167, 74: 0.110604167, 75: 0.0, 76: 0.0, 77: 0.0, 78: 1.095604167, 79: 0.09910416700000001, 80: 1.096304167, 81: 1.106604167, 82: 0.123604167, 83: 0.0, 84: 0.0, 85: 0.0, 86: 0.0, 87: 1.356604167, 88: 1.262104167, 89: 0.231404167, 90: 1.238304167, 91: 0.233404167, 92: 1.232604167, 93: 0.117104167, 94: 1.118404167, 95: 0.0, 96: 0.0, 97: 0.0, 98: 1.341604167, 99: 0.0, 100: 1.277604167, 101: 1.258404167, 102: 0.0, 103: 0.0, 104: 1.253604167, 105: 0.0, 106: 0.239804167, 107: 1.239604167, 108: 0.0, 109: 0.0, 110: 1.244804167, 111: 0.0, 112: 0.242104167, 113: 1.237304167, 114: 0.231904167, 115: 1.306604167, 116: 1.123604167, 117: 1.116604167, 118: 0.0, 119: 0.112604167, 120: 1.123304167, 121: 1.124004167, 122: 1.118604167, 123: 1.109304167, 124: 1.108604167, 125: 0.0, 126: 1.033604167, 127: 0.972104167, 128: 0.0, 129: 0.0, 130: 0.117604167, 131: 0.0, 132: 0.761304167, 133: 0.0, 134: 1.108604167, 135: 0.0, 136: 1.117104167, 137: 0.115304167, 138: 0.0, 139: 0.0, 140: 0.324104167, 141: 0.0, 142: 0.0, 143: 1.115804167, 144: 0.0, 145: 1.141104167, 146: 0.0, 147: 0.0, 148: 1.115104167, 149: 0.768504167, 150: 0.0, 151: 0.416604167, 152: 0.175104167, 153: 1.023404167, 154: 0.295104167, 155: 0.003304167, 156: 0.821304167, 157: 0.0, 158: 0.0, 159: 0.0, 160: 0.0, 161: 1.187604167, 162: 1.167804167, 163: 0.238804167, 164: 0.262404167, 165: 0.021404167, 166: 1.198904167, 167: 0.0, 168: 1.175104167, 169: 0.920978946, 170: 0.0, 171: 1.205604167, 172: 1.090104167, 173: 0.0, 174: 1.117104167, 175: 0.0, 176: 0.106604167, 177: 1.187104167, 178: 0.0, 179: 0.0, 180: 0.0, 181: 0.0, 182: 1.160904167, 183: 1.184104167, 184: 0.0, 185: 1.363604167, 186: 0.331804167, 187: 0.0, 188: 0.0, 189: 0.0, 190: 0.0, 191: 1.244304167];
sell = [0: 0.0, 1: 0.0, 2: 0.0, 3: 0.0, 4: 0.602895833, 5: 0.0, 6: 0.0, 7: 0.0, 8: 0.0, 9: 0.0, 10: 0.6088958330000001, 11: 0.0, 12: 0.0, 13: 0.0, 14: 0.0, 15: 0.0, 16: 0.602695833, 17: 0.0, 18: 0.0, 19: 0.287080417, 20: 0.0, 21: 0.0, 22: 0.0, 23: 0.0, 24: 0.0, 25: 0.0, 26: 0.0, 27: 0.0, 28: 0.0, 29: 0.0, 30: 0.0, 31: 0.959095833, 32: 0.980495833, 33: 0.0, 34: 0.789895833, 35: 0.0, 36: 1.733295833, 37: 0.0, 38: 0.0, 39: 1.119395833, 40: 0.0, 41: 0.779895833, 42: 0.778395833, 43: 0.0, 44: 2.363195833, 45: 0.0, 46: 1.661395833, 47: 2.619595833, 48: 0.775495833, 49: 0.0, 50: 0.0, 51: 2.673195833, 52: 1.790695833, 53: 0.734195833, 54: 0.734195833, 55: 2.699895833, 56: 2.678295833, 57: 0.744095833, 58: 2.594095833, 59: 0.0, 60: 0.0, 61: 1.598695833, 62: 0.0, 63: 0.196595833, 64: 0.0, 65: 1.075395833, 66: 1.767895833, 67: 0.0, 68: 0.790095833, 69: 0.0, 70: 0.787595833, 71: 0.784695833, 72: 0.0, 73: 0.0, 74: 0.0, 75: 0.789895833, 76: 0.825095833, 77: 0.781595833, 78: 0.0, 79: 0.0, 80: 0.0, 81: 0.0, 82: 0.0, 83: 0.617595833, 84: 0.562195833, 85: 0.552895833, 86: 0.5453958330000001, 87: 0.0, 88: 0.0, 89: 0.0, 90: 0.0, 91: 0.0, 92: 0.0, 93: 0.0, 94: 0.0, 95: 0.494895833, 96: 0.522695833, 97: 0.548095833, 98: 0.0, 99: 0.620395833, 100: 0.0, 101: 0.0, 102: 0.641595833, 103: 0.537567751, 104: 0.0, 105: 0.660695833, 106: 0.0, 107: 0.0, 108: 0.669095833, 109: 0.666395833, 110: 0.0, 111: 0.657195833, 112: 0.0, 113: 0.0, 114: 0.0, 115: 0.0, 116: 0.0, 117: 0.0, 118: 0.0, 119: 0.0, 120: 0.0, 121: 0.0, 122: 0.0, 123: 0.0, 124: 0.0, 125: 0.783195833, 126: 0.0, 127: 0.0, 128: 0.901595833, 129: 0.0, 130: 0.0, 131: 1.055095833, 132: 0.0, 133: 0.791195833, 134: 0.0, 135: 1.397595833, 136: 0.0, 137: 0.0, 138: 0.790395833, 139: 0.971895833, 140: 0.0, 141: 0.783395833, 142: 0.585595833, 143: 0.0, 144: 0.240895833, 145: 0.0, 146: 2.756095833, 147: 0.271095833, 148: 0.0, 149: 0.0, 150: 1.094695833, 151: 0.0, 152: 0.0, 153: 0.0, 154: 0.0, 155: 0.0, 156: 0.0, 157: 0.245895833, 158: 0.211695833, 159: 1.052795833, 160: 0.7176958329999999, 161: 0.0, 162: 0.0, 163: 0.0, 164: 0.0, 165: 0.0, 166: 0.0, 167: 0.0, 168: 0.0, 169: 0.0, 170: 0.744395833, 171: 0.0, 172: 0.0, 173: 0.795695833, 174: 0.0, 175: 0.793895833, 176: 0.0, 177: 0.0, 178: 0.7348958330000001, 179: 0.732695833, 180: 0.696895833, 181: 0.698395833, 182: 0.0, 183: 0.0, 184: 0.512395833, 185: 0.0, 186: 0.0, 187: 0.455180688, 188: 0.631695833, 189: 0.644895833, 190: 0.639395833, 191: 0.0];
charge = [0: 1.0, 1: 0.0, 2: 0.0, 3: 1.0, 4: 0.0, 5: 1.0, 6: 0.0, 7: 1.0, 8: 1.0, 9: 0.0, 10: 0.0, 11: 1.0, 12: 0.0, 13: 1.0, 14: 1.0, 15: 0.0, 16: 0.0, 17: 0.0, 18: 0.0, 19: 0.0, 20: 0.0, 21: 1.0, 22: 1.0, 23: 1.0, 24: 1.0, 25: 0.0, 26: 1.0, 27: 1.0, 28: 0.0, 29: 0.0, 30: 1.0, 31: 0.0, 32: 0.0, 33: 1.0, 34: 0.0, 35: 1.0, 36: 0.0, 37: 1.0, 38: 1.0, 39: 0.0, 40: 0.0, 41: 0.0, 42: 0.0, 43: 0.0, 44: 0.0, 45: 0.0, 46: 0.0, 47: 0.0, 48: 1.0, 49: 1.0, 50: 1.0, 51: 0.0, 52: 0.0, 53: 0.0, 54: 0.0, 55: 0.0, 56: 0.0, 57: 1.0, 58: 0.0, 59: 1.0, 60: 1.0, 61: 0.0, 62: 1.0, 63: 1.0, 64: 1.0, 65: 0.0, 66: 0.0, 67: 0.0, 68: 0.0, 69: 0.0, 70: 0.0, 71: 0.0, 72: 0.0, 73: 0.0, 74: 0.0, 75: 0.0, 76: 0.0, 77: 0.0, 78: 1.0, 79: 0.0, 80: 1.0, 81: 1.0, 82: 0.0, 83: 0.0, 84: 0.0, 85: 0.0, 86: 0.0, 87: 1.0, 88: 1.0, 89: 0.0, 90: 1.0, 91: 0.0, 92: 1.0, 93: 0.0, 94: 1.0, 95: 0.0, 96: 0.0, 97: 0.0, 98: 1.0, 99: 0.0, 100: 1.0, 101: 1.0, 102: 0.0, 103: 0.0, 104: 1.0, 105: 0.0, 106: 0.0, 107: 1.0, 108: 0.0, 109: 0.0, 110: 1.0, 111: 0.0, 112: 0.0, 113: 1.0, 114: 0.0, 115: 1.0, 116: 1.0, 117: 1.0, 118: 0.0, 119: 0.0, 120: 1.0, 121: 1.0, 122: 1.0, 123: 1.0, 124: 1.0, 125: 0.0, 126: 1.0, 127: 1.0, 128: 0.0, 129: 0.032195833, 130: 0.0, 131: 0.0, 132: 1.0, 133: 0.0, 134: 1.0, 135: 0.0, 136: 1.0, 137: 0.0, 138: 0.0, 139: 0.0, 140: 1.0, 141: 0.0, 142: 0.0, 143: 1.0, 144: 0.0, 145: 1.0, 146: 0.0, 147: 0.0, 148: 1.0, 149: 1.0, 150: 1.0, 151: 0.0, 152: 0.0, 153: 1.0, 154: 0.0, 155: 0.0, 156: 1.0, 157: 0.0, 158: 0.0, 159: 0.0, 160: 0.0, 161: 1.0, 162: 1.0, 163: 1.0, 164: 0.0, 165: 0.0, 166: 1.0, 167: 0.277095833, 168: 1.0, 169: 0.987074779, 170: 0.0, 171: 1.0, 172: 1.0, 173: 0.0, 174: 1.0, 175: 0.0, 176: 0.0, 177: 1.0, 178: 0.0, 179: 0.0, 180: 0.0, 181: 0.0, 182: 1.0, 183: 1.0, 184: 0.0, 185: 1.0, 186: 0.0, 187: 0.0, 188: 0.0, 189: 0.0, 190: 0.0, 191: 1.0];
discharge = [0: 0.0, 1: 0.0, 2: 0.35700463, 3: 0.0, 4: 1.0, 5: 0.0, 6: 0.324893519, 7: 0.0, 8: 0.0, 9: 0.0, 10: 1.0, 11: 0.0, 12: 0.0, 13: 0.0, 14: 0.0, 15: 0.0, 16: 1.0, 17: 0.331782407, 18: 0.0, 19: 0.611649537, 20: 0.0, 21: 0.0, 22: 0.0, 23: 0.0, 24: 0.0, 25: 0.0, 26: 0.0, 27: 0.0, 28: 0.0, 29: 0.0, 30: 0.0, 31: 1.0, 32: 1.0, 33: 0.0, 34: 1.0, 35: 0.0, 36: 1.0, 37: 0.0, 38: 0.0, 39: 0.0, 40: 0.0, 41: 1.0, 42: 1.0, 43: 0.0, 44: 1.0, 45: 0.0, 46: 0.0, 47: 1.0, 48: 0.0, 49: 0.0, 50: 0.0, 51: 1.0, 52: 0.0, 53: 1.0, 54: 1.0, 55: 1.0, 56: 1.0, 57: 0.0, 58: 1.0, 59: 0.0, 60: 0.0, 61: 1.0, 62: 0.0, 63: 0.0, 64: 0.0, 65: 0.0, 66: 1.0, 67: 0.133782407, 68: 1.0, 69: 0.125115741, 70: 1.0, 71: 1.0, 72: 0.0, 73: 0.0, 74: 0.0, 75: 1.0, 76: 1.0, 77: 1.0, 78: 0.0, 79: 0.0, 80: 0.0, 81: 0.0, 82: 0.0, 83: 1.0, 84: 1.0, 85: 1.0, 86: 1.0, 87: 0.0, 88: 0.0, 89: 0.0, 90: 0.0, 91: 0.0, 92: 0.0, 93: 0.0, 94: 0.0, 95: 1.0, 96: 1.0, 97: 1.0, 98: 0.0, 99: 1.0, 100: 0.0, 101: 0.0, 102: 1.0, 103: 0.876079909, 104: 0.0, 105: 1.0, 106: 0.0, 107: 0.0, 108: 1.0, 109: 1.0, 110: 0.0, 111: 1.0, 112: 0.0, 113: 0.0, 114: 0.0, 115: 0.0, 116: 0.0, 117: 0.0, 118: 0.126782407, 119: 0.0, 120: 0.0, 121: 0.0, 122: 0.0, 123: 0.0, 124: 0.0, 125: 1.0, 126: 0.0, 127: 0.0, 128: 1.0, 129: 0.0, 130: 0.0, 131: 1.0, 132: 0.0, 133: 1.0, 134: 0.0, 135: 1.0, 136: 0.0, 137: 0.0, 138: 1.0, 139: 0.0, 140: 0.0, 141: 1.0, 142: 0.0, 143: 0.0, 144: 1.0, 145: 0.0, 146: 0.0, 147: 1.0, 148: 0.0, 149: 0.0, 150: 0.0, 151: 0.0, 152: 0.0, 153: 0.0, 154: 0.0, 155: 1.0, 156: 0.0, 157: 0.0, 158: 0.0, 159: 1.0, 160: 1.0, 161: 0.0, 162: 0.0, 163: 0.0, 164: 1.0, 165: 0.0, 166: 0.0, 167: 0.0, 168: 0.0, 169: 0.0, 170: 1.0, 171: 0.0, 172: 0.0, 173: 1.0, 174: 0.0, 175: 1.0, 176: 0.0, 177: 0.0, 178: 1.0, 179: 1.0, 180: 1.0, 181: 1.0, 182: 0.0, 183: 0.0, 184: 1.0, 185: 0.0, 186: 0.0, 187: 0.830094283, 188: 1.0, 189: 1.0, 190: 1.0, 191: 0.0];
soc = [0: 6.69884, 1: 6.697500232, 2: 6.339156102, 3: 7.237888271, 4: 6.236440693, 5: 7.135193405, 6: 6.808872848, 7: 7.707511074, 8: 8.605969570999999, 9: 8.604248376999999, 10: 7.602527528, 11: 8.501007022, 12: 8.499306820999999, 13: 9.397606959000001, 14: 10.295727438, 15: 10.293668293, 16: 9.291609558999999, 17: 8.95796883, 18: 8.956177236, 19: 8.342736463, 20: 8.341067916, 21: 9.239399702, 22: 10.137551822, 23: 11.035524312, 24: 11.933317207, 25: 11.930930544, 26: 12.828544358, 27: 13.725978649, 28: 13.723233453, 29: 13.720488806, 30: 14.617744709, 31: 13.61482116, 32: 12.612098195, 33: 13.509575776, 34: 12.506873861, 35: 13.404372486, 36: 12.401691611, 37: 13.299211273, 38: 14.196551431, 39: 14.193712121, 40: 14.190873378, 41: 13.188035203, 42: 12.185397596, 43: 12.182960517, 44: 11.180523925, 45: 11.17828782, 46: 11.176052162, 47: 10.173816952, 48: 11.071782189, 49: 11.969567832, 50: 12.867173919, 51: 11.864600484, 52: 11.862227564, 53: 10.859855118, 54: 9.857683146999999, 55: 8.855711611, 56: 7.853940468, 57: 8.752369679999999, 58: 7.750619206, 59: 8.649069082, 60: 9.547339269, 61: 8.545429800999999, 62: 9.443720715, 63: 10.341831971, 64: 11.239763604, 65: 11.237515651, 66: 10.235268148, 67: 10.099438687, 68: 9.0974188, 69: 8.970483574999999, 70: 7.968689478, 71: 6.96709574, 72: 6.965702321, 73: 6.964309181, 74: 6.962916319, 75: 5.961523736, 76: 4.960331431, 77: 3.959339365, 78: 4.858547497, 79: 4.857575787, 80: 5.756604272, 81: 6.655452951, 82: 6.654121861, 83: 5.652791036, 84: 4.651660478, 85: 3.650730146, 86: 2.65, 87: 3.54947, 88: 4.448760106, 89: 4.447870354, 90: 5.34698078, 91: 5.345911384, 92: 6.244842201, 93: 6.243593233, 94: 7.142344514, 95: 6.140916045, 96: 5.139687862, 97: 4.138659925, 98: 5.037832193, 99: 4.036824626, 100: 4.936017261, 101: 5.835030058, 102: 4.833863052, 103: 3.95681637, 104: 4.856025007, 105: 3.855053802, 106: 3.854282791, 107: 4.753511935, 108: 3.752561232, 109: 2.75181072, 110: 3.651260358, 111: 2.650530106, 112: 2.65, 113: 3.54947, 114: 3.548760106, 115: 4.448050354, 116: 5.347160744, 117: 6.246091312, 118: 6.118059686, 119: 6.116836074, 120: 7.015612707, 121: 7.914209584, 122: 8.812626742000001, 123: 9.710864216999999, 124: 10.608922044, 125: 9.60680026, 126: 10.5048789, 127: 11.402777924, 128: 10.400497368, 129: 10.427393519, 130: 10.42530804, 131: 9.423222979, 132: 10.321338334, 133: 9.319274066, 134: 10.217410212, 135: 9.21536673, 136: 10.113523656, 137: 10.111500951, 138: 9.109478651, 139: 9.107656756000001, 140: 10.005835224, 141: 9.003834057000001, 142: 9.00203329, 143: 9.900232883999999, 144: 8.898252836999999, 145: 9.796473187, 146: 9.794513891999999, 147: 8.792554988999999, 148: 9.690796477999999, 149: 10.588858319, 150: 11.486740547, 151: 11.484443199, 152: 11.48214631, 153: 12.379849881, 154: 12.377373911, 155: 11.374898436, 156: 12.272623457, 157: 12.270168932, 158: 12.267714898, 159: 11.265261355, 160: 10.263008303, 161: 11.160955701, 162: 12.05872351, 163: 12.956311765, 164: 11.953720503, 165: 11.951329759, 166: 12.848939493, 167: 13.095755955, 168: 13.993136804, 169: 14.878705478, 170: 13.875729737, 171: 14.772954591, 172: 15.67, 173: 14.666866, 174: 15.563932627, 175: 14.56081984, 176: 14.557907676, 177: 15.454996095, 178: 14.451905096, 179: 13.449014715, 180: 12.446324912, 181: 11.443835647, 182: 12.341546879, 183: 13.23907857, 184: 12.236430754, 185: 13.133983468, 186: 13.131356672, 187: 12.298636118, 188: 11.29617639, 189: 10.293917155, 190: 9.291858372, 191: 10.19];
cost = [0: 0.930860981, 1: 0.177713355, 2: 0.0, 3: 0.900621431, 4: 0.0, 5: 0.910151471, 6: 0.0, 7: 0.9038592009999999, 8: 0.901415601, 9: 0.176002835, 10: 0.0, 11: 0.909846021, 12: 0.179973685, 13: 0.902637401, 14: 0.905264271, 15: 0.181500935, 16: 0.0, 17: 0.0, 18: 0.5499958150000001, 19: 0.0, 20: 0.205326035, 21: 0.943750971, 22: 0.940085571, 23: 0.907524601, 24: 1.604707282, 25: 0.296929117, 26: 1.604945202, 27: 1.604945202, 28: 0.061388317, 29: 0.133715997, 30: 1.448274882, 31: 0.0, 32: 0.0, 33: 1.042740242, 34: 0.0, 35: 0.450200482, 36: 0.0, 37: 0.180161282, 38: 1.440542482, 39: 0.0, 40: 0.0, 41: 0.0, 42: 0.0, 43: 0.0, 44: 0.0, 45: 0.223768717, 46: 0.0, 47: 0.0, 48: 0.118178165, 49: 1.495264082, 50: 1.511918482, 51: 0.0, 52: 0.0, 53: 0.0, 54: 0.0, 55: 0.0, 56: 0.0, 57: 0.118178165, 58: 0.0, 59: 0.793591751, 60: 0.118178165, 61: 0.0, 62: 2.331909762, 63: 0.118178165, 64: 1.504186082, 65: 0.0, 66: 0.0, 67: 0.0, 68: 0.0, 69: 0.0, 70: 0.0, 71: 0.0, 72: 0.139307117, 73: 0.130028237, 74: 0.131574717, 75: 0.0, 76: 0.0, 77: 0.0, 78: 1.421508882, 79: 0.117894317, 80: 1.422341602, 81: 1.434594482, 82: 0.147039517, 83: 0.0, 84: 0.0, 85: 0.0, 86: 0.0, 87: 1.731994482, 88: 0.889197601, 89: 0.141364805, 90: 0.874658181, 91: 0.142586605, 92: 0.871176051, 93: 0.071538935, 94: 0.801411271, 95: 0.0, 96: 0.0, 97: 0.0, 98: 0.937764151, 99: 0.0, 100: 0.898666551, 101: 0.886937271, 102: 0.0, 103: 0.0, 104: 0.884004951, 105: 0.0, 106: 0.146496365, 107: 0.875452351, 108: 0.0, 109: 0.0, 110: 0.878629031, 111: 0.0, 112: 0.147901435, 113: 0.874047281, 114: 0.141670255, 115: 0.916382651, 116: 0.804587951, 117: 0.800311651, 118: 0.0, 119: 0.068789885, 120: 1.454460802, 121: 1.455293522, 122: 1.448869682, 123: 1.437806402, 124: 1.436973682, 125: 0.0, 126: 1.347753682, 127: 1.274593282, 128: 0.0, 129: 0.003804845, 130: 0.139901917, 131: 0.0, 132: 1.023825602, 133: 0.0, 134: 1.436973682, 135: 0.0, 136: 1.447085282, 137: 0.137165837, 138: 0.0, 139: 0.0, 140: 0.503732482, 141: 0.0, 142: 0.0, 143: 1.445538802, 144: 0.0, 145: 1.475635682, 146: 0.0, 147: 0.0, 148: 0.799395301, 149: 0.587657361, 150: 0.118178165, 151: 0.254503485, 152: 0.106971135, 153: 0.743375771, 154: 0.180279135, 155: 0.002018515, 156: 1.095201602, 157: 0.0, 158: 0.0, 159: 0.0, 160: 0.0, 161: 1.530952082, 162: 1.507398002, 163: 0.402259602, 164: 0.312155997, 165: 0.025462397, 166: 1.544394562, 167: 0.032746677, 168: 1.516082082, 169: 1.212247241, 170: 0.0, 171: 1.552364882, 172: 1.414966082, 173: 0.0, 174: 1.447085282, 175: 0.0, 176: 0.126816317, 177: 1.530357282, 178: 0.0, 179: 0.0, 180: 0.0, 181: 0.0, 182: 1.499189762, 183: 1.526788482, 184: 0.0, 185: 0.951203951, 186: 0.202699165, 187: 0.0, 188: 0.0, 189: 0.0, 190: 0.0, 191: 0.878323581];
earn = [0: 0.0, 1: 0.0, 2: 0.0, 3: 0.0, 4: 0.384707831, 5: 0.0, 6: 0.0, 7: 0.0, 8: 0.0, 9: 0.0, 10: 0.364302377, 11: 0.0, 12: 0.0, 13: 0.0, 14: 0.0, 15: 0.0, 16: 0.35010601, 17: 0.0, 18: 0.0, 19: 0.170296103, 20: 0.0, 21: 0.0, 22: 0.0, 23: 0.0, 24: 0.0, 25: 0.0, 26: 0.0, 27: 0.0, 28: 0.0, 29: 0.0, 30: 0.0, 31: 0.794610898, 32: 0.724488371, 33: 0.0, 34: 0.584917865, 35: 0.0, 36: 0.969605689, 37: 0.0, 38: 0.0, 39: 0.540780127, 40: 0.0, 41: 0.288093521, 42: 0.274306692, 43: 0.0, 44: 0.6470430190000001, 45: 0.0, 46: 0.325965863, 47: 0.369624972, 48: 0.14152799, 49: 0.0, 50: 0.0, 51: 0.312496593, 52: 0.09186269599999999, 53: 0.036122435, 54: 0.036122435, 55: 0.131214938, 56: 0.303183088, 57: 0.134830165, 58: 0.490024703, 59: 0.0, 60: 0.0, 61: 0.497354274, 62: 0.0, 63: 0.07802888600000001, 64: 0.0, 65: 0.548666954, 66: 0.909759196, 67: 0.0, 68: 0.457623507, 69: 0.0, 70: 0.474999047, 71: 0.482274059, 72: 0.0, 73: 0.0, 74: 0.0, 75: 0.588472396, 76: 0.706447053, 77: 0.68647562, 78: 0.0, 79: 0.0, 80: 0.0, 81: 0.0, 82: 0.0, 83: 0.5218067199999999, 84: 0.427156394, 85: 0.425785081, 86: 0.411446617, 87: 0.0, 88: 0.0, 89: 0.0, 90: 0.0, 91: 0.0, 92: 0.0, 93: 0.0, 94: 0.0, 95: 0.297778823, 96: 0.358151185, 97: 0.368210781, 98: 0.0, 99: 0.400217352, 100: 0.0, 101: 0.0, 102: 0.39265665, 103: 0.317164973, 104: 0.0, 105: 0.390999794, 106: 0.0, 107: 0.0, 108: 0.389882142, 109: 0.385110152, 110: 0.0, 111: 0.383802367, 112: 0.0, 113: 0.0, 114: 0.0, 115: 0.0, 116: 0.0, 117: 0.0, 118: 0.0, 119: 0.0, 120: 0.0, 121: 0.0, 122: 0.0, 123: 0.0, 124: 0.0, 125: 0.528892146, 126: 0.0, 127: 0.0, 128: 0.6370676159999999, 129: 0.0, 130: 0.0, 131: 0.611850074, 132: 0.0, 133: 0.418938194, 134: 0.0, 135: 0.669168885, 136: 0.0, 137: 0.0, 138: 0.260672546, 139: 0.294581627, 140: 0.0, 141: 0.168743463, 142: 0.10962354, 143: 0.0, 144: 0.028594335, 145: 0.0, 146: 0.117409682, 147: 0.003470027, 148: 0.0, 149: 0.0, 150: 0.01324582, 151: 0.0, 152: 0.0, 153: 0.0, 154: 0.0, 155: 0.0, 156: 0.0, 157: 0.009491579, 158: 0.009970873999999999, 159: 0.07843329, 160: 0.134209121, 161: 0.0, 162: 0.0, 163: 0.0, 164: 0.0, 165: 0.0, 166: 0.0, 167: 0.0, 168: 0.0, 169: 0.0, 170: 0.466512869, 171: 0.0, 172: 0.0, 173: 0.622950268, 174: 0.0, 175: 0.726494077, 176: 0.0, 177: 0.0, 178: 0.612976615, 179: 0.572162176, 180: 0.469080585, 181: 0.4290944, 182: 0.0, 183: 0.0, 184: 0.286275552, 185: 0.0, 186: 0.0, 187: 0.246389306, 188: 0.388619277, 189: 0.34972701, 190: 0.343931019, 191: 0.0];
total_cost = 90.02877986999999;
total_earn = 28.975080374;
