production = [0: 0.0, 1: 0.0, 2: 0.0, 3: 0.0, 4: 0.0, 5: 0.0, 6: 0.0, 7: 0.0, 8: 0.0, 9: 0.0, 10: 0.0, 11: 0.0, 12: 0.0, 13: 0.0, 14: 0.0, 15: 0.0, 16: 0.0, 17: 0.0, 18: 0.0, 19: 0.0, 20: 0.0, 21: 7.6e-05, 22: 1.7e-05, 23: 0.00397, 24: 0.009990000000000001, 25: 0.062142, 26: 0.068188, 27: 0.036218, 28: 0.155639, 29: 0.102345, 30: 0.006493, 31: 0.235966, 32: 0.840696, 33: 0.537869, 34: 0.582407, 35: 0.312582, 36: 0.046781, 37: 0.008413, 38: 0.04055, 39: 0.5104919999999999, 40: 0.059967, 41: 0.044786, 42: 0.034912, 43: 0.015814, 44: 0.003008, 45: 0.060716, 46: 0.028923, 47: 0.015366, 48: 0.005607, 49: 0.024615, 50: 0.005062, 51: 0.331048, 52: 0.08314299999999999, 53: 0.569874, 54: 0.250041, 55: 0.341324, 56: 0.237198, 57: 0.056579, 58: 0.0075, 59: 0.174064, 60: 0.111671, 61: 0.123987, 62: 0.062121, 63: 0.015418, 64: 0.013095, 65: 0.09889000000000001, 66: 0.050394, 67: 0.08118499999999999, 68: 0.028331, 69: 0.114932, 70: 0.06852999999999999, 71: 0.058233, 72: 0.06700299999999999, 73: 0.005019, 74: 0.0, 75: 0.00014, 76: 0.0, 77: 0.0, 78: 0.0, 79: 0.0, 80: 0.0, 81: 0.0, 82: 0.0, 83: 0.0, 84: 0.0, 85: 0.0, 86: 0.0, 87: 0.0, 88: 0.0, 89: 0.0, 90: 0.0, 91: 0.0, 92: 0.0, 93: 0.0, 94: 0.0, 95: 0.0];
buy = [0: 827.209738, 1: 706.630243, 2: 532.460156, 3: 413.046363, 4: 453.651556, 5: 568.220045, 6: 307.082023, 7: 601.219984, 8: 551.375874, 9: 252.938316, 10: 53.790115, 11: 728.14562, 12: 885.902099, 13: 202.454594, 14: 67.599284, 15: 731.985069, 16: 843.735038, 17: 733.5777890000001, 18: 403.134418, 19: 323.241294, 20: 55.096248, 21: 263.767596, 22: 944.825944, 23: 367.465127, 24: 623.456173, 25: 175.706188, 26: 259.508233, 27: 381.939616, 28: 287.424557, 29: 199.507321, 30: 696.23689, 31: 389.568847, 32: 150.664402, 33: 83.38288900000001, 34: 385.371673, 35: 334.472714, 36: 243.939165, 37: 467.431936, 38: 55.965275, 39: 495.678047, 40: 189.03451, 41: 388.566939, 42: 331.875224, 43: 900.321794, 44: 392.417909, 45: 678.362852, 46: 848.816054, 47: 4.881221, 48: 819.272243, 49: 453.421541, 50: 97.65142899999999, 51: 238.552056, 52: 578.7623579999999, 53: 978.551679, 54: 711.643856, 55: 218.731488, 56: 230.387334, 57: 979.160153, 58: 25.927877, 59: 289.1693, 60: 296.14692, 61: 858.483156, 62: 311.421305, 63: 251.141719, 64: 440.789232, 65: 396.497107, 66: 972.728246, 67: 319.295797, 68: 786.334546, 69: 714.038681, 70: 449.686367, 71: 87.75973399999999, 72: 17.189729, 73: 468.430192, 74: 934.489744, 75: 363.691602, 76: 386.383122, 77: 779.552709, 78: 737.255081, 79: 465.624186, 80: 86.282152, 81: 405.795173, 82: 905.109929, 83: 979.753817, 84: 499.980216, 85: 211.264215, 86: 180.661148, 87: 517.745861, 88: 221.319659, 89: 924.547406, 90: 587.971298, 91: 448.691284, 92: 535.770998, 93: 278.358772, 94: 500.534157, 95: 351.40487];
sell = [0: 1.154699, 1: 0.07531400000000001, 2: 3.052979, 3: 0.748731, 4: 2.776535, 5: 2.611064, 6: 0.94304, 7: 0.318721, 8: 1.599656, 9: 2.038894, 10: 3.463021, 11: 3.284425, 12: 2.187987, 13: 2.657656, 14: 1.917001, 15: 3.142856, 16: 1.147494, 17: 3.290836, 18: 2.699556, 19: 0.316532, 20: 0.403925, 21: 3.415941, 22: 1.776718, 23: 3.99406, 24: 3.397783, 25: 1.273071, 26: 1.565189, 27: 0.511306, 28: 1.831928, 29: 2.597877, 30: 2.057642, 31: 3.93084, 32: 2.028705, 33: 3.316844, 34: 1.382365, 35: 1.259439, 36: 1.284514, 37: 3.695477, 38: 2.283951, 39: 2.514529, 40: 0.109469, 41: 0.52491, 42: 1.293628, 43: 3.940744, 44: 1.886073, 45: 1.575502, 46: 0.005004, 47: 3.330887, 48: 3.071255, 49: 1.577471, 50: 3.660079, 51: 3.606198, 52: 2.509076, 53: 1.749332, 54: 1.957635, 55: 0.462177, 56: 1.85068, 57: 0.158785, 58: 2.508721, 59: 2.9529, 60: 2.916702, 61: 1.740911, 62: 3.517202, 63: 3.041277, 64: 2.170278, 65: 0.896818, 66: 0.205946, 67: 0.202079, 68: 3.678242, 69: 0.291444, 70: 3.390955, 71: 3.80384, 72: 3.009664, 73: 1.799935, 74: 0.693132, 75: 1.188056, 76: 2.857476, 77: 3.964235, 78: 2.241103, 79: 3.099735, 80: 1.171958, 81: 2.679879, 82: 0.003772, 83: 1.189524, 84: 1.919226, 85: 1.236826, 86: 3.283529, 87: 1.799086, 88: 1.174874, 89: 0.400488, 90: 0.219517, 91: 3.120436, 92: 3.825566, 93: 1.273942, 94: 1.309326, 95: 0.81437];
charge = [0: 0.5661389999999999, 1: 0.5041949999999999, 2: 0.347842, 3: 0.7834449999999999, 4: 0.530528, 5: 0.521624, 6: 0.748922, 7: 0.104199, 8: 0.261314, 9: 0.838655, 10: 0.94748, 11: 0.958192, 12: 0.270857, 13: 0.132523, 14: 0.24776, 15: 0.553794, 16: 0.030962, 17: 0.755568, 18: 0.9091320000000001, 19: 0.699499, 20: 0.912646, 21: 0.341735, 22: 0.527684, 23: 0.481562, 24: 0.763056, 25: 0.13673, 26: 0.224123, 27: 0.079495, 28: 0.520155, 29: 0.148128, 30: 0.973932, 31: 0.114326, 32: 0.7988960000000001, 33: 0.607327, 34: 0.173981, 35: 0.509387, 36: 0.888088, 37: 0.148279, 38: 0.086622, 39: 0.047151, 40: 0.793835, 41: 0.857816, 42: 0.520775, 43: 0.59497, 44: 0.481188, 45: 0.716621, 46: 0.893113, 47: 0.111941, 48: 0.488938, 49: 0.851399, 50: 0.397045, 51: 0.648777, 52: 0.768421, 53: 0.064273, 54: 0.871858, 55: 0.410632, 56: 0.902072, 57: 0.835112, 58: 0.577897, 59: 0.708607, 60: 0.49197, 61: 0.660288, 62: 0.8884649999999999, 63: 0.266172, 64: 0.407134, 65: 0.458465, 66: 0.474533, 67: 0.068811, 68: 0.999123, 69: 0.800164, 70: 0.167125, 71: 0.005234, 72: 0.740416, 73: 0.684029, 74: 0.146606, 75: 0.012081, 76: 0.375795, 77: 0.068365, 78: 0.807521, 79: 0.260122, 80: 0.186139, 81: 0.699616, 82: 0.696803, 83: 0.008168999999999999, 84: 0.014841, 85: 0.425619, 86: 0.727473, 87: 0.641819, 88: 0.205247, 89: 0.191526, 90: 0.669719, 91: 0.663445, 92: 0.571608, 93: 0.332773, 94: 0.690646, 95: 0.108105];
discharge = [0: 0.877555, 1: 0.289623, 2: 0.776119, 3: 0.744019, 4: 0.245008, 5: 0.576078, 6: 0.975624, 7: 0.213544, 8: 0.323525, 9: 0.577193, 10: 0.64768, 11: 0.264285, 12: 0.451747, 13: 0.214258, 14: 0.975568, 15: 0.942036, 16: 0.806129, 17: 0.764218, 18: 0.239988, 19: 0.763113, 20: 0.459123, 21: 0.236737, 22: 0.850442, 23: 0.938489, 24: 0.395965, 25: 0.250528, 26: 0.69661, 27: 0.127767, 28: 0.344666, 29: 0.582247, 30: 0.29001, 31: 0.64823, 32: 0.210572, 33: 0.581915, 34: 0.109415, 35: 0.930816, 36: 0.095011, 37: 0.346769, 38: 0.493956, 39: 0.235085, 40: 0.395493, 41: 0.779223, 42: 0.458321, 43: 0.668045, 44: 0.44534, 45: 0.283808, 46: 0.375468, 47: 0.027263, 48: 0.251825, 49: 0.9513239999999999, 50: 0.669655, 51: 0.949132, 52: 0.032747, 53: 0.678063, 54: 0.853317, 55: 0.537477, 56: 0.177678, 57: 0.8203780000000001, 58: 0.065593, 59: 0.77253, 60: 0.127208, 61: 0.461301, 62: 0.513036, 63: 0.987951, 64: 0.367228, 65: 0.763257, 66: 0.095536, 67: 0.550728, 68: 0.395117, 69: 0.146806, 70: 0.404486, 71: 0.052149, 72: 0.562392, 73: 0.798497, 74: 0.514979, 75: 0.494252, 76: 0.345957, 77: 0.382699, 78: 0.626802, 79: 0.534865, 80: 0.574109, 81: 0.479992, 82: 0.737707, 83: 0.355399, 84: 0.391123, 85: 0.023121, 86: 0.152391, 87: 0.293126, 88: 0.939594, 89: 0.558676, 90: 0.391226, 91: 0.679159, 92: 0.499233, 93: 0.9528, 94: 0.439023, 95: 0.367721];
soc = [0: 13.03799, 1: 12.016893, 2: 14.349895, 3: 11.744221, 4: 10.868374, 5: 8.716984, 6: 15.459687, 7: 8.22804, 8: 10.050025, 9: 4.051584, 10: 11.640173, 11: 12.609425, 12: 14.005012, 13: 14.151887, 14: 6.286727, 15: 9.842549, 16: 3.61376, 17: 9.590909999999999, 18: 9.619133, 19: 10.20898, 20: 15.222986, 21: 12.941036, 22: 3.74792, 23: 4.142741, 24: 5.437652, 25: 12.230292, 26: 12.919448, 27: 9.132263999999999, 28: 9.277804, 29: 6.168116, 30: 7.762793, 31: 13.626377, 32: 3.701654, 33: 5.419937, 34: 14.084862, 35: 5.463982, 36: 12.377885, 37: 14.367824, 38: 4.928951, 39: 13.779206, 40: 11.045763, 41: 14.374514, 42: 13.122244, 43: 15.029032, 44: 3.607164, 45: 3.203447, 46: 10.954206, 47: 5.3803, 48: 11.677905, 49: 8.887237000000001, 50: 15.520558, 51: 6.810265, 52: 6.458403, 53: 12.987328, 54: 11.71915, 55: 3.462608, 56: 11.641548, 57: 13.711993, 58: 8.239568, 59: 7.992375, 60: 5.985816, 61: 14.56145, 62: 7.231477, 63: 7.714181, 64: 3.069292, 65: 13.335337, 66: 7.225198, 67: 15.565681, 68: 6.48482, 69: 6.933043, 70: 14.280405, 71: 2.857024, 72: 10.872231, 73: 14.018755, 74: 6.871968, 75: 7.486317, 76: 4.473672, 77: 4.150668, 78: 7.541927, 79: 12.047404, 80: 9.866921, 81: 12.909334, 82: 14.400928, 83: 6.082459, 84: 4.622039, 85: 7.991891, 86: 3.163913, 87: 3.728083, 88: 8.699541999999999, 89: 3.575072, 90: 7.059854, 91: 5.52857, 92: 15.050018, 93: 7.090579, 94: 14.377805, 95: 14.922697];
cost = [0: 210.723272, 1: 518.28434, 2: 79.701798, 3: 277.127328, 4: 392.610647, 5: 462.949317, 6: 286.861149, 7: 229.946729, 8: 511.21486, 9: 144.716612, 10: 332.06206, 11: 56.427083, 12: 66.45117999999999, 13: 439.665734, 14: 264.415103, 15: 272.113026, 16: 378.760222, 17: 51.561402, 18: 590.734836, 19: 93.34692800000001, 20: 325.425121, 21: 342.995501, 22: 600.394824, 23: 171.258104, 24: 632.344169, 25: 445.180324, 26: 93.839153, 27: 645.266652, 28: 1039.316413, 29: 933.263836, 30: 1162.414718, 31: 786.023293, 32: 230.539532, 33: 1114.314183, 34: 452.897662, 35: 532.576441, 36: 663.750954, 37: 863.112091, 38: 45.693601, 39: 367.310638, 40: 805.866005, 41: 859.100478, 42: 1128.093823, 43: 180.188413, 44: 137.675705, 45: 328.279112, 46: 223.74108, 47: 583.866502, 48: 178.290285, 49: 896.257798, 50: 861.9860640000001, 51: 314.496495, 52: 497.737815, 53: 113.762093, 54: 172.808966, 55: 23.6487, 56: 386.666968, 57: 298.255325, 58: 561.285572, 59: 269.809095, 60: 1113.007912, 61: 657.486625, 62: 303.292834, 63: 484.966944, 64: 294.407737, 65: 829.123774, 66: 244.928318, 67: 70.678168, 68: 1067.35423, 69: 1127.850312, 70: 1156.49982, 71: 1134.511225, 72: 391.035643, 73: 25.451024, 74: 944.729345, 75: 776.356926, 76: 948.976449, 77: 606.705062, 78: 834.9284239999999, 79: 585.745527, 80: 946.832363, 81: 474.616457, 82: 691.674389, 83: 112.464559, 84: 196.290792, 85: 132.937679, 86: 208.249652, 87: 434.642885, 88: 44.896986, 89: 396.43261, 90: 16.321467, 91: 447.076165, 92: 304.021045, 93: 29.091492, 94: 423.763095, 95: 477.34776];
earn = [0: 0.695524, 1: 0.696354, 2: 0.7007949999999999, 3: 0.366547, 4: 0.0373, 5: 0.825619, 6: 0.56248, 7: 0.46467, 8: 0.057901, 9: 0.075311, 10: 0.317459, 11: 0.031723, 12: 0.052206, 13: 0.084257, 14: 0.480668, 15: 0.550943, 16: 0.273482, 17: 0.307707, 18: 0.272763, 19: 0.517799, 20: 0.099716, 21: 0.242191, 22: 0.714609, 23: 0.170926, 24: 0.81825, 25: 0.235479, 26: 0.891165, 27: 0.911934, 28: 0.896456, 29: 0.217923, 30: 0.450071, 31: 0.841855, 32: 0.202444, 33: 0.053417, 34: -0.049823, 35: -0.108181, 36: -0.181287, 37: -0.124037, 38: -0.134196, 39: -0.068283, 40: -0.02305, 41: -0.021712, 42: -0.023462, 43: -0.008043, 44: -0.012291, 45: -0.001125, 46: -0.001677, 47: -0.011154, 48: -0.004865, 49: -0.006606, 50: -0.000715, 51: -0.0, 52: -0.004831, 53: 0.010297, 54: 0.025469, 55: 0.010152, 56: 0.389324, 57: 0.056139, 58: 0.307562, 59: 0.521478, 60: 0.572462, 61: 1.54732, 62: 0.07584299999999999, 63: 0.510789, 64: 0.452572, 65: 1.130011, 66: 0.686554, 67: 2.082479, 68: 0.093588, 69: 0.937661, 70: 3.186749, 71: 2.379284, 72: 2.176511, 73: 1.250275, 74: 3.378921, 75: 4.315408, 76: 1.165108, 77: 2.303845, 78: 1.871822, 79: 1.739036, 80: 1.663537, 81: 0.302552, 82: 2.719901, 83: 2.934471, 84: 1.629327, 85: 2.394235, 86: 2.56673, 87: 1.692937, 88: 0.422715, 89: 2.206587, 90: 0.485098, 91: 1.447791, 92: 0.635119, 93: 0.975392, 94: 1.233167, 95: 0.335097];
total_cost = 42.01106268127427;
total_earn = 9.329471432500002;
