production = [0: 0.0, 1: 0.0, 2: 0.0, 3: 0.0, 4: 0.0, 5: 0.0, 6: 0.0, 7: 0.0, 8: 0.0, 9: 0.0, 10: 0.0, 11: 0.0, 12: 0.0, 13: 0.0, 14: 0.0, 15: 0.0, 16: 0.0, 17: 0.0, 18: 0.0, 19: 0.0, 20: 0.0, 21: 0.000182, 22: 0.00013, 23: 0.001159, 24: 0.016088, 25: 0.059197, 26: 0.00198, 27: 0.08440599999999999, 28: 0.19368, 29: 0.181295, 30: 0.07961500000000001, 31: 0.413728, 32: 0.120076, 33: 0.471796, 34: 0.241058, 35: 0.297974, 36: 0.039876, 37: 0.056735, 38: 0.014527, 39: 0.018328, 40: 0.11781, 41: 0.013154, 42: 0.010508, 43: 0.023746, 44: 0.00402, 45: 0.019688, 46: 0.050959, 47: 0.06057, 48: 0.009221999999999999, 49: 0.043661, 50: 0.001197, 51: 0.508826, 52: 0.070439, 53: 0.244491, 54: 0.438856, 55: 0.336438, 56: 0.109429, 57: 0.056519, 58: 0.000145, 59: 0.220705, 60: 0.040614, 61: 0.005561, 62: 0.047528, 63: 0.02802, 64: 0.049447, 65: 0.044862, 66: 0.011676, 67: 0.07931100000000001, 68: 0.12211, 69: 0.016599, 70: 0.002135, 71: 0.055503, 72: 0.062185, 73: 0.008912, 74: 0.0, 75: 7e-06, 76: 0.0, 77: 0.0, 78: 0.0, 79: 0.0, 80: 0.0, 81: 0.0, 82: 0.0, 83: 0.0, 84: 0.0, 85: 0.0, 86: 0.0, 87: 0.0, 88: 0.0, 89: 0.0, 90: 0.0, 91: 0.0, 92: 0.0, 93: 0.0, 94: 0.0, 95: 0.0];
buy = [0: 246.85322, 1: 445.201737, 2: 747.44152, 3: 742.668986, 4: 479.359637, 5: 183.994914, 6: 729.174996, 7: 174.04774, 8: 200.164001, 9: 772.464616, 10: 418.343317, 11: 236.008872, 12: 829.828383, 13: 913.182672, 14: 950.3630010000001, 15: 576.419743, 16: 604.775765, 17: 892.4925009999999, 18: 183.30633, 19: 621.250211, 20: 188.447878, 21: 817.440264, 22: 48.435503, 23: 550.720453, 24: 639.461828, 25: 267.972653, 26: 180.768077, 27: 262.895678, 28: 564.563772, 29: 240.113652, 30: 609.479284, 31: 100.270446, 32: 885.54849, 33: 17.360754, 34: 713.032125, 35: 519.228578, 36: 988.497069, 37: 189.409439, 38: 895.622014, 39: 749.088585, 40: 770.900289, 41: 260.114764, 42: 56.452771, 43: 343.793519, 44: 733.539459, 45: 280.9786, 46: 491.976742, 47: 748.595894, 48: 841.8974909999999, 49: 380.276196, 50: 736.977294, 51: 531.202603, 52: 773.310252, 53: 384.367322, 54: 459.832565, 55: 675.953963, 56: 443.934573, 57: 355.191191, 58: 388.122052, 59: 267.703059, 60: 971.372165, 61: 306.396807, 62: 472.596857, 63: 887.361835, 64: 171.710606, 65: 997.736177, 66: 112.598106, 67: 179.853151, 68: 669.776413, 69: 289.559072, 70: 846.211892, 71: 224.574378, 72: 366.372725, 73: 24.76662, 74: 30.201419, 75: 516.066069, 76: 889.626055, 77: 553.83188, 78: 198.994781, 79: 880.292263, 80: 395.251767, 81: 472.15734, 82: 432.469535, 83: 763.593587, 84: 143.615035, 85: 739.571426, 86: 118.690399, 87: 714.026018, 88: 819.129017, 89: 557.776405, 90: 503.785489, 91: 503.404435, 92: 211.591897, 93: 189.171754, 94: 955.150159, 95: 600.734011];
sell = [0: 0.241228, 1: 0.713527, 2: 3.214436, 3: 0.6146, 4: 2.171967, 5: 1.660939, 6: 2.290565, 7: 3.610768, 8: 1.320202, 9: 2.242636, 10: 0.567918, 11: 1.080591, 12: 3.00597, 13: 2.505746, 14: 0.835624, 15: 1.150565, 16: 0.934835, 17: 3.763795, 18: 0.5563399999999999, 19: 0.583252, 20: 0.6005509999999999, 21: 2.656204, 22: 0.8531570000000001, 23: 2.330957, 24: 3.609317, 25: 1.310575, 26: 3.135031, 27: 1.93827, 28: 1.454323, 29: 0.513267, 30: 3.966484, 31: 1.641845, 32: 2.793234, 33: 0.907713, 34: 0.689879, 35: 2.133305, 36: 3.060987, 37: 0.796879, 38: 1.954801, 39: 1.053361, 40: 1.934133, 41: 0.9561770000000001, 42: 1.586619, 43: 0.457868, 44: 0.6182800000000001, 45: 3.588339, 46: 1.190823, 47: 0.356569, 48: 2.640469, 49: 0.342792, 50: 3.229637, 51: 2.926281, 52: 1.878733, 53: 1.042576, 54: 1.338403, 55: 0.70262, 56: 0.188088, 57: 3.419633, 58: 0.810985, 59: 2.584707, 60: 3.785915, 61: 2.369322, 62: 0.708962, 63: 3.928717, 64: 3.298874, 65: 1.330696, 66: 0.914546, 67: 2.266081, 68: 0.794675, 69: 3.251685, 70: 3.935674, 71: 1.993, 72: 3.496133, 73: 0.114286, 74: 1.362832, 75: 0.27632, 76: 0.264836, 77: 2.914886, 78: 3.984193, 79: 1.527826, 80: 2.95995, 81: 0.785675, 82: 0.938127, 83: 0.299524, 84: 2.613815, 85: 0.888779, 86: 3.90891, 87: 1.415594, 88: 0.061248, 89: 0.696129, 90: 3.244302, 91: 1.378798, 92: 2.990038, 93: 1.019777, 94: 3.640888, 95: 1.568625];
charge = [0: 0.596128, 1: 0.283759, 2: 0.722782, 3: 0.875846, 4: 0.965658, 5: 0.584395, 6: 0.285083, 7: 0.371199, 8: 0.491635, 9: 0.310653, 10: 0.948773, 11: 0.344044, 12: 0.935658, 13: 0.509446, 14: 0.655572, 15: 0.385833, 16: 0.155586, 17: 0.6679929999999999, 18: 0.899931, 19: 0.222201, 20: 0.010257, 21: 0.048976, 22: 0.624665, 23: 0.6803630000000001, 24: 0.12138, 25: 0.068327, 26: 0.019361, 27: 0.428617, 28: 0.826618, 29: 0.869998, 30: 0.926048, 31: 0.199777, 32: 0.765904, 33: 0.524533, 34: 0.810836, 35: 0.824464, 36: 0.007416, 37: 0.640487, 38: 0.304012, 39: 0.688767, 40: 0.186387, 41: 0.977361, 42: 0.744548, 43: 0.8989819999999999, 44: 0.5670539999999999, 45: 0.638308, 46: 0.447119, 47: 0.349558, 48: 0.287887, 49: 0.328534, 50: 0.523844, 51: 0.512504, 52: 0.662353, 53: 0.380835, 54: 0.207778, 55: 0.988256, 56: 0.511561, 57: 0.008096000000000001, 58: 0.41293, 59: 0.652776, 60: 0.528218, 61: 0.034113, 62: 0.131289, 63: 0.08939999999999999, 64: 0.118022, 65: 0.412335, 66: 0.09801799999999999, 67: 0.370265, 68: 0.809653, 69: 0.813736, 70: 0.567831, 71: 0.113888, 72: 0.620432, 73: 0.096473, 74: 0.808832, 75: 0.783738, 76: 0.141689, 77: 0.392288, 78: 0.901793, 79: 0.823313, 80: 0.180958, 81: 0.369871, 82: 0.240932, 83: 0.298635, 84: 0.011386, 85: 0.75156, 86: 0.353813, 87: 0.217018, 88: 0.459257, 89: 0.795388, 90: 0.059297, 91: 0.246949, 92: 0.651053, 93: 0.619184, 94: 0.711028, 95: 0.479009];
discharge = [0: 0.017555, 1: 0.765393, 2: 0.254917, 3: 0.193087, 4: 0.07232, 5: 0.786559, 6: 0.961372, 7: 0.682402, 8: 0.608978, 9: 0.548509, 10: 0.389875, 11: 0.368256, 12: 0.443068, 13: 0.131207, 14: 0.263376, 15: 0.610711, 16: 0.249773, 17: 0.884334, 18: 0.004716, 19: 0.16506, 20: 0.758969, 21: 0.477766, 22: 0.284791, 23: 0.6355, 24: 0.08096100000000001, 25: 0.289785, 26: 0.642072, 27: 0.386996, 28: 0.174063, 29: 0.178121, 30: 0.373331, 31: 0.41042, 32: 0.6209480000000001, 33: 0.615547, 34: 0.301981, 35: 0.72624, 36: 0.008787, 37: 0.135341, 38: 0.435751, 39: 0.580808, 40: 0.279262, 41: 0.494288, 42: 0.73189, 43: 0.004206, 44: 0.555369, 45: 0.204061, 46: 0.110509, 47: 0.955004, 48: 0.334744, 49: 0.856195, 50: 0.440897, 51: 0.135786, 52: 0.276835, 53: 0.037524, 54: 0.062552, 55: 0.694344, 56: 0.85967, 57: 0.5333560000000001, 58: 0.180672, 59: 0.638951, 60: 0.581411, 61: 0.379285, 62: 0.196955, 63: 0.056644, 64: 0.145943, 65: 0.07202600000000001, 66: 0.810042, 67: 0.8247949999999999, 68: 0.841687, 69: 0.042914, 70: 0.903104, 71: 0.036765, 72: 0.442535, 73: 0.443828, 74: 0.489999, 75: 0.240722, 76: 0.694959, 77: 0.374282, 78: 0.451711, 79: 0.445418, 80: 0.6546729999999999, 81: 0.715087, 82: 0.564903, 83: 0.122417, 84: 0.471871, 85: 0.85792, 86: 0.172585, 87: 0.335423, 88: 0.159348, 89: 0.840516, 90: 0.587036, 91: 0.125556, 92: 0.9506869999999999, 93: 0.781902, 94: 0.678689, 95: 0.713276];
soc = [0: 13.406747, 1: 13.64713, 2: 11.447257, 3: 11.575334, 4: 11.486661, 5: 11.464825, 6: 10.551495, 7: 11.612879, 8: 14.616817, 9: 11.686582, 10: 12.15332, 11: 5.944335, 12: 6.31912, 13: 10.825043, 14: 13.775189, 15: 8.752931999999999, 16: 3.10946, 17: 5.076739, 18: 4.954457, 19: 13.123916, 20: 5.219676, 21: 13.404839, 22: 13.816362, 23: 8.26268, 24: 7.040956, 25: 13.147637, 26: 8.369637000000001, 27: 12.635154, 28: 10.273901, 29: 3.714061, 30: 2.836227, 31: 11.318047, 32: 8.808199999999999, 33: 13.187945, 34: 3.077797, 35: 12.803114, 36: 11.636825, 37: 13.725031, 38: 6.047597, 39: 7.41469, 40: 11.692254, 41: 7.101019, 42: 11.641642, 43: 8.58436, 44: 15.470789, 45: 8.519545000000001, 46: 14.931851, 47: 2.954378, 48: 7.420676, 49: 2.799651, 50: 7.939669, 51: 10.605061, 52: 7.595276, 53: 8.827279000000001, 54: 3.67532, 55: 5.052664, 56: 4.971059, 57: 14.034948, 58: 14.456638, 59: 8.33154, 60: 3.265032, 61: 10.518592, 62: 12.204225, 63: 11.263781, 64: 12.407625, 65: 3.474139, 66: 7.518845, 67: 9.408467, 68: 5.931258, 69: 5.549003, 70: 6.910212, 71: 14.804183, 72: 9.339, 73: 12.800405, 74: 3.898399, 75: 13.530254, 76: 4.628261, 77: 14.842474, 78: 15.14613, 79: 4.457334, 80: 7.117999, 81: 13.747649, 82: 10.871209, 83: 4.711846, 84: 9.549681, 85: 4.017223, 86: 4.995304, 87: 9.609408, 88: 4.521681, 89: 9.036778, 90: 12.148557, 91: 9.006190999999999, 92: 13.122278, 93: 10.443427, 94: 13.707263, 95: 11.906555];
cost = [0: 517.763525, 1: 131.852143, 2: 102.308104, 3: 441.459257, 4: 226.72862, 5: 254.967369, 6: 108.846678, 7: 499.402636, 8: 488.990435, 9: 176.37338, 10: 96.111313, 11: 328.655572, 12: 62.689387, 13: 372.84429, 14: 461.645861, 15: 248.668973, 16: 485.276156, 17: 424.749952, 18: 544.507383, 19: 502.146429, 20: 287.380298, 21: 325.49296, 22: 463.094131, 23: 198.785812, 24: 1014.091777, 25: 642.834524, 26: 223.372125, 27: 1098.516191, 28: 936.8747059999999, 29: 828.36358, 30: 433.71823, 31: 943.78185, 32: 852.991531, 33: 770.408303, 34: 994.238556, 35: 704.638503, 36: 1052.201919, 37: 89.05653100000001, 38: 911.178129, 39: 912.535393, 40: 507.217219, 41: 378.86777, 42: 187.561823, 43: 705.501833, 44: 27.161438, 45: 34.235274, 46: 1038.663525, 47: 1072.267354, 48: 1055.578186, 49: 198.413851, 50: 539.579349, 51: 242.667002, 52: 496.881748, 53: 195.272384, 54: 478.941772, 55: 406.83881, 56: 385.311122, 57: 256.160851, 58: 1.934742, 59: 301.529837, 60: 627.705905, 61: 1118.362189, 62: 109.673998, 63: 605.094499, 64: 282.623862, 65: 720.234287, 66: 1032.011492, 67: 1170.859344, 68: 866.39243, 69: 383.019971, 70: 1042.798953, 71: 1099.110233, 72: 90.04296600000001, 73: 571.072154, 74: 369.458835, 75: 574.204422, 76: 948.776649, 77: 752.736914, 78: 308.938707, 79: 205.119787, 80: 152.649085, 81: 926.64093, 82: 1096.340559, 83: 531.0543280000001, 84: 1088.241739, 85: 1003.012433, 86: 9.68759, 87: 760.552989, 88: 33.192875, 89: 280.761761, 90: 151.406073, 91: 252.645222, 92: 307.287792, 93: 412.22391, 94: 502.921857, 95: 9.343597000000001];
earn = [0: 0.74151, 1: 0.482706, 2: 0.585461, 3: 0.096612, 4: 0.528616, 5: 0.029547, 6: 0.615309, 7: 0.07972799999999999, 8: 0.275245, 9: 0.528922, 10: 0.20296, 11: 0.06597600000000001, 12: 0.068879, 13: 0.223792, 14: 0.079206, 15: 0.105814, 16: 0.106629, 17: 0.019363, 18: 0.481521, 19: 0.658097, 20: 0.180122, 21: 0.573088, 22: 0.960881, 23: 0.349047, 24: 0.081964, 25: 1.386618, 26: 6.600000000000001e-05, 27: 1.590594, 28: 0.331555, 29: 1.474122, 30: 0.810107, 31: 0.152669, 32: 0.17939, 33: 0.128519, 34: -0.052161, 35: -0.02675, 36: -0.085287, 37: -0.013299, 38: -0.149801, 39: -0.01414, 40: -0.182248, 41: -0.017394, 42: -0.044597, 43: -0.015063, 44: -0.017197, 45: -0.015035, 46: -0.004512, 47: -0.002296, 48: -0.014903, 49: -0.004878, 50: -0.001416, 51: -0.0, 52: -0.005009, 53: 0.021556, 54: 0.000447, 55: 0.024174, 56: 0.049674, 57: 0.282611, 58: 0.416312, 59: 0.239867, 60: 1.098913, 61: 1.277076, 62: 0.088632, 63: 1.691591, 64: 0.244036, 65: 0.744095, 66: 1.230869, 67: 1.618854, 68: 0.555423, 69: 1.602076, 70: 0.861754, 71: 1.166322, 72: 2.730251, 73: 0.251778, 74: 2.344364, 75: 1.469916, 76: 1.029651, 77: 1.171165, 78: 0.256423, 79: 0.298715, 80: 1.08992, 81: 1.53237, 82: 1.586936, 83: 1.073513, 84: 0.9705240000000001, 85: 0.267502, 86: 2.561123, 87: 0.323286, 88: 0.940657, 89: 0.784556, 90: 0.007264, 91: 1.010994, 92: 0.872468, 93: 1.66358, 94: 1.346811, 95: 2.070713];
total_cost = 44.29754714387647;
total_earn = 11.60149142706077;
