t_strength = 
[|    UNSKILLED: SEMI_SKILLED: SKILLED: 
 | 0:      1800,         1200,     800
 | 1:      1204,         1384,    1000
 | 2:       700,         1601,    1400
 | 3:       340,         1820,    1920
 |];
u_recruit = 
[| UNSKILLED: SEMI_SKILLED: SKILLED: 
 |         0,           10,     362
 |         0,           20,     600
 |         0,          600,     600
 |];
transfer = array3d(1..3, UNSKILLED..SKILLED, UNSKILLED..SKILLED, [0, 230, 0, 0, 0, 1, 0, 102, 0, 0, 266, 0, 0, 0, 0, 1, 111, 0, 0, 299, 0, 395, 0, 25, 0, 0, 0]);
w_redundancy = 
[| UNSKILLED: SEMI_SKILLED: SKILLED: 
 |        96,            0,       0
 |        58,            0,       0
 |       193,            0,       0
 |];
x_short = 
[| UNSKILLED: SEMI_SKILLED: SKILLED: 
 |         0,           40,       0
 |         0,            2,       0
 |        40,           40,      40
 |];
y_overmanning = 
[| UNSKILLED: SEMI_SKILLED: SKILLED: 
 |         4,           64,       0
 |         0,            0,       0
 |       120,            0,       0
 |];
% _objective = 797000.0;
