production = [0: 0.0, 1: 0.0, 2: 0.0, 3: 0.0, 4: 0.0, 5: 0.0, 6: 0.0, 7: 0.0, 8: 0.0, 9: 0.0, 10: 0.0, 11: 0.0, 12: 0.0, 13: 0.0, 14: 0.0, 15: 0.0, 16: 0.0, 17: 0.0, 18: 0.0, 19: 0.0, 20: 0.0, 21: 0.0, 22: 0.0003, 23: 0.0018, 24: 0.0, 25: 0.0455, 26: 0.0, 27: 0.1557, 28: 0.0, 29: 0.0, 30: 0.3967, 31: 0.5978, 32: 0.0, 33: 0.6215000000000001, 34: 0.0, 35: 0.0, 36: 0.707, 37: 0.0, 38: 0.0, 39: 0.6825, 40: 0.6558, 41: 0.0, 42: 0.9543, 43: 0.76, 44: 0.08649999999999999, 45: 0.0, 46: 0.0, 47: 0.8147, 48: 0.0, 49: 0.7558, 50: 0.0, 51: 0.0, 52: 0.7133, 53: 0.0, 54: 1.08, 55: 0.0, 56: 1.0917, 57: 0.0, 58: 0.8698, 59: 0.9419999999999999, 60: 0.8582, 61: 0.0, 62: 0.0, 63: 0.0, 64: 0.5383, 65: 0.0, 66: 0.0, 67: 0.1953, 68: 0.0, 69: 0.0, 70: 0.0, 71: 0.0357, 72: 0.0, 73: 0.0003, 74: 0.0, 75: 0.0, 76: 0.0, 77: 0.0, 78: 0.0, 79: 0.0, 80: 0.0, 81: 0.0, 82: 0.0, 83: 0.0, 84: 0.0, 85: 0.0, 86: 0.0, 87: 0.0, 88: 0.0, 89: 0.0, 90: 0.0, 91: 0.0, 92: 0.0, 93: 0.0, 94: 0.0, 95: 0.0, 96: 0.0, 97: 0.0, 98: 0.0, 99: 0.0, 100: 0.0, 101: 0.0, 102: 0.0, 103: 0.0, 104: 0.0, 105: 0.0, 106: 0.0, 107: 0.0, 108: 0.0, 109: 0.0, 110: 0.0, 111: 0.0, 112: 0.0, 113: 0.0, 114: 0.0, 115: 0.0, 116: 0.0, 117: 0.0, 118: 0.0005, 119: 0.0055, 120: 0.0335, 121: 0.0, 122: 0.0, 123: 0.1442, 124: 0.0, 125: 0.3118, 126: 0.3152, 127: 0.0, 128: 0.9307, 129: 0.0, 130: 0.9958, 131: 0.0, 132: 0.0, 133: 0.0725, 134: 0.0, 135: 0.5175, 136: 0.0, 137: 0.0, 138: 0.0638, 139: 0.0, 140: 0.0278, 141: 0.0725, 142: 0.0, 143: 0.0, 144: 0.0, 145: 0.0638, 146: 0.0612, 147: 1.348, 148: 0.0, 149: 0.6965, 150: 0.5302, 151: 0.4195, 152: 0.0, 153: 0.0, 154: 0.2052, 155: 0.2437, 156: 0.0, 157: 0.1345, 158: 0.0, 159: 0.0892, 160: 0.1547, 161: 0.1045, 162: 0.0, 163: 0.0, 164: 0.0, 165: 0.0, 166: 0.08699999999999999, 167: 0.0, 168: 0.0737, 169: 0.0, 170: 0.0, 171: 0.0003, 172: 0.0, 173: 0.0, 174: 0.0, 175: 0.0, 176: 0.0, 177: 0.0, 178: 0.0, 179: 0.0, 180: 0.0, 181: 0.0, 182: 0.0, 183: 0.0, 184: 0.0, 185: 0.0, 186: 0.0, 187: 0.0, 188: 0.0, 189: 0.0, 190: 0.0, 191: 0.0];
buy = [0: 1.22, 1: 0.2197, 2: 0.0, 3: 1.2075, 4: 1.2165, 5: 0.2182, 6: 1.2105, 7: 0.2105, 8: 0.0, 9: 1.2167, 10: 0.217, 11: 0.211, 12: 0.0, 13: 0.2107, 14: 1.221, 15: 1.2205, 16: 1.2115, 17: 1.212, 18: 0.219, 19: 1.2205, 20: 1.2155, 21: 1.212, 22: 1.2117, 23: 1.2172, 24: 0.0, 25: 1.0448, 26: 0.0785, 27: 0.0, 28: 1.058089299, 29: 0.089, 30: 0.6906, 31: 0.4827, 32: 0.0, 33: 0.0, 34: 0.0, 35: 1.088, 36: 0.0, 37: 0.0, 38: 1.087, 39: 0.0, 40: 0.0, 41: 0.0, 42: 0.1257, 43: 0.0, 44: 0.0, 45: 0.08599999999999999, 46: 1.0782, 47: 0.2625, 48: 1.0865, 49: 0.0, 50: 1.078, 51: 0.0, 52: 0.0, 53: 1.571, 54: 0.0, 55: 1.8172, 56: 0.0, 57: 1.3757, 58: 0.5207000000000001, 59: 0.4215, 60: 0.0, 61: 1.083, 62: 0.0, 63: 0.09030000000000001, 64: 0.5522, 65: 0.0, 66: 1.0785, 67: 0.0, 68: 0.0, 69: 1.0898, 70: 0.797084947, 71: 0.0, 72: 1.0883, 73: 1.0944, 74: 0.0, 75: 0.0867, 76: 0.0, 77: 1.0942, 78: 1.0942, 79: 0.0, 80: 0.0, 81: 1.086, 82: 1.093, 83: 0.0, 84: 0.0, 85: 1.087, 86: 0.0, 87: 0.0, 88: 1.043279123, 89: 1.0867, 90: 1.087, 91: 0.0, 92: 0.0, 93: 1.0955, 94: 0.0, 95: 0.0, 96: 0.096, 97: 0.0, 98: 1.0955, 99: 0.0, 100: 0.0, 101: 0.0, 102: 0.09420000000000001, 103: 0.0, 104: 1.0867, 105: 0.0, 106: 0.08649999999999999, 107: 0.095, 108: 0.0945, 109: 0.0, 110: 0.0, 111: 1.094, 112: 0.0, 113: 0.933273964, 114: 0.08599999999999999, 115: 1.086, 116: 0.08500000000000001, 117: 0.0945, 118: 1.0937, 119: 0.0, 120: 0.0, 121: 1.0883, 122: 0.0, 123: 0.9418, 124: 0.0, 125: 0.7702, 126: 0.0, 127: 0.0, 128: 0.0, 129: 0.0795, 130: 0.0, 131: 1.0857, 132: 0.0, 133: 0.02, 134: 0.0, 135: 0.0125, 136: 0.0, 137: 0.1478, 138: 0.0, 139: 1.0815, 140: 1.0532, 141: 1.0175, 142: 0.0, 143: 0.0, 144: 0.0, 145: 1.0175, 146: 0.0, 147: 0.0, 148: 1.1192, 149: 0.401, 150: 0.0, 151: 0.6715, 152: 0.0, 153: 0.0, 154: 1.5783, 155: 0.0, 156: 1.087, 157: 0.0, 158: 1.0795, 159: 0.0, 160: 0.0, 161: 0.0, 162: 1.0888, 163: 0.0, 164: 0.2507, 165: 1.2487, 166: 0.147, 167: 1.2075, 168: 0.0, 169: 1.0687, 170: 0.0, 171: 0.0, 172: 0.0, 173: 1.069, 174: 1.0687, 175: 0.0, 176: 1.0775, 177: 1.2033, 178: 0.0, 179: 0.0, 180: 1.2067, 181: 0.0, 182: 1.2018, 183: 1.2028, 184: 0.2013, 185: 1.2105, 186: 0.0, 187: 0.0, 188: 0.0, 189: 0.0, 190: 0.0, 191: 1.2107];
sell = [0: 0.0, 1: 0.0, 2: 0.6919999999999999, 3: 0.0, 4: 0.0, 5: 0.0, 6: 0.0, 7: 0.0, 8: 0.6893, 9: 0.0, 10: 0.0, 11: 0.0, 12: 0.6889999999999999, 13: 0.0, 14: 0.0, 15: 0.0, 16: 0.0, 17: 0.0, 18: 0.0, 19: 0.0, 20: 0.0, 21: 0.0, 22: 0.0, 23: 0.0, 24: 0.8055, 25: 0.0, 26: 0.0, 27: 0.077, 28: 0.0, 29: 0.0, 30: 0.0, 31: 0.0, 32: 0.8218, 33: 0.5348000000000001, 34: 0.8129999999999999, 35: 0.0, 36: 1.5288, 37: 0.8205, 38: 0.0, 39: 0.595, 40: 1.4776, 41: 0.822, 42: 0.0, 43: 0.6735, 44: 0.0, 45: 0.0, 46: 0.0, 47: 0.0, 48: 0.0, 49: 0.6683, 50: 0.0, 51: 0.8177, 52: 1.532, 53: 0.0, 54: 1.435, 55: 0.0, 56: 1.907, 57: 0.0, 58: 0.0, 59: 0.0, 60: 1.6752, 61: 0.0, 62: 0.8169999999999999, 63: 0.0, 64: 0.0, 65: 0.8205, 66: 0.0, 67: 1.008, 68: 0.8110000000000001, 69: 0.0, 70: 0.0, 71: 0.8537, 72: 0.0, 73: 0.0, 74: 0.8058, 75: 0.0, 76: 0.8139999999999999, 77: 0.0, 78: 0.0, 79: 0.8068, 80: 0.8139999999999999, 81: 0.0, 82: 0.0, 83: 0.8045, 84: 0.0, 85: 0.0, 86: 0.8135, 87: 0.8053, 88: 0.0, 89: 0.0, 90: 0.0, 91: 0.8135, 92: 0.8055, 93: 0.0, 94: 0.8055, 95: 0.0, 96: 0.0, 97: 0.8055, 98: 0.0, 99: 0.8133, 100: 0.8139999999999999, 101: 0.8127, 102: 0.0, 103: 0.8065, 104: 0.0, 105: 0.8135, 106: 0.0, 107: 0.0, 108: 0.0, 109: 0.8135, 110: 0.8135, 111: 0.0, 112: 0.805, 113: 0.0, 114: 0.0, 115: 0.0, 116: 0.0, 117: 0.0, 118: 0.0, 119: 0.8255, 120: 0.8527, 121: 0.0, 122: 0.8133, 123: 0.0, 124: 0.0, 125: 0.0, 126: 1.1279, 127: 0.8125, 128: 1.7442, 129: 0.0, 130: 1.8176, 131: 0.0, 132: 0.8090000000000001, 133: 0.0, 134: 0.0, 135: 0.0, 136: 0.7577, 137: 0.0, 138: 0.8813, 139: 0.0, 140: 0.0, 141: 0.0, 142: 0.806, 143: 0.8129999999999999, 144: 0.8139999999999999, 145: 0.0, 146: 0.875, 147: 0.2613, 148: 0.0, 149: 0.0, 150: 0.4344, 151: 0.0, 152: 0.0, 153: 0.1063, 154: 0.0, 155: 0.07770000000000001, 156: 0.0, 157: 0.9462, 158: 0.0, 159: 0.0, 160: 0.07489999999999999, 161: 0.9155, 162: 0.0, 163: 0.6803, 164: 0.0, 165: 0.0, 166: 0.0, 167: 0.0, 168: 0.794, 169: 0.0, 170: 0.822, 171: 0.8226, 172: 0.8233, 173: 0.0, 174: 0.0, 175: 0.0, 176: 0.0, 177: 0.0, 178: 0.7027, 179: 0.7032, 180: 0.0, 181: 0.6919999999999999, 182: 0.0, 183: 0.0, 184: 0.0, 185: 0.0, 186: 0.6909999999999999, 187: 0.6957, 188: 0.698, 189: 0.6905, 190: 0.6905, 191: 0.0];
charge = [0: 1.0, 1: 0.0, 2: 0.0, 3: 1.0, 4: 1.0, 5: 0.0, 6: 1.0, 7: 0.0, 8: 0.0, 9: 1.0, 10: 0.0, 11: 0.0, 12: 0.0, 13: 0.0, 14: 1.0, 15: 1.0, 16: 1.0, 17: 1.0, 18: 0.0, 19: 1.0, 20: 1.0, 21: 1.0, 22: 1.0, 23: 1.0, 24: 0.0, 25: 1.0, 26: 0.0, 27: 0.0, 28: 0.968789299, 29: 0.0, 30: 1.0, 31: 1.0, 32: 0.0, 33: 0.0, 34: 0.0, 35: 1.0, 36: 0.0, 37: 0.0, 38: 1.0, 39: 0.0, 40: 0.0, 41: 0.0, 42: 1.0, 43: 0.0, 44: 0.0, 45: 0.0, 46: 1.0, 47: 1.0, 48: 1.0, 49: 0.0, 50: 1.0, 51: 0.0, 52: 0.0, 53: 1.0, 54: 0.0, 55: 1.0, 56: 0.0, 57: 1.0, 58: 1.0, 59: 1.0, 60: 0.0, 61: 1.0, 62: 0.0, 63: 0.0, 64: 1.0, 65: 0.0, 66: 1.0, 67: 0.0, 68: 0.0, 69: 1.0, 70: 0.712384947, 71: 0.0, 72: 1.0, 73: 1.0, 74: 0.0, 75: 0.0, 76: 0.0, 77: 1.0, 78: 1.0, 79: 0.0, 80: 0.0, 81: 1.0, 82: 1.0, 83: 0.0, 84: 0.0, 85: 1.0, 86: 0.0, 87: 0.0, 88: 0.948579123, 89: 1.0, 90: 1.0, 91: 0.0, 92: 0.0, 93: 1.0, 94: 0.0, 95: 0.0, 96: 0.0, 97: 0.0, 98: 1.0, 99: 0.0, 100: 0.0, 101: 0.0, 102: 0.0, 103: 0.0, 104: 1.0, 105: 0.0, 106: 0.0, 107: 0.0, 108: 0.0, 109: 0.0, 110: 0.0, 111: 1.0, 112: 0.0, 113: 0.838773964, 114: 0.0, 115: 1.0, 116: 0.0, 117: 0.0, 118: 1.0, 119: 0.0, 120: 0.0, 121: 1.0, 122: 0.0, 123: 1.0, 124: 0.0, 125: 1.0, 126: 0.0, 127: 0.0, 128: 0.0, 129: 0.0, 130: 0.0, 131: 1.0, 132: 0.0, 133: 0.0, 134: 0.0, 135: 0.0, 136: 0.0, 137: 0.0, 138: 0.0, 139: 1.0, 140: 1.0, 141: 1.0, 142: 0.0, 143: 0.0, 144: 0.0, 145: 1.0, 146: 0.0, 147: 1.0, 148: 1.0, 149: 1.0, 150: 0.0, 151: 1.0, 152: 0.0, 153: 0.0, 154: 1.0, 155: 0.0, 156: 1.0, 157: 0.0, 158: 1.0, 159: 0.0102, 160: 0.0, 161: 0.0, 162: 1.0, 163: 0.0, 164: 0.0, 165: 1.0, 166: 0.0, 167: 1.0, 168: 0.0, 169: 1.0, 170: 0.0, 171: 0.0, 172: 0.0, 173: 1.0, 174: 1.0, 175: 0.0, 176: 1.0, 177: 1.0, 178: 0.0, 179: 0.0, 180: 1.0, 181: 0.0, 182: 1.0, 183: 1.0, 184: 0.0, 185: 1.0, 186: 0.0, 187: 0.0, 188: 0.0, 189: 0.0, 190: 0.0, 191: 1.0];
discharge = [0: 0.0, 1: 0.0, 2: 1.0, 3: 0.0, 4: 0.0, 5: 0.0, 6: 0.0, 7: 0.0, 8: 1.0, 9: 0.0, 10: 0.0, 11: 0.0, 12: 1.0, 13: 0.0, 14: 0.0, 15: 0.0, 16: 0.0, 17: 0.0, 18: 0.0, 19: 0.0, 20: 0.0, 21: 0.0, 22: 0.0, 23: 0.0, 24: 1.0, 25: 0.0, 26: 0.0, 27: 0.0, 28: 0.0, 29: 0.0, 30: 0.0, 31: 0.0, 32: 1.0, 33: 0.0, 34: 1.0, 35: 0.0, 36: 1.0, 37: 1.0, 38: 0.0, 39: 0.0, 40: 1.0, 41: 1.0, 42: 0.0, 43: 0.0, 44: 0.0, 45: 0.0, 46: 0.0, 47: 0.0, 48: 0.0, 49: 0.0, 50: 0.0, 51: 1.0, 52: 1.0, 53: 0.0, 54: 1.0, 55: 0.0, 56: 1.0, 57: 0.0, 58: 0.0, 59: 0.0, 60: 1.0, 61: 0.0, 62: 1.0, 63: 0.0, 64: 0.0, 65: 1.0, 66: 0.0, 67: 1.0, 68: 1.0, 69: 0.0, 70: 0.0, 71: 1.0, 72: 0.0, 73: 0.0, 74: 1.0, 75: 0.0, 76: 1.0, 77: 0.0, 78: 0.0, 79: 1.0, 80: 1.0, 81: 0.0, 82: 0.0, 83: 1.0, 84: 0.104666667, 85: 0.0, 86: 1.0, 87: 1.0, 88: 0.0, 89: 0.0, 90: 0.0, 91: 1.0, 92: 1.0, 93: 0.0, 94: 1.0, 95: 0.096666667, 96: 0.0, 97: 1.0, 98: 0.0, 99: 1.0, 100: 1.0, 101: 1.0, 102: 0.0, 103: 1.0, 104: 0.0, 105: 1.0, 106: 0.0, 107: 0.0, 108: 0.0, 109: 1.0, 110: 1.0, 111: 0.0, 112: 1.0, 113: 0.0, 114: 0.0, 115: 0.0, 116: 0.0, 117: 0.0, 118: 0.0, 119: 1.0, 120: 1.0, 121: 0.0, 122: 1.0, 123: 0.0, 124: 0.090333333, 125: 0.0, 126: 1.0, 127: 1.0, 128: 1.0, 129: 0.0, 130: 1.0, 131: 0.0, 132: 1.0, 133: 0.0, 134: 0.094444444, 135: 0.0, 136: 1.0, 137: 0.0, 138: 1.0, 139: 0.0, 140: 0.0, 141: 0.0, 142: 1.0, 143: 1.0, 144: 1.0, 145: 0.0, 146: 1.0, 147: 0.0, 148: 0.0, 149: 0.0, 150: 0.0, 151: 0.0, 152: 0.228555556, 153: 1.0, 154: 0.0, 155: 0.0, 156: 0.0, 157: 1.0, 158: 0.0, 159: 0.0, 160: 0.0, 161: 1.0, 162: 0.0, 163: 1.0, 164: 0.0, 165: 0.0, 166: 0.0, 167: 0.0, 168: 1.0, 169: 0.0, 170: 1.0, 171: 1.0, 172: 1.0, 173: 0.0, 174: 0.0, 175: 0.085222222, 176: 0.0, 177: 0.0, 178: 1.0, 179: 1.0, 180: 0.0, 181: 1.0, 182: 0.0, 183: 0.0, 184: 0.0, 185: 0.0, 186: 1.0, 187: 1.0, 188: 1.0, 189: 1.0, 190: 1.0, 191: 0.0];
soc = [0: 3.719436, 1: 3.718692113, 2: 2.717948374, 3: 3.617404785, 4: 4.516681304, 5: 4.515777967, 6: 5.414874812, 7: 5.413791837, 8: 4.412709079, 9: 5.311826537, 10: 5.310764171, 11: 5.309702019, 12: 4.308640078, 13: 4.30777835, 14: 5.206916795, 15: 6.105875411, 16: 7.004654236, 17: 7.903253305, 18: 7.901672655, 19: 8.800092319999999, 20: 9.698332302000001, 21: 10.596392635, 22: 11.494273357, 23: 12.391974502, 24: 11.389496107, 25: 12.287218208, 26: 12.284760764, 27: 12.282303812, 28: 13.151757721, 29: 13.149127369, 30: 14.046497544, 31: 14.943688244, 32: 13.940699506, 33: 13.937911367, 34: 12.935123784, 35: 13.83253676, 36: 12.829770252, 37: 11.827204298, 38: 12.724838857, 39: 12.722293889, 40: 11.719749431, 41: 10.717405481, 42: 11.615262, 43: 11.612938947, 44: 11.61061636, 45: 11.608294236, 46: 12.505972577, 47: 13.403471383, 48: 14.300790689, 49: 14.29793053, 50: 15.195070944, 51: 14.19203193, 52: 13.189193524, 53: 14.086555685, 54: 13.083738374, 55: 13.981121626, 56: 12.978325402, 57: 13.875729737, 58: 14.772954591, 59: 15.67, 60: 14.666866, 61: 15.563932627, 62: 14.56081984, 63: 14.557907676, 64: 15.454996095, 65: 14.451905096, 66: 15.349014715, 67: 14.345944912, 68: 13.343075723, 69: 14.240407107, 70: 14.878705478, 71: 13.875729737, 72: 14.772954591, 73: 15.67, 74: 14.666866, 75: 14.663932627, 76: 13.66099984, 77: 14.55826764, 78: 15.455355987, 79: 14.452264916, 80: 13.449374463, 81: 14.346684588, 82: 15.243815251, 83: 14.240766488, 84: 14.133251668, 85: 15.030425017, 86: 14.027418932, 87: 13.024613449, 88: 13.875729737, 89: 14.772954591, 90: 15.67, 91: 14.666866, 92: 13.663932627, 93: 14.56119984, 94: 13.5582876, 95: 13.458909276, 96: 13.456217494, 97: 12.453526251, 98: 13.351035546, 99: 12.348365338, 100: 11.345895665, 101: 10.343626486, 102: 10.341557761, 103: 9.339489449, 104: 10.237621551, 105: 9.235574027, 106: 9.233726912, 107: 9.231880167, 108: 9.230033791, 109: 8.228187783999999, 110: 7.226542147, 111: 8.125096837999999, 112: 7.123471819, 113: 7.876943692, 114: 7.875368303, 115: 8.773793229000001, 116: 8.772038471, 117: 8.770284063, 118: 9.668530005999999, 119: 8.6665963, 120: 7.664862981, 121: 8.563330007999999, 122: 7.561617342, 123: 8.460105019, 124: 8.368079665, 125: 9.266406049, 126: 8.264552767, 127: 7.262899857, 128: 6.261447277, 129: 6.260194987, 130: 5.258942948, 131: 6.15789116, 132: 5.156659582, 133: 5.15562825, 134: 5.06015268, 135: 5.059140649, 136: 4.058128821, 137: 4.057317195, 138: 3.056505732, 139: 3.955894431, 140: 4.855103252, 141: 5.754132231, 142: 4.752981405, 143: 3.752030808, 144: 2.751280402, 145: 3.650730146, 146: 2.65, 147: 3.54947, 148: 4.448760106, 149: 5.347870354, 150: 5.34680078, 151: 6.24573142, 152: 6.015926718, 153: 5.014723533, 154: 5.913720588, 155: 5.912537844, 156: 6.811355336, 157: 5.809993065, 158: 6.708831066, 159: 6.7166693, 160: 6.715325966, 161: 5.713982901, 162: 6.612840105, 163: 5.611517537, 164: 5.610395233, 165: 6.509273154, 166: 6.507971299, 167: 7.406669705, 168: 6.405188371, 169: 7.303907334, 170: 6.302446552, 171: 5.301186063, 172: 4.300125826, 173: 5.1992658, 174: 6.098225947, 175: 6.01178408, 176: 6.910581723, 177: 7.809199607, 178: 6.807637767, 179: 5.806276239, 180: 6.705114984, 181: 5.703773961, 182: 6.602633206, 183: 7.50131268, 184: 7.499812417, 185: 8.398312454999999, 186: 7.396632792, 187: 6.395153465, 188: 5.393874435, 189: 4.39279566, 190: 3.391917101, 191: 4.291238717];
cost = [0: 0.863476165, 1: 0.13421473, 2: 0.0, 3: 0.855839915, 4: 0.861338015, 5: 0.13329838, 6: 0.857672615, 7: 0.12859445, 8: 0.0, 9: 0.861460195, 10: 0.1325653, 11: 0.1288999, 12: 0.0, 13: 0.12871663, 14: 0.864087065, 15: 0.8637816149999999, 16: 0.858283515, 17: 0.858588965, 18: 0.1337871, 19: 0.8637816149999999, 20: 0.860727115, 21: 0.858588965, 22: 0.858405695, 23: 0.861765645, 24: 0.0, 25: 1.361072245, 26: 0.0933836, 27: 0.0, 28: 1.373192773, 29: 0.1058744, 30: 0.939715925, 31: 0.692398085, 32: 0.0, 33: 0.0, 34: 0.0, 35: 1.412462965, 36: 0.0, 37: 0.0, 38: 1.411273365, 39: 0.0, 40: 0.0, 41: 0.0, 42: 0.267710885, 43: 0.0, 44: 0.0, 45: 0.1023056, 46: 1.400804885, 47: 0.430448165, 48: 1.410678565, 49: 0.0, 50: 1.400566965, 51: 0.0, 52: 0.0, 53: 1.077902065, 54: 0.0, 55: 1.228305645, 56: 0.0, 57: 0.958593295, 58: 0.436273795, 59: 0.375672515, 60: 0.0, 61: 1.406514965, 62: 0.0, 63: 0.10742088, 64: 0.775075285, 65: 0.0, 66: 1.401161765, 67: 0.0, 68: 0.0, 69: 1.414604245, 70: 1.032400598, 71: 0.0, 72: 1.412819845, 73: 1.420076405, 74: 0.0, 75: 0.10313832, 76: 0.0, 77: 1.419838485, 78: 1.419838485, 79: 0.0, 80: 0.0, 81: 1.410083765, 82: 1.418410965, 83: 0.0, 84: 0.0, 85: 1.411273365, 86: 0.0, 87: 0.0, 88: 0.749440557, 89: 0.782043195, 90: 0.782226465, 91: 0.0, 92: 0.0, 93: 0.7874191149999999, 94: 0.0, 95: 0.0, 96: 0.0586464, 97: 0.0, 98: 0.7874191149999999, 99: 0.0, 100: 0.0, 101: 0.0, 102: 0.05754678, 103: 0.0, 104: 0.782043195, 105: 0.0, 106: 0.05284285, 107: 0.0580355, 108: 0.05773005, 109: 0.0, 110: 0.0, 111: 0.786502765, 112: 0.0, 113: 0.669261833, 114: 0.0525374, 115: 0.781615565, 116: 0.0519265, 117: 0.05773005, 118: 0.786319495, 119: 0.0, 120: 0.0, 121: 1.412819845, 122: 0.0, 123: 1.238543445, 124: 0.0, 125: 1.034408085, 126: 0.0, 127: 0.0, 128: 0.0, 129: 0.0945732, 130: 0.0, 131: 1.409726885, 132: 0.0, 133: 0.023792, 134: 0.0, 135: 0.01487, 136: 0.0, 137: 0.17582288, 138: 0.0, 139: 1.404730565, 140: 1.371064885, 141: 1.328596165, 142: 0.0, 143: 0.0, 144: 0.0, 145: 1.328596165, 146: 0.0, 147: 0.118178165, 148: 0.801897445, 149: 0.363149065, 150: 0.0, 151: 0.528397515, 152: 0.0, 153: 0.0, 154: 1.082361635, 155: 0.0, 156: 1.411273365, 157: 0.0, 158: 1.402351365, 159: 0.001205417, 160: 0.0, 161: 0.0, 162: 1.413414645, 163: 0.0, 164: 0.29823272, 165: 1.603631685, 166: 0.1748712, 167: 1.554620165, 168: 0.0, 169: 1.389503685, 170: 0.0, 171: 0.0, 172: 0.0, 173: 1.389860565, 174: 1.389503685, 175: 0.0, 176: 1.399972165, 177: 1.549623845, 178: 0.0, 179: 0.0, 180: 1.553668485, 181: 0.0, 182: 1.547839445, 183: 1.549029045, 184: 0.12297417, 185: 0.857672615, 186: 0.0, 187: 0.0, 188: 0.0, 189: 0.0, 190: 0.0, 191: 0.857794795];
earn = [0: 0.0, 1: 0.0, 2: 0.4984476, 3: 0.0, 4: 0.0, 5: 0.0, 6: 0.0, 7: 0.0, 8: 0.40551519, 9: 0.0, 10: 0.0, 11: 0.0, 12: 0.3831529, 13: 0.0, 14: 0.0, 15: 0.0, 16: 0.0, 17: 0.0, 18: 0.0, 19: 0.0, 20: 0.0, 21: 0.0, 22: 0.0, 23: 0.0, 24: 0.5710995, 25: 0.0, 26: 0.0, 27: 0.0546777, 28: 0.0, 29: 0.0, 30: 0.0, 31: 0.0, 32: 0.4524009, 33: 0.27510112, 34: 0.3946302, 35: 0.0, 36: 0.6378153600000001, 37: 0.30087735, 38: 0.0, 39: 0.159698, 40: 0.16194496, 41: 0.0650202, 42: 0.0, 43: 0.02202345, 44: -0.0, 45: 0.0, 46: 0.0, 47: 0.0, 48: 0.0, 49: -0.00080196, 50: -0.0, 51: 0.0065416, 52: 0.016086, 53: 0.0, 54: 0.039606, 55: 0.0, 56: 0.3703394, 57: 0.0, 58: 0.0, 59: 0.0, 60: 0.72938208, 61: 0.0, 62: 0.3923234, 63: 0.0, 64: 0.0, 65: 0.48713085, 66: 0.0, 67: 0.625968, 68: 0.5132008, 69: 0.0, 70: 0.0, 71: 0.67971594, 72: 0.0, 73: 0.0, 74: 0.62062716, 75: 0.0, 76: 0.5768004, 77: 0.0, 78: 0.0, 79: 0.57613588, 80: 0.5366702, 81: 0.0, 82: 0.0, 83: 0.5000772, 84: 0.0, 85: 0.0, 86: 0.39170025, 87: 0.36310977, 88: 0.0, 89: 0.0, 90: 0.0, 91: 0.3572892, 92: 0.330255, 93: 0.0, 94: 0.26573445, 95: 0.0, 96: 0.0, 97: 0.24881895, 98: 0.0, 99: 0.2212176, 100: 0.1783474, 101: 0.17375526, 102: 0.0, 103: 0.14137945, 104: 0.0, 105: 0.1125884, 106: 0.0, 107: 0.0, 108: 0.0, 109: 0.1135646, 110: 0.11429675, 111: 0.0, 112: 0.14812, 113: 0.0, 114: 0.0, 115: 0.0, 116: 0.0, 117: 0.0, 118: 0.0, 119: 0.2557399, 120: 0.34056838, 121: 0.0, 122: 0.37371135, 123: 0.0, 124: 0.0, 125: 0.0, 126: 0.32156429, 127: 0.20345, 128: 0.11668698, 129: 0.0, 130: -0.06925056, 131: 0.0, 132: -0.0458703, 133: 0.0, 134: 0.0, 135: 0.0, 136: -0.03856693, 137: 0.0, 138: -0.01066373, 139: 0.0, 140: 0.0, 141: 0.0, 142: -0.0022568, 143: -0.0022764, 144: -0.0031746, 145: 0.0, 146: -0.0004375, 147: -0.0, 148: 0.0, 149: 0.0, 150: 0.00317112, 151: 0.0, 152: 0.0, 153: 0.01206505, 154: 0.0, 155: 0.01407147, 156: 0.0, 157: 0.40014798, 158: 0.0, 159: 0.0, 160: 0.03824394, 161: 0.51606735, 162: 0.0, 163: 0.40668334, 164: 0.0, 165: 0.0, 166: 0.0, 167: 0.0, 168: 0.795588, 169: 0.0, 170: 0.928038, 171: 0.9270702, 172: 0.76550434, 173: 0.0, 174: 0.0, 175: 0.0, 176: 0.0, 177: 0.0, 178: 0.55660867, 179: 0.53626032, 180: 0.0, 181: 0.4659236, 182: 0.0, 183: 0.0, 184: 0.0, 185: 0.0, 186: 0.4189533, 187: 0.40851504, 188: 0.3656822, 189: 0.3777035, 190: 0.3777035, 191: 0.0];
total_cost = 88.93902456799999;
total_earn = 23.96560946;
