production = [0: 0.0, 1: 0.0, 2: 0.0, 3: 0.0, 4: 0.0, 5: 0.0, 6: 0.0, 7: 0.0, 8: 0.0, 9: 0.0, 10: 0.0, 11: 0.0, 12: 0.0, 13: 0.0, 14: 0.0, 15: 0.0, 16: 0.0, 17: 0.0, 18: 0.0, 19: 0.0, 20: 0.0, 21: 0.0003, 22: 0.0003, 23: 0.0018, 24: 0.0177, 25: 0.0, 26: 0.0955, 27: 0.0, 28: 0.1998, 29: 0.0, 30: 0.3967, 31: 0.5978, 32: 0.0, 33: 0.6215000000000001, 34: 0.8263, 35: 0.0, 36: 0.0, 37: 0.6318, 38: 0.674, 39: 0.6825, 40: 0.0, 41: 0.7815, 42: 0.0, 43: 0.0, 44: 0.8732, 45: 0.0, 46: 0.0, 47: 0.0, 48: 0.8263, 49: 0.0, 50: 0.854, 51: 0.8185, 52: 0.0, 53: 0.0, 54: 0.0, 55: 0.0, 56: 0.0, 57: 0.0, 58: 0.0, 59: 0.9419999999999999, 60: 0.8582, 61: 0.7592, 62: 0.7448, 63: 0.5004999999999999, 64: 0.5383, 65: 0.4325, 66: 0.0, 67: 0.0, 68: 0.1762, 69: 0.0, 70: 0.0, 71: 0.0357, 72: 0.0, 73: 0.0, 74: 0.0, 75: 0.0, 76: 0.0, 77: 0.0, 78: 0.0, 79: 0.0, 80: 0.0, 81: 0.0, 82: 0.0, 83: 0.0, 84: 0.0, 85: 0.0, 86: 0.0, 87: 0.0, 88: 0.0, 89: 0.0, 90: 0.0, 91: 0.0, 92: 0.0, 93: 0.0, 94: 0.0, 95: 0.0, 96: 0.0, 97: 0.0, 98: 0.0, 99: 0.0, 100: 0.0, 101: 0.0, 102: 0.0, 103: 0.0, 104: 0.0, 105: 0.0, 106: 0.0, 107: 0.0, 108: 0.0, 109: 0.0, 110: 0.0, 111: 0.0, 112: 0.0, 113: 0.0, 114: 0.0, 115: 0.0, 116: 0.0, 117: 0.0, 118: 0.0, 119: 0.0, 120: 0.0, 121: 0.0, 122: 0.076, 123: 0.0, 124: 0.2152, 125: 0.3118, 126: 0.3152, 127: 0.0, 128: 0.9307, 129: 0.93, 130: 0.9958, 131: 0.5218, 132: 0.0, 133: 0.0, 134: 0.0, 135: 0.5175, 136: 0.0, 137: 0.1335, 138: 0.0, 139: 0.061, 140: 0.0, 141: 0.0, 142: 0.0, 143: 0.07049999999999999, 144: 0.0635, 145: 0.0, 146: 0.0, 147: 0.0, 148: 0.0, 149: 0.0, 150: 0.5302, 151: 0.0, 152: 0.2815, 153: 0.0, 154: 0.0, 155: 0.2437, 156: 0.0, 157: 0.1345, 158: 0.0, 159: 0.0, 160: 0.0, 161: 0.1045, 162: 0.0, 163: 0.0, 164: 0.2387, 165: 0.1185, 166: 0.0, 167: 0.0, 168: 0.0737, 169: 0.0, 170: 0.0, 171: 0.0, 172: 0.0, 173: 0.0, 174: 0.0, 175: 0.0, 176: 0.0, 177: 0.0, 178: 0.0, 179: 0.0, 180: 0.0, 181: 0.0, 182: 0.0, 183: 0.0, 184: 0.0, 185: 0.0, 186: 0.0, 187: 0.0, 188: 0.0, 189: 0.0, 190: 0.0, 191: 0.0];
buy = [0: 1.22, 1: 1.2197, 2: 0.0, 3: 1.2075, 4: 0.2165, 5: 0.2182, 6: 1.2105, 7: 1.2105, 8: 0.0, 9: 0.0, 10: 1.217, 11: 1.211, 12: 0.211, 13: 1.2107, 14: 1.221, 15: 0.0, 16: 0.2115, 17: 1.212, 18: 0.0, 19: 0.2205, 20: 0.2155, 21: 1.2117, 22: 1.2117, 23: 1.2172, 24: 1.0768, 25: 1.0903, 26: 0.0, 27: 0.07870000000000001, 28: 0.0, 29: 1.089, 30: 0.6906, 31: 0.0, 32: 1.0782, 33: 0.0, 34: 0.2607, 35: 0.0, 36: 1.0782, 37: 0.0, 38: 0.413, 39: 0.0, 40: 1.0782, 41: 0.0, 42: 0.0, 43: 0.08649999999999999, 44: 0.2133, 45: 0.0, 46: 0.0, 47: 0.0, 48: 0.2602, 49: 1.0875, 50: 0.224, 51: 0.0, 52: 1.0813, 53: 1.571, 54: 1.545, 55: 0.0, 56: 0.0, 57: 0.0, 58: 0.579009098, 59: 0.0, 60: 0.2248, 61: 0.0, 62: 0.3382, 63: 0.0, 64: 0.0, 65: 0.647, 66: 1.0785, 67: 0.0873, 68: 0.0, 69: 1.0898, 70: 0.0847, 71: 0.0463, 72: 0.0, 73: 1.0947, 74: 1.0942, 75: 1.0867, 76: 0.0, 77: 1.0942, 78: 0.0, 79: 1.0932, 80: 1.086, 81: 0.0, 82: 0.0, 83: 1.0955, 84: 1.0942, 85: 0.08699999999999999, 86: 0.08649999999999999, 87: 0.09470000000000001, 88: 0.0, 89: 1.0867, 90: 0.0, 91: 0.08649999999999999, 92: 0.0, 93: 1.0955, 94: 0.0, 95: 0.0, 96: 1.096, 97: 0.0, 98: 0.061446807, 99: 1.0867, 100: 1.086, 101: 1.0873, 102: 1.0942, 103: 0.0, 104: 1.0867, 105: 0.0, 106: 0.0, 107: 0.0, 108: 1.0945, 109: 1.0865, 110: 0.0, 111: 0.0, 112: 0.0, 113: 1.0945, 114: 0.08599999999999999, 115: 0.0, 116: 0.0, 117: 0.0, 118: 1.0942, 119: 1.08, 120: 1.0808, 121: 0.0, 122: 0.0107, 123: 0.08599999999999999, 124: 0.0, 125: 0.7702, 126: 0.0, 127: 0.08749999999999999, 128: 0.1558, 129: 0.0, 130: 0.0824, 131: 0.0, 132: 0.091, 133: 0.0925, 134: 0.08500000000000001, 135: 1.0125, 136: 0.1423, 137: 0.0, 138: 0.0, 139: 1.0205, 140: 1.081, 141: 0.0, 142: 1.094, 143: 1.0165, 144: 1.0225, 145: 1.0813, 146: 0.0, 147: 1.0867, 148: 0.0, 149: 0.0975, 150: 0.5656, 151: 1.091, 152: 0.9242, 153: 0.0, 154: 1.7835, 155: 0.0, 156: 0.0, 157: 0.0, 158: 0.0, 159: 1.079, 160: 0.0, 161: 0.0, 162: 1.0888, 163: 1.2197, 164: 0.0, 165: 0.0, 166: 0.0, 167: 0.0, 168: 1.106, 169: 1.0687, 170: 0.0, 171: 0.0, 172: 0.0, 173: 0.0, 174: 1.0687, 175: 1.0767, 176: 1.0775, 177: 0.0, 178: 1.1973, 179: 0.0, 180: 0.0, 181: 0.0, 182: 1.2018, 183: 0.0, 184: 1.2013, 185: 1.2105, 186: 0.0, 187: 0.0, 188: 0.0, 189: 0.0, 190: 0.0, 191: 1.2107];
sell = [0: 0.0, 1: 0.0, 2: 0.6919999999999999, 3: 0.0, 4: 0.0, 5: 0.0, 6: 0.0, 7: 0.0, 8: 0.6893, 9: 0.6833, 10: 0.0, 11: 0.0, 12: 0.0, 13: 0.0, 14: 0.0, 15: 0.6795, 16: 0.0, 17: 0.0, 18: 0.681, 19: 0.0, 20: 0.0, 21: 0.0, 22: 0.0, 23: 0.0, 24: 0.0, 25: 0.0, 26: 0.917, 27: 0.0, 28: 0.1105, 29: 0.0, 30: 0.0, 31: 1.4173, 32: 0.0, 33: 0.5348000000000001, 34: 0.0, 35: 0.8120000000000001, 36: 0.0, 37: 1.4523, 38: 0.0, 39: 1.495, 40: 0.0, 41: 0.7035, 42: 0.82, 43: 0.0, 44: 0.0, 45: 0.0, 46: 0.8218, 47: 0.8228, 48: 0.0, 49: 0.0, 50: 0.0, 51: 0.783962501, 52: 0.0, 53: 0.0, 54: 0.0, 55: 0.0828, 56: 0.8153, 57: 0.5243, 58: 0.0, 59: 1.4785, 60: 0.0, 61: 0.6762, 62: 0.0, 63: 1.3102, 64: 1.3478, 65: 0.0, 66: 0.0, 67: 0.0, 68: 0.9872, 69: 0.0, 70: 0.0, 71: 0.0, 72: 0.8117, 73: 0.0, 74: 0.0, 75: 0.0, 76: 0.8139999999999999, 77: 0.0, 78: 0.8058, 79: 0.0, 80: 0.0, 81: 0.8139999999999999, 82: 0.8070000000000001, 83: 0.0, 84: 0.0, 85: 0.0, 86: 0.0, 87: 0.0, 88: 0.8053, 89: 0.0, 90: 0.8129999999999999, 91: 0.0, 92: 0.8055, 93: 0.0, 94: 0.8055, 95: 0.8129999999999999, 96: 0.0, 97: 0.8055, 98: 0.0, 99: 0.0, 100: 0.0, 101: 0.0, 102: 0.0, 103: 0.8065, 104: 0.0, 105: 0.8135, 106: 0.8135, 107: 0.805, 108: 0.0, 109: 0.0, 110: 0.8135, 111: 0.806, 112: 0.805, 113: 0.0, 114: 0.0, 115: 0.8139999999999999, 116: 0.8149999999999999, 117: 0.8055, 118: 0.0, 119: 0.0, 120: 0.0, 121: 0.8117, 122: 0.0, 123: 0.0, 124: 1.0339, 125: 0.0, 126: 1.1279, 127: 0.0, 128: 0.0, 129: 0.8505, 130: 0.0, 131: 1.3361, 132: 0.0, 133: 0.0, 134: 0.0, 135: 0.0, 136: 0.0, 137: 0.8857, 138: 0.8175, 139: 0.0, 140: 0.0, 141: 0.612728752, 142: 0.0, 143: 0.0, 144: 0.0, 145: 0.0, 146: 0.8138, 147: 0.0, 148: 0.7808, 149: 0.0, 150: 0.0, 151: 0.0, 152: 0.0, 153: 0.1063, 154: 0.0, 155: 0.9777, 156: 0.8129999999999999, 157: 0.9462, 158: 0.8205, 159: 0.0, 160: 0.8202, 161: 0.9155, 162: 0.0, 163: 0.0, 164: 0.888, 165: 0.7698, 166: 0.666, 167: 0.6925, 168: 0.0, 169: 0.0, 170: 0.822, 171: 0.8223, 172: 0.0, 173: 0.831, 174: 0.0, 175: 0.0, 176: 0.0, 177: 0.6967, 178: 0.0, 179: 0.7032, 180: 0.6933, 181: 0.6919999999999999, 182: 0.0, 183: 0.6972, 184: 0.0, 185: 0.0, 186: 0.6909999999999999, 187: 0.6957, 188: 0.698, 189: 0.6905, 190: 0.6905, 191: 0.0];
charge = [0: 1.0, 1: 1.0, 2: 0.0, 3: 1.0, 4: 0.0, 5: 0.0, 6: 1.0, 7: 1.0, 8: 0.0, 9: 0.0, 10: 1.0, 11: 1.0, 12: 0.0, 13: 1.0, 14: 1.0, 15: 0.0, 16: 0.0, 17: 1.0, 18: 0.0, 19: 0.0, 20: 0.0, 21: 1.0, 22: 1.0, 23: 1.0, 24: 1.0, 25: 1.0, 26: 0.0, 27: 0.0, 28: 0.0, 29: 1.0, 30: 1.0, 31: 0.0, 32: 1.0, 33: 0.0, 34: 1.0, 35: 0.0, 36: 1.0, 37: 0.0, 38: 1.0, 39: 0.0, 40: 1.0, 41: 0.0, 42: 0.0, 43: 0.0, 44: 1.0, 45: 0.0, 46: 0.0, 47: 0.0, 48: 1.0, 49: 1.0, 50: 1.0, 51: 0.0, 52: 1.0, 53: 1.0, 54: 1.0, 55: 0.0, 56: 0.0, 57: 0.0, 58: 0.188509098, 59: 0.0, 60: 1.0, 61: 0.0, 62: 1.0, 63: 0.0, 64: 0.0, 65: 1.0, 66: 1.0, 67: 0.0, 68: 0.0, 69: 1.0, 70: 0.0, 71: 0.0, 72: 0.0, 73: 1.0, 74: 1.0, 75: 1.0, 76: 0.0, 77: 1.0, 78: 0.0, 79: 1.0, 80: 1.0, 81: 0.0, 82: 0.0, 83: 1.0, 84: 1.0, 85: 0.0, 86: 0.0, 87: 0.0, 88: 0.0, 89: 1.0, 90: 0.0, 91: 0.0, 92: 0.0, 93: 1.0, 94: 0.0, 95: 0.0, 96: 1.0, 97: 0.0, 98: 0.0, 99: 1.0, 100: 1.0, 101: 1.0, 102: 1.0, 103: 0.0, 104: 1.0, 105: 0.0, 106: 0.0, 107: 0.0, 108: 1.0, 109: 1.0, 110: 0.0, 111: 0.0, 112: 0.0, 113: 1.0, 114: 0.0, 115: 0.0, 116: 0.0, 117: 0.0, 118: 1.0, 119: 1.0, 120: 1.0, 121: 0.0, 122: 0.0, 123: 0.0, 124: 0.0, 125: 1.0, 126: 0.0, 127: 0.0, 128: 1.0, 129: 0.0, 130: 1.0, 131: 0.0, 132: 0.0, 133: 0.0, 134: 0.0, 135: 1.0, 136: 0.0, 137: 0.0, 138: 0.0, 139: 1.0, 140: 1.0, 141: 0.0, 142: 1.0, 143: 1.0, 144: 1.0, 145: 1.0, 146: 0.0, 147: 1.0, 148: 0.0, 149: 0.0, 150: 1.0, 151: 1.0, 152: 1.0, 153: 0.0, 154: 1.0, 155: 0.0, 156: 0.0, 157: 0.0, 158: 0.0, 159: 1.0, 160: 0.0, 161: 0.0, 162: 1.0, 163: 1.0, 164: 0.0, 165: 0.0, 166: 0.0, 167: 0.0, 168: 1.0, 169: 1.0, 170: 0.0, 171: 0.0, 172: 0.0, 173: 0.0, 174: 1.0, 175: 1.0, 176: 1.0, 177: 0.0, 178: 1.0, 179: 0.0, 180: 0.0, 181: 0.0, 182: 1.0, 183: 0.0, 184: 1.0, 185: 1.0, 186: 0.0, 187: 0.0, 188: 0.0, 189: 0.0, 190: 0.0, 191: 1.0];
discharge = [0: 0.0, 1: 0.0, 2: 1.0, 3: 0.0, 4: 0.0, 5: 0.0, 6: 0.0, 7: 0.0, 8: 1.0, 9: 1.0, 10: 0.0, 11: 0.0, 12: 0.0, 13: 0.0, 14: 0.0, 15: 1.0, 16: 0.0, 17: 0.0, 18: 1.0, 19: 0.0, 20: 0.0, 21: 0.0, 22: 0.0, 23: 0.0, 24: 0.0, 25: 0.0, 26: 1.0, 27: 0.0, 28: 0.0, 29: 0.0, 30: 0.0, 31: 1.0, 32: 0.0, 33: 0.0, 34: 0.0, 35: 1.0, 36: 0.0, 37: 1.0, 38: 0.0, 39: 1.0, 40: 0.0, 41: 0.0, 42: 1.0, 43: 0.0, 44: 0.0, 45: 0.095555556, 46: 1.0, 47: 1.0, 48: 0.0, 49: 0.0, 50: 0.0, 51: 0.053069446, 52: 0.0, 53: 0.0, 54: 0.0, 55: 1.0, 56: 1.0, 57: 1.0, 58: 0.0, 59: 1.0, 60: 0.0, 61: 0.0, 62: 0.0, 63: 1.0, 64: 1.0, 65: 0.0, 66: 0.0, 67: 0.0, 68: 1.0, 69: 0.0, 70: 0.0, 71: 0.0, 72: 1.0, 73: 0.0, 74: 0.0, 75: 0.0, 76: 1.0, 77: 0.0, 78: 1.0, 79: 0.0, 80: 0.0, 81: 1.0, 82: 1.0, 83: 0.0, 84: 0.0, 85: 0.0, 86: 0.0, 87: 0.0, 88: 1.0, 89: 0.0, 90: 1.0, 91: 0.0, 92: 1.0, 93: 0.0, 94: 1.0, 95: 1.0, 96: 0.0, 97: 1.0, 98: 0.037836881, 99: 0.0, 100: 0.0, 101: 0.0, 102: 0.0, 103: 1.0, 104: 0.0, 105: 1.0, 106: 1.0, 107: 1.0, 108: 0.0, 109: 0.0, 110: 1.0, 111: 1.0, 112: 1.0, 113: 0.0, 114: 0.0, 115: 1.0, 116: 1.0, 117: 1.0, 118: 0.0, 119: 0.0, 120: 0.0, 121: 1.0, 122: 0.0, 123: 0.0, 124: 1.0, 125: 0.0, 126: 1.0, 127: 0.0, 128: 0.0, 129: 0.0, 130: 0.0, 131: 1.0, 132: 0.0, 133: 0.0, 134: 0.0, 135: 0.0, 136: 0.0, 137: 1.0, 138: 1.0, 139: 0.0, 140: 0.0, 141: 0.780809724, 142: 0.0, 143: 0.0, 144: 0.0, 145: 0.0, 146: 1.0, 147: 0.0, 148: 1.0, 149: 0.0, 150: 0.0, 151: 0.0, 152: 0.0, 153: 1.0, 154: 0.0, 155: 1.0, 156: 1.0, 157: 1.0, 158: 1.0, 159: 0.0, 160: 1.0, 161: 1.0, 162: 0.0, 163: 0.0, 164: 1.0, 165: 1.0, 166: 1.0, 167: 1.0, 168: 0.0, 169: 0.0, 170: 1.0, 171: 1.0, 172: 0.085222222, 173: 1.0, 174: 0.0, 175: 0.0, 176: 0.0, 177: 1.0, 178: 0.0, 179: 1.0, 180: 1.0, 181: 1.0, 182: 0.0, 183: 1.0, 184: 0.0, 185: 0.0, 186: 1.0, 187: 1.0, 188: 1.0, 189: 1.0, 190: 1.0, 191: 0.0];
soc = [0: 3.719436, 1: 4.618692113, 2: 3.617768374, 3: 4.517044821, 4: 4.516141412, 5: 4.515238183, 6: 5.414335136, 7: 6.313252269, 8: 5.311989618, 9: 4.31092722, 10: 5.210065035, 11: 6.109023022, 12: 6.107801217, 13: 7.006579657, 14: 7.905178341, 15: 6.903597306, 16: 6.902216586, 17: 7.800836143, 18: 6.799275976, 19: 6.79791612, 20: 6.796556537, 21: 7.695197226, 22: 8.593658186000001, 23: 9.491939455000001, 24: 10.390041067, 25: 11.287963059, 26: 10.285705466, 27: 10.283648325, 28: 10.281591595, 29: 11.179535277, 30: 12.07729937, 31: 11.07488391, 32: 11.972668933, 33: 11.970274399, 34: 12.867880345, 35: 11.865306768, 36: 12.762933707, 37: 11.76038112, 38: 12.658029044, 39: 11.655497438, 40: 12.553166339, 41: 12.550655706, 42: 11.548145574, 43: 11.545835945, 44: 12.443526778, 45: 12.345482517, 46: 11.343013421, 47: 10.340744818, 48: 11.238676669, 49: 12.136428934, 50: 13.034001648, 51: 12.978325402, 52: 13.875729737, 53: 14.772954591, 54: 15.67, 55: 14.666866, 56: 13.663932627, 57: 12.66119984, 58: 12.828325788, 59: 11.825760123, 60: 12.723394971, 61: 12.720850292, 62: 13.618306122, 63: 12.615582461, 64: 11.613059345, 65: 12.510736733, 66: 13.408234585, 67: 13.405552938, 68: 12.402871828, 69: 13.300391253, 70: 13.297731175, 71: 13.295071629, 72: 12.292412615, 73: 13.189954132, 74: 14.087316141, 75: 14.984498678, 76: 13.981501778, 77: 14.878705478, 78: 13.875729737, 79: 14.772954591, 80: 15.67, 81: 14.666866, 82: 13.663932627, 83: 14.56119984, 84: 15.4582876, 85: 15.455195943, 86: 15.452104904, 87: 15.449014483, 88: 14.44592468, 89: 15.343035495, 90: 14.339966888, 91: 14.337098894, 92: 13.334231475, 93: 14.231564628, 94: 13.228718315, 95: 12.226072572, 96: 13.123627357, 97: 12.121002632, 98: 12.08074155, 99: 12.978325402, 100: 13.875729737, 101: 14.772954591, 102: 15.67, 103: 14.666866, 104: 15.563932627, 105: 14.56081984, 106: 13.557907676, 107: 12.555196095, 108: 13.452685056, 109: 14.349994519, 110: 13.34712452, 111: 12.344455095, 112: 11.341986204, 113: 12.239717806, 114: 12.237269863, 115: 11.234822409, 116: 10.232575444, 117: 9.230528929, 118: 10.128682824, 119: 11.026657087, 120: 11.924451756, 121: 10.922066865, 122: 10.919882452, 123: 10.917698475, 124: 9.915514935999999, 125: 10.813531833, 126: 9.811369126000001, 127: 9.809406853, 128: 10.707444971, 129: 10.705303482, 130: 11.603162421, 131: 10.600841789, 132: 10.598721621, 133: 10.596601876, 134: 10.594482556, 135: 11.492363659, 136: 11.490065187, 137: 10.487767174, 138: 9.485669619999999, 139: 10.383772486, 140: 11.281695732, 141: 10.498629668, 142: 11.396529942, 143: 12.294250636, 144: 13.191791786, 145: 14.089153428, 146: 13.086335597, 147: 13.98371833, 148: 12.980921586, 149: 12.978325402, 150: 13.875729737, 151: 14.772954591, 152: 15.67, 153: 14.666866, 154: 15.563932627, 155: 14.56081984, 156: 13.557907676, 157: 12.555196095, 158: 11.552685056, 159: 12.450374519, 160: 11.447884444, 161: 10.445594867, 162: 11.343505748, 163: 12.241237047, 164: 11.238788799, 165: 10.236541041, 166: 9.234493733000001, 167: 8.232646835000001, 168: 9.131000305000001, 169: 10.029174105, 170: 9.027168270000001, 171: 8.025362836999999, 172: 7.938535542, 173: 6.936947835, 174: 7.835560445, 175: 8.733993333000001, 176: 9.632246534, 177: 8.630320084999999, 178: 9.528594021, 179: 8.526688302, 180: 7.524982965, 181: 6.523477968, 182: 7.422173272, 183: 6.420688838, 184: 7.3194047, 185: 8.217940819000001, 186: 7.216297231, 187: 6.214853971, 188: 5.213611001, 189: 4.212568278, 190: 3.211725765, 191: 4.11108342];
cost = [0: 0.863476165, 1: 0.8632928949999999, 2: 0.0, 3: 0.855839915, 4: 0.13225985, 5: 0.13329838, 6: 0.857672615, 7: 0.857672615, 8: 0.0, 9: 0.0, 10: 0.861643465, 11: 0.857978065, 12: 0.1288999, 13: 0.857794795, 14: 0.864087065, 15: 0.0, 16: 0.12920535, 17: 0.858588965, 18: 0.0, 19: 0.13470345, 20: 0.13164895, 21: 0.858405695, 22: 0.858405695, 23: 0.861765645, 24: 1.399139445, 25: 1.415199045, 26: 0.0, 27: 0.09362152, 28: 0.0, 29: 1.413652565, 30: 0.939715925, 31: 0.0, 32: 1.400804885, 33: 0.0, 34: 0.428306885, 35: 0.0, 36: 1.400804885, 37: 0.0, 38: 0.609482965, 39: 0.0, 40: 1.400804885, 41: 0.0, 42: 0.0, 43: 0.1029004, 44: 0.371919845, 45: 0.0, 46: 0.0, 47: 0.0, 48: 0.427712085, 49: 1.411868165, 50: 0.384648565, 51: 0.0, 52: 0.778744335, 53: 1.077902065, 54: 1.062018665, 55: 0.0, 56: 0.0, 57: 0.0, 58: 0.375994317, 59: 0.0, 60: 0.385600245, 61: 0.0, 62: 0.520500885, 63: 0.0, 64: 0.0, 65: 0.887849365, 66: 1.401161765, 67: 0.10385208, 68: 0.0, 69: 1.414604245, 70: 0.10075912, 71: 0.05507848, 72: 0.0, 73: 1.420433285, 74: 1.419838485, 75: 1.410916485, 76: 0.0, 77: 1.419838485, 78: 0.0, 79: 1.418648885, 80: 1.410083765, 81: 0.0, 82: 0.0, 83: 1.421384965, 84: 1.419838485, 85: 0.1034952, 86: 0.1029004, 87: 0.11265512, 88: 0.0, 89: 0.782043195, 90: 0.0, 91: 0.05284285, 92: 0.0, 93: 0.7874191149999999, 94: 0.0, 95: 0.0, 96: 0.787724565, 97: 0.0, 98: 0.037537855, 99: 0.782043195, 100: 0.781615565, 101: 0.782409735, 102: 0.786624945, 103: 0.0, 104: 0.782043195, 105: 0.0, 106: 0.0, 107: 0.0, 108: 0.786808215, 109: 0.781921015, 110: 0.0, 111: 0.0, 112: 0.0, 113: 0.786808215, 114: 0.0525374, 115: 0.0, 116: 0.0, 117: 0.0, 118: 0.786624945, 119: 0.777950165, 120: 1.403897845, 121: 0.0, 122: 0.01272872, 123: 0.1023056, 124: 0.0, 125: 1.034408085, 126: 0.0, 127: 0.10409, 128: 0.303517845, 129: 0.0, 130: 0.216201205, 131: 0.0, 132: 0.1082536, 133: 0.110038, 134: 0.101116, 135: 1.322648165, 136: 0.16928008, 137: 0.0, 138: 0.0, 139: 1.332164965, 140: 1.404135765, 141: 0.0, 142: 1.419600565, 143: 1.327406565, 144: 1.334544165, 145: 1.404492645, 146: 0.0, 147: 1.410916485, 148: 0.0, 149: 0.05956275, 150: 0.463703205, 151: 0.784670065, 152: 0.682771945, 153: 0.0, 154: 1.207718315, 155: 0.0, 156: 0.0, 157: 0.0, 158: 0.0, 159: 1.401756565, 160: 0.0, 161: 0.0, 162: 1.413414645, 163: 1.569133285, 164: 0.0, 165: 0.0, 166: 0.0, 167: 0.0, 168: 1.433875765, 169: 1.389503685, 170: 0.0, 171: 0.0, 172: 0.0, 173: 0.0, 174: 1.389503685, 175: 1.399020485, 176: 1.399972165, 177: 0.0, 178: 1.542486245, 179: 0.0, 180: 0.0, 181: 0.0, 182: 1.547839445, 183: 0.0, 184: 0.852052335, 185: 0.857672615, 186: 0.0, 187: 0.0, 188: 0.0, 189: 0.0, 190: 0.0, 191: 0.857794795];
earn = [0: 0.0, 1: 0.0, 2: 0.4984476, 3: 0.0, 4: 0.0, 5: 0.0, 6: 0.0, 7: 0.0, 8: 0.40551519, 9: 0.39713396, 10: 0.0, 11: 0.0, 12: 0.0, 13: 0.0, 14: 0.0, 15: 0.37311345, 16: 0.0, 17: 0.0, 18: 0.3806109, 19: 0.0, 20: 0.0, 21: 0.0, 22: 0.0, 23: 0.0, 24: 0.0, 25: 0.0, 26: 0.6687681, 27: 0.0, 28: 0.0708747, 29: 0.0, 30: 0.0, 31: 0.8191994, 32: 0.0, 33: 0.27510112, 34: 0.0, 35: 0.3488352, 36: 0.0, 37: 0.53255841, 38: 0.0, 39: 0.401258, 40: 0.0, 41: 0.05564685, 42: 0.035178, 43: 0.0, 44: -0.0, 45: 0.0, 46: -0.04248706, 47: -0.05339972, 48: 0.0, 49: 0.0, 50: -0.0, 51: 0.0062717, 52: 0.0, 53: 0.0, 54: 0.0, 55: 0.0039744, 56: 0.15833126, 57: 0.10292009, 58: 0.0, 59: 0.3864799, 60: 0.0, 61: 0.31294536, 62: 0.0, 63: 0.68746194, 64: 0.7782197199999999, 65: 0.0, 66: 0.0, 67: 0.0, 68: 0.6247001599999999, 69: 0.0, 70: 0.0, 71: 0.0, 72: 0.6120217999999999, 73: 0.0, 74: 0.0, 75: 0.0, 76: 0.5768004, 77: 0.0, 78: 0.5878311000000001, 79: 0.0, 80: 0.0, 81: 0.5176226, 82: 0.5083293, 83: 0.0, 84: 0.0, 85: 0.0, 86: 0.0, 87: 0.0, 88: 0.39306693, 89: 0.0, 90: 0.370728, 91: 0.0, 92: 0.330255, 93: 0.0, 94: 0.26573445, 95: 0.2344692, 96: 0.0, 97: 0.24881895, 98: 0.0, 99: 0.0, 100: 0.0, 101: 0.0, 102: 0.0, 103: 0.14137945, 104: 0.0, 105: 0.1125884, 106: 0.11315785, 107: 0.112056, 108: 0.0, 109: 0.0, 110: 0.11429675, 111: 0.1130012, 112: 0.14812, 113: 0.0, 114: 0.0, 115: 0.1618232, 116: 0.1948665, 117: 0.19501155, 118: 0.0, 119: 0.0, 120: 0.0, 121: 0.35860906, 122: 0.0, 123: 0.0, 124: 0.43961428, 125: 0.0, 126: 0.32156429, 127: 0.0, 128: 0.0, 129: 0.0472878, 130: 0.0, 131: -0.04435852, 132: 0.0, 133: 0.0, 134: 0.0, 135: 0.0, 136: 0.0, 137: -0.01045126, 138: -0.00989175, 139: 0.0, 140: 0.0, 141: -0.002389642, 142: 0.0, 143: 0.0, 144: 0.0, 145: 0.0, 146: -0.0004069, 147: -0.0, 148: -0.00218624, 149: 0.0, 150: 0.0, 151: 0.0, 152: 0.0, 153: 0.01206505, 154: 0.0, 155: 0.17706147, 156: 0.2782899, 157: 0.40014798, 158: 0.3657789, 159: 0.0, 160: 0.41879412, 161: 0.51606735, 162: 0.0, 163: 0.0, 164: 0.6761232, 165: 0.60629448, 166: 0.5481846, 167: 0.59631175, 168: 0.0, 169: 0.0, 170: 0.928038, 171: 0.9267320999999999, 172: 0.0, 173: 0.7635227999999999, 174: 0.0, 175: 0.0, 176: 0.0, 177: 0.5566633, 178: 0.0, 179: 0.53626032, 180: 0.47941695, 181: 0.4659236, 182: 0.0, 183: 0.44146704, 184: 0.0, 185: 0.0, 186: 0.4189533, 187: 0.40851504, 188: 0.3656822, 189: 0.3777035, 190: 0.3777035, 191: 0.0];
total_cost = 90.20047316599999;
total_earn = 27.018728828;
% _objective = 63.18174433799999;