production = [0: 0.0, 1: 0.0, 2: 0.0, 3: 0.0, 4: 0.0, 5: 0.0, 6: 0.0, 7: 0.0, 8: 0.0, 9: 0.0, 10: 0.0, 11: 0.0, 12: 0.0, 13: 0.0, 14: 0.0, 15: 0.0, 16: 0.0, 17: 0.0, 18: 0.0, 19: 0.0, 20: 0.0, 21: 0.0003, 22: 0.0, 23: 0.0018, 24: 0.0177, 25: 0.0455, 26: 0.0, 27: 0.1557, 28: 0.0, 29: 0.2597, 30: 0.3967, 31: 0.0, 32: 0.6693, 33: 0.6215000000000001, 34: 0.0, 35: 0.8095, 36: 0.707, 37: 0.6318, 38: 0.0, 39: 0.6825, 40: 0.0, 41: 0.0, 42: 0.0, 43: 0.76, 44: 0.8732, 45: 0.0, 46: 0.8257, 47: 0.0, 48: 0.0, 49: 0.7558, 50: 0.854, 51: 0.8185, 52: 0.0, 53: 0.0, 54: 0.0, 55: 0.0, 56: 0.0, 57: 0.972, 58: 0.0, 59: 0.9419999999999999, 60: 0.0, 61: 0.7592, 62: 0.0, 63: 0.0, 64: 0.0, 65: 0.0, 66: 0.294, 67: 0.1953, 68: 0.0, 69: 0.0, 70: 0.0, 71: 0.0, 72: 0.0, 73: 0.0, 74: 0.0003, 75: 0.0, 76: 0.0, 77: 0.0, 78: 0.0, 79: 0.0, 80: 0.0, 81: 0.0, 82: 0.0, 83: 0.0, 84: 0.0, 85: 0.0, 86: 0.0, 87: 0.0, 88: 0.0, 89: 0.0, 90: 0.0, 91: 0.0, 92: 0.0, 93: 0.0, 94: 0.0, 95: 0.0, 96: 0.0, 97: 0.0, 98: 0.0, 99: 0.0, 100: 0.0, 101: 0.0, 102: 0.0, 103: 0.0, 104: 0.0, 105: 0.0, 106: 0.0, 107: 0.0, 108: 0.0, 109: 0.0, 110: 0.0, 111: 0.0, 112: 0.0, 113: 0.0, 114: 0.0, 115: 0.0, 116: 0.0, 117: 0.0, 118: 0.0005, 119: 0.0055, 120: 0.0335, 121: 0.0, 122: 0.0, 123: 0.1442, 124: 0.2152, 125: 0.3118, 126: 0.3152, 127: 0.547, 128: 0.9307, 129: 0.0, 130: 0.0, 131: 0.5218, 132: 0.0, 133: 0.0, 134: 0.065, 135: 0.5175, 136: 0.1665, 137: 0.0, 138: 0.0638, 139: 0.061, 140: 0.0, 141: 0.0, 142: 0.0542, 143: 0.07049999999999999, 144: 0.0635, 145: 0.0638, 146: 0.0, 147: 0.0, 148: 0.1067, 149: 0.0, 150: 0.5302, 151: 0.4195, 152: 0.0, 153: 0.0, 154: 0.0, 155: 0.2437, 156: 0.1363, 157: 0.1345, 158: 0.0, 159: 0.0892, 160: 0.0, 161: 0.0, 162: 0.08649999999999999, 163: 0.155, 164: 0.0, 165: 0.1185, 166: 0.0, 167: 0.0727, 168: 0.0737, 169: 0.0, 170: 0.0, 171: 0.0, 172: 0.0, 173: 0.0, 174: 0.0, 175: 0.0, 176: 0.0, 177: 0.0, 178: 0.0, 179: 0.0, 180: 0.0, 181: 0.0, 182: 0.0, 183: 0.0, 184: 0.0, 185: 0.0, 186: 0.0, 187: 0.0, 188: 0.0, 189: 0.0, 190: 0.0, 191: 0.0];
buy = [0: 0.067984695, 1: 0.2197, 2: 1.208, 3: 1.2075, 4: 1.2165, 5: 0.0, 6: 1.2105, 7: 1.2105, 8: 0.0, 9: 1.2167, 10: 1.012499491, 11: 0.211, 12: 0.0, 13: 0.0, 14: 0.0, 15: 0.0, 16: 1.2115, 17: 0.0, 18: 0.219, 19: 1.2205, 20: 1.2155, 21: 0.2117, 22: 0.0, 23: 1.2172, 24: 0.07679999999999999, 25: 1.0448, 26: 0.0, 27: 0.0, 28: 0.0, 29: 0.8293, 30: 0.6906, 31: 1.0805, 32: 0.0, 33: 0.4652, 34: 0.08699999999999999, 35: 0.2785, 36: 0.0, 37: 0.4477, 38: 0.0, 39: 0.0, 40: 1.0782, 41: 1.078, 42: 0.0, 43: 0.0, 44: 0.2133, 45: 0.0, 46: 0.0, 47: 1.0772, 48: 0.08649999999999999, 49: 0.0, 50: 0.0, 51: 0.0, 52: 1.0813, 53: 1.571, 54: 0.545, 55: 0.0, 56: 0.0, 57: 0.0, 58: 1.3905, 59: 0.0, 60: 0.0, 61: 0.0, 62: 1.083, 63: 1.0903, 64: 0.0, 65: 0.0, 66: 0.0, 67: 0.892, 68: 0.0, 69: 1.0898, 70: 0.0847, 71: 0.0, 72: 0.0, 73: 0.0, 74: 1.0939, 75: 0.0867, 76: 0.08599999999999999, 77: 1.0942, 78: 0.09420000000000001, 79: 0.09320000000000001, 80: 1.086, 81: 1.086, 82: 0.0, 83: 1.0955, 84: 1.0942, 85: 1.087, 86: 1.0865, 87: 0.0, 88: 1.0947, 89: 0.0, 90: 0.08699999999999999, 91: 1.0865, 92: 0.0, 93: 1.0955, 94: 1.0945, 95: 0.0, 96: 0.096, 97: 1.0945, 98: 0.0, 99: 0.0, 100: 0.493268008, 101: 1.0873, 102: 0.09420000000000001, 103: 1.0935, 104: 0.0, 105: 0.0, 106: 1.0865, 107: 0.0, 108: 0.0, 109: 0.0, 110: 1.0865, 111: 0.0, 112: 0.0, 113: 0.0, 114: 0.08599999999999999, 115: 1.086, 116: 1.085, 117: 1.0945, 118: 0.0, 119: 0.0, 120: 1.0473, 121: 0.0, 122: 0.0867, 123: 0.0, 124: 0.8661, 125: 0.0, 126: 0.0, 127: 0.0, 128: 0.0, 129: 1.0795, 130: 1.0782, 131: 0.0, 132: 1.091, 133: 1.0925, 134: 0.0, 135: 1.0125, 136: 0.0, 137: 0.1478, 138: 0.0187, 139: 1.0205, 140: 0.0, 141: 0.0, 142: 0.0, 143: 0.0165, 144: 0.7065752199999999, 145: 0.0, 146: 1.0862, 147: 1.0867, 148: 1.0125, 149: 0.0975, 150: 0.0, 151: 0.0, 152: 1.2057, 153: 0.7937, 154: 0.0, 155: 0.0, 156: 0.0, 157: 0.9538, 158: 0.0, 159: 0.9898, 160: 0.0, 161: 0.0, 162: 1.0023, 163: 0.0, 164: 1.2507, 165: 0.1302, 166: 1.234, 167: 0.0, 168: 0.0, 169: 1.0687, 170: 1.078, 171: 0.0, 172: 1.0767, 173: 1.069, 174: 0.0, 175: 0.0, 176: 1.0775, 177: 0.2033, 178: 1.1973, 179: 1.1968, 180: 0.2067, 181: 1.208, 182: 0.2018, 183: 1.2028, 184: 0.2013, 185: 0.0, 186: 0.0, 187: 0.2043, 188: 1.202, 189: 0.0, 190: 0.2095, 191: 1.2107];
sell = [0: 0.0, 1: 0.0, 2: 0.0, 3: 0.0, 4: 0.0, 5: 0.6818, 6: 0.0, 7: 0.0, 8: 0.6893, 9: 0.0, 10: 0.0, 11: 0.0, 12: 0.6889999999999999, 13: 0.6893, 14: 0.679, 15: 0.6795, 16: 0.0, 17: 0.6879999999999999, 18: 0.0, 19: 0.0, 20: 0.0, 21: 0.0, 22: 0.6879999999999999, 23: 0.0, 24: 0.0, 25: 0.0, 26: 0.8215, 27: 0.077, 28: 0.8107, 29: 0.0, 30: 0.0, 31: 0.0, 32: 0.5911, 33: 0.0, 34: 0.0, 35: 0.0, 36: 0.6288, 37: 0.0, 38: 0.8129999999999999, 39: 1.495, 40: 0.0, 41: 0.0, 42: 0.82, 43: 1.5735, 44: 0.0, 45: 0.8139999999999999, 46: 0.7475000000000001, 47: 0.0, 48: 0.0, 49: 1.5683, 50: 0.776, 51: 1.6362, 52: 0.0, 53: 0.0, 54: 0.0, 55: 0.0828, 56: 0.8153, 57: 1.4963, 58: 0.0, 59: 0.5785, 60: 0.0, 61: 0.6762, 62: 0.0, 63: 0.0, 64: 0.0, 65: 0.8205, 66: 1.1155, 67: 0.0, 68: 0.8110000000000001, 69: 0.0, 70: 0.0, 71: 0.8179999999999999, 72: 0.8117, 73: 0.485911424, 74: 0.0, 75: 0.0, 76: 0.0, 77: 0.0, 78: 0.0, 79: 0.0, 80: 0.0, 81: 0.0, 82: 0.8070000000000001, 83: 0.0, 84: 0.0, 85: 0.0, 86: 0.0, 87: 0.8053, 88: 0.0, 89: 0.8133, 90: 0.0, 91: 0.0, 92: 0.8055, 93: 0.0, 94: 0.0, 95: 0.8129999999999999, 96: 0.0, 97: 0.0, 98: 0.8045, 99: 0.8133, 100: 0.0, 101: 0.0, 102: 0.0, 103: 0.0, 104: 0.8133, 105: 0.8135, 106: 0.0, 107: 0.805, 108: 0.8055, 109: 0.0, 110: 0.0, 111: 0.806, 112: 0.805, 113: 0.8055, 114: 0.0, 115: 0.0, 116: 0.0, 117: 0.0, 118: 0.8063, 119: 0.8255, 120: 0.0, 121: 0.8117, 122: 0.0, 123: 0.9582000000000001, 124: 0.0, 125: 0.2298, 126: 0.2279, 127: 1.3595, 128: 1.7442, 129: 0.0, 130: 0.0, 131: 0.4361, 132: 0.0, 133: 0.0, 134: 0.88, 135: 0.0, 136: 0.9242, 137: 0.0, 138: 0.0, 139: 0.0, 140: 0.819, 141: 0.8100000000000001, 142: 0.8602, 143: 0.0, 144: 0.0, 145: 0.8825, 146: 0.0, 147: 0.0, 148: 0.0, 149: 0.0, 150: 0.4344, 151: 1.2285, 152: 0.0, 153: 0.0, 154: 0.1165, 155: 0.9777, 156: 0.0493, 157: 0.0, 158: 0.176974278, 159: 0.0, 160: 0.8202, 161: 0.8110000000000001, 162: 0.0, 163: 0.8353, 164: 0.0, 165: 0.0, 166: 0.0, 167: 0.7652, 168: 0.0, 169: 0.0, 170: 0.0, 171: 0.8223, 172: 0.0, 173: 0.0, 174: 0.8313, 175: 0.0, 176: 0.0, 177: 0.0, 178: 0.0, 179: 0.0, 180: 0.0, 181: 0.0, 182: 0.0, 183: 0.0, 184: 0.0, 185: 0.6895, 186: 0.6909999999999999, 187: 0.0, 188: 0.0, 189: 0.6905, 190: 0.0, 191: 0.0];
charge = [0: 0.0, 1: 0.0, 2: 1.0, 3: 1.0, 4: 1.0, 5: 0.0, 6: 1.0, 7: 1.0, 8: 0.0, 9: 1.0, 10: 0.7954994909999999, 11: 0.0, 12: 0.0, 13: 0.0, 14: 0.0, 15: 0.0, 16: 1.0, 17: 0.0, 18: 0.0, 19: 1.0, 20: 1.0, 21: 0.0, 22: 0.0, 23: 1.0, 24: 0.0, 25: 1.0, 26: 0.0, 27: 0.0, 28: 0.0, 29: 1.0, 30: 1.0, 31: 1.0, 32: 0.0, 33: 1.0, 34: 0.0, 35: 1.0, 36: 0.0, 37: 1.0, 38: 0.0, 39: 0.0, 40: 1.0, 41: 1.0, 42: 0.0, 43: 0.0, 44: 1.0, 45: 0.0, 46: 0.0, 47: 1.0, 48: 0.0, 49: 0.0, 50: 0.0, 51: 0.0, 52: 1.0, 53: 1.0, 54: 0.0, 55: 0.0, 56: 0.0, 57: 0.0, 58: 1.0, 59: 0.0, 60: 0.0, 61: 0.0, 62: 1.0, 63: 1.0, 64: 0.0, 65: 0.0, 66: 0.0, 67: 1.0, 68: 0.0, 69: 1.0, 70: 0.0, 71: 0.0, 72: 0.0, 73: 0.0, 74: 1.0, 75: 0.0, 76: 0.0, 77: 1.0, 78: 0.0, 79: 0.0, 80: 1.0, 81: 1.0, 82: 0.0, 83: 1.0, 84: 1.0, 85: 1.0, 86: 1.0, 87: 0.0, 88: 1.0, 89: 0.0, 90: 0.0, 91: 1.0, 92: 0.0, 93: 1.0, 94: 1.0, 95: 0.0, 96: 0.0, 97: 1.0, 98: 0.0, 99: 0.0, 100: 0.407268008, 101: 1.0, 102: 0.0, 103: 1.0, 104: 0.0, 105: 0.0, 106: 1.0, 107: 0.0, 108: 0.0, 109: 0.0, 110: 1.0, 111: 0.0, 112: 0.0, 113: 0.0, 114: 0.0, 115: 1.0, 116: 1.0, 117: 1.0, 118: 0.0, 119: 0.0, 120: 1.0, 121: 0.0, 122: 0.0, 123: 0.0, 124: 1.0, 125: 0.0, 126: 0.0, 127: 0.0, 128: 0.0, 129: 1.0, 130: 1.0, 131: 0.0, 132: 1.0, 133: 1.0, 134: 0.0, 135: 1.0, 136: 0.0, 137: 0.0, 138: 0.0, 139: 1.0, 140: 0.0, 141: 0.0, 142: 0.0, 143: 0.0, 144: 0.68407522, 145: 0.0, 146: 1.0, 147: 1.0, 148: 1.0, 149: 0.0, 150: 0.0, 151: 0.0, 152: 1.0, 153: 0.0, 154: 0.0, 155: 0.0, 156: 0.0, 157: 1.0, 158: 0.0, 159: 1.0, 160: 0.0, 161: 0.0, 162: 1.0, 163: 0.0, 164: 1.0, 165: 0.0, 166: 1.0, 167: 0.0, 168: 0.0, 169: 1.0, 170: 1.0, 171: 0.0, 172: 1.0, 173: 1.0, 174: 0.0, 175: 0.0, 176: 1.0, 177: 0.0, 178: 1.0, 179: 1.0, 180: 0.0, 181: 1.0, 182: 0.0, 183: 1.0, 184: 0.0, 185: 0.0, 186: 0.0, 187: 0.0, 188: 1.0, 189: 0.0, 190: 0.0, 191: 1.0];
discharge = [0: 0.168905894, 1: 0.0, 2: 0.0, 3: 0.0, 4: 0.0, 5: 1.0, 6: 0.0, 7: 0.0, 8: 1.0, 9: 0.0, 10: 0.0, 11: 0.0, 12: 1.0, 13: 1.0, 14: 1.0, 15: 1.0, 16: 0.0, 17: 1.0, 18: 0.0, 19: 0.0, 20: 0.0, 21: 0.0, 22: 1.0, 23: 0.0, 24: 0.0, 25: 0.0, 26: 1.0, 27: 0.0, 28: 1.0, 29: 0.0, 30: 0.0, 31: 0.0, 32: 0.0, 33: 0.0, 34: 0.0, 35: 0.0, 36: 0.0, 37: 0.0, 38: 1.0, 39: 1.0, 40: 0.0, 41: 0.0, 42: 1.0, 43: 1.0, 44: 0.0, 45: 1.0, 46: 0.0, 47: 0.0, 48: 0.0, 49: 1.0, 50: 0.0, 51: 1.0, 52: 0.0, 53: 0.0, 54: 0.0, 55: 1.0, 56: 1.0, 57: 1.0, 58: 0.0, 59: 0.0, 60: 0.09222222200000001, 61: 0.0, 62: 0.0, 63: 0.0, 64: 0.100555556, 65: 1.0, 66: 1.0, 67: 0.0, 68: 1.0, 69: 0.0, 70: 0.0, 71: 1.0, 72: 1.0, 73: 0.645123804, 74: 0.0, 75: 0.0, 76: 0.0, 77: 0.0, 78: 0.0, 79: 0.0, 80: 0.0, 81: 0.0, 82: 1.0, 83: 0.0, 84: 0.0, 85: 0.0, 86: 0.0, 87: 1.0, 88: 0.0, 89: 1.0, 90: 0.0, 91: 0.0, 92: 1.0, 93: 0.0, 94: 0.0, 95: 1.0, 96: 0.0, 97: 0.0, 98: 1.0, 99: 1.0, 100: 0.0, 101: 0.0, 102: 0.0, 103: 0.0, 104: 1.0, 105: 1.0, 106: 0.0, 107: 1.0, 108: 1.0, 109: 0.096111111, 110: 0.0, 111: 1.0, 112: 1.0, 113: 1.0, 114: 0.0, 115: 0.0, 116: 0.0, 117: 0.0, 118: 1.0, 119: 1.0, 120: 0.0, 121: 1.0, 122: 0.0, 123: 1.0, 124: 0.0, 125: 0.0, 126: 0.0, 127: 1.0, 128: 1.0, 129: 0.0, 130: 0.0, 131: 0.0, 132: 0.0, 133: 0.0, 134: 1.0, 135: 0.0, 136: 1.0, 137: 0.0, 138: 0.0, 139: 0.0, 140: 1.0, 141: 1.0, 142: 1.0, 143: 0.0, 144: 0.0, 145: 1.0, 146: 0.0, 147: 0.0, 148: 0.0, 149: 0.0, 150: 0.0, 151: 1.0, 152: 0.0, 153: 0.0, 154: 1.0, 155: 1.0, 156: 0.0, 157: 0.0, 158: 0.284971419, 159: 0.0, 160: 1.0, 161: 1.0, 162: 0.0, 163: 1.0, 164: 0.0, 165: 0.0, 166: 0.0, 167: 1.0, 168: 0.117777778, 169: 0.0, 170: 0.0, 171: 1.0, 172: 0.0, 173: 0.0, 174: 1.0, 175: 0.085222222, 176: 0.0, 177: 0.0, 178: 0.0, 179: 0.0, 180: 0.0, 181: 0.0, 182: 0.0, 183: 0.0, 184: 0.0, 185: 1.0, 186: 1.0, 187: 0.0, 188: 0.0, 189: 1.0, 190: 0.0, 191: 0.0];
soc = [0: 2.650530106, 1: 2.65, 2: 3.54947, 3: 4.448760106, 4: 5.347870354, 5: 4.34680078, 6: 5.24593142, 7: 6.144882233, 8: 5.143653257, 9: 6.042624526, 10: 6.757365543, 11: 6.75601407, 12: 5.754662867, 13: 4.753511935, 14: 3.752561232, 15: 2.75181072, 16: 3.651260358, 17: 2.650530106, 18: 2.65, 19: 3.54947, 20: 4.448760106, 21: 4.447870354, 22: 3.44698078, 23: 4.346291384, 24: 4.345422125, 25: 5.244553041, 26: 4.24350413, 27: 4.24265543, 28: 3.241806899, 29: 4.141158537, 30: 5.040330305, 31: 5.939322239, 32: 5.938134375, 33: 6.836946748, 34: 6.835579359, 35: 7.734212243, 36: 7.7326654, 37: 8.631118867, 38: 7.629392644, 39: 6.627866765, 40: 7.526541192, 41: 8.425035883, 42: 7.423350876, 43: 6.421866206, 44: 7.320581833, 45: 6.319117716, 46: 6.317853893, 47: 7.216590322, 48: 7.215147004, 49: 6.213703975, 50: 6.212461234, 51: 5.211218742, 52: 6.110176498, 53: 7.008954463, 54: 7.007552672, 55: 6.006151161, 56: 5.004949931, 57: 4.003948941, 58: 4.903148151, 59: 4.902167522, 60: 4.808964866, 61: 4.808003073, 62: 5.707041472, 63: 6.605900064, 64: 6.504023328, 65: 5.502722524, 66: 4.501621979, 67: 5.400721655, 68: 4.39964151, 69: 5.298761582, 70: 5.29770183, 71: 4.296642289, 72: 3.295782961, 73: 2.65, 74: 3.54947, 75: 3.548760106, 76: 3.548050354, 77: 4.447340744, 78: 4.446451276, 79: 4.445561986, 80: 5.344672873, 81: 6.243603939, 82: 5.242355218, 83: 6.141306747, 84: 7.040078485, 85: 7.93867047, 86: 8.837082735999999, 87: 7.835315319, 88: 8.733748256, 89: 7.732001506, 90: 7.730455106, 91: 8.628909015, 92: 7.627183233, 93: 8.525657796999999, 94: 9.423952665, 95: 8.422067874, 96: 8.420383461, 97: 9.318699384, 98: 8.316835643999999, 99: 7.315172277, 100: 7.68025045, 101: 8.578714400000001, 102: 8.576998657000001, 103: 9.475283256999999, 104: 8.473388201000001, 105: 7.471693523, 106: 8.370199184000001, 107: 7.368525144, 108: 6.367051439, 109: 6.269666918, 110: 7.168412985, 111: 6.166979302, 112: 5.165745906, 113: 4.164712757, 114: 4.163879814, 115: 5.063047038, 116: 5.962034429, 117: 6.860842022, 118: 5.859469854, 119: 4.85829796, 120: 5.7573263, 121: 4.756174835, 122: 4.7552236, 123: 3.754272555, 124: 4.653521701, 125: 4.652590996, 126: 4.651660478, 127: 3.650730146, 128: 2.65, 129: 3.54947, 130: 4.448760106, 131: 4.447870354, 132: 5.34698078, 133: 6.245911384, 134: 5.244662201, 135: 6.143613269, 136: 5.142384546, 137: 5.141356069, 138: 5.140327798, 139: 6.039299733, 140: 5.038091873, 141: 4.037084254, 142: 3.036276838, 143: 3.035669582, 144: 3.650730146, 145: 2.65, 146: 3.54947, 147: 4.448760106, 148: 5.347870354, 149: 5.34680078, 150: 5.34573142, 151: 4.344662273, 152: 5.243793341, 153: 5.242744582, 154: 4.241696033, 155: 3.240847694, 156: 3.240199525, 157: 4.139551485, 158: 3.853752155, 159: 4.752981405, 160: 3.752030808, 161: 2.751280402, 162: 3.650730146, 163: 2.65, 164: 3.54947, 165: 3.548760106, 166: 4.448050354, 167: 3.447160744, 168: 3.328693534, 169: 4.228027795, 170: 5.12718219, 171: 4.126156753, 172: 5.025331522, 173: 5.924326456, 174: 4.92314159, 175: 4.83693474, 176: 5.735967353, 177: 5.734820159, 178: 6.633673195, 179: 7.532346461, 180: 7.530839991, 181: 8.429333823, 182: 8.427647957, 183: 9.325962427, 184: 9.324097235, 185: 8.322232415, 186: 7.320567969, 187: 7.319103855, 188: 8.217640034, 189: 7.215996506, 190: 7.214553307, 191: 8.113110396];
cost = [0: 0.04153185, 1: 0.13421473, 2: 0.856145365, 3: 0.855839915, 4: 0.861338015, 5: 0.0, 6: 0.857672615, 7: 0.857672615, 8: 0.0, 9: 0.861460195, 10: 0.712546609, 11: 0.1288999, 12: 0.0, 13: 0.0, 14: 0.0, 15: 0.0, 16: 0.858283515, 17: 0.0, 18: 0.1337871, 19: 0.8637816149999999, 20: 0.860727115, 21: 0.12932753, 22: 0.0, 23: 0.861765645, 24: 0.09136128, 25: 1.361072245, 26: 0.0, 27: 0.0, 28: 0.0, 29: 1.104713445, 30: 0.939715925, 31: 1.403540965, 32: 0.0, 33: 0.671580085, 34: 0.1034952, 35: 0.449481765, 36: 0.0, 37: 0.650762085, 38: 0.0, 39: 0.0, 40: 1.400804885, 41: 1.400566965, 42: 0.0, 43: 0.0, 44: 0.371919845, 45: 0.0, 46: 0.0, 47: 1.399615285, 48: 0.1029004, 49: 0.0, 50: 0.0, 51: 0.0, 52: 0.778744335, 53: 1.077902065, 54: 0.3329405, 55: 0.0, 56: 0.0, 57: 0.0, 58: 0.967634615, 59: 0.0, 60: 0.0, 61: 0.0, 62: 1.406514965, 63: 1.415199045, 64: 0.0, 65: 0.0, 66: 0.0, 67: 1.179301365, 68: 0.0, 69: 1.414604245, 70: 0.10075912, 71: 0.0, 72: 0.0, 73: 0.0, 74: 1.419481605, 75: 0.10313832, 76: 0.1023056, 77: 1.419838485, 78: 0.11206032, 79: 0.11087072, 80: 1.410083765, 81: 1.410083765, 82: 0.0, 83: 1.421384965, 84: 1.419838485, 85: 1.411273365, 86: 1.410678565, 87: 0.0, 88: 0.7869303949999999, 89: 0.0, 90: 0.0531483, 91: 0.781921015, 92: 0.0, 93: 0.7874191149999999, 94: 0.786808215, 95: 0.0, 96: 0.0586464, 97: 0.786808215, 98: 0.0, 99: 0.0, 100: 0.349467612, 101: 0.782409735, 102: 0.05754678, 103: 0.786197315, 104: 0.0, 105: 0.0, 106: 0.781921015, 107: 0.0, 108: 0.0, 109: 0.0, 110: 0.781921015, 111: 0.0, 112: 0.0, 113: 0.0, 114: 0.0525374, 115: 0.781615565, 116: 0.781004665, 117: 0.786808215, 118: 0.0, 119: 0.0, 120: 1.364046245, 121: 0.0, 122: 0.10313832, 123: 0.0, 124: 1.148490725, 125: 0.0, 126: 0.0, 127: 0.0, 128: 0.0, 129: 1.402351365, 130: 1.400804885, 131: 0.0, 132: 1.416031765, 133: 1.417816165, 134: 0.0, 135: 1.322648165, 136: 0.0, 137: 0.17582288, 138: 0.02224552, 139: 1.332164965, 140: 0.0, 141: 0.0, 142: 0.0, 143: 0.0196284, 144: 0.921384636, 145: 0.0, 146: 1.410321685, 147: 1.410916485, 148: 0.736714415, 149: 0.05956275, 150: 0.0, 151: 0.0, 152: 0.854740295, 153: 0.48487133, 154: 0.0, 155: 0.0, 156: 0.0, 157: 1.252818645, 158: 0.0, 159: 1.295644245, 160: 0.0, 161: 0.0, 162: 1.310514245, 163: 0.0, 164: 1.606010885, 165: 0.15488592, 166: 1.586144565, 167: 0.0, 168: 0.0, 169: 1.389503685, 170: 1.400566965, 171: 0.0, 172: 1.399020485, 173: 1.389860565, 174: 0.0, 175: 0.0, 176: 1.399972165, 177: 0.24184568, 178: 1.542486245, 179: 1.541891445, 180: 0.24589032, 181: 1.555214965, 182: 0.24006128, 183: 1.549029045, 184: 0.12297417, 185: 0.0, 186: 0.0, 187: 0.12480687, 188: 0.852479965, 189: 0.0, 190: 0.12798355, 191: 0.857794795];
earn = [0: 0.0, 1: 0.0, 2: 0.0, 3: 0.0, 4: 0.0, 5: 0.43137486, 6: 0.0, 7: 0.0, 8: 0.40551519, 9: 0.0, 10: 0.0, 11: 0.0, 12: 0.3831529, 13: 0.38111397, 14: 0.3737895, 15: 0.37311345, 16: 0.0, 17: 0.381152, 18: 0.0, 19: 0.0, 20: 0.0, 21: 0.0, 22: 0.4221568, 23: 0.0, 24: 0.0, 25: 0.0, 26: 0.59911995, 27: 0.0546777, 28: 0.51998298, 29: 0.0, 30: 0.0, 31: 0.0, 32: 0.32540055, 33: 0.0, 34: 0.0, 35: 0.0, 36: 0.26233536, 37: 0.0, 38: 0.2669892, 39: 0.401258, 40: 0.0, 41: 0.0, 42: 0.035178, 43: 0.05145345, 44: -0.0, 45: -0.0258038, 46: -0.03864575, 47: 0.0, 48: 0.0, 49: -0.00188196, 50: -0.0, 51: 0.0130896, 52: 0.0, 53: 0.0, 54: 0.0, 55: 0.0039744, 56: 0.15833126, 57: 0.29372369, 58: 0.0, 59: 0.1512199, 60: 0.0, 61: 0.31294536, 62: 0.0, 63: 0.0, 64: 0.0, 65: 0.48713085, 66: 0.67431975, 67: 0.0, 68: 0.5132008, 69: 0.0, 70: 0.0, 71: 0.6512916, 72: 0.6120217999999999, 73: 0.366037076, 74: 0.0, 75: 0.0, 76: 0.0, 77: 0.0, 78: 0.0, 79: 0.0, 80: 0.0, 81: 0.0, 82: 0.5083293, 83: 0.0, 84: 0.0, 85: 0.0, 86: 0.0, 87: 0.36310977, 88: 0.0, 89: 0.37712721, 90: 0.0, 91: 0.0, 92: 0.330255, 93: 0.0, 94: 0.0, 95: 0.2344692, 96: 0.0, 97: 0.0, 98: 0.2360403, 99: 0.2212176, 100: 0.0, 101: 0.0, 102: 0.0, 103: 0.0, 104: 0.11752185, 105: 0.1125884, 106: 0.0, 107: 0.112056, 108: 0.11204505, 109: 0.0, 110: 0.0, 111: 0.1130012, 112: 0.14812, 113: 0.14780925, 114: 0.0, 115: 0.0, 116: 0.0, 117: 0.0, 118: 0.24318008, 119: 0.2557399, 120: 0.0, 121: 0.35860906, 122: 0.0, 123: 0.40512696, 124: 0.0, 125: 0.09325284, 126: 0.06497429, 127: 0.3404188, 128: 0.11668698, 129: 0.0, 130: 0.0, 131: -0.01447852, 132: 0.0, 133: 0.0, 134: -0.052712, 135: 0.0, 136: -0.04704178, 137: 0.0, 138: 0.0, 139: 0.0, 140: -0.0036036, 141: -0.003159, 142: -0.00240856, 143: 0.0, 144: 0.0, 145: -0.0015885, 146: 0.0, 147: -0.0, 148: 0.0, 149: 0.0, 150: 0.00317112, 151: 0.0110565, 152: 0.0, 153: 0.0, 154: 0.0152149, 155: 0.17706147, 156: 0.01687539, 157: 0.0, 158: 0.07889513300000001, 159: 0.0, 160: 0.41879412, 161: 0.4571607, 162: 0.0, 163: 0.49934234, 164: 0.0, 165: 0.0, 166: 0.0, 167: 0.65891372, 168: 0.0, 169: 0.0, 170: 0.0, 171: 0.9267320999999999, 172: 0.0, 173: 0.0, 174: 0.75448788, 175: 0.0, 176: 0.0, 177: 0.0, 178: 0.0, 179: 0.0, 180: 0.0, 181: 0.0, 182: 0.0, 183: 0.0, 184: 0.0, 185: 0.42025025, 186: 0.4189533, 187: 0.0, 188: 0.0, 189: 0.3777035, 190: 0.0, 191: 0.0];
total_cost = 91.925375618;
total_earn = 19.960017939;
