production = [0: 0.0, 1: 0.0, 2: 0.0, 3: 0.0, 4: 0.0, 5: 0.0, 6: 0.0, 7: 0.0, 8: 0.0, 9: 0.0, 10: 0.0, 11: 0.0, 12: 0.0, 13: 0.0, 14: 0.0, 15: 0.0, 16: 0.0, 17: 0.0, 18: 0.0, 19: 0.0, 20: 0.0, 21: 0.0, 22: 0.0, 23: 0.0018, 24: 0.0, 25: 0.0, 26: 0.0955, 27: 0.0, 28: 0.0, 29: 0.2597, 30: 0.3967, 31: 0.5978, 32: 0.0, 33: 0.0, 34: 0.8263, 35: 0.8095, 36: 0.0, 37: 0.6318, 38: 0.0, 39: 0.6825, 40: 0.6558, 41: 0.0, 42: 0.9543, 43: 0.0, 44: 0.0, 45: 0.0, 46: 0.0, 47: 0.0, 48: 0.8263, 49: 0.0, 50: 0.854, 51: 0.0, 52: 0.0, 53: 0.8672, 54: 1.08, 55: 1.044, 56: 0.0, 57: 0.972, 58: 0.8698, 59: 0.0, 60: 0.0, 61: 0.7592, 62: 0.0, 63: 0.5004999999999999, 64: 0.0, 65: 0.4325, 66: 0.0, 67: 0.0, 68: 0.0, 69: 0.0, 70: 0.0725, 71: 0.0357, 72: 0.0037, 73: 0.0, 74: 0.0, 75: 0.0, 76: 0.0, 77: 0.0, 78: 0.0, 79: 0.0, 80: 0.0, 81: 0.0, 82: 0.0, 83: 0.0, 84: 0.0, 85: 0.0, 86: 0.0, 87: 0.0, 88: 0.0, 89: 0.0, 90: 0.0, 91: 0.0, 92: 0.0, 93: 0.0, 94: 0.0, 95: 0.0, 96: 0.0, 97: 0.0, 98: 0.0, 99: 0.0, 100: 0.0, 101: 0.0, 102: 0.0, 103: 0.0, 104: 0.0, 105: 0.0, 106: 0.0, 107: 0.0, 108: 0.0, 109: 0.0, 110: 0.0, 111: 0.0, 112: 0.0, 113: 0.0, 114: 0.0, 115: 0.0, 116: 0.0, 117: 0.0005, 118: 0.0, 119: 0.0055, 120: 0.0335, 121: 0.0, 122: 0.076, 123: 0.1442, 124: 0.2152, 125: 0.3118, 126: 0.0, 127: 0.547, 128: 0.0, 129: 0.0, 130: 0.9958, 131: 0.5218, 132: 0.0, 133: 0.0725, 134: 0.065, 135: 0.5175, 136: 0.0, 137: 0.0, 138: 0.0, 139: 0.0, 140: 0.0278, 141: 0.0, 142: 0.0, 143: 0.07049999999999999, 144: 0.0635, 145: 0.0638, 146: 0.0612, 147: 1.348, 148: 0.1067, 149: 0.6965, 150: 0.5302, 151: 0.0, 152: 0.2815, 153: 0.1542, 154: 0.2052, 155: 0.2437, 156: 0.0, 157: 0.0, 158: 0.0, 159: 0.0, 160: 0.0, 161: 0.0, 162: 0.0, 163: 0.0, 164: 0.0, 165: 0.1185, 166: 0.08699999999999999, 167: 0.0727, 168: 0.0737, 169: 0.0, 170: 0.0, 171: 0.0, 172: 0.0, 173: 0.0, 174: 0.0, 175: 0.0, 176: 0.0, 177: 0.0, 178: 0.0, 179: 0.0, 180: 0.0, 181: 0.0, 182: 0.0, 183: 0.0, 184: 0.0, 185: 0.0, 186: 0.0, 187: 0.0, 188: 0.0, 189: 0.0, 190: 0.0, 191: 0.0];
buy = [0: 1.22, 1: 1.2197, 2: 0.208, 3: 1.2075, 4: 0.0, 5: 1.2182, 6: 1.2105, 7: 1.2105, 8: 1.2107, 9: 0.2167, 10: 0.0, 11: 0.211, 12: 1.211, 13: 0.2107, 14: 1.221, 15: 1.2205, 16: 0.0, 17: 0.212, 18: 1.219, 19: 1.2205, 20: 0.0, 21: 0.0, 22: 0.0, 23: 0.2172, 24: 1.0945, 25: 1.0903, 26: 0.983, 27: 0.0, 28: 0.0, 29: 0.0, 30: 0.0, 31: 0.0, 32: 0.07820000000000001, 33: 0.0, 34: 0.2607, 35: 0.2785, 36: 0.07820000000000001, 37: 0.4477, 38: 0.0, 39: 0.0, 40: 0.0, 41: 1.078, 42: 0.1257, 43: 0.08649999999999999, 44: 0.0, 45: 1.086, 46: 0.0, 47: 1.0772, 48: 0.0, 49: 0.0, 50: 0.0, 51: 1.0823, 52: 0.661202077, 53: 0.7038, 54: 0.0, 55: 0.7732, 56: 1.0847, 57: 0.0, 58: 0.0, 59: 0.0, 60: 0.083, 61: 0.0, 62: 1.083, 63: 0.0, 64: 0.0, 65: 0.0, 66: 1.0785, 67: 0.0873, 68: 1.089, 69: 1.0898, 70: 0.0, 71: 1.0463, 72: 0.0, 73: 0.0, 74: 0.09420000000000001, 75: 1.0867, 76: 0.0, 77: 0.09420000000000001, 78: 1.0942, 79: 1.0932, 80: 0.0, 81: 0.0, 82: 1.093, 83: 0.0, 84: 0.09420000000000001, 85: 0.0, 86: 0.0, 87: 1.0947, 88: 0.09470000000000001, 89: 0.0, 90: 0.08699999999999999, 91: 0.08649999999999999, 92: 1.0945, 93: 1.0955, 94: 1.0945, 95: 0.0, 96: 1.096, 97: 1.0945, 98: 0.0955, 99: 0.0, 100: 0.0, 101: 1.0873, 102: 0.09420000000000001, 103: 1.0935, 104: 1.0867, 105: 1.0865, 106: 0.0, 107: 0.0, 108: 0.0, 109: 1.0865, 110: 1.0865, 111: 1.094, 112: 1.095, 113: 0.0945, 114: 0.0, 115: 0.08599999999999999, 116: 0.0, 117: 0.0, 118: 1.0942, 119: 1.0745, 120: 0.0473, 121: 0.0883, 122: 0.0107, 123: 0.9418, 124: 0.0, 125: 0.7702, 126: 1.0873, 127: 0.5405, 128: 1.0865, 129: 0.0, 130: 0.0, 131: 0.0, 132: 1.091, 133: 0.0, 134: 1.02, 135: 1.0125, 136: 0.1423, 137: 0.1478, 138: 0.0, 139: 1.0815, 140: 0.0532, 141: 0.0, 142: 1.094, 143: 0.621043043, 144: 0.0, 145: 0.0175, 146: 0.025, 147: 0.0, 148: 0.0125, 149: 0.401, 150: 0.0, 151: 0.091, 152: 0.0, 153: 0.6395, 154: 0.0, 155: 0.9223, 156: 0.08699999999999999, 157: 0.0, 158: 1.0795, 159: 1.079, 160: 1.0798, 161: 0.0, 162: 1.0888, 163: 0.0, 164: 0.2507, 165: 0.0, 166: 0.0, 167: 0.0, 168: 1.106, 169: 0.0, 170: 0.078, 171: 1.0777, 172: 0.0767, 173: 1.069, 174: 0.0, 175: 1.0767, 176: 0.0, 177: 0.0, 178: 1.1973, 179: 1.1968, 180: 1.2067, 181: 0.0, 182: 1.2018, 183: 1.2028, 184: 0.2013, 185: 0.2105, 186: 0.209, 187: 0.0, 188: 1.202, 189: 0.2095, 190: 0.0, 191: 0.0];
sell = [0: 0.0, 1: 0.0, 2: 0.0, 3: 0.0, 4: 0.0, 5: 0.0, 6: 0.0, 7: 0.0, 8: 0.0, 9: 0.0, 10: 0.6830000000000001, 11: 0.0, 12: 0.0, 13: 0.0, 14: 0.0, 15: 0.0, 16: 0.0, 17: 0.0, 18: 0.0, 19: 0.0, 20: 0.6845, 21: 0.6879999999999999, 22: 0.6879999999999999, 23: 0.0, 24: 0.0, 25: 0.0, 26: 0.0, 27: 0.8213, 28: 0.8107, 29: 0.0, 30: 1.2094, 31: 0.5173, 32: 0.0, 33: 0.8133, 34: 0.0, 35: 0.0, 36: 0.0, 37: 0.0, 38: 0.8129999999999999, 39: 0.595, 40: 0.0, 41: 0.0, 42: 0.0, 43: 0.0, 44: 0.8135, 45: 0.0, 46: 0.8218, 47: 0.0, 48: 0.7398, 49: 0.8125, 50: 0.776, 51: 0.0, 52: 0.0, 53: 0.0, 54: 0.535, 55: 0.0, 56: 0.0, 57: 1.4963, 58: 0.4793, 59: 0.5365, 60: 0.0, 61: 1.5762, 62: 0.0, 63: 1.3102, 64: 0.8095, 65: 1.253, 66: 0.0, 67: 0.0, 68: 0.0, 69: 0.0, 70: 0.8878, 71: 0.0, 72: 0.8154, 73: 0.8053, 74: 0.0, 75: 0.0, 76: 0.8139999999999999, 77: 0.0, 78: 0.0, 79: 0.0, 80: 0.8139999999999999, 81: 0.8139999999999999, 82: 0.0, 83: 0.8045, 84: 0.0, 85: 0.8129999999999999, 86: 0.8135, 87: 0.0, 88: 0.0, 89: 0.8133, 90: 0.0, 91: 0.0, 92: 0.0, 93: 0.0, 94: 0.0, 95: 0.8129999999999999, 96: 0.0, 97: 0.0, 98: 0.0, 99: 0.8133, 100: 0.8139999999999999, 101: 0.0, 102: 0.0, 103: 0.0, 104: 0.0, 105: 0.0, 106: 0.8135, 107: 0.805, 108: 0.8055, 109: 0.0, 110: 0.0, 111: 0.0, 112: 0.0, 113: 0.0, 114: 0.8139999999999999, 115: 0.0, 116: 0.8149999999999999, 117: 0.806, 118: 0.0, 119: 0.0, 120: 0.0, 121: 0.0, 122: 0.0, 123: 0.0, 124: 1.0339, 125: 0.0, 126: 0.0, 127: 0.0, 128: 0.0, 129: 0.8205, 130: 1.8176, 131: 0.4361, 132: 0.0, 133: 0.88, 134: 0.0, 135: 0.0, 136: 0.0, 137: 0.0, 138: 0.8175, 139: 0.0, 140: 0.0, 141: 0.8100000000000001, 142: 0.0, 143: 0.0, 144: 0.8774999999999999, 145: 0.0, 146: 0.0, 147: 2.1613, 148: 0.0, 149: 0.0, 150: 1.3344, 151: 0.0, 152: 0.299502266, 153: 0.0, 154: 0.3217, 155: 0.0, 156: 0.0, 157: 0.8117, 158: 0.0, 159: 0.0, 160: 0.0, 161: 0.0, 162: 0.0, 163: 0.6803, 164: 0.0, 165: 0.7698, 166: 0.753, 167: 0.7652, 168: 0.0, 169: 0.8313, 170: 0.0, 171: 0.0, 172: 0.0, 173: 0.0, 174: 0.8313, 175: 0.0, 176: 0.8225, 177: 0.6967, 178: 0.0, 179: 0.0, 180: 0.0, 181: 0.6919999999999999, 182: 0.0, 183: 0.0, 184: 0.0, 185: 0.0, 186: 0.0, 187: 0.0, 188: 0.0, 189: 0.0, 190: 0.6905, 191: 0.6893];
charge = [0: 1.0, 1: 1.0, 2: 0.0, 3: 1.0, 4: 0.0, 5: 1.0, 6: 1.0, 7: 1.0, 8: 1.0, 9: 0.0, 10: 0.0, 11: 0.0, 12: 1.0, 13: 0.0, 14: 1.0, 15: 1.0, 16: 0.0, 17: 0.0, 18: 1.0, 19: 1.0, 20: 0.0, 21: 0.0, 22: 0.0, 23: 0.0, 24: 1.0, 25: 1.0, 26: 1.0, 27: 0.0, 28: 0.0, 29: 0.1707, 30: 0.0, 31: 0.0, 32: 0.0, 33: 0.0, 34: 1.0, 35: 1.0, 36: 0.0, 37: 1.0, 38: 0.0, 39: 0.0, 40: 0.5776, 41: 1.0, 42: 1.0, 43: 0.0, 44: 0.0, 45: 1.0, 46: 0.0, 47: 1.0, 48: 0.0, 49: 0.0, 50: 0.0, 51: 1.0, 52: 0.579902077, 53: 1.0, 54: 0.0, 55: 1.0, 56: 1.0, 57: 0.0, 58: 0.0, 59: 0.0, 60: 0.0, 61: 0.0, 62: 1.0, 63: 0.0, 64: 0.0, 65: 0.0, 66: 1.0, 67: 0.0, 68: 1.0, 69: 1.0, 70: 0.0, 71: 1.0, 72: 0.0, 73: 0.0, 74: 0.0, 75: 1.0, 76: 0.0, 77: 0.0, 78: 1.0, 79: 1.0, 80: 0.0, 81: 0.0, 82: 1.0, 83: 0.0, 84: 0.0, 85: 0.0, 86: 0.0, 87: 1.0, 88: 0.0, 89: 0.0, 90: 0.0, 91: 0.0, 92: 1.0, 93: 1.0, 94: 1.0, 95: 0.0, 96: 1.0, 97: 1.0, 98: 0.0, 99: 0.0, 100: 0.0, 101: 1.0, 102: 0.0, 103: 1.0, 104: 1.0, 105: 1.0, 106: 0.0, 107: 0.0, 108: 0.0, 109: 1.0, 110: 1.0, 111: 1.0, 112: 1.0, 113: 0.0, 114: 0.0, 115: 0.0, 116: 0.0, 117: 0.0, 118: 1.0, 119: 1.0, 120: 0.0, 121: 0.0, 122: 0.0, 123: 1.0, 124: 0.0, 125: 1.0, 126: 1.0, 127: 1.0, 128: 1.0, 129: 0.0, 130: 0.0, 131: 0.0, 132: 1.0, 133: 0.0, 134: 1.0, 135: 1.0, 136: 0.0, 137: 0.0, 138: 0.0, 139: 1.0, 140: 0.0, 141: 0.0, 142: 1.0, 143: 0.6045430429999999, 144: 0.0, 145: 0.0, 146: 0.0, 147: 0.0, 148: 0.0, 149: 1.0, 150: 0.0, 151: 0.0, 152: 0.0, 153: 0.0, 154: 0.0, 155: 1.0, 156: 0.0, 157: 0.0, 158: 1.0, 159: 1.0, 160: 1.0, 161: 0.0, 162: 1.0, 163: 0.0, 164: 0.0, 165: 0.0, 166: 0.0, 167: 0.0, 168: 1.0, 169: 0.0, 170: 0.0, 171: 1.0, 172: 0.0, 173: 1.0, 174: 0.0, 175: 1.0, 176: 0.0, 177: 0.0, 178: 1.0, 179: 1.0, 180: 1.0, 181: 0.0, 182: 1.0, 183: 1.0, 184: 0.0, 185: 0.0, 186: 0.0, 187: 0.0, 188: 1.0, 189: 0.0, 190: 0.0, 191: 0.0];
discharge = [0: 0.0, 1: 0.0, 2: 0.0, 3: 0.0, 4: 0.240555556, 5: 0.0, 6: 0.0, 7: 0.0, 8: 0.0, 9: 0.0, 10: 1.0, 11: 0.0, 12: 0.0, 13: 0.0, 14: 0.0, 15: 0.0, 16: 0.235, 17: 0.0, 18: 0.0, 19: 0.0, 20: 1.0, 21: 1.0, 22: 1.0, 23: 0.0, 24: 0.0, 25: 0.0, 26: 0.0, 27: 1.0, 28: 1.0, 29: 0.0, 30: 1.0, 31: 0.0, 32: 0.0, 33: 1.0, 34: 0.0, 35: 0.0, 36: 0.0, 37: 0.0, 38: 1.0, 39: 0.0, 40: 0.0, 41: 0.0, 42: 0.0, 43: 0.0, 44: 1.0, 45: 0.0, 46: 1.0, 47: 0.0, 48: 0.0, 49: 1.0, 50: 0.0, 51: 0.0, 52: 0.0, 53: 0.0, 54: 0.0, 55: 0.0, 56: 0.0, 57: 1.0, 58: 0.0, 59: 1.0, 60: 0.0, 61: 1.0, 62: 0.0, 63: 1.0, 64: 1.0, 65: 1.0, 66: 0.0, 67: 0.0, 68: 0.0, 69: 0.0, 70: 1.0, 71: 0.0, 72: 1.0, 73: 1.0, 74: 0.0, 75: 0.0, 76: 1.0, 77: 0.0, 78: 0.0, 79: 0.0, 80: 1.0, 81: 1.0, 82: 0.0, 83: 1.0, 84: 0.0, 85: 1.0, 86: 1.0, 87: 0.0, 88: 0.0, 89: 1.0, 90: 0.0, 91: 0.0, 92: 0.0, 93: 0.0, 94: 0.0, 95: 1.0, 96: 0.0, 97: 0.0, 98: 0.0, 99: 1.0, 100: 1.0, 101: 0.0, 102: 0.0, 103: 0.0, 104: 0.0, 105: 0.0, 106: 1.0, 107: 1.0, 108: 1.0, 109: 0.0, 110: 0.0, 111: 0.0, 112: 0.0, 113: 0.0, 114: 1.0, 115: 0.0, 116: 1.0, 117: 1.0, 118: 0.0, 119: 0.0, 120: 0.0, 121: 0.0, 122: 0.0, 123: 0.0, 124: 1.0, 125: 0.0, 126: 0.0, 127: 0.0, 128: 0.0, 129: 1.0, 130: 1.0, 131: 0.0, 132: 0.0, 133: 1.0, 134: 0.0, 135: 0.0, 136: 0.0, 137: 0.0, 138: 1.0, 139: 0.0, 140: 0.0, 141: 1.0, 142: 0.0, 143: 0.0, 144: 1.0, 145: 0.0, 146: 0.0, 147: 1.0, 148: 0.0, 149: 0.0, 150: 1.0, 151: 0.0, 152: 0.248558073, 153: 0.0, 154: 1.0, 155: 0.0, 156: 0.0, 157: 1.0, 158: 0.0, 159: 0.0, 160: 0.0, 161: 0.09888888899999999, 162: 0.0, 163: 1.0, 164: 0.0, 165: 1.0, 166: 1.0, 167: 1.0, 168: 0.0, 169: 1.0, 170: 0.0, 171: 0.0, 172: 0.0, 173: 0.0, 174: 1.0, 175: 0.0, 176: 1.0, 177: 1.0, 178: 0.0, 179: 0.0, 180: 0.0, 181: 1.0, 182: 0.0, 183: 0.0, 184: 0.0, 185: 0.0, 186: 0.0, 187: 0.227, 188: 0.0, 189: 0.0, 190: 1.0, 191: 1.0];
soc = [0: 3.719436, 1: 4.618692113, 2: 4.617768374, 3: 5.516844821, 4: 5.275185896, 5: 6.174130859, 6: 7.072896033, 7: 7.971481454, 8: 8.869887157000001, 9: 8.86811318, 10: 7.866339557, 11: 7.864766289, 12: 8.763193336, 13: 8.761440696999999, 14: 9.659688408999999, 15: 10.557756472, 16: 10.32064492, 17: 10.318580791, 18: 11.216517075, 19: 12.114273772, 20: 11.111850917, 21: 10.109628547, 22: 9.107606621, 23: 9.1057851, 24: 10.003963943, 25: 10.90196315, 26: 11.799782757, 27: 10.797422801, 28: 9.795263316, 29: 9.946934263999999, 30: 8.944944876999999, 31: 8.943155888, 32: 8.941367257, 33: 7.939578983, 34: 8.837991067000001, 35: 9.736223469, 36: 9.734276224, 37: 10.632329369, 38: 9.630202903000001, 39: 9.628276863, 40: 10.146191207, 41: 11.044161969, 42: 11.941953137, 43: 11.939564746, 44: 10.937176833, 45: 11.834989398, 46: 10.8326224, 47: 11.730455875, 48: 11.728109784, 49: 10.725764162, 50: 10.723619009, 51: 11.621474286, 52: 12.14106186, 53: 13.038633648, 54: 13.036025921, 55: 13.933418716, 56: 14.830632032, 57: 13.827665906, 58: 13.824900372, 59: 12.822135392, 60: 12.819570965, 61: 11.817007051, 62: 12.71464365, 63: 11.712100721, 64: 10.709758301, 65: 9.707616349, 66: 10.605674826, 67: 10.603553691, 68: 11.50143298, 69: 12.399132693, 70: 11.396652867, 71: 12.294373536, 72: 11.291914662, 73: 10.289656279, 74: 10.287598347, 75: 11.185540828, 76: 10.18330372, 77: 10.181267059, 78: 11.079230805, 79: 11.977014959, 80: 10.974619556, 81: 9.972424631999999, 82: 10.870430148, 83: 9.868256061, 84: 9.86628241, 85: 8.864309154000001, 86: 7.862536292, 87: 8.760963785, 88: 8.759211592, 89: 7.75745975, 90: 7.755908258, 91: 7.754357076, 92: 8.652806204999999, 93: 9.551075643000001, 94: 10.449165428, 95: 9.447075594999999, 96: 10.34518618, 97: 11.243117143, 98: 11.240868519, 99: 10.238620346, 100: 9.236572622000001, 101: 10.134725307, 102: 10.132698362, 103: 11.030671822, 104: 11.928465688, 105: 12.826079995, 106: 11.823514779, 107: 10.821150076, 108: 9.818985846, 109: 10.717022049, 110: 11.614878644, 111: 12.512555669, 112: 13.410053157, 113: 13.407371147, 114: 12.404689673, 115: 12.402208735, 116: 11.399728293, 117: 10.397448347, 118: 11.295368858, 119: 12.193109784, 120: 12.190671162, 121: 12.188233028, 122: 12.185795381, 123: 13.083358222, 124: 12.08074155, 125: 12.978325402, 126: 13.875729737, 127: 14.772954591, 128: 15.67, 129: 14.666866, 130: 13.663932627, 131: 13.66119984, 132: 14.5584676, 133: 13.555555556, 134: 14.452844796, 135: 15.349954227, 136: 15.346884236, 137: 15.343814859, 138: 14.340746096, 139: 15.237877947, 140: 15.234830371, 141: 14.231783405, 142: 15.128937048, 143: 15.67, 144: 14.666866, 145: 14.663932627, 146: 14.66099984, 147: 13.65806764, 148: 13.655336027, 149: 14.55260496, 150: 13.549694439, 151: 13.5469845, 152: 13.295717029, 153: 13.293057886, 154: 12.290399274, 155: 13.187941195, 156: 13.185303606, 157: 12.182666546, 158: 13.080230012, 159: 13.977613966, 160: 14.874818443, 161: 14.772954591, 162: 15.67, 163: 14.666866, 164: 14.663932627, 165: 13.66099984, 166: 12.65826764, 167: 11.655735987, 168: 12.55340484, 169: 11.550894159, 170: 11.54858398, 171: 12.446274263, 172: 12.443785008, 173: 13.341296251, 174: 12.338627992, 175: 13.236160266, 176: 12.233513034, 177: 11.231066332, 178: 12.128820118, 179: 13.026394354, 180: 13.923789075, 181: 12.921004318, 182: 13.818420117, 183: 14.715656433, 184: 14.712713301, 185: 14.709770759, 186: 14.706828805, 187: 14.476887439, 188: 15.373992061, 189: 15.370917263, 190: 14.36784308, 191: 13.364969511];
cost = [0: 0.863476165, 1: 0.8632928949999999, 2: 0.1270672, 3: 0.855839915, 4: 0.0, 5: 0.862376545, 6: 0.857672615, 7: 0.857672615, 8: 0.857794795, 9: 0.13238203, 10: 0.0, 11: 0.1288999, 12: 0.857978065, 13: 0.12871663, 14: 0.864087065, 15: 0.8637816149999999, 16: 0.0, 17: 0.1295108, 18: 0.862865265, 19: 0.8637816149999999, 20: 0.0, 21: 0.0, 22: 0.0, 23: 0.13268748, 24: 1.420195365, 25: 1.415199045, 26: 1.287554965, 27: 0.0, 28: 0.0, 29: 0.020173013, 30: 0.0, 31: 0.0, 32: 0.09302671999999999, 33: 0.0, 34: 0.428306885, 35: 0.449481765, 36: 0.09302671999999999, 37: 0.650762085, 38: 0.0, 39: 0.0, 40: 0.068259708, 41: 1.400566965, 42: 0.267710885, 43: 0.1029004, 44: 0.0, 45: 1.410083765, 46: 0.0, 47: 1.399615285, 48: 0.0, 49: 0.0, 50: 0.0, 51: 1.405682245, 52: 0.472460112, 53: 0.548129585, 54: 0.0, 55: 0.5905260450000001, 56: 0.780821395, 57: 0.0, 58: 0.0, 59: 0.0, 60: 0.0987368, 61: 0.0, 62: 1.406514965, 63: 0.0, 64: 0.0, 65: 0.0, 66: 1.401161765, 67: 0.10385208, 68: 1.413652565, 69: 1.414604245, 70: 0.0, 71: 1.362856645, 72: 0.0, 73: 0.0, 74: 0.11206032, 75: 1.410916485, 76: 0.0, 77: 0.11206032, 78: 1.419838485, 79: 1.418648885, 80: 0.0, 81: 0.0, 82: 1.418410965, 83: 0.0, 84: 0.11206032, 85: 0.0, 86: 0.0, 87: 1.420433285, 88: 0.05785223, 89: 0.0, 90: 0.0531483, 91: 0.05284285, 92: 0.786808215, 93: 0.7874191149999999, 94: 0.786808215, 95: 0.0, 96: 0.787724565, 97: 0.786808215, 98: 0.05834095, 99: 0.0, 100: 0.0, 101: 0.782409735, 102: 0.05754678, 103: 0.786197315, 104: 0.782043195, 105: 0.781921015, 106: 0.0, 107: 0.0, 108: 0.0, 109: 0.781921015, 110: 0.781921015, 111: 0.786502765, 112: 0.787113665, 113: 0.05773005, 114: 0.0, 115: 0.0525374, 116: 0.0, 117: 0.0, 118: 0.786624945, 119: 0.774590215, 120: 0.05626808, 121: 0.10504168, 122: 0.01272872, 123: 1.238543445, 124: 0.0, 125: 1.034408085, 126: 1.411630245, 127: 0.761156965, 128: 1.410678565, 129: 0.0, 130: 0.0, 131: 0.0, 132: 1.416031765, 133: 0.0, 134: 1.331570165, 135: 1.322648165, 136: 0.16928008, 137: 0.17582288, 138: 0.0, 139: 1.404730565, 140: 0.06328672, 141: 0.0, 142: 1.419600565, 143: 0.810236592, 144: 0.0, 145: 0.020818, 146: 0.02974, 147: 0.0, 148: 0.00763625, 149: 0.363149065, 150: 0.0, 151: 0.0555919, 152: 0.0, 153: 0.39067055, 154: 0.0, 155: 0.681611235, 156: 0.1034952, 157: 0.0, 158: 1.402351365, 159: 1.401756565, 160: 1.402708245, 161: 0.0, 162: 1.413414645, 163: 0.0, 164: 0.29823272, 165: 0.0, 166: 0.0, 167: 0.0, 168: 1.433875765, 169: 0.0, 170: 0.0927888, 171: 1.400210085, 172: 0.09124232, 173: 1.389860565, 174: 0.0, 175: 1.399020485, 176: 0.0, 177: 0.0, 178: 1.542486245, 179: 1.541891445, 180: 1.553668485, 181: 0.0, 182: 1.547839445, 183: 1.549029045, 184: 0.12297417, 185: 0.12859445, 186: 0.1276781, 187: 0.0, 188: 0.852479965, 189: 0.12798355, 190: 0.0, 191: 0.0];
earn = [0: 0.0, 1: 0.0, 2: 0.0, 3: 0.0, 4: 0.0, 5: 0.0, 6: 0.0, 7: 0.0, 8: 0.0, 9: 0.0, 10: 0.3959351, 11: 0.0, 12: 0.0, 13: 0.0, 14: 0.0, 15: 0.0, 16: 0.0, 17: 0.0, 18: 0.0, 19: 0.0, 20: 0.41158985, 21: 0.4194048, 22: 0.4221568, 23: 0.0, 24: 0.0, 25: 0.0, 26: 0.0, 27: 0.58320513, 28: 0.51998298, 29: 0.0, 30: 0.74099938, 31: 0.2989994, 32: 0.0, 33: 0.41836152, 34: 0.0, 35: 0.0, 36: 0.0, 37: 0.0, 38: 0.2669892, 39: 0.159698, 40: 0.0, 41: 0.0, 42: 0.0, 43: 0.0, 44: -0.0, 45: 0.0, 46: -0.04248706, 47: 0.0, 48: -0.00488268, 49: -0.000975, 50: -0.0, 51: 0.0, 52: 0.0, 53: 0.0, 54: 0.014766, 55: 0.0, 56: 0.0, 57: 0.29372369, 58: 0.10439154, 59: 0.1402411, 60: 0.0, 61: 0.72946536, 62: 0.0, 63: 0.68746194, 64: 0.4674053, 65: 0.7439061, 66: 0.0, 67: 0.0, 68: 0.0, 69: 0.0, 70: 0.6551964, 71: 0.0, 72: 0.6148116, 73: 0.60663249, 74: 0.0, 75: 0.0, 76: 0.5768004, 77: 0.0, 78: 0.0, 79: 0.0, 80: 0.5366702, 81: 0.5176226, 82: 0.0, 83: 0.5000772, 84: 0.0, 85: 0.4290201, 86: 0.39170025, 87: 0.0, 88: 0.0, 89: 0.37712721, 90: 0.0, 91: 0.0, 92: 0.0, 93: 0.0, 94: 0.0, 95: 0.2344692, 96: 0.0, 97: 0.0, 98: 0.0, 99: 0.2212176, 100: 0.1783474, 101: 0.0, 102: 0.0, 103: 0.0, 104: 0.0, 105: 0.0, 106: 0.11315785, 107: 0.112056, 108: 0.11204505, 109: 0.0, 110: 0.0, 111: 0.0, 112: 0.0, 113: 0.0, 114: 0.148962, 115: 0.0, 116: 0.1948665, 117: 0.1951326, 118: 0.0, 119: 0.0, 120: 0.0, 121: 0.0, 122: 0.0, 123: 0.0, 124: 0.43961428, 125: 0.0, 126: 0.0, 127: 0.0, 128: 0.0, 129: 0.0456198, 130: -0.06925056, 131: -0.01447852, 132: 0.0, 133: -0.048752, 134: 0.0, 135: 0.0, 136: 0.0, 137: 0.0, 138: -0.00989175, 139: 0.0, 140: 0.0, 141: -0.003159, 142: 0.0, 143: 0.0, 144: -0.00342225, 145: 0.0, 146: 0.0, 147: -0.0, 148: 0.0, 149: 0.0, 150: 0.009741120000000001, 151: 0.0, 152: 0.032016792, 153: 0.0, 154: 0.04201402, 155: 0.0, 156: 0.0, 157: 0.34326793, 158: 0.0, 159: 0.0, 160: 0.0, 161: 0.0, 162: 0.0, 163: 0.40668334, 164: 0.0, 165: 0.60629448, 166: 0.6197943, 167: 0.65891372, 168: 0.0, 169: 0.8878284, 170: 0.0, 171: 0.0, 172: 0.0, 173: 0.0, 174: 0.75448788, 175: 0.0, 176: 0.678727, 177: 0.5566633, 178: 0.0, 179: 0.0, 180: 0.0, 181: 0.4659236, 182: 0.0, 183: 0.0, 184: 0.0, 185: 0.0, 186: 0.0, 187: 0.0, 188: 0.0, 189: 0.0, 190: 0.3777035, 191: 0.37821891];
total_cost = 88.813448032;
total_earn = 21.640809392;
