open = [1, 1, 1, 1, 1, 1, 1, 1];
satisfied = 
[|         0.0,         0.0,       0.0, 0.0,    0.0,    0.0, 1.0, 0.11111,                 0.0, 0.0,    0.0, 1.0
 |         0.0,         1.0,       0.0, 0.0,    0.0,    0.0, 0.0,     0.0,         0.571427857, 0.0,    0.0, 0.0
 |         1.0,         0.0, 0.1501005, 1.0,    0.0,    0.0, 0.0,     0.0,         0.356998571, 0.0,    0.0, 1.0
 |         0.0,         0.0, 0.8499995, 1.0,    0.0,    0.0, 0.0,     0.0,                 0.0, 1.0,    0.0, 1.0
 | 0.999999333,         0.0,       0.0, 0.0,    0.0,    0.0, 1.0,     0.0,                 0.0, 0.0,    0.0, 0.0
 |         0.0,         1.0,       0.0, 1.0, 0.0001,    1.0, 0.0,     1.0,                 0.0, 0.0,    0.0, 0.0
 |         0.0, 0.749999167,       0.0, 0.0,    0.0,    0.0, 0.0,     0.0,                 0.0, 0.0,    1.0, 1.0
 |         1.0,         1.0,       0.0, 1.0,    1.0, 0.0001, 1.0,     0.0, 0.07167357100000001, 1.0, 0.0001, 0.0
 |];
