production = [0: 0.0, 1: 0.0, 2: 0.0, 3: 0.0, 4: 0.0, 5: 0.0, 6: 0.0, 7: 0.0, 8: 0.0, 9: 0.0, 10: 0.0, 11: 0.0, 12: 0.0, 13: 0.0, 14: 0.0, 15: 0.0, 16: 0.0, 17: 0.0, 18: 0.0, 19: 0.0, 20: 0.0, 21: 0.0, 22: 0.0, 23: 0.0003, 24: 0.0, 25: 0.0, 26: 0.0, 27: 0.149, 28: 0.1032, 29: 0.077, 30: 0.0, 31: 0.144, 32: 0.0, 33: 0.0, 34: 0.0, 35: 0.0, 36: 0.0, 37: 0.0, 38: 0.5278, 39: 0.5925, 40: 0.0, 41: 0.0, 42: 0.752, 43: 0.0, 44: 0.3915, 45: 0.0, 46: 0.0, 47: 0.0, 48: 0.39, 49: 0.4455, 50: 0.0, 51: 0.0, 52: 0.0, 53: 0.0, 54: 0.2248, 55: 0.2045, 56: 0.2105, 57: 0.0, 58: 0.1988, 59: 0.0, 60: 0.2305, 61: 0.2025, 62: 0.1722, 63: 0.1815, 64: 0.0, 65: 0.0, 66: 0.0, 67: 0.1365, 68: 0.0892, 69: 0.0, 70: 0.0, 71: 0.003, 72: 0.0, 73: 0.0, 74: 0.0, 75: 0.0, 76: 0.0, 77: 0.0, 78: 0.0, 79: 0.0, 80: 0.0, 81: 0.0, 82: 0.0, 83: 0.0, 84: 0.0, 85: 0.0, 86: 0.0, 87: 0.0, 88: 0.0, 89: 0.0, 90: 0.0, 91: 0.0, 92: 0.0, 93: 0.0, 94: 0.0, 95: 0.0, 96: 0.0, 97: 0.0, 98: 0.0, 99: 0.0, 100: 0.0, 101: 0.0, 102: 0.0, 103: 0.0, 104: 0.0, 105: 0.0, 106: 0.0, 107: 0.0, 108: 0.0, 109: 0.0, 110: 0.0, 111: 0.0, 112: 0.0, 113: 0.0, 114: 0.0, 115: 0.0, 116: 0.0, 117: 0.0, 118: 0.0, 119: 0.0003, 120: 0.0015, 121: 0.008500000000000001, 122: 0.0432, 123: 0.0, 124: 0.0, 125: 0.0, 126: 0.2303, 127: 0.0, 128: 0.3045, 129: 0.0, 130: 0.0, 131: 0.5405, 132: 0.4495, 133: 0.583, 134: 0.0, 135: 1.8858, 136: 0.0, 137: 2.0848, 138: 1.3142, 139: 0.729, 140: 0.0, 141: 2.017, 142: 0.0, 143: 1.103164583, 144: 0.0, 145: 1.1145, 146: 0.5305, 147: 0.0, 148: 1.120164583, 149: 0.5545, 150: 1.501, 151: 1.6955, 152: 0.0, 153: 0.4012, 154: 0.0, 155: 0.0, 156: 0.0, 157: 0.0, 158: 0.2893, 159: 0.0, 160: 0.0, 161: 0.0, 162: 0.0, 163: 0.099, 164: 0.115, 165: 0.0, 166: 0.058, 167: 0.0, 168: 0.0107, 169: 0.0003, 170: 0.0, 171: 0.0, 172: 0.0, 173: 0.0, 174: 0.0, 175: 0.0, 176: 0.0, 177: 0.0, 178: 0.0, 179: 0.0, 180: 0.0, 181: 0.0, 182: 0.0, 183: 0.0, 184: 0.0, 185: 0.0, 186: 0.0, 187: 0.0, 188: 0.0, 189: 0.0, 190: 0.0, 191: 0.0];
buy = [0: 1.234864583, 1: 0.0, 2: 0.0, 3: 1.238864583, 4: 1.227564583, 5: 1.225564583, 6: 1.225064583, 7: 0.225864583, 8: 1.227064583, 9: 0.615473696, 10: 1.225864583, 11: 1.212164583, 12: 1.089864583, 13: 0.089364583, 14: 0.0, 15: 0.087064583, 16: 0.0, 17: 0.0, 18: 0.0, 19: 0.08916458300000001, 20: 0.0, 21: 0.0, 22: 1.088864583, 23: 0.074364583, 24: 1.105864583, 25: 1.072364583, 26: 0.072164583, 27: 0.0, 28: 0.0, 29: 0.9945645829999999, 30: 0.0, 31: 0.0, 32: 0.0, 33: 0.0, 34: 1.070564583, 35: 0.0, 36: 1.085064583, 37: 0.0, 38: 0.568364583, 39: 0.0, 40: 1.097364583, 41: 0.104664583, 42: 0.349564583, 43: 1.364364583, 44: 0.0, 45: 0.0, 46: 0.0, 47: 0.0, 48: 0.0, 49: 1.149364583, 50: 0.0, 51: 1.115564583, 52: 1.119664583, 53: 0.916864583, 54: 1.234864583, 55: 1.262364583, 56: 0.0, 57: 1.463664583, 58: 0.0, 59: 1.467664583, 60: 0.883364583, 61: 0.0, 62: 0.921864583, 63: 0.0, 64: 0.0, 65: 0.0, 66: 0.103864583, 67: 0.966064583, 68: 0.0, 69: 1.106664583, 70: 1.143864583, 71: 1.217064583, 72: 0.078864583, 73: 0.0, 74: 0.0, 75: 0.076364583, 76: 1.078564583, 77: 0.0, 78: 0.0, 79: 0.0, 80: 1.073864583, 81: 0.0, 82: 0.0, 83: 0.07036458299999999, 84: 0.0, 85: 1.089364583, 86: 0.071064583, 87: 1.091564583, 88: 0.09206458300000001, 89: 1.252064583, 90: 1.306564583, 91: 1.308064583, 92: 0.0, 93: 0.0, 94: 1.275364583, 95: 1.245064583, 96: 0.250064583, 97: 0.0, 98: 0.0, 99: 1.205164583, 100: 0.0, 101: 0.0, 102: 0.0, 103: 0.0, 104: 0.0, 105: 0.0, 106: 0.0, 107: 0.212164583, 108: 0.0, 109: 1.218564583, 110: 0.0, 111: 1.213364583, 112: 1.495864583, 113: 0.530364583, 114: 0.558164583, 115: 0.09206458300000001, 116: 0.0, 117: 0.0, 118: 1.363864583, 119: 0.360064583, 120: 1.178664583, 121: 0.0, 122: 1.221464583, 123: 1.221064583, 124: 0.0, 125: 0.216564583, 126: 0.0, 127: 0.0, 128: 0.0, 129: 0.214864583, 130: 0.211364583, 131: 0.665364583, 132: 0.0, 133: 0.501064583, 134: 1.082664583, 135: 0.0, 136: 1.083564583, 137: 0.0, 138: 0.0, 139: 0.353364583, 140: 1.026710929, 141: 0.0, 142: 0.0, 143: 0.0, 144: 0.0, 145: 0.0, 146: 0.0, 147: 0.103164583, 148: 0.0, 149: 0.0, 150: 0.0, 151: 0.174864583, 152: 1.431364583, 153: 0.985536138, 154: 0.437864583, 155: 0.0, 156: 1.108864583, 157: 1.112864583, 158: 0.0, 159: 0.116864583, 160: 0.106664583, 161: 0.105364583, 162: 0.0, 163: 0.0, 164: 0.001064583, 165: 1.117364583, 166: 0.0, 167: 1.108864583, 168: 0.0, 169: 0.0, 170: 1.094064583, 171: 0.0, 172: 1.079664583, 173: 1.070564583, 174: 1.072364583, 175: 1.079664583, 176: 0.0, 177: 0.0, 178: 0.0, 179: 1.088364583, 180: 0.0, 181: 0.098664583, 182: 1.134364583, 183: 0.0, 184: 1.105364583, 185: 1.277364583, 186: 1.334364583, 187: 0.328664583, 188: 0.0, 189: 1.341664583, 190: 1.342664583, 191: 0.306364583];
sell = [0: 0.0, 1: 0.664635417, 2: 0.6636354169999999, 3: 0.0, 4: 0.0, 5: 0.0, 6: 0.0, 7: 0.0, 8: 0.0, 9: 0.0, 10: 0.0, 11: 0.0, 12: 0.0, 13: 0.0, 14: 0.811135417, 15: 0.0, 16: 0.8088354169999999, 17: 0.8108354169999999, 18: 0.812635417, 19: 0.0, 20: 0.812335417, 21: 0.811335417, 22: 0.0, 23: 0.0, 24: 0.0, 25: 0.0, 26: 0.0, 27: 0.076835417, 28: 0.031835417, 29: 0.0, 30: 0.829435417, 31: 0.07313541699999999, 32: 0.828935417, 33: 0.828435417, 34: 0.0, 35: 0.828635417, 36: 0.0, 37: 0.829435417, 38: 0.0, 39: 0.830425192, 40: 0.0, 41: 0.0, 42: 0.0, 43: 0.0, 44: 1.187635417, 45: 0.798935417, 46: 0.759135417, 47: 0.806435417, 48: 0.296435417, 49: 0.0, 50: 0.746135417, 51: 0.0, 52: 0.0, 53: 0.0, 54: 0.0, 55: 0.0, 56: 0.641835417, 57: 0.0, 58: 0.630935417, 59: 0.0, 60: 0.0, 61: 0.094635417, 62: 0.0, 63: 0.988935417, 64: 0.803335417, 65: 0.803335417, 66: 0.0, 67: 0.0, 68: 0.877135417, 69: 0.0, 70: 0.0, 71: 0.0, 72: 0.0, 73: 0.821635417, 74: 0.822635417, 75: 0.0, 76: 0.0, 77: 0.826335417, 78: 0.826835417, 79: 0.827335417, 80: 0.0, 81: 0.827335417, 82: 0.828935417, 83: 0.0, 84: 0.828935417, 85: 0.0, 86: 0.0, 87: 0.0, 88: 0.0, 89: 0.0, 90: 0.0, 91: 0.0, 92: 0.5901354170000001, 93: 0.0, 94: 0.0, 95: 0.0, 96: 0.0, 97: 0.647935417, 98: 0.686135417, 99: 0.0, 100: 0.695135417, 101: 0.689335417, 102: 0.690835417, 103: 0.685935417, 104: 0.686435417, 105: 0.686135417, 106: 0.681135417, 107: 0.0, 108: 0.688635417, 109: 0.0, 110: 0.684635417, 111: 0.0, 112: 0.0, 113: 0.0, 114: 0.0, 115: 0.0, 116: 0.807935417, 117: 0.0, 118: 0.0, 119: 0.0, 120: 0.0, 121: 0.644135417, 122: 0.0, 123: 0.0, 124: 0.681935417, 125: 0.0, 126: 0.910735417, 127: 0.699335417, 128: 0.090435417, 129: 0.0, 130: 0.0, 131: 0.0, 132: 0.245835417, 133: 0.0, 134: 0.0, 135: 0.800935417, 136: 0.0, 137: 2.901635417, 138: 2.132835417, 139: 0.0, 140: 0.0, 141: 2.821835417, 142: 0.803635417, 143: 0.0, 144: 0.800935417, 145: 1.911935417, 146: 0.430135417, 147: 0.0, 148: 0.0, 149: 0.682335417, 150: 1.547135417, 151: 0.0, 152: 0.0, 153: 0.0, 154: 0.0, 155: 0.496635417, 156: 0.0, 157: 0.0, 158: 1.079135417, 159: 0.0, 160: 0.0, 161: 0.0, 162: 0.0, 163: 0.870634921, 164: 0.0, 165: 0.0, 166: 0.828435417, 167: 0.0, 168: 0.584535417, 169: 0.815235417, 170: 0.0, 171: 0.806935417, 172: 0.0, 173: 0.0, 174: 0.0, 175: 0.0, 176: 0.802335417, 177: 0.8028354170000001, 178: 0.810335417, 179: 0.0, 180: 0.801335417, 181: 0.0, 182: 0.0, 183: 0.0, 184: 0.0, 185: 0.0, 186: 0.0, 187: 0.0, 188: 0.571335417, 189: 0.0, 190: 0.0, 191: 0.0];
charge = [0: 1.0, 1: 0.0, 2: 0.0, 3: 1.0, 4: 1.0, 5: 1.0, 6: 1.0, 7: 0.0, 8: 1.0, 9: 0.387609112, 10: 1.0, 11: 1.0, 12: 1.0, 13: 0.0, 14: 0.0, 15: 0.0, 16: 0.0, 17: 0.0, 18: 0.0, 19: 0.0, 20: 0.0, 21: 0.0, 22: 1.0, 23: 0.0, 24: 1.0, 25: 1.0, 26: 0.0, 27: 0.0, 28: 0.0, 29: 1.0, 30: 0.0, 31: 0.0, 32: 0.0, 33: 0.0, 34: 1.0, 35: 0.0, 36: 1.0, 37: 0.0, 38: 1.0, 39: 0.0, 40: 1.0, 41: 0.0, 42: 1.0, 43: 1.0, 44: 0.0, 45: 0.0, 46: 0.0, 47: 0.0, 48: 0.0, 49: 1.0, 50: 0.0, 51: 1.0, 52: 1.0, 53: 0.0, 54: 1.0, 55: 1.0, 56: 0.0, 57: 1.0, 58: 0.0, 59: 1.0, 60: 1.0, 61: 0.0, 62: 1.0, 63: 0.0, 64: 0.0, 65: 0.0, 66: 0.0, 67: 1.0, 68: 0.0, 69: 1.0, 70: 1.0, 71: 1.0, 72: 0.0, 73: 0.0, 74: 0.0, 75: 0.0, 76: 1.0, 77: 0.0, 78: 0.0, 79: 0.0, 80: 1.0, 81: 0.0, 82: 0.0, 83: 0.0, 84: 0.0, 85: 1.0, 86: 0.0, 87: 1.0, 88: 0.0, 89: 1.0, 90: 1.0, 91: 1.0, 92: 0.0, 93: 0.0, 94: 1.0, 95: 1.0, 96: 0.0, 97: 0.0, 98: 0.0, 99: 1.0, 100: 0.0, 101: 0.0, 102: 0.0, 103: 0.0, 104: 0.0, 105: 0.0, 106: 0.0, 107: 0.0, 108: 0.0, 109: 1.0, 110: 0.0, 111: 1.0, 112: 1.0, 113: 0.0, 114: 0.0, 115: 0.0, 116: 0.0, 117: 0.0, 118: 1.0, 119: 0.0, 120: 0.0, 121: 0.0, 122: 1.0, 123: 1.0, 124: 0.0, 125: 0.0, 126: 0.0, 127: 0.0, 128: 0.0, 129: 0.0, 130: 0.0, 131: 1.0, 132: 0.0, 133: 1.0, 134: 1.0, 135: 1.0, 136: 1.0, 137: 0.0, 138: 0.0, 139: 1.0, 140: 0.910646345, 141: 0.0, 142: 0.0, 143: 1.0, 144: 0.0, 145: 0.0, 146: 0.0, 147: 0.0, 148: 1.0, 149: 0.0, 150: 0.0, 151: 1.0, 152: 1.0, 153: 0.949671555, 154: 0.0, 155: 0.0, 156: 1.0, 157: 1.0, 158: 0.0, 159: 0.0, 160: 0.0, 161: 0.0, 162: 0.0, 163: 0.0, 164: 0.0, 165: 1.0, 166: 0.0, 167: 1.0, 168: 0.0, 169: 0.0, 170: 1.0, 171: 0.0, 172: 1.0, 173: 1.0, 174: 1.0, 175: 1.0, 176: 0.0, 177: 0.0, 178: 0.0, 179: 1.0, 180: 0.0, 181: 0.0, 182: 1.0, 183: 0.0, 184: 1.0, 185: 1.0, 186: 1.0, 187: 0.0, 188: 0.0, 189: 1.0, 190: 1.0, 191: 0.0];
discharge = [0: 0.0, 1: 1.0, 2: 1.0, 3: 0.0, 4: 0.0, 5: 0.0, 6: 0.0, 7: 0.0, 8: 0.0, 9: 0.0, 10: 0.0, 11: 0.0, 12: 0.0, 13: 0.0, 14: 1.0, 15: 0.0, 16: 1.0, 17: 1.0, 18: 1.0, 19: 0.0, 20: 1.0, 21: 1.0, 22: 0.0, 23: 0.0, 24: 0.0, 25: 0.0, 26: 0.0, 27: 0.0, 28: 0.0, 29: 0.0, 30: 1.0, 31: 0.0, 32: 1.0, 33: 1.0, 34: 0.0, 35: 1.0, 36: 0.0, 37: 1.0, 38: 0.0, 39: 0.370321972, 40: 0.0, 41: 0.0, 42: 0.0, 43: 0.0, 44: 1.0, 45: 1.0, 46: 1.0, 47: 1.0, 48: 0.0, 49: 0.0, 50: 1.0, 51: 0.0, 52: 0.0, 53: 0.0, 54: 0.0, 55: 0.0, 56: 1.0, 57: 0.0, 58: 1.0, 59: 0.0, 60: 0.0, 61: 0.0, 62: 0.0, 63: 1.0, 64: 1.0, 65: 1.0, 66: 0.0, 67: 0.0, 68: 1.0, 69: 0.0, 70: 0.0, 71: 0.0, 72: 0.0, 73: 1.0, 74: 1.0, 75: 0.0, 76: 0.0, 77: 1.0, 78: 1.0, 79: 1.0, 80: 0.0, 81: 1.0, 82: 1.0, 83: 0.0, 84: 1.0, 85: 0.0, 86: 0.0, 87: 0.0, 88: 0.0, 89: 0.0, 90: 0.0, 91: 0.0, 92: 1.0, 93: 0.343405093, 94: 0.0, 95: 0.0, 96: 0.0, 97: 1.0, 98: 1.0, 99: 0.0, 100: 1.0, 101: 1.0, 102: 1.0, 103: 1.0, 104: 1.0, 105: 1.0, 106: 1.0, 107: 0.0, 108: 1.0, 109: 0.0, 110: 1.0, 111: 0.0, 112: 0.0, 113: 0.0, 114: 0.0, 115: 0.0, 116: 1.0, 117: 0.173516204, 118: 0.0, 119: 0.0, 120: 0.0, 121: 1.0, 122: 0.0, 123: 0.0, 124: 1.0, 125: 0.0, 126: 1.0, 127: 1.0, 128: 0.0, 129: 0.0, 130: 0.0, 131: 0.0, 132: 0.0, 133: 0.0, 134: 0.0, 135: 0.0, 136: 0.0, 137: 1.0, 138: 1.0, 139: 0.0, 140: 0.0, 141: 1.0, 142: 1.0, 143: 0.0, 144: 1.0, 145: 1.0, 146: 0.0, 147: 0.0, 148: 0.0, 149: 1.0, 150: 1.0, 151: 0.0, 152: 0.0, 153: 0.0, 154: 0.0, 155: 1.0, 156: 0.0, 157: 0.0, 158: 1.0, 159: 0.0, 160: 0.0, 161: 0.0, 162: 0.135960648, 163: 1.0, 164: 0.0, 165: 0.0, 166: 1.0, 167: 0.0, 168: 1.0, 169: 1.0, 170: 0.0, 171: 1.0, 172: 0.0, 173: 0.0, 174: 0.0, 175: 0.0, 176: 1.0, 177: 1.0, 178: 1.0, 179: 0.0, 180: 1.0, 181: 0.0, 182: 0.0, 183: 0.10018287, 184: 0.0, 185: 0.0, 186: 0.0, 187: 0.0, 188: 1.0, 189: 0.0, 190: 0.0, 191: 0.0];
soc = [0: 10.14815, 1: 9.14612037, 2: 8.144291146, 3: 9.042662288000001, 4: 9.940853754999999, 5: 10.838865584, 6: 11.736697811, 7: 11.734350472, 8: 12.632003602, 9: 12.978325402, 10: 13.875729737, 11: 14.772954591, 12: 15.67, 13: 15.666866, 14: 14.663732627, 15: 14.66079988, 16: 13.65786772, 17: 12.655136147, 18: 11.65260512, 19: 11.650274599, 20: 10.647944544, 21: 9.645814955000001, 22: 10.543885792, 23: 10.541777015, 24: 11.439668659, 25: 12.337380725, 26: 12.334913249, 27: 12.332446267, 28: 12.329979777, 29: 13.227513781, 30: 12.224868279, 31: 12.222423305, 32: 11.21997882, 33: 10.217734825, 34: 11.115691278, 35: 10.113468139, 36: 11.011445446, 37: 10.009243157, 38: 10.907241308, 39: 10.534737887, 40: 11.43263094, 41: 11.430344414, 42: 12.328058345, 43: 13.225592733, 44: 12.222947614, 45: 11.220503025, 46: 10.218258924, 47: 9.216215273, 48: 9.21437203, 49: 10.112529155, 50: 9.110506649, 51: 10.008684548, 52: 10.906682811, 53: 10.904501474, 54: 11.802320574, 55: 12.69996011, 56: 11.697420118, 57: 12.595080634, 58: 11.592561618, 59: 12.490243106, 60: 13.387745057, 61: 13.385067508, 62: 14.282390494, 63: 13.279534016, 64: 12.27687811, 65: 11.274422734, 66: 11.272167849, 67: 12.169913416, 68: 11.167479433, 69: 12.065245937, 70: 12.962832888, 71: 13.860240321, 72: 13.857468273, 73: 12.85469678, 74: 11.85212584, 75: 11.849755415, 76: 12.747385464, 77: 11.744835987, 78: 10.74248702, 79: 9.740338522, 80: 10.638390455, 81: 9.636262777000001, 82: 8.634335524000001, 83: 8.632608657, 84: 7.630882135, 85: 8.529355959, 86: 8.527650088, 87: 9.425944557999999, 88: 9.424059369, 89: 10.322174557, 90: 11.220110122, 91: 12.1178661, 92: 11.115442527, 93: 10.769814346, 94: 11.667660383, 95: 12.565326851, 96: 12.562813785, 97: 11.560301223, 98: 10.557989162, 99: 11.455877564, 100: 10.453586389, 101: 9.451495672, 102: 8.449605373000001, 103: 7.447915451, 104: 6.446425868, 105: 5.445136583, 106: 4.444047556, 107: 4.443158746, 108: 3.442270115, 109: 4.341581661, 110: 3.340713344, 111: 4.240045202, 112: 5.139197193, 113: 5.138169353, 114: 5.137141719, 115: 5.136114291, 116: 4.135087068, 117: 3.960743847, 118: 4.859951698, 119: 4.858979708, 120: 4.858007912, 121: 3.85703631, 122: 4.756264903, 123: 5.65531365, 124: 4.654182587, 125: 4.653251751, 126: 3.6523211, 127: 2.651590636, 128: 2.651060318, 129: 2.650530106, 130: 2.65, 131: 3.54947, 132: 3.548760106, 133: 4.448050354, 134: 5.347160744, 135: 6.246091312, 136: 7.144842093, 137: 6.143413125, 138: 5.142184442, 139: 6.041156006, 140: 6.859529485, 141: 5.858157579, 142: 4.856985948, 143: 5.756014551, 144: 4.754863348, 145: 3.753912375, 146: 3.753161593, 147: 3.75241096, 148: 4.651660478, 149: 3.650730146, 150: 2.65, 151: 3.54947, 152: 4.448760106, 153: 5.302574753, 154: 5.301514238, 155: 4.300453936, 156: 5.199593845, 157: 6.098553926, 158: 5.097334215, 159: 5.096314748, 160: 5.095295485, 161: 5.094276426, 162: 4.957296923, 163: 3.956305464, 164: 3.955514202, 165: 4.8547231, 166: 3.853752155, 167: 4.752981405, 168: 3.752030808, 169: 2.751280402, 170: 3.650730146, 171: 2.65, 172: 3.54947, 173: 4.448760106, 174: 5.347870354, 175: 6.24680078, 176: 5.24555142, 177: 4.244502309, 178: 3.243653409, 179: 4.143004678, 180: 3.142176077, 181: 3.141547642, 182: 4.040919333, 183: 3.939928278, 184: 4.839140293, 185: 5.738172465, 186: 6.63702483, 187: 6.635697425, 188: 5.634370286, 189: 6.533243412, 190: 7.431936763, 191: 7.430450376];
cost = [0: 0.872556939, 1: 0.0, 2: 0.0, 3: 0.875000539, 4: 0.868097369, 5: 0.866875569, 6: 0.866570119, 7: 0.137980674, 8: 0.867791919, 9: 0.421799814, 10: 0.867058839, 11: 0.858689509, 12: 0.783976439, 13: 0.054592824, 14: 0.0, 15: 0.053187754, 16: 0.0, 17: 0.0, 18: 0.0, 19: 0.054470644, 20: 0.0, 21: 0.0, 22: 0.7833655390000001, 23: 0.045429324, 24: 1.433714674, 25: 1.393863074, 26: 0.085846988, 27: 0.0, 28: 0.0, 29: 1.301312194, 30: 0.0, 31: 0.0, 32: 0.0, 33: 0.0, 34: 1.391721794, 35: 0.0, 36: 1.408970994, 37: 0.0, 38: 0.794304674, 39: 0.0, 40: 1.423603074, 41: 0.124508988, 42: 0.534020194, 43: 1.741226274, 44: 0.0, 45: 0.0, 46: 0.0, 47: 0.0, 48: 0.0, 49: 1.485462274, 50: 0.0, 51: 1.445253794, 52: 0.802181259, 53: 0.560112574, 54: 0.872556939, 55: 0.889356689, 56: 0.0, 57: 1.012330859, 58: 0.0, 59: 1.014774459, 60: 1.169028674, 61: 0.0, 62: 1.214828274, 63: 0.0, 64: 0.0, 65: 0.0, 66: 0.123557308, 67: 1.267408594, 68: 0.0, 69: 1.434666354, 70: 1.478919474, 71: 1.565998194, 72: 0.093817308, 73: 0.0, 74: 0.0, 75: 0.090843308, 76: 1.401238594, 77: 0.0, 78: 0.0, 79: 0.0, 80: 1.395647474, 81: 0.0, 82: 0.0, 83: 0.083705708, 84: 0.0, 85: 1.414086274, 86: 0.084538428, 87: 1.416703394, 88: 0.056242254, 89: 0.883064419, 90: 0.916358469, 91: 0.917274819, 92: 0.0, 93: 0.0, 94: 0.897298389, 95: 0.878788119, 96: 0.152764454, 97: 0.0, 98: 0.0, 99: 0.854413209, 100: 0.0, 101: 0.0, 102: 0.0, 103: 0.0, 104: 0.0, 105: 0.0, 106: 0.0, 107: 0.129611344, 108: 0.0, 109: 0.8625992689999999, 110: 0.0, 111: 0.859422589, 112: 1.032001839, 113: 0.323999724, 114: 0.340982744, 115: 0.056242254, 116: 0.0, 117: 0.0, 118: 0.951363039, 119: 0.219963454, 120: 1.402139388, 121: 0.0, 122: 1.571232434, 123: 1.570756594, 124: 0.0, 125: 0.257625228, 126: 0.0, 127: 0.0, 128: 0.0, 129: 0.255602908, 130: 0.251439308, 131: 0.909695874, 132: 0.0, 133: 0.714244594, 134: 1.406115954, 135: 0.118178165, 136: 1.407186594, 137: 0.0, 138: 0.0, 139: 0.5385406740000001, 140: 1.328993835, 141: 0.0, 142: 0.0, 143: 0.118178165, 144: 0.0, 145: 0.0, 146: 0.0, 147: 0.122724588, 148: 0.118178165, 149: 0.0, 150: 0.0, 151: 0.225002939, 152: 0.992598789, 153: 0.714294469, 154: 0.267491474, 155: 0.0, 156: 1.437283474, 157: 1.442041874, 158: 0.0, 159: 0.139022108, 160: 0.126888188, 161: 0.125341708, 162: 0.0, 163: 0.0, 164: 0.001266428, 165: 1.447395074, 166: 0.0, 167: 1.437283474, 168: 0.0, 169: 0.0, 170: 1.419677394, 171: 0.0, 172: 1.402547154, 173: 1.391721794, 174: 1.393863074, 175: 1.402547154, 176: 0.0, 177: 0.0, 178: 0.0, 179: 1.412896674, 180: 0.0, 181: 0.117371388, 182: 1.467618274, 183: 0.0, 184: 0.7934453889999999, 185: 0.898520189, 186: 0.933341489, 187: 0.200781194, 188: 0.0, 189: 0.937801059, 190: 0.938411959, 191: 0.187158124];
earn = [0: 0.0, 1: 0.505920479, 2: 0.491820207, 3: 0.0, 4: 0.0, 5: 0.0, 6: 0.0, 7: 0.0, 8: 0.0, 9: 0.0, 10: 0.0, 11: 0.0, 12: 0.0, 13: 0.0, 14: 0.588316518, 15: 0.0, 16: 0.574839331, 17: 0.587288092, 18: 0.596311869, 19: 0.0, 20: 0.620055624, 21: 0.63868324, 22: 0.0, 23: 0.0, 24: 0.0, 25: 0.0, 26: 0.0, 27: 0.070796153, 28: 0.031275113, 29: 0.0, 30: 0.77751276, 31: 0.067240702, 32: 0.718687006, 33: 0.724301085, 34: 0.0, 35: 0.6223051979999999, 36: 0.0, 37: 0.635513416, 38: 0.0, 39: 0.582543272, 40: 0.0, 41: 0.0, 42: 0.0, 43: 0.0, 44: 0.690847522, 45: 0.447403833, 46: 0.424584439, 47: 0.452087695, 48: 0.152219586, 49: 0.0, 50: 0.390079596, 51: 0.0, 52: 0.0, 53: 0.0, 54: 0.0, 55: 0.0, 56: 0.387861142, 57: 0.0, 58: 0.412063921, 59: 0.0, 60: 0.0, 61: 0.06709651, 62: 0.0, 63: 0.746151772, 64: 0.5554261069999999, 65: 0.627565628, 66: 0.0, 67: 0.0, 68: 0.751354198, 69: 0.0, 70: 0.0, 71: 0.0, 72: 0.0, 73: 0.976102875, 74: 1.011841563, 75: 0.0, 76: 0.0, 77: 0.9750757920000001, 78: 0.944246046, 79: 0.917514977, 80: 0.0, 81: 0.743278138, 82: 0.720510664, 83: 0.0, 84: 0.65510766, 85: 0.0, 86: 0.0, 87: 0.0, 88: 0.0, 89: 0.0, 90: 0.0, 91: 0.0, 92: 0.472167347, 93: 0.0, 94: 0.0, 95: 0.0, 96: 0.0, 97: 0.503445819, 98: 0.517757785, 99: 0.0, 100: 0.492155875, 101: 0.505696462, 102: 0.490147728, 103: 0.481320882, 104: 0.466570153, 105: 0.466366243, 106: 0.462831516, 107: 0.0, 108: 0.46840981, 109: 0.0, 110: 0.470618385, 111: 0.0, 112: 0.0, 113: 0.0, 114: 0.0, 115: 0.0, 116: 0.5868842869999999, 117: 0.0, 118: 0.0, 119: 0.0, 120: 0.0, 121: 0.491088842, 122: 0.0, 123: 0.0, 124: 0.513565562, 125: 0.0, 126: 0.604090802, 127: 0.410789624, 128: 0.053447331, 129: 0.0, 130: 0.0, 131: 0.0, 132: 0.097965414, 133: 0.0, 134: 0.0, 135: 0.175324763, 136: 0.0, 137: 0.448592835, 138: 0.262125473, 139: 0.0, 140: 0.0, 141: 0.022574683, 142: 0.00498254, 143: 0.0, 144: -0.032598071, 145: -0.07972770699999999, 146: -0.005806828, 147: 0.0, 148: 0.0, 149: -0.003752845, 150: 0.01701849, 151: 0.0, 152: 0.0, 153: 0.0, 154: 0.0, 155: 0.144918215, 156: 0.0, 157: 0.0, 158: 0.53686987, 159: 0.0, 160: 0.0, 161: 0.0, 162: 0.0, 163: 0.624680911, 164: 0.0, 165: 0.0, 166: 0.673766524, 167: 0.0, 168: 0.518482915, 169: 0.741864229, 170: 0.0, 171: 0.7309221, 172: 0.0, 173: 0.0, 174: 0.0, 175: 0.0, 176: 0.647404448, 177: 0.626051058, 178: 0.609777401, 179: 0.0, 180: 0.560373857, 181: 0.0, 182: 0.0, 183: 0.0, 184: 0.0, 185: 0.0, 186: 0.0, 187: 0.0, 188: 0.339030436, 189: 0.0, 190: 0.0, 191: 0.0];
total_cost = 88.904388115;
total_earn = 38.000024889;
