production = [0: 0.0, 1: 0.0, 2: 0.0, 3: 0.0, 4: 0.0, 5: 0.0, 6: 0.0, 7: 0.0, 8: 0.0, 9: 0.0, 10: 0.0, 11: 0.0, 12: 0.0, 13: 0.0, 14: 0.0, 15: 0.0, 16: 0.0, 17: 0.0, 18: 0.0, 19: 0.0, 20: 0.0, 21: 0.0, 22: 0.0, 23: 0.0003, 24: 0.0005, 25: 0.038, 26: 0.0, 27: 0.149, 28: 0.0, 29: 0.0, 30: 0.1355, 31: 0.144, 32: 0.1055, 33: 0.1573, 34: 0.0, 35: 0.0, 36: 0.2767, 37: 0.3555, 38: 0.5278, 39: 0.5925, 40: 0.0, 41: 0.8782, 42: 0.0, 43: 0.0, 44: 0.3915, 45: 0.4422, 46: 0.0, 47: 0.0, 48: 0.0, 49: 0.0, 50: 0.0, 51: 0.2878, 52: 0.3177, 53: 0.0, 54: 0.2248, 55: 0.2045, 56: 0.0, 57: 0.199, 58: 0.1988, 59: 0.2062, 60: 0.2305, 61: 0.2025, 62: 0.0, 63: 0.1815, 64: 0.0, 65: 0.2367, 66: 0.1727, 67: 0.0, 68: 0.0, 69: 0.0505, 70: 0.0182, 71: 0.0, 72: 0.0, 73: 0.0, 74: 0.0, 75: 0.0, 76: 0.0, 77: 0.0, 78: 0.0, 79: 0.0, 80: 0.0, 81: 0.0, 82: 0.0, 83: 0.0, 84: 0.0, 85: 0.0, 86: 0.0, 87: 0.0, 88: 0.0, 89: 0.0, 90: 0.0, 91: 0.0, 92: 0.0, 93: 0.0, 94: 0.0, 95: 0.0, 96: 0.0, 97: 0.0, 98: 0.0, 99: 0.0, 100: 0.0, 101: 0.0, 102: 0.0, 103: 0.0, 104: 0.0, 105: 0.0, 106: 0.0, 107: 0.0, 108: 0.0, 109: 0.0, 110: 0.0, 111: 0.0, 112: 0.0, 113: 0.0, 114: 0.0, 115: 0.0, 116: 0.0, 117: 0.0, 118: 0.0, 119: 0.0, 120: 0.0, 121: 0.0, 122: 0.0432, 123: 0.0, 124: 0.1205, 125: 0.1938, 126: 0.0, 127: 0.0, 128: 0.0, 129: 0.0, 130: 0.0, 131: 0.5405, 132: 0.4495, 133: 0.0, 134: 1.4868, 135: 0.0, 136: 1.5822, 137: 2.0848, 138: 1.3142, 139: 0.0, 140: 0.0, 141: 2.017, 142: 2.0035, 143: 0.0, 144: 2.108, 145: 1.1145, 146: 0.0, 147: 1.8787, 148: 1.1298, 149: 0.5545, 150: 0.0, 151: 1.6955, 152: 0.0, 153: 0.4012, 154: 0.0, 155: 0.0, 156: 1.2377, 157: 0.0, 158: 0.0, 159: 0.9045, 160: 0.0, 161: 0.4507, 162: 0.0, 163: 0.0, 164: 0.115, 165: 0.0828, 166: 0.0, 167: 0.0307, 168: 0.0, 169: 0.0, 170: 0.0, 171: 0.0, 172: 0.0, 173: 0.0, 174: 0.0, 175: 0.0, 176: 0.0, 177: 0.0, 178: 0.0, 179: 0.0, 180: 0.0, 181: 0.0, 182: 0.0, 183: 0.0, 184: 0.0, 185: 0.0, 186: 0.0, 187: 0.0, 188: 0.0, 189: 0.0, 190: 0.0, 191: 0.0];
buy = [0: 0.0, 1: 0.0, 2: 0.0, 3: 0.238864583, 4: 1.227564583, 5: 0.225564583, 6: 0.0, 7: 0.0, 8: 0.0, 9: 1.227864583, 10: 0.225864583, 11: 0.212164583, 12: 0.089864583, 13: 1.089364583, 14: 0.088864583, 15: 1.087064583, 16: 1.091164583, 17: 0.0, 18: 1.087364583, 19: 1.089164583, 20: 1.087664583, 21: 0.0, 22: 0.0, 23: 0.074364583, 24: 1.105364583, 25: 1.034364583, 26: 1.072164583, 27: 0.923164583, 28: 1.071364583, 29: 1.071564583, 30: 0.0, 31: 0.926864583, 32: 0.0, 33: 0.0, 34: 0.0, 35: 0.0, 36: 0.0, 37: 0.0, 38: 0.568364583, 39: 0.0, 40: 0.0, 41: 0.226464583, 42: 0.101564583, 43: 1.364364583, 44: 0.7123645830000001, 45: 0.6588645829999999, 46: 1.140864583, 47: 0.0, 48: 0.09356458300000001, 49: 1.594864583, 50: 0.0, 51: 0.0, 52: 0.801964583, 53: 1.916864583, 54: 0.234864583, 55: 1.262364583, 56: 0.468664583, 57: 0.0, 58: 0.0, 59: 0.261464583, 60: 0.0, 61: 0.905364583, 62: 1.094064583, 63: 0.0, 64: 0.0, 65: 0.0, 66: 0.0, 67: 0.0, 68: 1.112064583, 69: 0.0, 70: 0.0, 71: 0.0, 72: 0.0, 73: 1.078364583, 74: 0.0, 75: 0.0, 76: 0.0, 77: 0.0, 78: 1.073164583, 79: 0.0, 80: 1.073864583, 81: 0.0, 82: 0.0, 83: 0.0, 84: 0.071064583, 85: 1.089364583, 86: 0.0, 87: 1.091564583, 88: 0.09206458300000001, 89: 1.252064583, 90: 0.0, 91: 1.308064583, 92: 0.309864583, 93: 0.0, 94: 0.275364583, 95: 0.0, 96: 0.250064583, 97: 1.252064583, 98: 1.213864583, 99: 0.0, 100: 1.204864583, 101: 0.0, 102: 1.209164583, 103: 0.0, 104: 1.213564583, 105: 0.0, 106: 0.0, 107: 0.212164583, 108: 1.211364583, 109: 1.218564583, 110: 0.0, 111: 1.213364583, 112: 0.0, 113: 1.530364583, 114: 0.0, 115: 0.0, 116: 0.435609478, 117: 1.156164583, 118: 1.363864583, 119: 0.360364583, 120: 0.280164583, 121: 0.264364583, 122: 0.221464583, 123: 0.221064583, 124: 1.097564583, 125: 0.0, 126: 0.219564583, 127: 0.0, 128: 1.214064583, 129: 1.214864583, 130: 1.211364583, 131: 0.665364583, 132: 0.754164583, 133: 1.084064583, 134: 0.0, 135: 0.08486458299999999, 136: 0.0, 137: 0.0, 138: 0.0, 139: 0.08236458300000001, 140: 1.116064583, 141: 0.0, 142: 0.0, 143: 0.0, 144: 0.0, 145: 0.0, 146: 1.100364583, 147: 0.0, 148: 0.0, 149: 1.217664583, 150: 0.853864583, 151: 0.094558188, 152: 0.431364583, 153: 1.035864583, 154: 0.0, 155: 0.403364583, 156: 0.0, 157: 0.0, 158: 0.110164583, 159: 0.212364583, 160: 0.0, 161: 0.0, 162: 1.122364583, 163: 1.128364583, 164: 0.0, 165: 0.0, 166: 1.129564583, 167: 0.0, 168: 1.326164583, 169: 1.085064583, 170: 1.094064583, 171: 1.093064583, 172: 0.0, 173: 0.070564583, 174: 0.072364583, 175: 0.079664583, 176: 1.097664583, 177: 1.097164583, 178: 0.08966458300000001, 179: 0.088364583, 180: 1.098664583, 181: 1.098664583, 182: 0.134364583, 183: 0.0, 184: 0.105364583, 185: 0.0, 186: 1.334364583, 187: 0.328664583, 188: 0.328664583, 189: 1.341664583, 190: 0.0, 191: 0.0];
sell = [0: 0.0, 1: 0.664635417, 2: 0.6636354169999999, 3: 0.0, 4: 0.0, 5: 0.0, 6: 0.674935417, 7: 0.674135417, 8: 0.672935417, 9: 0.0, 10: 0.0, 11: 0.0, 12: 0.0, 13: 0.0, 14: 0.0, 15: 0.0, 16: 0.0, 17: 0.8108354169999999, 18: 0.0, 19: 0.0, 20: 0.0, 21: 0.0, 22: 0.811135417, 23: 0.0, 24: 0.0, 25: 0.0, 26: 0.0, 27: 0.0, 28: 0.0, 29: 0.0, 30: 0.964935417, 31: 0.0, 32: 0.034435417, 33: 0.08573541699999999, 34: 0.829435417, 35: 0.828635417, 36: 1.091635417, 37: 0.284935417, 38: 0.0, 39: 1.397135417, 40: 0.802635417, 41: 0.0, 42: 0.0, 43: 0.0, 44: 0.0, 45: 0.0, 46: 0.0, 47: 0.806435417, 48: 0.0, 49: 0.0, 50: 0.746135417, 51: 1.072235417, 52: 0.0, 53: 0.0, 54: 0.0, 55: 0.0, 56: 0.0, 57: 0.635335417, 58: 0.07552342200000001, 59: 0.0, 60: 0.116635417, 61: 0.0, 62: 0.0, 63: 0.988935417, 64: 0.803335417, 65: 1.040035417, 66: 0.068835417, 67: 0.122069319, 68: 0.0, 69: 0.843835417, 70: 0.774335417, 71: 0.679935417, 72: 0.821135417, 73: 0.0, 74: 0.822635417, 75: 0.823635417, 76: 0.821435417, 77: 0.826335417, 78: 0.0, 79: 0.827335417, 80: 0.0, 81: 0.827335417, 82: 0.828935417, 83: 0.829635417, 84: 0.0, 85: 0.0, 86: 0.828935417, 87: 0.0, 88: 0.0, 89: 0.0, 90: 0.593435417, 91: 0.0, 92: 0.0, 93: 0.590935417, 94: 0.0, 95: 0.654935417, 96: 0.0, 97: 0.0, 98: 0.0, 99: 0.694835417, 100: 0.0, 101: 0.689335417, 102: 0.0, 103: 0.685935417, 104: 0.0, 105: 0.686135417, 106: 0.681135417, 107: 0.0, 108: 0.0, 109: 0.0, 110: 0.684635417, 111: 0.0, 112: 0.404135417, 113: 0.0, 114: 0.341835417, 115: 0.807935417, 116: 0.0, 117: 0.0, 118: 0.0, 119: 0.0, 120: 0.0, 121: 0.0, 122: 0.0, 123: 0.0, 124: 0.0, 125: 0.877235417, 126: 0.0, 127: 0.699335417, 128: 0.0, 129: 0.0, 130: 0.0, 131: 0.0, 132: 0.0, 133: 0.0, 134: 1.404135417, 135: 0.0, 136: 0.498635417, 137: 1.001635417, 138: 0.232835417, 139: 0.0, 140: 0.0, 141: 2.821835417, 142: 2.807135417, 143: 0.796835417, 144: 2.908935417, 145: 1.911935417, 146: 0.0, 147: 0.7755354169999999, 148: 0.009635417, 149: 0.0, 150: 0.0, 151: 0.0, 152: 0.0, 153: 0.0, 154: 0.462135417, 155: 0.0, 156: 1.128835417, 157: 0.787135417, 158: 0.0, 159: 0.0, 160: 0.793335417, 161: 0.345335417, 162: 0.0, 163: 0.0, 164: 0.898935417, 165: 0.865435417, 166: 0.0, 167: 0.821835417, 168: 0.0, 169: 0.0, 170: 0.0, 171: 0.0, 172: 0.820335417, 173: 0.0, 174: 0.0, 175: 0.0, 176: 0.0, 177: 0.0, 178: 0.0, 179: 0.0, 180: 0.0, 181: 0.0, 182: 0.0, 183: 0.8098354169999999, 184: 0.0, 185: 0.622635417, 186: 0.0, 187: 0.0, 188: 0.0, 189: 0.0, 190: 0.557335417, 191: 0.593635417];
charge = [0: 0.0, 1: 0.0, 2: 0.0, 3: 0.0, 4: 1.0, 5: 0.0, 6: 0.0, 7: 0.0, 8: 0.0, 9: 1.0, 10: 0.0, 11: 0.0, 12: 0.0, 13: 1.0, 14: 0.0, 15: 1.0, 16: 1.0, 17: 0.0, 18: 1.0, 19: 1.0, 20: 1.0, 21: 0.0, 22: 0.0, 23: 0.0, 24: 1.0, 25: 1.0, 26: 1.0, 27: 1.0, 28: 1.0, 29: 1.0, 30: 0.0, 31: 1.0, 32: 0.0, 33: 0.0, 34: 0.0, 35: 0.0, 36: 0.0, 37: 0.0, 38: 1.0, 39: 0.0, 40: 0.0, 41: 1.0, 42: 0.0, 43: 1.0, 44: 1.0, 45: 1.0, 46: 1.0, 47: 0.0, 48: 0.0, 49: 1.0, 50: 0.0, 51: 0.0, 52: 1.0, 53: 1.0, 54: 0.0, 55: 1.0, 56: 0.0, 57: 0.0, 58: 0.0, 59: 0.0, 60: 0.0, 61: 1.0, 62: 1.0, 63: 0.0, 64: 0.0, 65: 0.0, 66: 0.0, 67: 0.0, 68: 1.0, 69: 0.0, 70: 0.0, 71: 0.0, 72: 0.0, 73: 1.0, 74: 0.0, 75: 0.0, 76: 0.0, 77: 0.0, 78: 1.0, 79: 0.0, 80: 1.0, 81: 0.0, 82: 0.0, 83: 0.0, 84: 0.0, 85: 1.0, 86: 0.0, 87: 1.0, 88: 0.0, 89: 1.0, 90: 0.0, 91: 1.0, 92: 0.0, 93: 0.0, 94: 0.0, 95: 0.0, 96: 0.0, 97: 1.0, 98: 1.0, 99: 0.0, 100: 1.0, 101: 0.0, 102: 1.0, 103: 0.0, 104: 1.0, 105: 0.0, 106: 0.0, 107: 0.0, 108: 1.0, 109: 1.0, 110: 0.0, 111: 1.0, 112: 0.0, 113: 1.0, 114: 0.0, 115: 0.0, 116: 0.343544894, 117: 1.0, 118: 1.0, 119: 0.0, 120: 0.0, 121: 0.0, 122: 0.0, 123: 0.0, 124: 1.0, 125: 0.0, 126: 0.0, 127: 0.0, 128: 1.0, 129: 1.0, 130: 1.0, 131: 1.0, 132: 1.0, 133: 1.0, 134: 0.0, 135: 0.0, 136: 1.0, 137: 1.0, 138: 1.0, 139: 0.0, 140: 1.0, 141: 0.0, 142: 0.0, 143: 0.0, 144: 0.0, 145: 0.0, 146: 1.0, 147: 1.0, 148: 1.0, 149: 1.0, 150: 0.0, 151: 0.919693605, 152: 0.0, 153: 1.0, 154: 0.0, 155: 0.0, 156: 0.0, 157: 0.0, 158: 0.0, 159: 1.0, 160: 0.0, 161: 0.0, 162: 1.0, 163: 1.0, 164: 0.0, 165: 0.0, 166: 1.0, 167: 0.0, 168: 1.0, 169: 1.0, 170: 1.0, 171: 1.0, 172: 0.0, 173: 0.0, 174: 0.0, 175: 0.0, 176: 1.0, 177: 1.0, 178: 0.0, 179: 0.0, 180: 1.0, 181: 1.0, 182: 0.0, 183: 0.0, 184: 0.0, 185: 0.0, 186: 1.0, 187: 0.0, 188: 0.0, 189: 1.0, 190: 0.0, 191: 0.0];
discharge = [0: 0.260960648, 1: 1.0, 2: 1.0, 3: 0.0, 4: 0.0, 5: 0.0, 6: 1.0, 7: 1.0, 8: 1.0, 9: 0.0, 10: 0.0, 11: 0.0, 12: 0.0, 13: 0.0, 14: 0.0, 15: 0.0, 16: 0.0, 17: 1.0, 18: 0.0, 19: 0.0, 20: 0.0, 21: 0.098516204, 22: 1.0, 23: 0.0, 24: 0.0, 25: 0.0, 26: 0.0, 27: 0.0, 28: 0.0, 29: 0.0, 30: 1.0, 31: 0.0, 32: 0.0, 33: 0.0, 34: 1.0, 35: 1.0, 36: 1.0, 37: 0.0, 38: 0.0, 39: 1.0, 40: 1.0, 41: 0.0, 42: 0.0, 43: 0.0, 44: 0.0, 45: 0.0, 46: 0.0, 47: 1.0, 48: 0.0, 49: 0.0, 50: 1.0, 51: 1.0, 52: 0.0, 53: 0.0, 54: 0.0, 55: 0.0, 56: 0.0, 57: 1.0, 58: 0.382875561, 59: 0.0, 60: 0.0, 61: 0.0, 62: 0.0, 63: 1.0, 64: 1.0, 65: 1.0, 66: 0.0, 67: 0.249593225, 68: 0.0, 69: 1.0, 70: 1.0, 71: 1.0, 72: 1.0, 73: 0.0, 74: 1.0, 75: 1.0, 76: 1.0, 77: 1.0, 78: 0.0, 79: 1.0, 80: 0.0, 81: 1.0, 82: 1.0, 83: 1.0, 84: 0.0, 85: 0.0, 86: 1.0, 87: 0.0, 88: 0.0, 89: 0.0, 90: 1.0, 91: 0.0, 92: 0.0, 93: 1.0, 94: 0.0, 95: 1.0, 96: 0.0, 97: 0.0, 98: 0.0, 99: 1.0, 100: 0.0, 101: 1.0, 102: 0.0, 103: 1.0, 104: 0.0, 105: 1.0, 106: 1.0, 107: 0.0, 108: 0.0, 109: 0.0, 110: 1.0, 111: 0.0, 112: 1.0, 113: 0.0, 114: 1.0, 115: 1.0, 116: 0.0, 117: 0.0, 118: 0.0, 119: 0.0, 120: 1.0, 121: 0.0, 122: 0.0, 123: 0.0, 124: 0.0, 125: 1.0, 126: 0.0, 127: 1.0, 128: 0.0, 129: 0.0, 130: 0.0, 131: 0.0, 132: 0.0, 133: 0.0, 134: 0.0, 135: 0.0, 136: 0.0, 137: 0.0, 138: 0.0, 139: 0.0, 140: 0.0, 141: 1.0, 142: 1.0, 143: 1.0, 144: 1.0, 145: 1.0, 146: 0.0, 147: 0.0, 148: 0.0, 149: 0.0, 150: 0.0, 151: 0.0, 152: 0.0, 153: 0.0, 154: 1.0, 155: 0.0, 156: 0.0, 157: 1.0, 158: 0.0, 159: 0.0, 160: 1.0, 161: 0.0, 162: 0.0, 163: 0.0, 164: 1.0, 165: 1.0, 166: 0.0, 167: 1.0, 168: 0.0, 169: 0.0, 170: 0.0, 171: 0.0, 172: 1.0, 173: 0.0, 174: 0.0, 175: 0.0, 176: 0.0, 177: 0.0, 178: 0.0, 179: 0.0, 180: 0.0, 181: 0.0, 182: 0.0, 183: 1.0, 184: 0.0, 185: 1.0, 186: 0.0, 187: 0.0, 188: 0.0, 189: 0.0, 190: 1.0, 191: 1.0];
soc = [0: 8.987189352, 1: 7.985391914, 2: 6.983794836, 3: 6.982398077, 4: 7.881001597, 5: 7.879425397, 6: 6.877849512, 7: 5.876473942, 8: 4.875298647, 9: 5.774323587, 10: 5.773168722, 11: 5.772014089, 12: 5.770859686, 13: 6.669705514, 14: 6.668371573, 15: 7.567037899, 16: 8.465524491, 17: 7.463831386, 18: 8.362338619999999, 19: 9.260666152000001, 20: 10.158814019, 21: 10.058266052, 22: 9.056254399, 23: 9.054443148000001, 24: 9.95263226, 25: 10.850641733, 26: 11.748471605, 27: 12.646121911, 28: 13.543592686, 29: 14.440883968, 30: 13.437995791, 31: 14.335308192, 32: 14.33244113, 33: 14.329574642, 34: 13.326708727, 35: 12.324043385, 36: 11.321578576, 37: 11.319314261, 38: 12.217050398, 39: 11.214606988, 40: 10.212364066, 41: 11.110321594, 42: 11.108099529, 43: 12.005877909, 44: 12.903476734, 45: 13.800896038, 46: 14.698135859, 47: 13.695196232, 48: 13.692457193, 49: 14.589718701, 50: 13.586800758, 51: 12.584083397, 52: 13.481566581, 53: 14.378870267, 54: 14.375994493, 55: 15.273119295, 56: 15.270064671, 57: 14.267010658, 58: 13.881281694, 59: 13.878505438, 60: 13.875729737, 61: 14.772954591, 62: 15.67, 63: 14.666866, 64: 13.663932627, 65: 12.66119984, 66: 12.6586676, 67: 12.406542642, 68: 13.304061333, 69: 12.301400521, 70: 11.298940241, 71: 10.296680453, 72: 9.294621117, 73: 10.192762192, 74: 9.19072364, 75: 8.188885494999999, 76: 7.187247718, 77: 6.185810269, 78: 7.084573106, 79: 6.083156192, 80: 6.981939561, 81: 5.980543173, 82: 4.979347064, 83: 3.978351195, 84: 3.977555524, 85: 4.876760013, 86: 3.875784661, 87: 4.775009504, 88: 4.774054502, 89: 5.673099692, 90: 4.671965072, 91: 5.571030679, 92: 5.569916472, 93: 4.568802489, 94: 4.567888729, 95: 3.566975151, 96: 3.566261756, 97: 4.465548504, 98: 5.364655394, 99: 4.363582463, 100: 5.262709746, 101: 4.261657204, 102: 5.160804873, 103: 4.159772712, 104: 5.058940757, 105: 4.057928969, 106: 3.057117383, 107: 3.05650596, 108: 3.955894659, 109: 4.85510348, 110: 3.854132459, 111: 4.753361633, 112: 3.75241096, 113: 4.651660478, 114: 3.650730146, 115: 2.65, 116: 2.958660405, 117: 3.858068673, 118: 4.757297059, 119: 4.7563456, 120: 3.755394331, 121: 3.754643252, 122: 3.753892323, 123: 3.753141545, 124: 4.652390916, 125: 3.651460438, 126: 3.650730146, 127: 2.65, 128: 3.54947, 129: 4.448760106, 130: 5.347870354, 131: 6.24680078, 132: 7.14555142, 133: 8.044122309, 134: 8.042513485000001, 135: 8.040904982000001, 136: 8.939296800999999, 137: 9.837508941999999, 138: 10.73554144, 139: 10.733394332, 140: 11.631247653, 141: 10.628921403, 142: 9.626795618999999, 143: 8.62487026, 144: 7.623145286, 145: 6.621620657, 146: 7.520296333, 147: 8.418792273999999, 148: 9.317108514999999, 149: 10.215245093, 150: 10.213202044, 151: 11.038883648, 152: 11.036675872, 153: 11.934468536, 154: 10.932081643, 155: 10.929895226, 156: 10.927709247, 157: 9.925523705, 158: 9.923538601000001, 159: 10.821553893, 160: 9.819389581999999, 161: 9.817425704, 162: 10.715462219, 163: 11.613319127, 164: 10.610996463, 165: 9.608874264000001, 166: 10.506952489, 167: 9.504851098, 168: 10.402950128, 169: 11.300869538, 170: 12.198609364, 171: 13.096169642, 172: 12.093550408, 173: 12.091131698, 174: 12.088713472, 175: 12.086295729, 176: 12.98387847, 177: 13.881281694, 178: 13.878505438, 179: 13.875729737, 180: 14.772954591, 181: 15.67, 182: 15.666866, 183: 14.663732627, 184: 14.66079988, 185: 13.65786772, 186: 14.555136147, 187: 14.55222512, 188: 14.549314675, 189: 15.446404812, 190: 14.443315531, 191: 13.440426867];
cost = [0: 0.0, 1: 0.0, 2: 0.0, 3: 0.145922374, 4: 0.868097369, 5: 0.137797404, 6: 0.0, 7: 0.0, 8: 0.0, 9: 0.868280639, 10: 0.137980674, 11: 0.129611344, 12: 0.054898274, 13: 0.783670989, 14: 0.054287374, 15: 0.782265919, 16: 0.784770609, 17: 0.0, 18: 0.782449189, 19: 0.783548809, 20: 0.782632459, 21: 0.0, 22: 0.0, 23: 0.045429324, 24: 1.433119874, 25: 1.348658274, 26: 1.393625154, 27: 1.216374754, 28: 1.392673474, 29: 1.392911394, 30: 0.0, 31: 1.220776274, 32: 0.0, 33: 0.0, 34: 0.0, 35: 0.0, 36: 0.0, 37: 0.0, 38: 0.794304674, 39: 0.0, 40: 0.0, 41: 0.387580434, 42: 0.120821228, 43: 1.741226274, 44: 0.965607074, 45: 0.901963474, 46: 1.475350674, 47: 0.0, 48: 0.111304428, 49: 2.015429074, 50: 0.0, 51: 0.0, 52: 0.608098329, 53: 1.289190739, 54: 0.143478774, 55: 0.889356689, 56: 0.286307194, 57: 0.0, 58: 0.0, 59: 0.159728714, 60: 0.0, 61: 1.195199874, 62: 1.419677394, 63: 0.0, 64: 0.0, 65: 0.0, 66: 0.0, 67: 0.0, 68: 1.441090194, 69: 0.0, 70: 0.0, 71: 0.0, 72: 0.0, 73: 1.401000674, 74: 0.0, 75: 0.0, 76: 0.0, 77: 0.0, 78: 1.394814754, 79: 0.0, 80: 1.395647474, 81: 0.0, 82: 0.0, 83: 0.0, 84: 0.084538428, 85: 1.414086274, 86: 0.0, 87: 1.416703394, 88: 0.056242254, 89: 0.883064419, 90: 0.0, 91: 0.917274819, 92: 0.189296274, 93: 0.0, 94: 0.168220224, 95: 0.0, 96: 0.152764454, 97: 0.883064419, 98: 0.8597280390000001, 99: 0.0, 100: 0.854229939, 101: 0.0, 102: 0.8568568090000001, 103: 0.0, 104: 0.859544769, 105: 0.0, 106: 0.0, 107: 0.129611344, 108: 0.858200789, 109: 0.8625992689999999, 110: 0.0, 111: 0.859422589, 112: 0.0, 113: 1.053077889, 114: 0.0, 115: 0.0, 116: 0.306713335, 117: 0.824479109, 118: 0.951363039, 119: 0.220146724, 120: 0.333283788, 121: 0.314488108, 122: 0.263454268, 123: 0.262978428, 124: 1.423840994, 125: 0.0, 126: 0.261194028, 127: 0.0, 128: 1.562429394, 129: 1.563381074, 130: 1.559217474, 131: 0.909695874, 132: 1.015332354, 133: 1.407781394, 134: 0.0, 135: 0.100954908, 136: 0.118178165, 137: 0.118178165, 138: 0.118178165, 139: 0.09798090800000001, 140: 1.445848594, 141: 0.0, 142: 0.0, 143: 0.0, 144: 0.0, 145: 0.0, 146: 1.427171874, 147: 0.118178165, 148: 0.118178165, 149: 0.862049459, 150: 0.521625874, 151: 0.1664533, 152: 0.263520624, 153: 0.750987839, 154: 0.0, 155: 0.246415424, 156: 0.0, 157: 0.0, 158: 0.131051788, 159: 0.370807074, 160: 0.0, 161: 0.0, 162: 1.453343074, 163: 1.460480674, 164: 0.0, 165: 0.0, 166: 1.461908194, 167: 0.0, 168: 1.695783554, 169: 1.408970994, 170: 1.419677394, 171: 1.418487794, 172: 0.0, 173: 0.08394362800000001, 174: 0.086084908, 175: 0.094768988, 176: 1.423959954, 177: 1.423365154, 178: 0.106664988, 179: 0.105118508, 180: 1.425149554, 181: 1.425149554, 182: 0.159840108, 183: 0.0, 184: 0.064367224, 185: 0.0, 186: 0.933341489, 187: 0.200781194, 188: 0.200781194, 189: 0.937801059, 190: 0.0, 191: 0.0];
earn = [0: 0.0, 1: 0.505920479, 2: 0.491820207, 3: 0.0, 4: 0.0, 5: 0.0, 6: 0.479339133, 7: 0.477220461, 8: 0.481216116, 9: 0.0, 10: 0.0, 11: 0.0, 12: 0.0, 13: 0.0, 14: 0.0, 15: 0.0, 16: 0.0, 17: 0.587288092, 18: 0.0, 19: 0.0, 20: 0.0, 21: 0.0, 22: 0.679731479, 23: 0.0, 24: 0.0, 25: 0.0, 26: 0.0, 27: 0.0, 28: 0.0, 29: 0.0, 30: 0.90453046, 31: 0.0, 32: 0.029855506, 33: 0.074958475, 34: 0.695813371, 35: 0.6223051979999999, 36: 0.932365809, 37: 0.218317516, 38: 0.0, 39: 0.980090495, 40: 0.49450368, 41: 0.0, 42: 0.0, 43: 0.0, 44: 0.0, 45: 0.0, 46: 0.0, 47: 0.452087695, 48: 0.0, 49: 0.0, 50: 0.390079596, 51: 0.561529688, 52: 0.0, 53: 0.0, 54: 0.0, 55: 0.0, 56: 0.0, 57: 0.383996726, 58: 0.049324347, 59: 0.0, 60: 0.09150048400000001, 61: 0.0, 62: 0.0, 63: 0.746151772, 64: 0.5554261069999999, 65: 0.812475668, 66: 0.056651548, 67: 0.105284788, 68: 0.0, 69: 0.764514888, 70: 0.743826601, 71: 0.722091413, 72: 0.919671667, 73: 0.0, 74: 1.011841563, 75: 1.013071563, 76: 0.99640116, 77: 0.9750757920000001, 78: 0.0, 79: 0.917514977, 80: 0.0, 81: 0.743278138, 82: 0.720510664, 83: 0.693741135, 84: 0.0, 85: 0.0, 86: 0.69232686, 87: 0.0, 88: 0.0, 89: 0.0, 90: 0.458072798, 91: 0.0, 92: 0.0, 93: 0.462229683, 94: 0.0, 95: 0.467885862, 96: 0.0, 97: 0.0, 98: 0.0, 99: 0.50931436, 100: 0.0, 101: 0.505696462, 102: 0.0, 103: 0.481320882, 104: 0.0, 105: 0.466366243, 106: 0.462831516, 107: 0.0, 108: 0.0, 109: 0.0, 110: 0.470618385, 111: 0.0, 112: 0.284632574, 113: 0.0, 114: 0.241916924, 115: 0.571695101, 116: 0.0, 117: 0.0, 118: 0.0, 119: 0.0, 120: 0.0, 121: 0.0, 122: 0.0, 123: 0.0, 124: 0.0, 125: 0.654856239, 126: 0.0, 127: 0.410789624, 128: 0.0, 129: 0.0, 130: 0.0, 131: 0.0, 132: 0.0, 133: 0.0, 134: 0.342328215, 135: 0.0, 136: 0.078584942, 137: 0.154852835, 138: 0.028615473, 139: 0.0, 140: 0.0, 141: 0.022574683, 142: 0.01740424, 143: 0.00135462, 144: -0.118393671, 145: -0.07972770699999999, 146: 0.0, 147: 7.7554e-05, 148: -0.000123333, 149: 0.0, 150: 0.0, 151: 0.0, 152: 0.0, 153: 0.0, 154: 0.098804552, 155: 0.0, 156: 0.428393041, 157: 0.361688724, 158: 0.0, 159: 0.0, 160: 0.484886607, 161: 0.217595846, 162: 0.0, 163: 0.0, 164: 0.6648526340000001, 165: 0.677462844, 166: 0.0, 167: 0.6817946620000001, 168: 0.0, 169: 0.0, 170: 0.0, 171: 0.0, 172: 0.766849548, 173: 0.0, 174: 0.0, 175: 0.0, 176: 0.0, 177: 0.0, 178: 0.0, 179: 0.0, 180: 0.0, 181: 0.0, 182: 0.0, 183: 0.548177594, 184: 0.0, 185: 0.396182916, 186: 0.0, 187: 0.0, 188: 0.0, 189: 0.0, 190: 0.319799062, 191: 0.330061292];
total_cost = 89.180793544;
total_earn = 36.645975137;
% _objective = 52.534818407;