production = [0: 0.0, 1: 0.0, 2: 0.0, 3: 0.0, 4: 0.0, 5: 0.0, 6: 0.0, 7: 0.0, 8: 0.0, 9: 0.0, 10: 0.0, 11: 0.0, 12: 0.0, 13: 0.0, 14: 0.0, 15: 0.0, 16: 0.0, 17: 0.0, 18: 0.0, 19: 0.0, 20: 0.0, 21: 0.0, 22: 0.0, 23: 0.0003, 24: 0.0, 25: 0.038, 26: 0.0, 27: 0.0, 28: 0.0, 29: 0.0, 30: 0.0, 31: 0.144, 32: 0.1055, 33: 0.1573, 34: 0.0, 35: 0.0, 36: 0.0, 37: 0.3555, 38: 0.5278, 39: 0.0, 40: 0.0, 41: 0.0, 42: 0.752, 43: 0.474, 44: 0.0, 45: 0.4422, 46: 0.393, 47: 0.0, 48: 0.39, 49: 0.4455, 50: 0.0, 51: 0.0, 52: 0.3177, 53: 0.0, 54: 0.0, 55: 0.0, 56: 0.2105, 57: 0.199, 58: 0.0, 59: 0.2062, 60: 0.0, 61: 0.2025, 62: 0.0, 63: 0.1815, 64: 0.2213, 65: 0.0, 66: 0.1727, 67: 0.0, 68: 0.0892, 69: 0.0, 70: 0.0, 71: 0.003, 72: 0.0, 73: 0.0, 74: 0.0, 75: 0.0, 76: 0.0, 77: 0.0, 78: 0.0, 79: 0.0, 80: 0.0, 81: 0.0, 82: 0.0, 83: 0.0, 84: 0.0, 85: 0.0, 86: 0.0, 87: 0.0, 88: 0.0, 89: 0.0, 90: 0.0, 91: 0.0, 92: 0.0, 93: 0.0, 94: 0.0, 95: 0.0, 96: 0.0, 97: 0.0, 98: 0.0, 99: 0.0, 100: 0.0, 101: 0.0, 102: 0.0, 103: 0.0, 104: 0.0, 105: 0.0, 106: 0.0, 107: 0.0, 108: 0.0, 109: 0.0, 110: 0.0, 111: 0.0, 112: 0.0, 113: 0.0, 114: 0.0, 115: 0.0, 116: 0.0, 117: 0.0, 118: 0.0, 119: 0.0003, 120: 0.0, 121: 0.0, 122: 0.0432, 123: 0.0, 124: 0.0, 125: 0.0, 126: 0.2303, 127: 0.0, 128: 0.0, 129: 0.0, 130: 0.0, 131: 0.0, 132: 0.4495, 133: 0.0, 134: 0.0, 135: 1.8858, 136: 1.5822, 137: 0.0, 138: 0.081364583, 139: 0.0, 140: 1.0395, 141: 0.0, 142: 2.0035, 143: 1.813, 144: 2.108, 145: 0.0, 146: 0.0, 147: 0.103164583, 148: 1.1298, 149: 0.0, 150: 0.0, 151: 0.0, 152: 0.0, 153: 0.4012, 154: 0.3528, 155: 0.0, 156: 1.2377, 157: 0.0, 158: 0.2893, 159: 0.9045, 160: 0.0, 161: 0.4507, 162: 0.0, 163: 0.0, 164: 0.115, 165: 0.0, 166: 0.0, 167: 0.0307, 168: 0.0, 169: 0.0003, 170: 0.0, 171: 0.0, 172: 0.0, 173: 0.0, 174: 0.0, 175: 0.0, 176: 0.0, 177: 0.0, 178: 0.0, 179: 0.0, 180: 0.0, 181: 0.0, 182: 0.0, 183: 0.0, 184: 0.0, 185: 0.0, 186: 0.0, 187: 0.0, 188: 0.0, 189: 0.0, 190: 0.0, 191: 0.0];
buy = [0: 0.0, 1: 0.235364583, 2: 0.0, 3: 0.0, 4: 0.0, 5: 0.0, 6: 0.0, 7: 0.0, 8: 1.227064583, 9: 1.227864583, 10: 0.0, 11: 0.0, 12: 1.089864583, 13: 1.089364583, 14: 0.0, 15: 0.087064583, 16: 1.091164583, 17: 1.089164583, 18: 0.087364583, 19: 0.0, 20: 0.0, 21: 0.0, 22: 1.088864583, 23: 1.074364583, 24: 0.105864583, 25: 0.034364583, 26: 0.072164583, 27: 0.072164583, 28: 0.0, 29: 0.0, 30: 1.070564583, 31: 0.0, 32: 0.965564583, 33: 0.914264583, 34: 0.0, 35: 0.071364583, 36: 1.085064583, 37: 0.715064583, 38: 0.0, 39: 1.095364583, 40: 0.0, 41: 1.104664583, 42: 0.0, 43: 0.0, 44: 0.737927254, 45: 0.0, 46: 0.0, 47: 1.093564583, 48: 0.0, 49: 0.0, 50: 0.0, 51: 1.115564583, 52: 0.0, 53: 1.916864583, 54: 0.0, 55: 1.466864583, 56: 0.258164583, 57: 0.0, 58: 1.467864583, 59: 0.261464583, 60: 1.113864583, 61: 0.905364583, 62: 0.09406458299999999, 63: 0.0, 64: 0.875364583, 65: 0.0, 66: 0.931164583, 67: 0.0, 68: 0.0, 69: 0.106664583, 70: 0.143864583, 71: 0.0, 72: 0.0, 73: 1.078364583, 74: 1.077364583, 75: 1.076364583, 76: 1.078564583, 77: 1.073664583, 78: 0.07316458300000001, 79: 0.0, 80: 0.0, 81: 0.0, 82: 0.0, 83: 1.070364583, 84: 1.071064583, 85: 0.556544004, 86: 1.071064583, 87: 0.0, 88: 0.0, 89: 0.0, 90: 0.0, 91: 1.308064583, 92: 1.309864583, 93: 1.309064583, 94: 0.0, 95: 0.245064583, 96: 0.0, 97: 0.252064583, 98: 0.0, 99: 1.205164583, 100: 1.204864583, 101: 0.0, 102: 1.209164583, 103: 0.0, 104: 0.213564583, 105: 1.213864583, 106: 1.218864583, 107: 0.0, 108: 0.0, 109: 1.218564583, 110: 0.215364583, 111: 0.0, 112: 1.495864583, 113: 1.530364583, 114: 0.0, 115: 0.0, 116: 1.092064583, 117: 1.156164583, 118: 0.363864583, 119: 1.360064583, 120: 1.180164583, 121: 1.264364583, 122: 1.221464583, 123: 1.221064583, 124: 1.218064583, 125: 0.216564583, 126: 0.0, 127: 1.200664583, 128: 1.214064583, 129: 1.214864583, 130: 0.211364583, 131: 0.205864583, 132: 0.0, 133: 0.508500844, 134: 0.0, 135: 0.0, 136: 0.0, 137: 0.083164583, 138: 0.0, 139: 0.0, 140: 0.07656458300000001, 141: 0.0, 142: 0.0, 143: 0.0, 144: 0.0, 145: 1.102564583, 146: 1.100364583, 147: 0.0, 148: 0.0, 149: 0.0, 150: 0.0, 151: 0.870364583, 152: 0.431364583, 153: 0.0, 154: 0.0, 155: 1.403364583, 156: 0.0, 157: 1.112864583, 158: 0.0, 159: 0.212364583, 160: 0.106664583, 161: 0.0, 162: 1.122364583, 163: 0.0, 164: 0.0, 165: 0.0, 166: 0.0, 167: 1.078164583, 168: 0.326164583, 169: 0.0, 170: 0.09406458299999999, 171: 0.09306458300000001, 172: 0.079664583, 173: 0.0, 174: 0.0, 175: 1.079664583, 176: 0.0, 177: 0.097164583, 178: 0.0, 179: 1.088364583, 180: 1.098664583, 181: 0.0, 182: 1.134364583, 183: 1.090164583, 184: 0.0, 185: 1.277364583, 186: 0.0, 187: 0.328664583, 188: 0.328664583, 189: 0.341664583, 190: 0.0, 191: 1.306364583];
sell = [0: 0.665135417, 1: 0.0, 2: 0.111047493, 3: 0.661135417, 4: 0.672435417, 5: 0.674435417, 6: 0.674935417, 7: 0.674135417, 8: 0.0, 9: 0.0, 10: 0.674135417, 11: 0.6878354169999999, 12: 0.0, 13: 0.0, 14: 0.811135417, 15: 0.0, 16: 0.0, 17: 0.0, 18: 0.0, 19: 0.0, 20: 0.812335417, 21: 0.811335417, 22: 0.0, 23: 0.0, 24: 0.0, 25: 0.0, 26: 0.0, 27: 0.0, 28: 0.828635417, 29: 0.828435417, 30: 0.0, 31: 0.9731354169999999, 32: 0.0, 33: 0.0, 34: 0.829435417, 35: 0.0, 36: 0.0, 37: 0.0, 38: 1.331635417, 39: 0.0, 40: 0.802635417, 41: 0.0, 42: 0.650435417, 43: 1.009635417, 44: 0.0, 45: 0.341135417, 46: 1.152135417, 47: 0.0, 48: 0.0, 49: 0.750635417, 50: 0.746135417, 51: 0.0, 52: 1.098035417, 53: 0.0, 54: 0.440335417, 55: 0.0, 56: 0.0, 57: 0.635335417, 58: 0.0, 59: 0.0, 60: 0.0, 61: 0.0, 62: 0.0, 63: 0.088935417, 64: 0.0, 65: 0.803335417, 66: 0.0, 67: 0.797435417, 68: 0.877135417, 69: 0.0, 70: 0.0, 71: 0.682935417, 72: 0.0, 73: 0.0, 74: 0.0, 75: 0.0, 76: 0.0, 77: 0.0, 78: 0.0, 79: 0.827335417, 80: 0.826135417, 81: 0.827335417, 82: 0.828935417, 83: 0.0, 84: 0.0, 85: 0.0, 86: 0.0, 87: 0.808435417, 88: 0.807935417, 89: 0.647935417, 90: 0.593435417, 91: 0.0, 92: 0.0, 93: 0.0, 94: 0.624635417, 95: 0.0, 96: 0.374177032, 97: 0.0, 98: 0.686135417, 99: 0.0, 100: 0.0, 101: 0.689335417, 102: 0.0, 103: 0.685935417, 104: 0.0, 105: 0.0, 106: 0.0, 107: 0.6878354169999999, 108: 0.688635417, 109: 0.0, 110: 0.0, 111: 0.686635417, 112: 0.0, 113: 0.0, 114: 0.341835417, 115: 0.807935417, 116: 0.0, 117: 0.0, 118: 0.0, 119: 0.0, 120: 0.0, 121: 0.0, 122: 0.0, 123: 0.0, 124: 0.0, 125: 0.0, 126: 0.910735417, 127: 0.0, 128: 0.0, 129: 0.0, 130: 0.0, 131: 0.0, 132: 1.145835417, 133: 0.0, 134: 0.817335417, 135: 2.700935417, 136: 2.398635417, 137: 0.0, 138: 0.0, 139: 0.817635417, 140: 0.0, 141: 0.8048354170000001, 142: 0.907135417, 143: 1.709835417, 144: 2.908935417, 145: 0.0, 146: 0.0, 147: 0.0, 148: 0.009635417, 149: 0.127835417, 150: 0.046135417, 151: 0.0, 152: 0.0, 153: 0.864135417, 154: 0.0, 155: 0.0, 156: 1.128835417, 157: 0.0, 158: 0.179135417, 159: 0.0, 160: 0.0, 161: 0.0, 162: 0.0, 163: 0.771635417, 164: 0.898935417, 165: 0.7826354170000001, 166: 0.770435417, 167: 0.0, 168: 0.0, 169: 0.0, 170: 0.0, 171: 0.0, 172: 0.0, 173: 0.829435417, 174: 0.827635417, 175: 0.0, 176: 0.802335417, 177: 0.0, 178: 0.810335417, 179: 0.0, 180: 0.0, 181: 0.801335417, 182: 0.0, 183: 0.0, 184: 0.794635417, 185: 0.0, 186: 0.565635417, 187: 0.0, 188: 0.0, 189: 0.0, 190: 0.557335417, 191: 0.0];
charge = [0: 0.0, 1: 0.0, 2: 0.0, 3: 0.0, 4: 0.0, 5: 0.0, 6: 0.0, 7: 0.0, 8: 1.0, 9: 1.0, 10: 0.0, 11: 0.0, 12: 1.0, 13: 1.0, 14: 0.0, 15: 0.0, 16: 1.0, 17: 1.0, 18: 0.0, 19: 0.0, 20: 0.0, 21: 0.0, 22: 1.0, 23: 1.0, 24: 0.0, 25: 0.0, 26: 0.0, 27: 0.0, 28: 0.0, 29: 0.0, 30: 1.0, 31: 0.0, 32: 1.0, 33: 1.0, 34: 0.0, 35: 0.0, 36: 1.0, 37: 1.0, 38: 0.0, 39: 1.0, 40: 0.0, 41: 1.0, 42: 0.0, 43: 0.0, 44: 0.634062671, 45: 0.0, 46: 0.0, 47: 1.0, 48: 0.296435417, 49: 0.0, 50: 0.0, 51: 1.0, 52: 0.0, 53: 1.0, 54: 0.0, 55: 1.0, 56: 0.0, 57: 0.0, 58: 1.0, 59: 0.0, 60: 1.0, 61: 1.0, 62: 0.0, 63: 0.0, 64: 1.0, 65: 0.0, 66: 1.0, 67: 0.0, 68: 0.0, 69: 0.0, 70: 0.0, 71: 0.0, 72: 0.0, 73: 1.0, 74: 1.0, 75: 1.0, 76: 1.0, 77: 1.0, 78: 0.0, 79: 0.0, 80: 0.0, 81: 0.0, 82: 0.0, 83: 1.0, 84: 1.0, 85: 0.467179421, 86: 1.0, 87: 0.0, 88: 0.0, 89: 0.0, 90: 0.0, 91: 1.0, 92: 1.0, 93: 1.0, 94: 0.0, 95: 0.0, 96: 0.0, 97: 0.0, 98: 0.0, 99: 1.0, 100: 1.0, 101: 0.0, 102: 1.0, 103: 0.0, 104: 0.0, 105: 1.0, 106: 1.0, 107: 0.0, 108: 0.0, 109: 1.0, 110: 0.0, 111: 0.0, 112: 1.0, 113: 1.0, 114: 0.0, 115: 0.0, 116: 1.0, 117: 1.0, 118: 0.0, 119: 1.0, 120: 0.0, 121: 1.0, 122: 1.0, 123: 1.0, 124: 1.0, 125: 0.0, 126: 0.0, 127: 1.0, 128: 1.0, 129: 1.0, 130: 0.0, 131: 0.0, 132: 0.0, 133: 0.424436261, 134: 0.0, 135: 0.0, 136: 0.0, 137: 0.0, 138: 0.0, 139: 0.0, 140: 1.0, 141: 0.0, 142: 1.0, 143: 0.0, 144: 0.0, 145: 1.0, 146: 1.0, 147: 0.0, 148: 1.0, 149: 0.0, 150: 0.0, 151: 0.0, 152: 0.0, 153: 0.0, 154: 0.0, 155: 1.0, 156: 0.0, 157: 1.0, 158: 0.0, 159: 1.0, 160: 0.0, 161: 0.345335417, 162: 1.0, 163: 0.0, 164: 0.0, 165: 0.0, 166: 0.0, 167: 1.0, 168: 0.0, 169: 0.0, 170: 0.0, 171: 0.0, 172: 0.0, 173: 0.0, 174: 0.0, 175: 1.0, 176: 0.0, 177: 0.0, 178: 0.0, 179: 1.0, 180: 1.0, 181: 0.0, 182: 1.0, 183: 1.0, 184: 0.0, 185: 1.0, 186: 0.0, 187: 0.0, 188: 0.0, 189: 0.0, 190: 0.0, 191: 1.0];
discharge = [0: 1.0, 1: 0.0, 2: 0.386013419, 3: 1.0, 4: 1.0, 5: 1.0, 6: 1.0, 7: 1.0, 8: 0.0, 9: 0.0, 10: 1.0, 11: 1.0, 12: 0.0, 13: 0.0, 14: 1.0, 15: 0.0, 16: 0.0, 17: 0.0, 18: 0.0, 19: 0.099071759, 20: 1.0, 21: 1.0, 22: 0.0, 23: 0.0, 24: 0.0, 25: 0.0, 26: 0.0, 27: 0.0, 28: 1.0, 29: 1.0, 30: 0.0, 31: 1.0, 32: 0.0, 33: 0.0, 34: 1.0, 35: 0.0, 36: 0.0, 37: 0.0, 38: 1.0, 39: 0.0, 40: 1.0, 41: 0.0, 42: 0.0, 43: 1.0, 44: 0.0, 45: 0.0, 46: 1.0, 47: 0.0, 48: 0.0, 49: 1.0, 50: 1.0, 51: 0.0, 52: 1.0, 53: 0.0, 54: 1.0, 55: 0.0, 56: 0.0, 57: 1.0, 58: 0.0, 59: 0.0, 60: 0.0, 61: 0.0, 62: 0.0, 63: 0.0, 64: 0.0, 65: 1.0, 66: 0.0, 67: 1.0, 68: 1.0, 69: 0.0, 70: 0.0, 71: 1.0, 72: 0.087627315, 73: 0.0, 74: 0.0, 75: 0.0, 76: 0.0, 77: 0.0, 78: 0.0, 79: 1.0, 80: 1.0, 81: 1.0, 82: 1.0, 83: 0.0, 84: 0.0, 85: 0.0, 86: 0.0, 87: 1.0, 88: 1.0, 89: 1.0, 90: 1.0, 91: 0.0, 92: 0.0, 93: 0.0, 94: 1.0, 95: 0.0, 96: 0.693601795, 97: 0.0, 98: 1.0, 99: 0.0, 100: 0.0, 101: 1.0, 102: 0.0, 103: 1.0, 104: 0.0, 105: 0.0, 106: 0.0, 107: 1.0, 108: 1.0, 109: 0.0, 110: 0.0, 111: 1.0, 112: 0.0, 113: 0.0, 114: 1.0, 115: 1.0, 116: 0.0, 117: 0.0, 118: 0.0, 119: 0.0, 120: 0.0, 121: 0.0, 122: 0.0, 123: 0.0, 124: 0.0, 125: 0.0, 126: 1.0, 127: 0.0, 128: 0.0, 129: 0.0, 130: 0.0, 131: 0.0, 132: 1.0, 133: 0.0, 134: 1.0, 135: 1.0, 136: 1.0, 137: 0.0, 138: 0.0, 139: 1.0, 140: 0.0, 141: 1.0, 142: 0.0, 143: 0.0, 144: 1.0, 145: 0.0, 146: 0.0, 147: 0.0, 148: 0.0, 149: 1.0, 150: 1.0, 151: 0.0, 152: 0.0, 153: 1.0, 154: 0.09451620400000001, 155: 0.0, 156: 0.0, 157: 0.0, 158: 0.0, 159: 0.0, 160: 0.0, 161: 0.0, 162: 0.0, 163: 1.0, 164: 1.0, 165: 1.0, 166: 1.0, 167: 0.0, 168: 0.0, 169: 0.09418287, 170: 0.0, 171: 0.0, 172: 0.0, 173: 1.0, 174: 1.0, 175: 0.0, 176: 1.0, 177: 0.0, 178: 1.0, 179: 0.0, 180: 0.0, 181: 1.0, 182: 0.0, 183: 0.0, 184: 1.0, 185: 0.0, 186: 1.0, 187: 0.0, 188: 0.0, 189: 0.0, 190: 1.0, 191: 0.0];
soc = [0: 8.248150000000001, 1: 8.24650037, 2: 7.858837651, 3: 6.857265884, 4: 5.855894431, 5: 4.854723252, 6: 3.853752307, 7: 2.852981557, 8: 3.75241096, 9: 4.651660478, 10: 3.650730146, 11: 2.65, 12: 3.54947, 13: 4.448760106, 14: 3.447870354, 15: 3.44718078, 16: 4.346491344, 17: 5.245622045, 18: 5.244572921, 19: 5.144452247, 20: 4.143423357, 21: 3.142594672, 22: 4.041966153, 23: 4.94115776, 24: 4.940169528, 25: 4.939181494, 26: 4.938193658, 27: 4.937206019, 28: 3.936218578, 29: 2.935431335, 30: 3.834844248, 31: 2.834077279, 32: 3.733510464, 33: 4.632763762, 34: 3.631837209, 35: 3.631110842, 36: 4.53038462, 37: 5.429478543, 38: 4.428392647, 39: 5.327506968, 40: 4.326441467, 41: 5.225576179, 42: 5.224531063, 43: 4.223486157, 44: 4.793297864, 45: 4.792339204, 46: 3.791380736, 47: 4.69062246, 48: 4.956476211, 49: 3.955484915, 50: 2.954693818, 51: 3.85410288, 52: 2.853332059, 53: 3.752761393, 54: 2.75201084, 55: 3.651460438, 56: 3.650730146, 57: 2.65, 58: 3.54947, 59: 3.548760106, 60: 4.448050354, 61: 5.347160744, 62: 5.346091312, 63: 5.345022093, 64: 6.243953089, 65: 5.242704298, 66: 6.141655758, 67: 5.140427426, 68: 4.139399341, 69: 4.138571461, 70: 4.137743747, 71: 3.136916198, 72: 3.0486615, 73: 3.948051768, 74: 4.847262157, 75: 5.746292705, 76: 6.645143446, 77: 7.543814418, 78: 7.542305655, 79: 6.540797194, 80: 5.539489034, 81: 4.538381136, 82: 3.53747346, 83: 4.436765966, 84: 5.335878612, 85: 5.755272915, 86: 6.654121861, 87: 5.652791036, 88: 4.651660478, 89: 3.650730146, 90: 2.65, 91: 3.54947, 92: 4.448760106, 93: 5.347870354, 94: 4.34680078, 95: 4.34593142, 96: 3.651460438, 97: 3.650730146, 98: 2.65, 99: 3.54947, 100: 4.448760106, 101: 3.447870354, 102: 4.34718078, 103: 3.346311344, 104: 3.345642081, 105: 4.244972953, 106: 5.144123958, 107: 4.143095134, 108: 3.142266515, 109: 4.041638061, 110: 4.040829734, 111: 3.040021568, 112: 3.939413563, 113: 4.838625681, 114: 3.837657956, 115: 2.836890424, 116: 3.736323046, 117: 4.635575781, 118: 4.634648666, 119: 5.533721736, 120: 5.532614992, 121: 6.431508469, 122: 7.330222167, 123: 8.228756123, 124: 9.127110372000001, 125: 9.125284949999999, 126: 8.123459893, 127: 9.021835201, 128: 9.920030834, 129: 10.818046828, 130: 10.815883218, 131: 10.813720042, 132: 9.811557297, 133: 10.191587621, 134: 9.189549303, 135: 8.187711393000001, 136: 7.186073851, 137: 7.184636636, 138: 7.183199709, 139: 6.181763069, 140: 7.080526716, 141: 6.079110611, 142: 6.977894789, 143: 6.97649921, 144: 5.97510391, 145: 6.873908889, 146: 7.772534108, 147: 7.770979601, 148: 8.669425405, 149: 7.66769152, 150: 6.666157981, 151: 6.66482475, 152: 6.663491785, 153: 5.662159087, 154: 5.566510451, 155: 6.465397149, 156: 6.464104069, 157: 7.362811249, 158: 7.361338686, 159: 8.259866419, 160: 8.258214445, 161: 8.567364678000001, 162: 9.465651205, 163: 8.463758073999999, 164: 7.462065323, 165: 6.46057291, 166: 5.459280795, 167: 6.358188939, 168: 6.356917301, 169: 6.261463047, 170: 6.260210755, 171: 6.258958713, 172: 6.257706921, 173: 5.256455379, 174: 4.255404088, 175: 5.154553008, 176: 4.153522097, 177: 4.152691393, 178: 3.151860854, 179: 4.051230482, 180: 4.950420236, 181: 3.949430152, 182: 4.848640266, 183: 5.747670538, 184: 4.746521004, 185: 5.6455717, 186: 4.644442585, 187: 4.643513697, 188: 4.642584994, 189: 4.641656477, 190: 3.640728146, 191: 4.54];
cost = [0: 0.0, 1: 0.143784224, 2: 0.0, 3: 0.0, 4: 0.0, 5: 0.0, 6: 0.0, 7: 0.0, 8: 0.867791919, 9: 0.868280639, 10: 0.0, 11: 0.0, 12: 0.783976439, 13: 0.783670989, 14: 0.0, 15: 0.053187754, 16: 0.784770609, 17: 0.783548809, 18: 0.053371024, 19: 0.0, 20: 0.0, 21: 0.0, 22: 0.7833655390000001, 23: 0.774507489, 24: 0.125936508, 25: 0.040880108, 26: 0.085846988, 27: 0.085846988, 28: 0.0, 29: 0.0, 30: 1.391721794, 31: 0.0, 32: 1.266813794, 33: 1.205787314, 34: 0.0, 35: 0.084895308, 36: 1.408970994, 37: 0.968818994, 38: 0.0, 39: 1.421223874, 40: 0.0, 41: 1.432287154, 42: 0.0, 43: 0.0, 44: 0.952770625, 45: 0.0, 46: 0.0, 47: 1.419082594, 48: 0.035032194, 49: 0.0, 50: 0.0, 51: 1.445253794, 52: 0.0, 53: 1.289190739, 54: 0.0, 55: 1.014285739, 56: 0.157712744, 57: 0.0, 58: 1.014896639, 59: 0.159728714, 60: 1.443231474, 61: 1.195199874, 62: 0.111899228, 63: 0.0, 64: 1.159511874, 65: 0.0, 66: 1.225891554, 67: 0.0, 68: 0.0, 69: 0.126888188, 70: 0.171141308, 71: 0.0, 72: 0.0, 73: 1.401000674, 74: 1.399811074, 75: 1.398621474, 76: 1.401238594, 77: 1.395409554, 78: 0.087036588, 79: 0.0, 80: 0.0, 81: 0.0, 82: 0.0, 83: 1.391483874, 84: 1.392316594, 85: 0.717275154, 86: 1.392316594, 87: 0.0, 88: 0.0, 89: 0.0, 90: 0.0, 91: 0.917274819, 92: 0.918374439, 93: 0.917885719, 94: 0.0, 95: 0.149709954, 96: 0.0, 97: 0.153986254, 98: 0.0, 99: 0.854413209, 100: 0.854229939, 101: 0.0, 102: 0.8568568090000001, 103: 0.0, 104: 0.130466604, 105: 0.8597280390000001, 106: 0.862782539, 107: 0.0, 108: 0.0, 109: 0.8625992689999999, 110: 0.131566224, 111: 0.0, 112: 1.032001839, 113: 1.053077889, 114: 0.0, 115: 0.0, 116: 0.785320419, 117: 0.824479109, 118: 0.222284874, 119: 0.9490416189999999, 120: 1.403923788, 121: 1.622266274, 122: 1.571232434, 123: 1.570756594, 124: 1.567187794, 125: 0.257625228, 126: 0.0, 127: 1.546488754, 128: 1.562429394, 129: 1.563381074, 130: 0.251439308, 131: 0.244896508, 132: 0.0, 133: 0.6550717029999999, 134: 0.0, 135: 0.0, 136: 0.0, 137: 0.098932588, 138: 0.0, 139: 0.0, 140: 0.209259394, 141: 0.0, 142: 0.118178165, 143: 0.0, 144: 0.0, 145: 1.429788994, 146: 1.427171874, 147: 0.0, 148: 0.118178165, 149: 0.0, 150: 0.0, 151: 0.531705724, 152: 0.263520624, 153: 0.0, 154: 0.0, 155: 0.975493589, 156: 0.0, 157: 1.442041874, 158: 0.0, 159: 0.370807074, 160: 0.126888188, 161: 0.040811106, 162: 1.453343074, 163: 0.0, 164: 0.0, 165: 0.0, 166: 0.0, 167: 1.400762754, 168: 0.388005388, 169: 0.0, 170: 0.111899228, 171: 0.110709628, 172: 0.094768988, 173: 0.0, 174: 0.0, 175: 1.402547154, 176: 0.0, 177: 0.115586988, 178: 0.0, 179: 1.412896674, 180: 1.425149554, 181: 0.0, 182: 1.467618274, 183: 1.415037954, 184: 0.0, 185: 0.898520189, 186: 0.0, 187: 0.200781194, 188: 0.200781194, 189: 0.208722894, 190: 0.0, 191: 0.916236289];
earn = [0: 0.52791798, 1: 0.0, 2: 0.08229729700000001, 3: 0.481637151, 4: 0.486641511, 5: 0.482153879, 6: 0.479339133, 7: 0.477220461, 8: 0.0, 9: 0.0, 10: 0.482276477, 11: 0.493521911, 12: 0.0, 13: 0.0, 14: 0.588316518, 15: 0.0, 16: 0.0, 17: 0.0, 18: 0.0, 19: 0.0, 20: 0.620055624, 21: 0.63868324, 22: 0.0, 23: 0.0, 24: 0.0, 25: 0.0, 26: 0.0, 27: 0.0, 28: 0.814051433, 29: 0.790658762, 30: 0.0, 31: 0.894700702, 32: 0.0, 33: 0.0, 34: 0.695813371, 35: 0.0, 36: 0.0, 37: 0.0, 38: 0.870223745, 39: 0.0, 40: 0.49450368, 41: 0.0, 42: 0.372829581, 43: 0.555804297, 44: 0.0, 45: 0.191035833, 46: 0.6443893389999999, 47: 0.0, 48: 0.0, 49: 0.392131942, 50: 0.390079596, 51: 0.0, 52: 0.6448762, 53: 0.0, 54: 0.267415699, 55: 0.0, 56: 0.0, 57: 0.383996726, 58: 0.0, 59: 0.0, 60: 0.0, 61: 0.0, 62: 0.0, 63: 0.067101772, 64: 0.0, 65: 0.627565628, 66: 0.0, 67: 0.687788047, 68: 0.751354198, 69: 0.0, 70: 0.0, 71: 0.725277413, 72: 0.0, 73: 0.0, 74: 0.0, 75: 0.0, 76: 0.0, 77: 0.0, 78: 0.0, 79: 0.917514977, 80: 0.784746032, 81: 0.743278138, 82: 0.720510664, 83: 0.0, 84: 0.0, 85: 0.0, 86: 0.0, 87: 0.658713178, 88: 0.665334816, 89: 0.537332841, 90: 0.458072798, 91: 0.0, 92: 0.0, 93: 0.0, 94: 0.460918474, 95: 0.0, 96: 0.294514742, 97: 0.0, 98: 0.517757785, 99: 0.0, 100: 0.0, 101: 0.505696462, 102: 0.0, 103: 0.481320882, 104: 0.0, 105: 0.0, 106: 0.0, 107: 0.467521733, 108: 0.46840981, 109: 0.0, 110: 0.0, 111: 0.467736046, 112: 0.0, 113: 0.0, 114: 0.241916924, 115: 0.571695101, 116: 0.0, 117: 0.0, 118: 0.0, 119: 0.0, 120: 0.0, 121: 0.0, 122: 0.0, 123: 0.0, 124: 0.0, 125: 0.0, 126: 0.604090802, 127: 0.0, 128: 0.0, 129: 0.0, 130: 0.0, 131: 0.0, 132: 0.456615414, 133: 0.0, 134: 0.199266375, 135: 0.591234763, 136: 0.378024942, 137: 0.0, 138: 0.0, 139: 0.082744704, 140: 0.0, 141: 0.006438683, 142: 0.00562424, 143: 0.00290672, 144: -0.118393671, 145: 0.0, 146: 0.0, 147: 0.0, 148: -0.000123333, 149: -0.000703095, 150: 0.00050749, 151: 0.0, 152: 0.0, 153: 0.154334585, 154: 0.0, 155: 0.0, 156: 0.428393041, 157: 0.0, 158: 0.08911987, 159: 0.0, 160: 0.0, 161: 0.0, 162: 0.0, 163: 0.553648411, 164: 0.6648526340000001, 165: 0.6126470040000001, 166: 0.6265951239999999, 167: 0.0, 168: 0.0, 169: 0.0, 170: 0.0, 171: 0.0, 172: 0.0, 173: 0.734216231, 174: 0.704979848, 175: 0.0, 176: 0.647404448, 177: 0.0, 178: 0.609777401, 179: 0.0, 180: 0.0, 181: 0.557649316, 182: 0.0, 183: 0.0, 184: 0.515797849, 185: 0.0, 186: 0.356124058, 187: 0.0, 188: 0.0, 189: 0.0, 190: 0.319799062, 191: 0.0];
total_cost = 88.62643590899999;
total_earn = 36.848223463;
