production = [0: 0.0, 1: 0.0, 2: 0.0, 3: 0.0, 4: 0.0, 5: 0.0, 6: 0.0, 7: 0.0, 8: 0.0, 9: 0.0, 10: 0.0, 11: 0.0, 12: 0.0, 13: 0.0, 14: 0.0, 15: 0.0, 16: 0.0, 17: 0.0, 18: 0.0, 19: 0.0, 20: 0.0, 21: 0.0, 22: 0.0, 23: 0.0, 24: 0.0, 25: 0.038, 26: 0.072164583, 27: 0.149, 28: 0.1032, 29: 0.0, 30: 0.0, 31: 0.0, 32: 0.1055, 33: 0.1573, 34: 0.2082, 35: 0.286, 36: 0.2767, 37: 0.3555, 38: 0.5278, 39: 0.0, 40: 0.0, 41: 0.8782, 42: 0.752, 43: 0.0, 44: 0.3915, 45: 0.4422, 46: 0.0, 47: 0.0, 48: 0.39, 49: 0.4455, 50: 0.0, 51: 0.2878, 52: 0.3177, 53: 0.0, 54: 0.2248, 55: 0.0, 56: 0.2105, 57: 0.0, 58: 0.0, 59: 0.2062, 60: 0.0, 61: 0.2025, 62: 0.1722, 63: 0.0, 64: 0.0, 65: 0.0, 66: 0.0, 67: 0.0, 68: 0.0892, 69: 0.0, 70: 0.0, 71: 0.0, 72: 0.0, 73: 0.0, 74: 0.0, 75: 0.0, 76: 0.0, 77: 0.0, 78: 0.0, 79: 0.0, 80: 0.0, 81: 0.0, 82: 0.0, 83: 0.0, 84: 0.0, 85: 0.0, 86: 0.0, 87: 0.0, 88: 0.0, 89: 0.0, 90: 0.0, 91: 0.0, 92: 0.0, 93: 0.0, 94: 0.0, 95: 0.0, 96: 0.0, 97: 0.0, 98: 0.0, 99: 0.0, 100: 0.0, 101: 0.0, 102: 0.0, 103: 0.0, 104: 0.0, 105: 0.0, 106: 0.0, 107: 0.0, 108: 0.0, 109: 0.0, 110: 0.0, 111: 0.0, 112: 0.0, 113: 0.0, 114: 0.0, 115: 0.0, 116: 0.0, 117: 0.0, 118: 0.0, 119: 0.0003, 120: 0.0015, 121: 0.008500000000000001, 122: 0.0432, 123: 0.0, 124: 0.1205, 125: 0.1938, 126: 0.0, 127: 0.2167, 128: 0.3045, 129: 0.0, 130: 0.0, 131: 0.5405, 132: 0.4495, 133: 0.583, 134: 1.4868, 135: 0.0, 136: 1.5822, 137: 2.0848, 138: 1.3142, 139: 0.729, 140: 1.0395, 141: 2.017, 142: 0.0, 143: 0.103164583, 144: 0.0, 145: 0.0, 146: 0.5305, 147: 0.0, 148: 0.0, 149: 0.5545, 150: 0.0, 151: 0.870364583, 152: 0.0, 153: 0.0, 154: 0.0, 155: 0.0, 156: 1.2377, 157: 0.2812, 158: 0.0, 159: 0.0, 160: 0.0, 161: 0.0, 162: 0.3412, 163: 0.0, 164: 0.115, 165: 0.0, 166: 0.0, 167: 0.0, 168: 0.0107, 169: 0.0, 170: 0.0, 171: 0.0, 172: 0.0, 173: 0.0, 174: 0.0, 175: 0.0, 176: 0.0, 177: 0.0, 178: 0.0, 179: 0.0, 180: 0.0, 181: 0.0, 182: 0.0, 183: 0.0, 184: 0.0, 185: 0.0, 186: 0.0, 187: 0.0, 188: 0.0, 189: 0.0, 190: 0.0, 191: 0.0];
buy = [0: 1.234864583, 1: 0.0, 2: 0.0, 3: 0.238864583, 4: 0.227564583, 5: 0.0, 6: 1.225064583, 7: 1.005685715, 8: 0.227064583, 9: 0.227864583, 10: 0.0, 11: 1.212164583, 12: 0.0, 13: 1.089364583, 14: 0.0, 15: 1.087064583, 16: 0.09116458299999999, 17: 0.0, 18: 1.087364583, 19: 0.0, 20: 0.0, 21: 0.0, 22: 0.0, 23: 1.074664583, 24: 0.0, 25: 0.0, 26: 0.0, 27: 0.923164583, 28: 0.968164583, 29: 1.071564583, 30: 1.070564583, 31: 0.07086458299999999, 32: 0.0, 33: 0.0, 34: 0.0, 35: 0.0, 36: 0.808364583, 37: 0.715064583, 38: 0.568364583, 39: 1.095364583, 40: 0.097364583, 41: 0.226464583, 42: 0.349564583, 43: 0.0, 44: 0.0, 45: 0.6588645829999999, 46: 1.140864583, 47: 0.0, 48: 0.0, 49: 0.0, 50: 0.0, 51: 0.827764583, 52: 0.801964583, 53: 1.916864583, 54: 1.234864583, 55: 1.466864583, 56: 0.0, 57: 0.463664583, 58: 0.0, 59: 1.261464583, 60: 0.0, 61: 0.905364583, 62: 0.0, 63: 0.0, 64: 0.0, 65: 1.096664583, 66: 1.103864583, 67: 1.102564583, 68: 0.022864583, 69: 1.106664583, 70: 0.143864583, 71: 0.0, 72: 0.0, 73: 0.078364583, 74: 1.077364583, 75: 0.076364583, 76: 0.0, 77: 0.07366458300000001, 78: 1.073164583, 79: 0.0, 80: 0.073864583, 81: 0.0, 82: 0.071064583, 83: 1.070364583, 84: 0.071064583, 85: 0.089364583, 86: 0.0, 87: 0.0, 88: 0.09206458300000001, 89: 0.0, 90: 0.0, 91: 0.0, 92: 1.309864583, 93: 0.309064583, 94: 1.275364583, 95: 0.0, 96: 0.250064583, 97: 0.0, 98: 1.213864583, 99: 1.205164583, 100: 1.204864583, 101: 1.210664583, 102: 1.209164583, 103: 0.214064583, 104: 0.213564583, 105: 1.213864583, 106: 0.218864583, 107: 0.0, 108: 1.211364583, 109: 0.218564583, 110: 1.215364583, 111: 1.213364583, 112: 0.0, 113: 1.530364583, 114: 0.0, 115: 0.0, 116: 0.0, 117: 1.156164583, 118: 0.363864583, 119: 0.0, 120: 2.178664583, 121: 0.255864583, 122: 1.221464583, 123: 0.221064583, 124: 1.097564583, 125: 1.022764583, 126: 0.219564583, 127: 0.0, 128: 0.0, 129: 1.214864583, 130: 0.211364583, 131: 0.665364583, 132: 0.0, 133: 0.0, 134: 0.0, 135: 1.084864583, 136: 0.0, 137: 0.0, 138: 0.0, 139: 0.353364583, 140: 0.0, 141: 0.0, 142: 0.0, 143: 0.0, 144: 0.0, 145: 0.0, 146: 0.569864583, 147: 1.103164583, 148: 0.120164583, 149: 0.217664583, 150: 0.853864583, 151: 0.0, 152: 0.0, 153: 0.0, 154: 1.437864583, 155: 0.403364583, 156: 0.0, 157: 0.0, 158: 0.0, 159: 0.0, 160: 1.106664583, 161: 0.105364583, 162: 0.781164583, 163: 1.128364583, 164: 0.0, 165: 0.0, 166: 0.0, 167: 1.108864583, 168: 0.0, 169: 0.085064583, 170: 1.094064583, 171: 0.09306458300000001, 172: 1.079664583, 173: 1.070564583, 174: 0.0, 175: 1.079664583, 176: 0.097664583, 177: 0.0, 178: 0.0, 179: 0.088364583, 180: 0.0, 181: 1.098664583, 182: 1.134364583, 183: 1.090164583, 184: 1.105364583, 185: 0.0, 186: 0.334364583, 187: 0.0, 188: 1.328664583, 189: 1.341664583, 190: 0.0, 191: 0.0];
sell = [0: 0.0, 1: 0.664635417, 2: 0.6636354169999999, 3: 0.0, 4: 0.0, 5: 0.674435417, 6: 0.0, 7: 0.0, 8: 0.0, 9: 0.0, 10: 0.674135417, 11: 0.0, 12: 0.810135417, 13: 0.0, 14: 0.811135417, 15: 0.0, 16: 0.0, 17: 0.8108354169999999, 18: 0.0, 19: 0.8108354169999999, 20: 0.812335417, 21: 0.811335417, 22: 0.811135417, 23: 0.0, 24: 0.794135417, 25: 0.865635417, 26: 0.0, 27: 0.0, 28: 0.0, 29: 0.0, 30: 0.0, 31: 0.0, 32: 0.934435417, 33: 0.08573541699999999, 34: 0.137635417, 35: 1.114635417, 36: 0.0, 37: 0.0, 38: 0.0, 39: 0.0, 40: 0.0, 41: 0.0, 42: 0.0, 43: 0.5356354169999999, 44: 1.187635417, 45: 0.0, 46: 0.0, 47: 0.806435417, 48: 1.196435417, 49: 0.750635417, 50: 0.746135417, 51: 0.0, 52: 0.0, 53: 0.0, 54: 0.0, 55: 0.0, 56: 0.641835417, 57: 0.0, 58: 0.432135417, 59: 0.0, 60: 0.786135417, 61: 0.0, 62: 0.978135417, 63: 0.807435417, 64: 0.803335417, 65: 0.0, 66: 0.0, 67: 0.0, 68: 0.0, 69: 0.0, 70: 0.0, 71: 0.679935417, 72: 0.821135417, 73: 0.0, 74: 0.0, 75: 0.0, 76: 0.821435417, 77: 0.0, 78: 0.0, 79: 0.0, 80: 0.0, 81: 0.827335417, 82: 0.0, 83: 0.0, 84: 0.0, 85: 0.0, 86: 0.828935417, 87: 0.808435417, 88: 0.0, 89: 0.647935417, 90: 0.593435417, 91: 0.591935417, 92: 0.0, 93: 0.0, 94: 0.0, 95: 0.654935417, 96: 0.0, 97: 0.647935417, 98: 0.0, 99: 0.0, 100: 0.0, 101: 0.0, 102: 0.0, 103: 0.0, 104: 0.0, 105: 0.0, 106: 0.0, 107: 0.6878354169999999, 108: 0.0, 109: 0.0, 110: 0.0, 111: 0.0, 112: 0.404135417, 113: 0.0, 114: 0.341835417, 115: 0.807935417, 116: 0.807935417, 117: 0.0, 118: 0.0, 119: 0.539935417, 120: 0.0, 121: 0.0, 122: 0.0, 123: 0.0, 124: 0.0, 125: 0.0, 126: 0.0, 127: 0.016035417, 128: 0.990435417, 129: 0.0, 130: 0.0, 131: 0.0, 132: 1.145835417, 133: 0.498935417, 134: 1.404135417, 135: 0.0, 136: 2.398635417, 137: 2.901635417, 138: 2.132835417, 139: 0.0, 140: 1.823435417, 141: 1.921835417, 142: 0.803635417, 143: 0.0, 144: 0.800935417, 145: 0.797435417, 146: 0.0, 147: 0.0, 148: 0.0, 149: 0.0, 150: 0.0, 151: 0.0, 152: 0.468635417, 153: 0.462935417, 154: 0.0, 155: 0.0, 156: 2.028835417, 157: 0.0, 158: 0.789835417, 159: 0.783135417, 160: 0.0, 161: 0.0, 162: 0.0, 163: 0.0, 164: 0.898935417, 165: 0.7826354170000001, 166: 0.770435417, 167: 0.0, 168: 0.584535417, 169: 0.0, 170: 0.0, 171: 0.0, 172: 0.0, 173: 0.0, 174: 0.827635417, 175: 0.0, 176: 0.0, 177: 0.0, 178: 0.810335417, 179: 0.0, 180: 0.801335417, 181: 0.0, 182: 0.0, 183: 0.0, 184: 0.0, 185: 0.622635417, 186: 0.0, 187: 0.571335417, 188: 0.0, 189: 0.0, 190: 0.557335417, 191: 0.593635417];
charge = [0: 1.0, 1: 0.0, 2: 0.0, 3: 0.0, 4: 0.0, 5: 0.0, 6: 1.0, 7: 0.779821132, 8: 0.0, 9: 0.0, 10: 0.0, 11: 1.0, 12: 0.0, 13: 1.0, 14: 0.0, 15: 1.0, 16: 0.0, 17: 0.0, 18: 1.0, 19: 0.0, 20: 0.0, 21: 0.0, 22: 0.0, 23: 1.0, 24: 0.0, 25: 0.0, 26: 0.0, 27: 1.0, 28: 1.0, 29: 1.0, 30: 1.0, 31: 0.0, 32: 0.0, 33: 0.0, 34: 0.0, 35: 0.0, 36: 1.0, 37: 1.0, 38: 1.0, 39: 1.0, 40: 0.0, 41: 1.0, 42: 1.0, 43: 0.0, 44: 0.0, 45: 1.0, 46: 1.0, 47: 0.0, 48: 0.0, 49: 0.0, 50: 0.0, 51: 1.0, 52: 1.0, 53: 1.0, 54: 1.0, 55: 1.0, 56: 0.0, 57: 0.0, 58: 0.0, 59: 1.0, 60: 0.0, 61: 1.0, 62: 0.0, 63: 0.0, 64: 0.0, 65: 1.0, 66: 1.0, 67: 1.0, 68: 0.0, 69: 1.0, 70: 0.0, 71: 0.0, 72: 0.0, 73: 0.0, 74: 1.0, 75: 0.0, 76: 0.0, 77: 0.0, 78: 1.0, 79: 0.0, 80: 0.0, 81: 0.0, 82: 0.0, 83: 1.0, 84: 0.0, 85: 0.0, 86: 0.0, 87: 0.0, 88: 0.0, 89: 0.0, 90: 0.0, 91: 0.0, 92: 1.0, 93: 0.0, 94: 1.0, 95: 0.0, 96: 0.0, 97: 0.0, 98: 1.0, 99: 1.0, 100: 1.0, 101: 1.0, 102: 1.0, 103: 0.0, 104: 0.0, 105: 1.0, 106: 0.0, 107: 0.0, 108: 1.0, 109: 0.0, 110: 1.0, 111: 1.0, 112: 0.0, 113: 1.0, 114: 0.0, 115: 0.0, 116: 0.0, 117: 1.0, 118: 0.0, 119: 0.0, 120: 1.0, 121: 0.0, 122: 1.0, 123: 0.0, 124: 1.0, 125: 1.0, 126: 0.0, 127: 0.0, 128: 0.0, 129: 1.0, 130: 0.0, 131: 1.0, 132: 0.0, 133: 0.0, 134: 0.0, 135: 1.0, 136: 0.0, 137: 0.0, 138: 0.0, 139: 1.0, 140: 0.0, 141: 0.0, 142: 0.0, 143: 0.0, 144: 0.0, 145: 0.0, 146: 1.0, 147: 1.0, 148: 0.0, 149: 0.0, 150: 0.0, 151: 0.0, 152: 0.0, 153: 0.0, 154: 1.0, 155: 0.0, 156: 0.0, 157: 0.168335417, 158: 0.0, 159: 0.0, 160: 1.0, 161: 0.0, 162: 1.0, 163: 1.0, 164: 0.0, 165: 0.0, 166: 0.0, 167: 1.0, 168: 0.0, 169: 0.0, 170: 1.0, 171: 0.0, 172: 1.0, 173: 1.0, 174: 0.0, 175: 1.0, 176: 0.0, 177: 0.0, 178: 0.0, 179: 0.0, 180: 0.0, 181: 1.0, 182: 1.0, 183: 1.0, 184: 1.0, 185: 0.0, 186: 0.0, 187: 0.0, 188: 1.0, 189: 1.0, 190: 0.0, 191: 0.0];
discharge = [0: 0.0, 1: 1.0, 2: 1.0, 3: 0.0, 4: 0.0, 5: 1.0, 6: 0.0, 7: 0.0, 8: 0.0, 9: 0.0, 10: 1.0, 11: 0.0, 12: 1.0, 13: 0.0, 14: 1.0, 15: 0.0, 16: 0.0, 17: 1.0, 18: 0.0, 19: 1.0, 20: 1.0, 21: 1.0, 22: 1.0, 23: 0.0, 24: 1.0, 25: 1.0, 26: 0.0, 27: 0.0, 28: 0.0, 29: 0.0, 30: 0.0, 31: 0.0, 32: 1.0, 33: 0.0, 34: 0.0, 35: 1.0, 36: 0.0, 37: 0.0, 38: 0.0, 39: 0.0, 40: 0.0, 41: 0.0, 42: 0.0, 43: 1.0, 44: 1.0, 45: 0.0, 46: 0.0, 47: 1.0, 48: 1.0, 49: 1.0, 50: 1.0, 51: 0.0, 52: 0.0, 53: 0.0, 54: 0.0, 55: 0.0, 56: 1.0, 57: 0.0, 58: 1.0, 59: 0.0, 60: 1.0, 61: 0.0, 62: 1.0, 63: 1.0, 64: 1.0, 65: 0.0, 66: 0.0, 67: 0.0, 68: 0.0, 69: 0.0, 70: 0.0, 71: 1.0, 72: 1.0, 73: 0.0, 74: 0.0, 75: 0.0, 76: 1.0, 77: 0.0, 78: 0.0, 79: 0.080738426, 80: 0.0, 81: 1.0, 82: 0.0, 83: 0.0, 84: 0.0, 85: 0.0, 86: 1.0, 87: 1.0, 88: 0.0, 89: 1.0, 90: 1.0, 91: 1.0, 92: 0.0, 93: 0.0, 94: 0.0, 95: 1.0, 96: 0.0, 97: 1.0, 98: 0.0, 99: 0.0, 100: 0.0, 101: 0.0, 102: 0.0, 103: 0.0, 104: 0.0, 105: 0.0, 106: 0.0, 107: 1.0, 108: 0.0, 109: 0.0, 110: 0.0, 111: 0.0, 112: 1.0, 113: 0.0, 114: 1.0, 115: 1.0, 116: 1.0, 117: 0.0, 118: 0.0, 119: 1.0, 120: 0.0, 121: 0.0, 122: 0.0, 123: 0.0, 124: 0.0, 125: 0.0, 126: 0.0, 127: 0.0, 128: 1.0, 129: 0.0, 130: 0.0, 131: 0.0, 132: 1.0, 133: 0.0, 134: 0.0, 135: 0.0, 136: 1.0, 137: 1.0, 138: 1.0, 139: 0.0, 140: 1.0, 141: 0.0, 142: 1.0, 143: 0.0, 144: 1.0, 145: 1.0, 146: 0.0, 147: 0.0, 148: 0.0, 149: 0.0, 150: 0.0, 151: 0.0, 152: 1.0, 153: 1.0, 154: 0.0, 155: 0.0, 156: 1.0, 157: 0.0, 158: 1.0, 159: 1.0, 160: 0.0, 161: 0.0, 162: 0.0, 163: 0.0, 164: 1.0, 165: 1.0, 166: 1.0, 167: 0.0, 168: 1.0, 169: 0.0, 170: 0.0, 171: 0.0, 172: 0.0, 173: 0.0, 174: 1.0, 175: 0.0, 176: 0.0, 177: 0.107960648, 178: 1.0, 179: 0.0, 180: 1.0, 181: 0.0, 182: 0.0, 183: 0.0, 184: 0.0, 185: 1.0, 186: 0.0, 187: 1.0, 188: 0.0, 189: 0.0, 190: 1.0, 191: 1.0];
soc = [0: 10.14815, 1: 9.14612037, 2: 8.144291146, 3: 8.142662288, 4: 8.141033755, 5: 7.139405548, 6: 8.037977667, 7: 8.73820909, 8: 8.736461448, 9: 8.734714156000001, 10: 7.732967213, 11: 8.63142062, 12: 7.629694336, 13: 8.528168397, 14: 7.526462763, 15: 8.424957471000001, 16: 8.423272479, 17: 7.421587825, 18: 8.320103507000001, 19: 7.318439486, 20: 6.316975798, 21: 5.315712403, 22: 4.314649261, 23: 5.213786331, 24: 4.212743574, 25: 3.211901025, 26: 3.211258645, 27: 4.110616393, 28: 5.00979427, 29: 5.908792311, 30: 6.807610552, 31: 6.80624903, 32: 5.804887781, 33: 5.803726803, 34: 5.802566058, 35: 4.801405544, 36: 5.700445263, 37: 6.599305174, 38: 7.497985313, 39: 8.396485716000001, 40: 8.394806419, 41: 9.293127458000001, 42: 10.191268832, 43: 9.189230578, 44: 8.187392731999999, 45: 9.085755254, 46: 9.983938103, 47: 8.981941315, 48: 7.980144927, 49: 6.978548898, 50: 5.977153188, 51: 6.875957757, 52: 7.774582566, 53: 8.673027649, 54: 9.571293044000001, 55: 10.469378785, 56: 9.467284909, 57: 9.465391453000001, 58: 8.463498374, 59: 9.361805674999999, 60: 8.359933313000001, 61: 9.258261327, 62: 8.256409674, 63: 7.254758393, 64: 6.253307441, 65: 7.152056779, 66: 8.050626368, 67: 8.949016243000001, 68: 8.94722644, 69: 9.845436994, 70: 9.843467907000001, 71: 8.841499213000001, 72: 7.839730913, 73: 7.838162967, 74: 8.736595335000001, 75: 8.734848016000001, 76: 7.733101046, 77: 7.731554426, 78: 8.630008115000001, 79: 8.547543686999999, 80: 8.545834179, 81: 7.544125012, 82: 7.542616187, 83: 8.441107663, 84: 8.439419442, 85: 8.437731557999999, 86: 7.436044012, 87: 6.434556803, 88: 6.433269892, 89: 5.431983238, 90: 4.430896841, 91: 3.430010662, 92: 4.329324659, 93: 4.328458795, 94: 5.227593103, 95: 4.226547584, 96: 4.225702275, 97: 3.224857134, 98: 4.124212163, 99: 5.02338732, 100: 5.922382643, 101: 6.821198166, 102: 7.719833927, 103: 7.71828996, 104: 7.716746302, 105: 8.615202953000001, 106: 8.613479912000001, 107: 7.611757216, 108: 8.510234864999999, 109: 8.508532818000001, 110: 9.406831111000001, 111: 10.304949745, 112: 9.302888755, 113: 10.201028177, 114: 9.198987971999999, 115: 8.197148174000001, 116: 7.195508744, 117: 8.094069642999999, 118: 8.092450829000001, 119: 7.090832338, 120: 7.989414172, 121: 7.987816289, 122: 8.886218725999999, 123: 8.884441482, 124: 9.782664594, 125: 10.680708061, 126: 10.678571919, 127: 10.676436205, 128: 9.674300918, 129: 10.572366058, 130: 10.570251584, 131: 11.468137534, 132: 10.465843907, 133: 10.463750738, 134: 10.461657988, 135: 11.359565656, 136: 10.357293743, 137: 9.355222284, 138: 8.35335124, 139: 9.251680568999999, 140: 8.249830233000001, 141: 8.248180267, 142: 7.246530631, 143: 7.245081325, 144: 6.243632309, 145: 5.242383582, 146: 6.141335106, 147: 7.040106839, 148: 7.038698817, 149: 7.037291077, 150: 7.035883619, 151: 7.034476443, 152: 6.033069547, 153: 5.031862933, 154: 5.930856561, 155: 5.929670389, 156: 4.928484455, 157: 5.079000633, 158: 4.077984833, 159: 3.077169236, 160: 3.976553803, 161: 3.975758492, 162: 4.87496334, 163: 5.773988347, 164: 4.77283355, 165: 3.771878983, 166: 2.771124607, 167: 3.670570382, 168: 2.669836268, 169: 2.669302301, 170: 3.56876844, 171: 3.568054687, 172: 4.467341076, 173: 5.366447608, 174: 4.365374318, 175: 5.264501243, 176: 5.263448343, 177: 5.154435005, 178: 4.153404118, 179: 4.152573437, 180: 3.151742923, 181: 4.051112574, 182: 4.950302352, 183: 5.849312291, 184: 6.748142429, 185: 5.7467928, 186: 5.745643442, 187: 4.744494313, 188: 5.643545414, 189: 6.542416705, 190: 5.541108222, 191: 4.54];
cost = [0: 0.872556939, 1: 0.0, 2: 0.0, 3: 0.145922374, 4: 0.139019204, 5: 0.0, 6: 0.866570119, 7: 0.706531234, 8: 0.138713754, 9: 0.139202474, 10: 0.0, 11: 0.858689509, 12: 0.0, 13: 0.783670989, 14: 0.0, 15: 0.782265919, 16: 0.055692444, 17: 0.0, 18: 0.782449189, 19: 0.0, 20: 0.0, 21: 0.0, 22: 0.0, 23: 0.774690759, 24: 0.0, 25: 0.0, 26: 0.0, 27: 1.216374754, 28: 1.269906754, 29: 1.392911394, 30: 1.391721794, 31: 0.084300508, 32: 0.0, 33: 0.0, 34: 0.0, 35: 0.0, 36: 1.079808674, 37: 0.968818994, 38: 0.794304674, 39: 1.421223874, 40: 0.115824908, 41: 0.387580434, 42: 0.534020194, 43: 0.0, 44: 0.0, 45: 0.901963474, 46: 1.475350674, 47: 0.0, 48: 0.0, 49: 0.0, 50: 0.0, 51: 1.102886914, 52: 0.608098329, 53: 1.289190739, 54: 0.872556939, 55: 1.014285739, 56: 0.0, 57: 0.283252694, 58: 0.0, 59: 0.888806879, 60: 0.0, 61: 1.195199874, 62: 0.0, 63: 0.0, 64: 0.0, 65: 1.422770354, 66: 1.431335474, 67: 1.429788994, 68: 0.027199708, 69: 1.434666354, 70: 0.171141308, 71: 0.0, 72: 0.0, 73: 0.093222508, 74: 1.399811074, 75: 0.090843308, 76: 0.0, 77: 0.087631388, 78: 1.394814754, 79: 0.0, 80: 0.08786930799999999, 81: 0.0, 82: 0.084538428, 83: 1.391483874, 84: 0.084538428, 85: 0.106308108, 86: 0.0, 87: 0.0, 88: 0.056242254, 89: 0.0, 90: 0.0, 91: 0.0, 92: 0.918374439, 93: 0.188807554, 94: 0.897298389, 95: 0.0, 96: 0.152764454, 97: 0.0, 98: 0.8597280390000001, 99: 0.854413209, 100: 0.854229939, 101: 0.857773159, 102: 0.8568568090000001, 103: 0.130772054, 104: 0.130466604, 105: 0.8597280390000001, 106: 0.133704374, 107: 0.0, 108: 0.858200789, 109: 0.133521104, 110: 0.860644389, 111: 0.859422589, 112: 0.0, 113: 1.053077889, 114: 0.0, 115: 0.0, 116: 0.0, 117: 0.824479109, 118: 0.222284874, 119: 0.0, 120: 2.709917554, 121: 0.304376508, 122: 1.571232434, 123: 0.262978428, 124: 1.423840994, 125: 1.334858914, 126: 0.261194028, 127: 0.0, 128: 0.0, 129: 1.563381074, 130: 0.251439308, 131: 0.909695874, 132: 0.0, 133: 0.0, 134: 0.0, 135: 1.408733074, 136: 0.0, 137: 0.0, 138: 0.0, 139: 0.5385406740000001, 140: 0.0, 141: 0.0, 142: 0.0, 143: 0.0, 144: 0.0, 145: 0.0, 146: 0.796089074, 147: 1.430502754, 148: 0.07340854400000001, 149: 0.132971294, 150: 0.521625874, 151: 0.0, 152: 0.0, 153: 0.0, 154: 0.996569639, 155: 0.246415424, 156: 0.0, 157: 0.019893571, 158: 0.0, 159: 0.0, 160: 1.434666354, 161: 0.125341708, 162: 1.047451554, 163: 1.460480674, 164: 0.0, 165: 0.0, 166: 0.0, 167: 1.437283474, 168: 0.0, 169: 0.101192828, 170: 1.419677394, 171: 0.110709628, 172: 1.402547154, 173: 1.391721794, 174: 0.0, 175: 1.402547154, 176: 0.116181788, 177: 0.0, 178: 0.0, 179: 0.105118508, 180: 0.0, 181: 1.425149554, 182: 1.467618274, 183: 1.415037954, 184: 0.7934453889999999, 185: 0.0, 186: 0.204263324, 187: 0.0, 188: 0.9298593590000001, 189: 0.937801059, 190: 0.0, 191: 0.0];
earn = [0: 0.0, 1: 0.505920479, 2: 0.491820207, 3: 0.0, 4: 0.0, 5: 0.482153879, 6: 0.0, 7: 0.0, 8: 0.0, 9: 0.0, 10: 0.482276477, 11: 0.0, 12: 0.579246823, 13: 0.0, 14: 0.588316518, 15: 0.0, 16: 0.0, 17: 0.587288092, 18: 0.0, 19: 0.618343089, 20: 0.620055624, 21: 0.63868324, 22: 0.679731479, 23: 0.0, 24: 0.737195907, 25: 0.837761956, 26: 0.0, 27: 0.0, 28: 0.0, 29: 0.0, 30: 0.0, 31: 0.0, 32: 0.810155506, 33: 0.074958475, 34: 0.115462351, 35: 0.837091198, 36: 0.0, 37: 0.0, 38: 0.0, 39: 0.0, 40: 0.0, 41: 0.0, 42: 0.0, 43: 0.294867297, 44: 0.690847522, 45: 0.0, 46: 0.0, 47: 0.452087695, 48: 0.614369586, 49: 0.392131942, 50: 0.390079596, 51: 0.0, 52: 0.0, 53: 0.0, 54: 0.0, 55: 0.0, 56: 0.387861142, 57: 0.0, 58: 0.282227641, 59: 0.0, 60: 0.616723234, 61: 0.0, 62: 0.702007789, 63: 0.609210022, 64: 0.5554261069999999, 65: 0.0, 66: 0.0, 67: 0.0, 68: 0.0, 69: 0.0, 70: 0.0, 71: 0.722091413, 72: 0.919671667, 73: 0.0, 74: 0.0, 75: 0.0, 76: 0.99640116, 77: 0.0, 78: 0.0, 79: 0.0, 80: 0.0, 81: 0.743278138, 82: 0.0, 83: 0.0, 84: 0.0, 85: 0.0, 86: 0.69232686, 87: 0.658713178, 88: 0.0, 89: 0.537332841, 90: 0.458072798, 91: 0.445431401, 92: 0.0, 93: 0.0, 94: 0.0, 95: 0.467885862, 96: 0.0, 97: 0.503445819, 98: 0.0, 99: 0.0, 100: 0.0, 101: 0.0, 102: 0.0, 103: 0.0, 104: 0.0, 105: 0.0, 106: 0.0, 107: 0.467521733, 108: 0.0, 109: 0.0, 110: 0.0, 111: 0.0, 112: 0.284632574, 113: 0.0, 114: 0.241916924, 115: 0.571695101, 116: 0.5868842869999999, 117: 0.0, 118: 0.0, 119: 0.401657956, 120: 0.0, 121: 0.0, 122: 0.0, 123: 0.0, 124: 0.0, 125: 0.0, 126: 0.0, 127: 0.009419204, 128: 0.585347331, 129: 0.0, 130: 0.0, 131: 0.0, 132: 0.456615414, 133: 0.161655075, 134: 0.342328215, 135: 0.0, 136: 0.378024942, 137: 0.448592835, 138: 0.262125473, 139: 0.0, 140: 0.070384607, 141: 0.015374683, 142: 0.00498254, 143: 0.0, 144: -0.032598071, 145: -0.033253057, 146: 0.0, 147: 0.0, 148: 0.0, 149: 0.0, 150: 0.0, 151: 0.0, 152: 0.059985333, 153: 0.082680265, 154: 0.0, 155: 0.0, 156: 0.769943041, 157: 0.0, 158: 0.39294312, 159: 0.423049752, 160: 0.0, 161: 0.0, 162: 0.0, 163: 0.0, 164: 0.6648526340000001, 165: 0.6126470040000001, 166: 0.6265951239999999, 167: 0.0, 168: 0.518482915, 169: 0.0, 170: 0.0, 171: 0.0, 172: 0.0, 173: 0.0, 174: 0.704979848, 175: 0.0, 176: 0.0, 177: 0.0, 178: 0.609777401, 179: 0.0, 180: 0.560373857, 181: 0.0, 182: 0.0, 183: 0.0, 184: 0.0, 185: 0.396182916, 186: 0.0, 187: 0.348057536, 188: 0.0, 189: 0.0, 190: 0.319799062, 191: 0.330061292];
total_cost = 86.120877515;
total_earn = 35.462670873;
