production = [0: 0.0, 1: 0.0, 2: 0.0, 3: 0.0, 4: 0.0, 5: 0.0, 6: 0.0, 7: 0.0, 8: 0.0, 9: 0.0, 10: 0.0, 11: 0.0, 12: 0.0, 13: 0.0, 14: 0.0, 15: 0.0, 16: 0.0, 17: 0.0, 18: 0.0, 19: 0.0, 20: 0.0, 21: 0.0, 22: 0.0, 23: 0.0003, 24: 0.0, 25: 0.038, 26: 0.0838, 27: 0.0, 28: 0.1032, 29: 0.0, 30: 0.1355, 31: 0.0, 32: 0.0, 33: 0.0, 34: 0.0, 35: 0.0, 36: 0.0, 37: 0.0, 38: 0.0, 39: 0.5925, 40: 0.824, 41: 0.0, 42: 0.752, 43: 0.474, 44: 0.0, 45: 0.0, 46: 0.393, 47: 0.3777, 48: 0.0, 49: 0.0, 50: 0.3675, 51: 0.2878, 52: 0.0, 53: 0.0, 54: 0.2248, 55: 0.0, 56: 0.2105, 57: 0.199, 58: 0.1988, 59: 0.2062, 60: 0.2305, 61: 0.0, 62: 0.0, 63: 0.1815, 64: 0.2213, 65: 0.0, 66: 0.0, 67: 0.0, 68: 0.0, 69: 0.0505, 70: 0.0, 71: 0.0, 72: 0.0, 73: 0.0, 74: 0.0, 75: 0.0, 76: 0.0, 77: 0.0, 78: 0.0, 79: 0.0, 80: 0.0, 81: 0.0, 82: 0.0, 83: 0.0, 84: 0.0, 85: 0.0, 86: 0.0, 87: 0.0, 88: 0.0, 89: 0.0, 90: 0.0, 91: 0.0, 92: 0.0, 93: 0.0, 94: 0.0, 95: 0.0, 96: 0.0, 97: 0.0, 98: 0.0, 99: 0.0, 100: 0.0, 101: 0.0, 102: 0.0, 103: 0.0, 104: 0.0, 105: 0.0, 106: 0.0, 107: 0.0, 108: 0.0, 109: 0.0, 110: 0.0, 111: 0.0, 112: 0.0, 113: 0.0, 114: 0.0, 115: 0.0, 116: 0.0, 117: 0.0, 118: 0.0, 119: 0.0003, 120: 0.0015, 121: 0.008500000000000001, 122: 0.0432, 123: 0.075, 124: 0.1205, 125: 0.1938, 126: 0.0, 127: 0.0, 128: 0.0, 129: 0.1725, 130: 0.0, 131: 0.0, 132: 0.4495, 133: 0.0, 134: 1.4868, 135: 1.8858, 136: 1.5822, 137: 1.083164583, 138: 1.3142, 139: 0.729, 140: 1.0395, 141: 2.017, 142: 0.0, 143: 0.0, 144: 2.108, 145: 1.1145, 146: 0.0, 147: 0.0, 148: 1.1298, 149: 0.5545, 150: 0.0, 151: 1.6955, 152: 0.63, 153: 0.4012, 154: 0.3528, 155: 0.0, 156: 0.0, 157: 0.2812, 158: 0.0, 159: 0.9045, 160: 0.0, 161: 0.0, 162: 0.3412, 163: 0.099, 164: 0.115, 165: 0.0, 166: 0.058, 167: 0.0307, 168: 0.0107, 169: 0.0003, 170: 0.0, 171: 0.0, 172: 0.0, 173: 0.0, 174: 0.0, 175: 0.0, 176: 0.0, 177: 0.0, 178: 0.0, 179: 0.0, 180: 0.0, 181: 0.0, 182: 0.0, 183: 0.0, 184: 0.0, 185: 0.0, 186: 0.0, 187: 0.0, 188: 0.0, 189: 0.0, 190: 0.0, 191: 0.0];
buy = [0: 0.0, 1: 0.235364583, 2: 0.236364583, 3: 0.0, 4: 0.0, 5: 0.0, 6: 1.225064583, 7: 0.0, 8: 1.227064583, 9: 1.227864583, 10: 1.225864583, 11: 0.0, 12: 1.089864583, 13: 0.089364583, 14: 0.088864583, 15: 0.087064583, 16: 0.0, 17: 1.089164583, 18: 0.0, 19: 0.0, 20: 0.0, 21: 1.088664583, 22: 0.0, 23: 0.074364583, 24: 0.105864583, 25: 1.034364583, 26: 0.0, 27: 1.072164583, 28: 0.0, 29: 1.071564583, 30: 0.9350645829999999, 31: 1.070864583, 32: 1.071064583, 33: 0.0, 34: 1.070564583, 35: 0.0, 36: 0.085064583, 37: 1.070564583, 38: 1.096164583, 39: 0.0, 40: 0.273364583, 41: 0.0, 42: 0.349564583, 43: 0.212843969, 44: 0.0, 45: 0.0, 46: 0.0, 47: 0.715864583, 48: 1.093564583, 49: 1.594864583, 50: 0.786364583, 51: 0.827764583, 52: 1.119664583, 53: 1.916864583, 54: 1.234864583, 55: 0.0, 56: 0.0, 57: 1.264664583, 58: 0.0, 59: 0.0, 60: 0.883364583, 61: 0.0, 62: 1.094064583, 63: 0.911064583, 64: 0.0, 65: 1.096664583, 66: 0.0, 67: 0.102564583, 68: 0.0, 69: 0.056164583, 70: 0.143864583, 71: 0.0, 72: 0.0, 73: 0.078364583, 74: 0.077364583, 75: 1.076364583, 76: 0.07856458299999999, 77: 0.07366458300000001, 78: 0.07316458300000001, 79: 0.072664583, 80: 1.073864583, 81: 0.072664583, 82: 1.071064583, 83: 1.070364583, 84: 0.0, 85: 0.0, 86: 1.071064583, 87: 1.091564583, 88: 0.0, 89: 1.252064583, 90: 0.0, 91: 1.308064583, 92: 0.0, 93: 0.0, 94: 0.275364583, 95: 1.245064583, 96: 1.250064583, 97: 0.0, 98: 0.0, 99: 0.0, 100: 0.0, 101: 0.0, 102: 0.209164583, 103: 0.0, 104: 1.213564583, 105: 1.213864583, 106: 0.0, 107: 1.212164583, 108: 1.211364583, 109: 0.218564583, 110: 0.0, 111: 1.213364583, 112: 0.0, 113: 1.452968479, 114: 0.558164583, 115: 1.092064583, 116: 0.09206458300000001, 117: 1.156164583, 118: 0.363864583, 119: 1.360064583, 120: 2.178664583, 121: 0.0, 122: 0.0, 123: 0.0, 124: 0.0, 125: 1.022764583, 126: 1.219564583, 127: 0.0, 128: 0.0, 129: 0.042364583, 130: 0.0, 131: 1.205864583, 132: 0.0, 133: 1.084064583, 134: 0.0, 135: 0.0, 136: 0.0, 137: 0.0, 138: 0.0, 139: 0.0, 140: 0.0, 141: 0.0, 142: 1.096364583, 143: 0.0, 144: 0.0, 145: 0.0, 146: 1.100364583, 147: 0.0, 148: 0.0, 149: 0.0, 150: 0.0, 151: 0.0, 152: 0.0, 153: 0.0, 154: 0.0, 155: 0.403364583, 156: 1.108864583, 157: 0.0, 158: 1.110164583, 159: 0.212364583, 160: 1.106664583, 161: 1.105364583, 162: 0.0, 163: 1.029364583, 164: 0.0, 165: 0.117364583, 166: 0.071564583, 167: 1.078164583, 168: 0.315464583, 169: 0.084764583, 170: 1.094064583, 171: 0.09306458300000001, 172: 0.0, 173: 1.070564583, 174: 1.072364583, 175: 0.0, 176: 1.097664583, 177: 0.0, 178: 0.0, 179: 0.0, 180: 0.0, 181: 0.0, 182: 1.134364583, 183: 0.09016458300000001, 184: 0.105364583, 185: 0.0, 186: 1.334364583, 187: 0.0, 188: 1.328664583, 189: 1.341664583, 190: 1.342664583, 191: 0.0];
sell = [0: 0.665135417, 1: 0.0, 2: 0.0, 3: 0.661135417, 4: 0.672435417, 5: 0.674435417, 6: 0.0, 7: 0.674135417, 8: 0.0, 9: 0.0, 10: 0.0, 11: 0.6878354169999999, 12: 0.0, 13: 0.0, 14: 0.0, 15: 0.0, 16: 0.0, 17: 0.0, 18: 0.812635417, 19: 0.8108354169999999, 20: 0.812335417, 21: 0.0, 22: 0.811135417, 23: 0.0, 24: 0.0, 25: 0.0, 26: 0.9116354169999999, 27: 0.0, 28: 0.9318354170000001, 29: 0.0, 30: 0.0, 31: 0.0, 32: 0.0, 33: 0.828435417, 34: 0.0, 35: 0.0, 36: 0.0, 37: 0.0, 38: 0.0, 39: 1.397135417, 40: 0.0, 41: 0.795335417, 42: 0.0, 43: 0.0, 44: 0.796135417, 45: 0.798935417, 46: 0.252135417, 47: 0.0, 48: 0.0, 49: 0.0, 50: 0.0, 51: 0.0, 52: 0.0, 53: 0.0, 54: 0.0, 55: 0.433135417, 56: 0.641835417, 57: 0.0, 58: 0.630935417, 59: 0.160527436, 60: 0.0, 61: 0.792135417, 62: 0.0, 63: 0.0, 64: 0.124635417, 65: 0.0, 66: 0.392023032, 67: 0.0, 68: 0.787935417, 69: 0.0, 70: 0.0, 71: 0.679935417, 72: 0.821135417, 73: 0.0, 74: 0.0, 75: 0.0, 76: 0.0, 77: 0.0, 78: 0.0, 79: 0.0, 80: 0.0, 81: 0.0, 82: 0.0, 83: 0.0, 84: 0.828935417, 85: 0.810635417, 86: 0.0, 87: 0.0, 88: 0.807935417, 89: 0.0, 90: 0.593435417, 91: 0.0, 92: 0.5901354170000001, 93: 0.590935417, 94: 0.0, 95: 0.0, 96: 0.0, 97: 0.647935417, 98: 0.686135417, 99: 0.694835417, 100: 0.695135417, 101: 0.0, 102: 0.0, 103: 0.685935417, 104: 0.0, 105: 0.0, 106: 0.681135417, 107: 0.0, 108: 0.0, 109: 0.0, 110: 0.684635417, 111: 0.0, 112: 0.404135417, 113: 0.0, 114: 0.0, 115: 0.0, 116: 0.0, 117: 0.0, 118: 0.0, 119: 0.0, 120: 0.0, 121: 0.644135417, 122: 0.678535417, 123: 0.753935417, 124: 0.802435417, 125: 0.0, 126: 0.0, 127: 0.699335417, 128: 0.685935417, 129: 0.0, 130: 0.688635417, 131: 0.0, 132: 0.245835417, 133: 0.0, 134: 2.304135417, 135: 2.700935417, 136: 1.498635417, 137: 0.0, 138: 2.132835417, 139: 1.546635417, 140: 0.0, 141: 2.821835417, 142: 0.0, 143: 0.796835417, 144: 2.008935417, 145: 1.911935417, 146: 0.0, 147: 0.796835417, 148: 0.009635417, 149: 0.574514696, 150: 0.046135417, 151: 1.725135417, 152: 1.098635417, 153: 0.864135417, 154: 0.8149354170000001, 155: 0.0, 156: 0.0, 157: 1.068335417, 158: 0.0, 159: 0.0, 160: 0.0, 161: 0.0, 162: 0.218835417, 163: 0.0, 164: 0.898935417, 165: 0.0, 166: 0.0, 167: 0.0, 168: 0.0, 169: 0.0, 170: 0.0, 171: 0.0, 172: 0.820335417, 173: 0.0, 174: 0.0, 175: 0.820335417, 176: 0.0, 177: 0.8028354170000001, 178: 0.810335417, 179: 0.811635417, 180: 0.801335417, 181: 0.801335417, 182: 0.0, 183: 0.0, 184: 0.0, 185: 0.622635417, 186: 0.0, 187: 0.571335417, 188: 0.0, 189: 0.0, 190: 0.0, 191: 0.593635417];
charge = [0: 0.0, 1: 0.0, 2: 0.0, 3: 0.0, 4: 0.0, 5: 0.0, 6: 1.0, 7: 0.0, 8: 1.0, 9: 1.0, 10: 1.0, 11: 0.0, 12: 1.0, 13: 0.0, 14: 0.0, 15: 0.0, 16: 0.0, 17: 1.0, 18: 0.0, 19: 0.0, 20: 0.0, 21: 1.0, 22: 0.0, 23: 0.0, 24: 0.0, 25: 1.0, 26: 0.0, 27: 1.0, 28: 0.0, 29: 1.0, 30: 1.0, 31: 1.0, 32: 1.0, 33: 0.0, 34: 1.0, 35: 0.0, 36: 0.0, 37: 1.0, 38: 1.0, 39: 0.0, 40: 1.0, 41: 0.0, 42: 1.0, 43: 0.322479385, 44: 0.0, 45: 0.0, 46: 0.0, 47: 1.0, 48: 1.0, 49: 1.0, 50: 1.0, 51: 1.0, 52: 1.0, 53: 1.0, 54: 1.0, 55: 0.0, 56: 0.0, 57: 1.0, 58: 0.0, 59: 0.0, 60: 1.0, 61: 0.0, 62: 1.0, 63: 1.0, 64: 0.0, 65: 1.0, 66: 0.0, 67: 0.0, 68: 0.0, 69: 0.0, 70: 0.0, 71: 0.0, 72: 0.0, 73: 0.0, 74: 0.0, 75: 1.0, 76: 0.0, 77: 0.0, 78: 0.0, 79: 0.0, 80: 1.0, 81: 0.0, 82: 1.0, 83: 1.0, 84: 0.0, 85: 0.0, 86: 1.0, 87: 1.0, 88: 0.0, 89: 1.0, 90: 0.0, 91: 1.0, 92: 0.0, 93: 0.0, 94: 0.0, 95: 1.0, 96: 1.0, 97: 0.0, 98: 0.0, 99: 0.0, 100: 0.0, 101: 0.0, 102: 0.0, 103: 0.0, 104: 1.0, 105: 1.0, 106: 0.0, 107: 1.0, 108: 1.0, 109: 0.0, 110: 0.0, 111: 1.0, 112: 0.0, 113: 0.922603895, 114: 0.0, 115: 1.0, 116: 0.0, 117: 1.0, 118: 0.0, 119: 1.0, 120: 1.0, 121: 0.0, 122: 0.0, 123: 0.0, 124: 0.0, 125: 1.0, 126: 1.0, 127: 0.0, 128: 0.0, 129: 0.0, 130: 0.0, 131: 1.0, 132: 0.0, 133: 1.0, 134: 0.0, 135: 0.0, 136: 0.0, 137: 1.0, 138: 0.0, 139: 0.0, 140: 0.923435417, 141: 0.0, 142: 1.0, 143: 0.0, 144: 0.0, 145: 0.0, 146: 1.0, 147: 0.0, 148: 1.0, 149: 0.0, 150: 0.0, 151: 0.0, 152: 0.0, 153: 0.0, 154: 0.0, 155: 0.0, 156: 1.0, 157: 0.0, 158: 1.0, 159: 1.0, 160: 1.0, 161: 1.0, 162: 0.0, 163: 1.0, 164: 0.0, 165: 0.0, 166: 0.0, 167: 1.0, 168: 0.0, 169: 0.0, 170: 1.0, 171: 0.0, 172: 0.0, 173: 1.0, 174: 1.0, 175: 0.0, 176: 1.0, 177: 0.0, 178: 0.0, 179: 0.0, 180: 0.0, 181: 0.0, 182: 1.0, 183: 0.0, 184: 0.0, 185: 0.0, 186: 1.0, 187: 0.0, 188: 1.0, 189: 1.0, 190: 1.0, 191: 0.0];
discharge = [0: 1.0, 1: 0.0, 2: 0.0, 3: 1.0, 4: 1.0, 5: 1.0, 6: 0.0, 7: 1.0, 8: 0.0, 9: 0.0, 10: 0.0, 11: 1.0, 12: 0.0, 13: 0.0, 14: 0.0, 15: 0.0, 16: 0.101293981, 17: 0.0, 18: 1.0, 19: 1.0, 20: 1.0, 21: 0.0, 22: 1.0, 23: 0.0, 24: 0.0, 25: 0.0, 26: 1.0, 27: 0.0, 28: 1.0, 29: 0.0, 30: 0.0, 31: 0.0, 32: 0.0, 33: 1.0, 34: 0.0, 35: 0.079293981, 36: 0.0, 37: 0.0, 38: 0.0, 39: 1.0, 40: 0.0, 41: 1.0, 42: 0.0, 43: 0.0, 44: 1.0, 45: 1.0, 46: 0.0, 47: 0.0, 48: 0.0, 49: 0.0, 50: 0.0, 51: 0.0, 52: 0.0, 53: 0.0, 54: 0.0, 55: 1.0, 56: 1.0, 57: 0.0, 58: 1.0, 59: 0.468880022, 60: 0.0, 61: 1.0, 62: 0.0, 63: 0.0, 64: 0.0, 65: 0.0, 66: 0.550986239, 67: 0.0, 68: 1.0, 69: 0.0, 70: 0.0, 71: 1.0, 72: 1.0, 73: 0.0, 74: 0.0, 75: 0.0, 76: 0.0, 77: 0.0, 78: 0.0, 79: 0.0, 80: 0.0, 81: 0.0, 82: 0.0, 83: 0.0, 84: 1.0, 85: 1.0, 86: 0.0, 87: 0.0, 88: 1.0, 89: 0.0, 90: 1.0, 91: 0.0, 92: 1.0, 93: 1.0, 94: 0.0, 95: 0.0, 96: 0.0, 97: 1.0, 98: 1.0, 99: 1.0, 100: 1.0, 101: 0.234071759, 102: 0.0, 103: 1.0, 104: 0.0, 105: 0.0, 106: 1.0, 107: 0.0, 108: 0.0, 109: 0.0, 110: 1.0, 111: 0.0, 112: 1.0, 113: 0.0, 114: 0.0, 115: 0.0, 116: 0.0, 117: 0.0, 118: 0.0, 119: 0.0, 120: 0.0, 121: 1.0, 122: 1.0, 123: 1.0, 124: 1.0, 125: 0.0, 126: 0.0, 127: 1.0, 128: 1.0, 129: 0.0, 130: 1.0, 131: 0.0, 132: 0.0, 133: 0.0, 134: 1.0, 135: 1.0, 136: 0.0, 137: 0.0, 138: 1.0, 139: 1.0, 140: 0.0, 141: 1.0, 142: 0.0, 143: 1.0, 144: 0.0, 145: 1.0, 146: 0.0, 147: 1.0, 148: 0.0, 149: 0.8801992, 150: 1.0, 151: 1.0, 152: 1.0, 153: 1.0, 154: 1.0, 155: 0.0, 156: 0.0, 157: 1.0, 158: 0.0, 159: 0.0, 160: 0.0, 161: 0.0, 162: 0.0, 163: 0.0, 164: 1.0, 165: 0.0, 166: 0.0, 167: 0.0, 168: 0.0, 169: 0.0, 170: 0.0, 171: 0.0, 172: 1.0, 173: 0.0, 174: 0.0, 175: 1.0, 176: 0.0, 177: 1.0, 178: 1.0, 179: 1.0, 180: 1.0, 181: 1.0, 182: 0.0, 183: 0.0, 184: 0.0, 185: 1.0, 186: 0.0, 187: 1.0, 188: 0.0, 189: 0.0, 190: 0.0, 191: 1.0];
soc = [0: 8.248150000000001, 1: 8.24650037, 2: 8.244851069999999, 3: 7.2432021, 4: 6.241753459, 5: 5.240505109, 6: 6.139457008, 7: 5.138229116, 8: 6.03720147, 9: 6.93599403, 10: 7.834606831, 11: 6.83303991, 12: 7.731673302, 13: 7.730126967, 14: 7.728580942, 15: 7.727035226, 16: 7.624195837, 17: 8.522670998000001, 18: 7.520966464, 19: 6.51946227, 20: 5.518158378, 21: 6.417054746, 22: 5.415771335, 23: 5.414688181, 24: 5.413605243, 25: 6.312522522, 26: 5.311260018, 27: 6.210197766, 28: 5.208955726, 29: 6.107913935, 30: 7.006692352, 31: 7.905291014, 32: 8.803709956000001, 33: 7.801949214, 34: 8.700388823999999, 35: 8.619354765000001, 36: 8.617630893999999, 37: 9.515907368000001, 38: 10.414004186, 39: 9.411921384999999, 40: 10.310039001, 41: 9.307976993, 42: 10.206115398, 43: 10.494305622, 44: 9.49220676, 45: 8.490308319, 46: 8.488610256999999, 47: 9.386912535, 48: 10.285035153, 49: 11.182978146, 50: 12.08074155, 51: 12.978325402, 52: 13.875729737, 53: 14.772954591, 54: 15.67, 55: 14.666866, 56: 13.663932627, 57: 14.56119984, 58: 13.5582876, 59: 13.086695921, 60: 13.984078582, 61: 12.981281766, 62: 13.87868551, 63: 14.775909773, 64: 14.772954591, 65: 15.67, 66: 15.115879761, 67: 15.112856585, 68: 14.109834013, 69: 14.107012047, 70: 14.104190644, 71: 13.101369806, 72: 12.098749532, 73: 12.096329782, 74: 12.093910516, 75: 12.991491734, 76: 12.988893436, 77: 12.986295657, 78: 12.983698398, 79: 12.981101658, 80: 13.878505438, 81: 13.875729737, 82: 14.772954591, 83: 15.67, 84: 14.666866, 85: 13.663932627, 86: 14.56119984, 87: 15.4582876, 88: 14.455195943, 89: 15.352304904, 90: 14.349234443, 91: 15.246364596, 92: 14.243315323, 93: 13.24046666, 94: 13.237818566, 95: 14.135171003, 96: 15.032343968, 97: 14.0293375, 98: 13.026531632, 99: 12.023926326, 100: 11.021521541, 101: 10.785245477, 102: 10.783088428, 103: 9.78093181, 104: 10.678975624, 105: 11.576839829, 106: 10.574524461, 107: 11.472409556, 108: 12.370115074, 109: 12.367641051, 110: 11.365167523, 111: 12.262894489, 112: 11.26044191, 113: 12.088533328, 114: 12.086115621, 115: 12.983698398, 116: 12.981101658, 117: 13.878505438, 118: 13.875729737, 119: 14.772954591, 120: 15.67, 121: 14.666866, 122: 13.663932627, 123: 12.66119984, 124: 11.6586676, 125: 12.556335867, 126: 13.4538246, 127: 12.451133835, 128: 11.448643608, 129: 11.446353879, 130: 10.444064608, 131: 11.341975796, 132: 11.3397074, 133: 12.237439459, 134: 11.234991971, 135: 10.232744973, 136: 10.230698424, 137: 11.128652284, 138: 10.126426553, 139: 9.124401268, 140: 9.953668263000001, 141: 8.951677528999999, 142: 9.849887194000001, 143: 8.847917216000001, 144: 8.846147632999999, 145: 7.844378403, 146: 8.742809528, 147: 7.741060966, 148: 8.639512754, 149: 7.757585651, 150: 6.756034134, 151: 5.754682928, 152: 4.753531991, 153: 3.752581285, 154: 2.751830768, 155: 2.751280402, 156: 3.650730146, 157: 2.65, 158: 3.54947, 159: 4.448760106, 160: 5.347870354, 161: 6.24680078, 162: 6.24555142, 163: 7.144302309, 164: 6.142873449, 165: 6.141644874, 166: 6.140416545, 167: 7.039188462, 168: 7.037780624, 169: 7.036373068, 170: 7.934965794, 171: 7.9333788, 172: 6.931792125, 173: 7.830405766, 174: 8.728839685000001, 175: 7.727093917, 176: 8.625548498000001, 177: 7.623823389, 178: 6.622298624, 179: 5.620974164, 180: 4.619849969, 181: 3.618925999, 182: 4.518202214, 183: 4.517298574, 184: 4.516395114, 185: 3.515491835, 186: 4.414788737, 187: 3.413905779, 188: 4.313222998, 189: 5.212360353, 190: 6.111317881, 191: 5.110095618];
cost = [0: 0.0, 1: 0.143784224, 2: 0.144395124, 3: 0.0, 4: 0.0, 5: 0.0, 6: 0.866570119, 7: 0.0, 8: 0.867791919, 9: 0.868280639, 10: 0.867058839, 11: 0.0, 12: 0.783976439, 13: 0.054592824, 14: 0.054287374, 15: 0.053187754, 16: 0.0, 17: 0.783548809, 18: 0.0, 19: 0.0, 20: 0.0, 21: 0.783243359, 22: 0.0, 23: 0.045429324, 24: 0.125936508, 25: 1.348658274, 26: 0.0, 27: 1.393625154, 28: 0.0, 29: 1.392911394, 30: 1.230530994, 31: 1.392078674, 32: 1.392316594, 33: 0.0, 34: 1.391721794, 35: 0.0, 36: 0.101192828, 37: 1.391721794, 38: 1.422175554, 39: 0.0, 40: 0.443372674, 41: 0.0, 42: 0.534020194, 43: 0.291309207, 44: 0.0, 45: 0.0, 46: 0.0, 47: 0.9697706740000001, 48: 1.419082594, 49: 2.015429074, 50: 1.053637474, 51: 1.102886914, 52: 0.802181259, 53: 1.289190739, 54: 0.872556939, 55: 0.0, 56: 0.0, 57: 0.890761759, 58: 0.0, 59: 0.0, 60: 1.169028674, 61: 0.0, 62: 1.419677394, 63: 1.201980594, 64: 0.0, 65: 1.422770354, 66: 0.0, 67: 0.122010828, 68: 0.0, 69: 0.066813388, 70: 0.171141308, 71: 0.0, 72: 0.0, 73: 0.093222508, 74: 0.092032908, 75: 1.398621474, 76: 0.093460428, 77: 0.087631388, 78: 0.087036588, 79: 0.08644178800000001, 80: 1.395647474, 81: 0.08644178800000001, 82: 1.392316594, 83: 1.391483874, 84: 0.0, 85: 0.0, 86: 1.392316594, 87: 1.416703394, 88: 0.0, 89: 0.883064419, 90: 0.0, 91: 0.917274819, 92: 0.0, 93: 0.0, 94: 0.168220224, 95: 0.878788119, 96: 0.881842619, 97: 0.0, 98: 0.0, 99: 0.0, 100: 0.0, 101: 0.0, 102: 0.127778644, 103: 0.0, 104: 0.859544769, 105: 0.8597280390000001, 106: 0.0, 107: 0.858689509, 108: 0.858200789, 109: 0.133521104, 110: 0.0, 111: 0.859422589, 112: 0.0, 113: 0.996650079, 114: 0.340982744, 115: 0.785320419, 116: 0.056242254, 117: 0.824479109, 118: 0.222284874, 119: 0.9490416189999999, 120: 2.709917554, 121: 0.0, 122: 0.0, 123: 0.0, 124: 0.0, 125: 1.334858914, 126: 1.568972194, 127: 0.0, 128: 0.0, 129: 0.050396908, 130: 0.0, 131: 1.552674674, 132: 0.0, 133: 1.407781394, 134: 0.0, 135: 0.0, 136: 0.0, 137: 0.118178165, 138: 0.0, 139: 0.0, 140: 0.109129903, 141: 0.0, 142: 1.422413474, 143: 0.0, 144: 0.0, 145: 0.0, 146: 1.427171874, 147: 0.0, 148: 0.118178165, 149: 0.0, 150: 0.0, 151: 0.0, 152: 0.0, 153: 0.0, 154: 0.0, 155: 0.246415424, 156: 1.437283474, 157: 0.0, 158: 1.438829954, 159: 0.370807074, 160: 1.434666354, 161: 1.433119874, 162: 0.0, 163: 1.342710274, 164: 0.0, 165: 0.139616908, 166: 0.08513322800000001, 167: 1.400762754, 168: 0.375276668, 169: 0.100835948, 170: 1.419677394, 171: 0.110709628, 172: 0.0, 173: 1.391721794, 174: 1.393863074, 175: 0.0, 176: 1.423959954, 177: 0.0, 178: 0.0, 179: 0.0, 180: 0.0, 181: 0.0, 182: 1.467618274, 183: 0.107259788, 184: 0.064367224, 185: 0.0, 186: 0.933341489, 187: 0.0, 188: 0.9298593590000001, 189: 0.937801059, 190: 0.938411959, 191: 0.0];
earn = [0: 0.52791798, 1: 0.0, 2: 0.0, 3: 0.481637151, 4: 0.486641511, 5: 0.482153879, 6: 0.0, 7: 0.477220461, 8: 0.0, 9: 0.0, 10: 0.0, 11: 0.493521911, 12: 0.0, 13: 0.0, 14: 0.0, 15: 0.0, 16: 0.0, 17: 0.0, 18: 0.596311869, 19: 0.618343089, 20: 0.620055624, 21: 0.0, 22: 0.679731479, 23: 0.0, 24: 0.0, 25: 0.0, 26: 0.858122418, 27: 0.0, 28: 0.915435113, 29: 0.0, 30: 0.0, 31: 0.0, 32: 0.0, 33: 0.724301085, 34: 0.0, 35: 0.0, 36: 0.0, 37: 0.0, 38: 0.0, 39: 0.980090495, 40: 0.0, 41: 0.466543755, 42: 0.0, 43: 0.0, 44: 0.463111972, 45: 0.447403833, 46: 0.141019339, 47: 0.0, 48: 0.0, 49: 0.0, 50: 0.0, 51: 0.0, 52: 0.0, 53: 0.0, 54: 0.0, 55: 0.26893378, 56: 0.387861142, 57: 0.0, 58: 0.412063921, 59: 0.102817823, 60: 0.0, 61: 0.56162401, 62: 0.0, 63: 0.0, 64: 0.086172927, 65: 0.0, 66: 0.322634955, 67: 0.0, 68: 0.674945478, 69: 0.0, 70: 0.0, 71: 0.722091413, 72: 0.919671667, 73: 0.0, 74: 0.0, 75: 0.0, 76: 0.0, 77: 0.0, 78: 0.0, 79: 0.0, 80: 0.0, 81: 0.0, 82: 0.0, 83: 0.0, 84: 0.65510766, 85: 0.659046594, 86: 0.0, 87: 0.0, 88: 0.665334816, 89: 0.0, 90: 0.458072798, 91: 0.0, 92: 0.472167347, 93: 0.462229683, 94: 0.0, 95: 0.0, 96: 0.0, 97: 0.503445819, 98: 0.517757785, 99: 0.50931436, 100: 0.492155875, 101: 0.0, 102: 0.0, 103: 0.481320882, 104: 0.0, 105: 0.0, 106: 0.462831516, 107: 0.0, 108: 0.0, 109: 0.0, 110: 0.470618385, 111: 0.0, 112: 0.284632574, 113: 0.0, 114: 0.0, 115: 0.0, 116: 0.0, 117: 0.0, 118: 0.0, 119: 0.0, 120: 0.0, 121: 0.491088842, 122: 0.5094443910000001, 123: 0.566054711, 124: 0.604314112, 125: 0.0, 126: 0.0, 127: 0.410789624, 128: 0.405387831, 129: 0.0, 130: 0.349482474, 131: 0.0, 132: 0.097965414, 133: 0.0, 134: 0.5617482150000001, 135: 0.591234763, 136: 0.236184942, 137: 0.0, 138: 0.262125473, 139: 0.156519504, 140: 0.0, 141: 0.022574683, 142: 0.0, 143: 0.00135462, 144: -0.081763671, 145: -0.07972770699999999, 146: 0.0, 147: 7.9684e-05, 148: -0.000123333, 149: -0.003159831, 150: 0.00050749, 151: 0.052789144, 152: 0.140625333, 153: 0.154334585, 154: 0.174233192, 155: 0.0, 156: 0.0, 157: 0.490900124, 158: 0.0, 159: 0.0, 160: 0.0, 161: 0.0, 162: 0.147845208, 163: 0.0, 164: 0.6648526340000001, 165: 0.0, 166: 0.0, 167: 0.0, 168: 0.0, 169: 0.0, 170: 0.0, 171: 0.0, 172: 0.766849548, 173: 0.0, 174: 0.0, 175: 0.67587435, 176: 0.0, 177: 0.626051058, 178: 0.609777401, 179: 0.599068101, 180: 0.560373857, 181: 0.557649316, 182: 0.0, 183: 0.0, 184: 0.0, 185: 0.396182916, 186: 0.0, 187: 0.348057536, 188: 0.0, 189: 0.0, 190: 0.0, 191: 0.330061292];
total_cost = 90.37479404600001;
total_earn = 34.410023996;
