production = [0: 0.0, 1: 0.0, 2: 0.0, 3: 0.0, 4: 0.0, 5: 0.0, 6: 0.0, 7: 0.0, 8: 0.0, 9: 0.0, 10: 0.0, 11: 0.0, 12: 0.0, 13: 0.0, 14: 0.0, 15: 0.0, 16: 0.0, 17: 0.0, 18: 0.0, 19: 0.0, 20: 0.0, 21: 0.0, 22: 0.0, 23: 0.0, 24: 0.0, 25: 0.0, 26: 0.0, 27: 0.0, 28: 0.0, 29: 0.0, 30: 0.0, 31: 0.0, 32: 0.0, 33: 0.2868, 34: 0.0, 35: 0.2577, 36: 0.38, 37: 0.5417, 38: 0.0, 39: 0.5212, 40: 0.0, 41: 0.0, 42: 0.0, 43: 1.2277, 44: 0.0, 45: 0.0, 46: 0.0, 47: 0.7145, 48: 0.0, 49: 0.0, 50: 0.9223, 51: 0.0, 52: 0.0, 53: 1.1767, 54: 0.0, 55: 0.0, 56: 0.0, 57: 0.9573, 58: 2.2612, 59: 0.6368, 60: 0.0, 61: 0.0, 62: 0.0, 63: 0.3668, 64: 0.4075, 65: 0.303, 66: 0.0, 67: 0.0, 68: 0.3247, 69: 0.0, 70: 0.1737, 71: 0.0, 72: 0.1037, 73: 0.0, 74: 0.0248, 75: 0.0, 76: 0.005, 77: 0.0018, 78: 0.0, 79: 0.0, 80: 0.0, 81: 0.0, 82: 0.0, 83: 0.0, 84: 0.0, 85: 0.0, 86: 0.0, 87: 0.0, 88: 0.0, 89: 0.0, 90: 0.0, 91: 0.0, 92: 0.0, 93: 0.0, 94: 0.0, 95: 0.0];
buy = [0: 1.2124375, 1: 1.2102375, 2: 1.2204375, 3: 0.2201375, 4: 1.2134375, 5: 0.0, 6: 0.0, 7: 0.2206375, 8: 0.0, 9: 0.2109375, 10: 1.2114375, 11: 0.0, 12: 0.0, 13: 0.2199375, 14: 1.2134375, 15: 0.0, 16: 1.2229375, 17: 0.2211375, 18: 1.2264375, 19: 1.2179375, 20: 0.2204375, 21: 0.0, 22: 1.2284375, 23: 0.0, 24: 0.2156375, 25: 0.0, 26: 0.0, 27: 1.2186375, 28: 0.0, 29: 0.0759375, 30: 1.0849375, 31: 0.08323750000000001, 32: 1.2146375, 33: 0.0, 34: 0.0, 35: 0.0, 36: 0.0, 37: 0.5529375, 38: 0.0, 39: 0.0, 40: 1.0954375, 41: 0.0, 42: 0.0869375, 43: 0.0, 44: 0.0, 45: 0.0, 46: 0.0962375, 47: 0.0, 48: 0.0, 49: 1.0859375, 50: 0.0, 51: 1.0951375, 52: 1.0864375, 53: 0.0, 54: 0.0, 55: 0.09923750000000001, 56: 0.0996375, 57: 0.7409375, 58: 0.0, 59: 0.1581375, 60: 1.0979375, 61: 1.4404375, 62: 1.4396375, 63: 1.0713375, 64: 0.0, 65: 0.7927375, 66: 1.0957375, 67: 0.0, 68: 0.7614375, 69: 1.0959375, 70: 0.0, 71: 1.0967375, 72: 0.0, 73: 1.0929375, 74: 0.0703375, 75: 1.0936375, 76: 0.0, 77: 1.0763375, 78: 0.0, 79: 0.0, 80: 0.0846375, 81: 0.0771375, 82: 1.0774375, 83: 1.0936375, 84: 0.1006375, 85: 1.1024375, 86: 0.0914375, 87: 0.09243750000000001, 88: 1.0949375, 89: 1.1057375, 90: 0.1049375, 91: 0.0, 92: 1.0949375, 93: 0.0, 94: 0.0, 95: 0.3786375];
sell = [0: 0.0, 1: 0.0, 2: 0.0, 3: 0.0, 4: 0.0, 5: 0.6880625, 6: 0.6828625, 7: 0.0, 8: 0.6808625, 9: 0.0, 10: 0.0, 11: 0.6788625, 12: 0.6790625, 13: 0.0, 14: 0.0, 15: 0.6870625, 16: 0.0, 17: 0.0, 18: 0.0, 19: 0.0, 20: 0.0, 21: 0.6783625, 22: 0.0, 23: 0.6763625, 24: 0.0, 25: 0.6865625, 26: 0.6815625, 27: 0.0, 28: 0.6900625, 29: 0.0, 30: 0.0, 31: 0.0, 32: 0.0, 33: 0.9768625, 34: 0.6907624999999999, 35: 0.9370625, 36: 1.1848625, 37: 0.0, 38: 0.8135625, 39: 0.4342625, 40: 0.0, 41: 0.0, 42: 0.0, 43: 1.493418937, 44: 0.8105625, 45: 0.8050625, 46: 0.0, 47: 0.6213625, 48: 0.8145625, 49: 0.0, 50: 0.8273625, 51: 0.0, 52: 0.0, 53: 1.0874625, 54: 0.8007625, 55: 0.0, 56: 0.0, 57: 0.0, 58: 1.6817625, 59: 0.0, 60: 0.0, 61: 0.0, 62: 0.0, 63: 0.0, 64: 0.3128625, 65: 0.0, 66: 0.0, 67: 0.8143625, 68: 0.0, 69: 0.0, 70: 0.0772625, 71: 0.0, 72: 0.9149625, 73: 0.0, 74: 0.0, 75: 0.0, 76: 0.8203625, 77: 0.0, 78: 0.8225625, 79: 0.8140625, 80: 0.0, 81: 0.0, 82: 0.0, 83: 0.0, 84: 0.0, 85: 0.0, 86: 0.0, 87: 0.0, 88: 0.0, 89: 0.0, 90: 0.0, 91: 0.8040625, 92: 0.0, 93: 0.6280625, 94: 0.5260625, 95: 0.0];
charge = [0: 1.0, 1: 1.0, 2: 1.0, 3: 0.0, 4: 1.0, 5: 0.0, 6: 0.0, 7: 0.0, 8: 0.0, 9: 0.0, 10: 1.0, 11: 0.0, 12: 0.0, 13: 0.0, 14: 1.0, 15: 0.0, 16: 1.0, 17: 0.0, 18: 1.0, 19: 1.0, 20: 0.0, 21: 0.0, 22: 1.0, 23: 0.0, 24: 0.0, 25: 0.0, 26: 0.0, 27: 1.0, 28: 0.0, 29: 0.0, 30: 1.0, 31: 0.0, 32: 1.0, 33: 0.0, 34: 0.0, 35: 0.0, 36: 0.0, 37: 1.0, 38: 0.0, 39: 0.0, 40: 1.0, 41: 0.0, 42: 0.0, 43: 0.0, 44: 0.0, 45: 0.0, 46: 0.0, 47: 0.0, 48: 0.0, 49: 1.0, 50: 0.0, 51: 1.0, 52: 1.0, 53: 0.0, 54: 0.0, 55: 0.0, 56: 0.0, 57: 1.0, 58: 0.0, 59: 0.0, 60: 1.0, 61: 1.0, 62: 1.0, 63: 1.0, 64: 0.0, 65: 1.0, 66: 1.0, 67: 0.0, 68: 1.0, 69: 1.0, 70: 0.0, 71: 1.0, 72: 0.0, 73: 1.0, 74: 0.0, 75: 1.0, 76: 0.0, 77: 1.0, 78: 0.0, 79: 0.0, 80: 0.0, 81: 0.0, 82: 1.0, 83: 1.0, 84: 0.0, 85: 1.0, 86: 0.0, 87: 0.0, 88: 1.0, 89: 1.0, 90: 0.0, 91: 0.0, 92: 1.0, 93: 0.0, 94: 0.0, 95: 0.0];
discharge = [0: 0.0, 1: 0.0, 2: 0.0, 3: 0.0, 4: 0.0, 5: 1.0, 6: 1.0, 7: 0.0, 8: 1.0, 9: 0.0, 10: 0.0, 11: 1.0, 12: 1.0, 13: 0.0, 14: 0.0, 15: 1.0, 16: 0.0, 17: 0.0, 18: 0.0, 19: 0.0, 20: 0.0, 21: 1.0, 22: 0.0, 23: 1.0, 24: 0.0, 25: 1.0, 26: 1.0, 27: 0.0, 28: 1.0, 29: 0.0, 30: 0.0, 31: 0.0, 32: 0.0, 33: 1.0, 34: 1.0, 35: 1.0, 36: 1.0, 37: 0.0, 38: 1.0, 39: 0.0, 40: 0.0, 41: 0.105152778, 42: 0.0, 43: 0.393840486, 44: 1.0, 45: 1.0, 46: 0.0, 47: 0.0, 48: 1.0, 49: 0.0, 50: 0.0, 51: 0.0, 52: 0.0, 53: 0.0, 54: 1.0, 55: 0.0, 56: 0.0, 57: 0.0, 58: 0.0, 59: 0.0, 60: 0.0, 61: 0.0, 62: 0.0, 63: 0.0, 64: 0.0, 65: 0.0, 66: 0.0, 67: 1.0, 68: 0.0, 69: 0.0, 70: 0.0, 71: 0.0, 72: 1.0, 73: 0.0, 74: 0.0, 75: 0.0, 76: 1.0, 77: 0.0, 78: 1.0, 79: 1.0, 80: 0.0, 81: 0.0, 82: 0.0, 83: 0.0, 84: 0.0, 85: 0.0, 86: 0.0, 87: 0.0, 88: 0.0, 89: 0.0, 90: 0.0, 91: 1.0, 92: 0.0, 93: 1.0, 94: 1.0, 95: 0.0];
soc = [0: 9.828213999999999, 1: 10.726248357, 2: 11.624103108, 3: 11.621778287, 4: 12.519453931, 5: 11.51695004, 6: 10.51464665, 7: 10.512543721, 8: 9.510441212, 9: 9.508539124, 10: 10.406637416, 11: 9.404556089, 12: 8.402675178000001, 13: 8.400994643000001, 14: 9.299314444, 15: 8.297454581, 16: 9.195795090000001, 17: 9.193955931, 18: 10.09211714, 19: 10.990098716, 20: 10.987900696, 21: 9.985703116, 22: 10.883705976, 23: 9.881529235, 24: 9.879552929000001, 25: 8.877577018, 26: 7.875801503, 27: 8.774226342, 28: 7.772471497, 29: 7.770917003, 30: 8.669362819, 31: 8.667628947000001, 32: 9.565895421, 33: 8.563982242, 34: 7.562269446, 35: 6.560756992, 36: 5.55944484, 37: 6.458332951, 38: 5.457041285, 39: 5.455949876, 40: 6.354858686, 41: 6.248434937, 42: 6.24718525, 43: 5.852095327, 44: 4.850924908, 45: 3.849954723, 46: 3.849184732, 47: 3.848414895, 48: 2.847645212, 49: 3.747075683, 50: 3.746326268, 51: 4.645577003, 52: 5.544647887, 53: 5.543538958, 54: 4.54243025, 55: 4.541521764, 56: 4.540613459, 57: 5.439705337, 58: 5.438617396, 59: 5.437529672, 60: 6.336442166, 61: 7.235174878, 62: 8.133727843000001, 63: 9.032101097, 64: 9.030294677000001, 65: 9.928488617999999, 66: 10.82650292, 67: 9.82433762, 68: 10.722372752, 69: 11.620228278, 70: 11.617904232, 71: 12.515580651, 72: 11.513077535, 73: 12.41077492, 74: 12.408292765, 75: 13.305811106, 76: 12.303149944, 77: 13.200689314, 78: 12.198049176, 79: 11.195609566, 80: 11.193370444, 81: 11.19113177, 82: 12.088893544, 83: 12.986475765, 84: 12.98387847, 85: 13.881281694, 86: 13.878505438, 87: 13.875729737, 88: 14.772954591, 89: 15.67, 90: 15.666866, 91: 14.663732627, 92: 15.56079988, 93: 14.55768772, 94: 13.554776183, 95: 13.552065228];
cost = [0: 0.858856234, 1: 0.857512254, 2: 0.863743434, 3: 0.134481999, 4: 0.859467134, 5: 0.0, 6: 0.0, 7: 0.134787449, 8: 0.0, 9: 0.128861719, 10: 0.858245334, 11: 0.0, 12: 0.0, 13: 0.134359819, 14: 0.859467134, 15: 0.0, 16: 0.865270684, 17: 0.135092899, 18: 0.867408834, 19: 0.862216184, 20: 0.134665269, 21: 0.0, 22: 0.868630634, 23: 0.0, 24: 0.25652237, 25: 0.0, 26: 0.0, 27: 1.567869335, 28: 0.0, 29: 0.09033525000000001, 30: 1.408819815, 31: 0.09901933, 32: 1.563110935, 33: 0.0, 34: 0.0, 35: 0.0, 36: 0.0, 37: 0.775952615, 38: 0.0, 39: 0.0, 40: 1.421310615, 41: 0.0, 42: 0.10342085, 43: 0.0, 44: 0.0, 45: 0.0, 46: 0.11448413, 47: 0.0, 48: 0.0, 49: 1.410009415, 50: 0.0, 51: 1.420953735, 52: 0.781882834, 53: 0.0, 54: 0.0, 55: 0.060624189, 56: 0.060868549, 57: 0.570816884, 58: 0.0, 59: 0.096606199, 60: 1.424284615, 61: 1.831722615, 62: 1.830770935, 63: 1.392641255, 64: 0.0, 65: 1.061218695, 66: 1.421667495, 67: 0.0, 68: 1.023984215, 69: 1.421905415, 70: 0.0, 71: 1.422857095, 72: 0.0, 73: 1.418336615, 74: 0.08367349, 75: 1.419169335, 76: 0.0, 77: 1.398589255, 78: 0.0, 79: 0.0, 80: 0.10068477, 81: 0.09176276999999999, 82: 1.399897815, 83: 1.419169335, 84: 0.11971837, 85: 1.429637815, 86: 0.10877405, 87: 0.10996365, 88: 0.787075484, 89: 0.793673204, 90: 0.06410631899999999, 91: 0.0, 92: 0.787075484, 93: 0.0, 94: 0.0, 95: 0.231309649];
earn = [0: 0.0, 1: 0.0, 2: 0.0, 3: 0.0, 4: 0.0, 5: 0.309559319, 6: 0.290284849, 7: 0.0, 8: 0.281877075, 9: 0.0, 10: 0.0, 11: 0.2498214, 12: 0.25261125, 13: 0.0, 14: 0.0, 15: 0.277641956, 16: 0.0, 17: 0.0, 18: 0.0, 19: 0.0, 20: 0.0, 21: 0.346507565, 22: 0.0, 23: 0.364221206, 24: 0.0, 25: 0.462674469, 26: 0.491338406, 27: 0.0, 28: 0.593315738, 29: 0.0, 30: 0.0, 31: 0.0, 32: 0.0, 33: 0.669346185, 34: 0.466610069, 35: 0.580885044, 36: 0.673594331, 37: 0.0, 38: 0.446401744, 39: 0.234588603, 40: 0.0, 41: 0.0, 42: 0.0, 43: 0.606776114, 44: 0.327305138, 45: 0.301012869, 46: 0.0, 47: 0.203123401, 48: 0.294138519, 49: 0.0, 50: 0.272284999, 51: 0.0, 52: 0.0, 53: 0.41584566, 54: 0.301487081, 55: 0.0, 56: 0.0, 57: 0.0, 58: 0.791269841, 59: 0.0, 60: 0.0, 61: 0.0, 62: 0.0, 63: 0.0, 64: 0.17244981, 65: 0.0, 66: 0.0, 67: 0.45930045, 68: 0.0, 69: 0.0, 70: 0.05086963, 71: 0.0, 72: 0.753837604, 73: 0.0, 74: 0.0, 75: 0.0, 76: 0.821182862, 77: 0.0, 78: 0.900705938, 79: 0.90849375, 80: 0.0, 81: 0.0, 82: 0.0, 83: 0.0, 84: 0.0, 85: 0.0, 86: 0.0, 87: 0.0, 88: 0.0, 89: 0.0, 90: 0.0, 91: 0.496347781, 92: 0.0, 93: 0.3667885, 94: 0.305589706, 95: 0.0];
total_cost = 45.819343817;
total_earn = 15.740088275;
% _objective = 30.079255542;