production = [0: 0.0, 1: 0.0, 2: 0.0, 3: 0.0, 4: 0.0, 5: 0.0, 6: 0.0, 7: 0.0, 8: 0.0, 9: 0.0, 10: 0.0, 11: 0.0, 12: 0.0, 13: 0.0, 14: 0.0, 15: 0.0, 16: 0.0, 17: 0.0, 18: 0.0, 19: 0.0, 20: 0.0, 21: 0.0, 22: 0.0, 23: 0.0, 24: 0.0, 25: 0.0003, 26: 0.0, 27: 0.0, 28: 0.0, 29: 0.06, 30: 0.1013, 31: 0.0, 32: 0.0, 33: 0.2868, 34: 0.2943, 35: 0.2577, 36: 0.38, 37: 0.5417, 38: 0.0, 39: 0.0, 40: 0.6475, 41: 0.928, 42: 1.0248, 43: 1.2277, 44: 1.185, 45: 1.0025, 46: 0.0, 47: 0.7145, 48: 0.8625, 49: 0.5285, 50: 0.0, 51: 0.0951375, 52: 0.5285, 53: 1.1767, 54: 0.7698, 55: 0.6765, 56: 0.6987, 57: 0.0, 58: 0.0, 59: 0.0, 60: 0.5467, 61: 0.0, 62: 0.0, 63: 0.3668, 64: 0.0, 65: 0.303, 66: 0.0, 67: 0.3395, 68: 0.0, 69: 0.212, 70: 0.1737, 71: 0.0, 72: 0.1037, 73: 0.0, 74: 0.0, 75: 0.0123, 76: 0.005, 77: 0.0, 78: 0.0005, 79: 0.0, 80: 0.0, 81: 0.0, 82: 0.0, 83: 0.0, 84: 0.0, 85: 0.0, 86: 0.0, 87: 0.0, 88: 0.0, 89: 0.0, 90: 0.0, 91: 0.0, 92: 0.0, 93: 0.0, 94: 0.0, 95: 0.0];
buy = [0: 1.2124375, 1: 1.2102375, 2: 0.2204375, 3: 0.0, 4: 1.2134375, 5: 1.2119375, 6: 1.2171375, 7: 1.2206375, 8: 1.2191375, 9: 0.2109375, 10: 0.0, 11: 0.0, 12: 1.2209375, 13: 0.0, 14: 0.2134375, 15: 1.2129375, 16: 0.0, 17: 0.0, 18: 0.0, 19: 0.2179375, 20: 0.2204375, 21: 0.0, 22: 1.2284375, 23: 0.2236375, 24: 0.2156375, 25: 1.2131375, 26: 0.0, 27: 0.0, 28: 0.2099375, 29: 0.0159375, 30: 0.0, 31: 0.0, 32: 1.2146375, 33: 0.0, 34: 0.0, 35: 0.0, 36: 0.0, 37: 0.0, 38: 1.0864375, 39: 0.0, 40: 0.0, 41: 0.0, 42: 0.0621375, 43: 0.0, 44: 0.0, 45: 0.0, 46: 1.0962375, 47: 0.0, 48: 0.0, 49: 0.0, 50: 0.0, 51: 0.0, 52: 0.0, 53: 0.0, 54: 0.3294375, 55: 0.4227375, 56: 0.0, 57: 1.6982375, 58: 1.5794375, 59: 0.0, 60: 0.0, 61: 0.0, 62: 0.0, 63: 0.0713375, 64: 1.0946375, 65: 0.0, 66: 1.0957375, 67: 0.0, 68: 0.0, 69: 0.0, 70: 0.0, 71: 1.0967375, 72: 0.0, 73: 0.470231397, 74: 1.0951375, 75: 0.08133749999999999, 76: 0.0, 77: 0.0, 78: 0.07693750000000001, 79: 1.0859375, 80: 0.199338222, 81: 0.0771375, 82: 0.0, 83: 0.0936375, 84: 1.1006375, 85: 0.0, 86: 0.0914375, 87: 1.0924375, 88: 0.0, 89: 1.1057375, 90: 1.1049375, 91: 0.0959375, 92: 1.0949375, 93: 1.2719375, 94: 1.3739375, 95: 1.3786375];
sell = [0: 0.0, 1: 0.0, 2: 0.0, 3: 0.6798625, 4: 0.0, 5: 0.0, 6: 0.0, 7: 0.0, 8: 0.0, 9: 0.0, 10: 0.6885625, 11: 0.6788625, 12: 0.0, 13: 0.0, 14: 0.0, 15: 0.0, 16: 0.6770625, 17: 0.6788625, 18: 0.6735625, 19: 0.0, 20: 0.0, 21: 0.6783625, 22: 0.0, 23: 0.0, 24: 0.0, 25: 0.0, 26: 0.6815625, 27: 0.6813625, 28: 0.0, 29: 0.0, 30: 0.9163625, 31: 0.8167624999999999, 32: 0.0, 33: 0.9768625, 34: 0.0850625, 35: 0.9370625, 36: 1.1848625, 37: 1.3470625, 38: 0.0, 39: 0.8130625, 40: 0.5520625, 41: 0.8333625, 42: 0.0, 43: 2.0389625, 44: 0.09556249999999999, 45: 0.9075625, 46: 0.0, 47: 1.5213625, 48: 0.7770625, 49: 1.3425625, 50: 0.8050625, 51: 0.0, 52: 0.749103262, 53: 0.0874625, 54: 0.0, 55: 0.0, 56: 1.4990625, 57: 0.0, 58: 0.0, 59: 0.1050625, 60: 1.3487625, 61: 0.4595625, 62: 0.0, 63: 0.0, 64: 0.0, 65: 0.2072625, 66: 0.0, 67: 0.2538625, 68: 0.8138625, 69: 0.1160625, 70: 0.0, 71: 0.0, 72: 0.9149625, 73: 0.0, 74: 0.0, 75: 0.0, 76: 0.8203625, 77: 0.8218625000000001, 78: 0.0, 79: 0.0, 80: 0.0, 81: 0.0, 82: 0.8225625, 83: 0.0, 84: 0.0, 85: 0.374228137, 86: 0.0, 87: 0.0, 88: 0.8050625, 89: 0.0, 90: 0.0, 91: 0.0, 92: 0.0, 93: 0.0, 94: 0.0, 95: 0.0];
charge = [0: 1.0, 1: 1.0, 2: 0.0, 3: 0.0, 4: 1.0, 5: 1.0, 6: 1.0, 7: 1.0, 8: 1.0, 9: 0.0, 10: 0.0, 11: 0.0, 12: 1.0, 13: 0.0, 14: 0.0, 15: 1.0, 16: 0.0, 17: 0.0, 18: 0.0, 19: 0.0, 20: 0.0, 21: 0.0, 22: 1.0, 23: 0.0, 24: 0.0, 25: 1.0, 26: 0.0, 27: 0.0, 28: 0.0, 29: 0.0, 30: 0.0, 31: 0.0, 32: 1.0, 33: 0.0, 34: 0.0, 35: 0.0, 36: 0.0, 37: 0.0, 38: 1.0, 39: 0.0, 40: 0.0, 41: 0.0, 42: 1.0, 43: 0.0, 44: 1.0, 45: 0.0, 46: 1.0, 47: 0.0, 48: 0.0, 49: 0.0, 50: 0.0, 51: 0.0, 52: 0.0, 53: 1.0, 54: 1.0, 55: 1.0, 56: 0.0, 57: 1.0, 58: 1.0, 59: 0.0, 60: 0.0, 61: 0.0, 62: 0.0, 63: 0.0, 64: 1.0, 65: 0.0, 66: 1.0, 67: 0.0, 68: 0.0, 69: 0.0, 70: 0.0772625, 71: 1.0, 72: 0.0, 73: 0.377293897, 74: 1.0, 75: 0.0, 76: 0.0, 77: 0.0, 78: 0.0, 79: 1.0, 80: 0.114700722, 81: 0.0, 82: 0.0, 83: 0.0, 84: 1.0, 85: 0.0, 86: 0.0, 87: 1.0, 88: 0.0, 89: 1.0, 90: 1.0, 91: 0.0, 92: 1.0, 93: 1.0, 94: 1.0, 95: 1.0];
discharge = [0: 0.0, 1: 0.0, 2: 0.0, 3: 1.0, 4: 0.0, 5: 0.0, 6: 0.0, 7: 0.0, 8: 0.0, 9: 0.0, 10: 1.0, 11: 1.0, 12: 0.0, 13: 0.244375, 14: 0.0, 15: 0.0, 16: 1.0, 17: 1.0, 18: 1.0, 19: 0.0, 20: 0.0, 21: 1.0, 22: 0.0, 23: 0.0, 24: 0.0, 25: 0.0, 26: 1.0, 27: 1.0, 28: 0.0, 29: 0.0, 30: 1.0, 31: 1.0, 32: 0.0, 33: 1.0, 34: 0.0, 35: 1.0, 36: 1.0, 37: 1.0, 38: 0.0, 39: 1.0, 40: 0.0, 41: 0.0, 42: 0.0, 43: 1.0, 44: 0.0, 45: 0.0, 46: 0.0, 47: 1.0, 48: 0.0, 49: 1.0, 50: 1.0, 51: 0.0, 52: 0.341156403, 53: 0.0, 54: 0.0, 55: 0.0, 56: 1.0, 57: 0.0, 58: 0.0, 59: 1.0, 60: 1.0, 61: 1.0, 62: 0.488486111, 63: 0.0, 64: 0.0, 65: 0.0, 66: 0.0, 67: 0.0, 68: 1.0, 69: 0.0, 70: 0.0, 71: 0.0, 72: 1.0, 73: 0.0, 74: 0.0, 75: 0.0, 76: 1.0, 77: 1.0, 78: 0.0, 79: 0.0, 80: 0.0, 81: 0.0, 82: 1.0, 83: 0.0, 84: 0.0, 85: 0.529628486, 86: 0.0, 87: 0.0, 88: 1.0, 89: 0.0, 90: 0.0, 91: 0.0, 92: 0.0, 93: 0.0, 94: 0.0, 95: 0.0];
soc = [0: 9.828213999999999, 1: 10.726248357, 2: 10.724103108, 3: 9.721958287, 4: 10.620013895, 5: 11.517889892, 6: 12.415586314, 7: 13.313103197, 8: 14.210440577, 9: 14.207598488, 10: 13.204756969, 11: 12.202116017, 12: 13.099675594, 13: 12.852680659, 14: 12.850110123, 15: 13.747540101, 16: 12.744790593, 17: 11.742241635, 18: 10.739893186, 19: 10.737745208, 20: 10.735597659, 21: 9.733450539, 22: 10.631503849, 23: 10.629377548, 24: 10.627251673, 25: 11.525126223, 26: 10.522821197, 27: 9.520716632999999, 28: 9.51881249, 29: 9.516908727000001, 30: 8.515005345000001, 31: 7.513302344, 32: 8.411799684, 33: 7.410117324, 34: 7.408635301, 35: 6.407153573, 36: 5.405872143, 37: 4.404790968, 38: 5.30391001, 39: 4.302849228, 40: 4.301988658, 41: 4.301128261, 42: 5.200268035, 43: 4.199227981, 44: 5.098388136, 45: 5.097368458, 46: 5.996348984, 47: 4.995149715, 48: 4.994150685, 49: 3.993151854, 50: 2.992353224, 51: 2.991754753, 52: 2.65, 53: 3.54947, 54: 4.448760106, 55: 5.347870354, 56: 4.34680078, 57: 5.24593142, 58: 6.144882233, 59: 5.143653257, 60: 4.142624526, 61: 3.141796001, 62: 2.652681531, 63: 2.652150995, 64: 3.551620565, 65: 3.550910241, 66: 4.450200058, 67: 4.449310018, 68: 3.448420156, 69: 3.447730472, 70: 3.516577176, 71: 4.415873016, 72: 3.414990686, 73: 3.753872195, 74: 4.653121421, 75: 4.652190796, 76: 3.651260358, 77: 2.650530106, 78: 2.65, 79: 3.54947, 80: 3.651990756, 81: 3.651260358, 82: 2.650530106, 83: 2.65, 84: 3.54947, 85: 3.01913162, 86: 3.018527794, 87: 3.917924088, 88: 2.917140503, 89: 3.816557075, 90: 4.715793764, 91: 4.714850605, 92: 5.613907635, 93: 6.512784853, 94: 7.411482296, 95: 8.31];
cost = [0: 0.858856234, 1: 0.857512254, 2: 0.134665269, 3: 0.0, 4: 0.859467134, 5: 0.858550784, 6: 0.861727464, 7: 0.8638656139999999, 8: 0.862949264, 9: 0.128861719, 10: 0.0, 11: 0.0, 12: 0.864048884, 13: 0.0, 14: 0.130388969, 15: 0.859161684, 16: 0.0, 17: 0.0, 18: 0.0, 19: 0.133138019, 20: 0.134665269, 21: 0.0, 22: 0.868630634, 23: 0.136620149, 24: 0.25652237, 25: 1.561326535, 26: 0.0, 27: 0.0, 28: 0.24974165, 29: 0.01895925, 30: 0.0, 31: 0.0, 32: 1.563110935, 33: 0.0, 34: 0.0, 35: 0.0, 36: 0.0, 37: 0.0, 38: 1.410604215, 39: 0.0, 40: 0.0, 41: 0.0, 42: 0.192096935, 43: 0.0, 44: 0.118178165, 45: 0.0, 46: 1.422262295, 47: 0.0, 48: 0.0, 49: 0.0, 50: 0.0, 51: 0.0, 52: 0.0, 53: 0.118178165, 54: 0.319431534, 55: 0.376428504, 56: 0.0, 57: 1.155631454, 58: 1.083056534, 59: 0.0, 60: 0.0, 61: 0.0, 62: 0.0, 63: 0.08486309, 64: 1.420358935, 65: 0.0, 66: 1.421667495, 67: 0.0, 68: 0.0, 69: 0.0, 70: 0.009130741, 71: 1.422857095, 72: 0.0, 73: 0.60397517, 74: 1.420953735, 75: 0.09675909000000001, 76: 0.0, 77: 0.0, 78: 0.09152485, 79: 1.410009415, 80: 0.25068787, 81: 0.09176276999999999, 82: 0.0, 83: 0.11139117, 84: 1.427496535, 85: 0.0, 86: 0.10877405, 87: 1.417741815, 88: 0.0, 89: 0.793673204, 90: 0.793184484, 91: 0.058608219, 92: 0.787075484, 93: 0.895204784, 94: 0.9575165839999999, 95: 0.960387814];
earn = [0: 0.0, 1: 0.0, 2: 0.0, 3: 0.337619718, 4: 0.0, 5: 0.0, 6: 0.0, 7: 0.0, 8: 0.0, 9: 0.0, 10: 0.252909006, 11: 0.2498214, 12: 0.0, 13: 0.0, 14: 0.0, 15: 0.0, 16: 0.2762415, 17: 0.284986478, 18: 0.300880369, 19: 0.0, 20: 0.0, 21: 0.346507565, 22: 0.0, 23: 0.0, 24: 0.0, 25: 0.0, 26: 0.491338406, 27: 0.539707236, 28: 0.0, 29: 0.0, 30: 0.831782241, 31: 0.675217559, 32: 0.0, 33: 0.669346185, 34: 0.057459719, 35: 0.580885044, 36: 0.673594331, 37: 0.810662213, 38: 0.0, 39: 0.439216363, 40: 0.247489619, 41: 0.386930209, 42: 0.0, 43: 0.828430464, 44: 0.038588137, 45: 0.339337619, 46: 0.0, 47: 0.497333401, 48: 0.280597269, 49: 0.457276788, 50: 0.264946069, 51: 0.0, 52: 0.285932715, 53: 0.03344566, 54: 0.0, 55: 0.0, 56: 0.624359531, 57: 0.0, 58: 0.0, 59: 0.049463425, 60: 0.690026895, 61: 0.240029494, 62: 0.0, 63: 0.0, 64: 0.0, 65: 0.113040967, 66: 0.0, 67: 0.14317845, 68: 0.509640698, 69: 0.07270155, 70: 0.0, 71: 0.0, 72: 0.753837604, 73: 0.0, 74: 0.0, 75: 0.0, 76: 0.821182862, 77: 0.881858463, 78: 0.0, 79: 0.0, 80: 0.0, 81: 0.0, 82: 0.761528363, 83: 0.0, 84: 0.0, 85: 0.293469705, 86: 0.0, 87: 0.0, 88: 0.55452705, 89: 0.0, 90: 0.0, 91: 0.0, 92: 0.0, 93: 0.0, 94: 0.0, 95: 0.0];
total_cost = 35.894242291;
total_earn = 17.987328337;
% _objective = 17.906913954;