buy = 
[| 174.390400157, 0.0,          0.0,          0.0, 51.966514045,  55.917227811
 |           0.0, 0.0,          0.0,          0.0,          0.0,         150.0
 |  40.187179964, 0.0, 45.421158341,          0.0,  42.13444382, 176.331588757
 |           0.0, 0.0,          0.0,          0.0, 23.650225567,           0.0
 |           0.0, 0.0,          0.0, 40.001261538,        150.0,           0.0
 |];
amount = 
[|      47.165051609, 38.258648876, 68.968053517, 39.998646154, 51.966514045, 55.917227811
 |               0.0,         20.0,          0.0,          0.0,          0.0,          0.0
 |      23.221275469, 36.965904494, 25.421066034, 20.000092308,  42.13444382, 26.331588757
 | 9.613672921999999,  4.775446629,  5.610880449,          0.0,  5.899042135, 17.751183432
 |              20.0,          0.0,          0.0, 40.001261538,          0.0,          0.0
 |];
stock = 
[| 147.225348548, 108.966699671, 39.998646154, 0.0,          0.0,   0.0
 |          20.0,           0.0,          0.0, 0.0,          0.0, 150.0
 |  36.965904494,           0.0, 20.000092308, 0.0,          0.0, 150.0
 |  10.386327078,   5.610880449,          0.0, 0.0, 17.751183432,   0.0
 |           0.0,           0.0,          0.0, 0.0,        150.0, 150.0
 |];
% _objective = 32004.706955103;