buy = 
[|  14.615807692,           0.0,        150.0,          0.0, 103.58386121, 51.966514045
 | 190.811554054,           0.0, 60.811554054,          0.0,          0.0,          0.0
 |           0.0, 160.042169439,          0.0, 30.042169439, 25.421066034,  42.13444382
 |         130.0,           0.0,          0.0,          0.0,  5.610880449,  5.899042135
 |   8.377391892, 120.683545738,          0.0,          0.0,        150.0,          0.0
 |];
amount = 
[|          0.0, 34.615807692,          0.0, 34.615807692, 68.968053517, 51.966514045
 | 60.811554054,          0.0, 60.811554054,          0.0,          0.0,          0.0
 | 10.811054054, 19.231115385, 10.811054054, 19.231115385, 25.421066034,  42.13444382
 |          0.0,          0.0,          0.0,          0.0,  5.610880449,  5.899042135
 | 28.377391892, 46.153076923, 28.377391892, 46.153076923,          0.0,          0.0
 |];
stock = 
[| 34.615807692,               0.0,         150.0, 115.384192308, 150.0, 150.0
 |        150.0,             150.0,         150.0,         150.0, 150.0, 150.0
 |  9.188945946,             150.0, 139.188945946,         150.0, 150.0, 150.0
 |        150.0,             150.0,         150.0,         150.0, 150.0, 150.0
 |          0.0, 74.53046881500001,  46.153076923,           0.0, 150.0, 150.0
 |];
% _objective = 35810.096478565;