buy = 
[|          0.0,          0.0, 49.231615385,          0.0, 189.998646154, 0.0
 | 70.027594366, 75.819995902,          0.0,          0.0,  90.027594366, 0.0
 | 50.298883909,          0.0,          0.0,          0.0, 170.000092308, 0.0
 |          0.0,          0.0,          0.0,          0.0,           0.0, 0.0
 |          0.0,        130.0, 46.153076923, 46.153076923,  40.001261538, 0.0
 |];
amount = 
[|          0.0,          0.0, 34.615807692, 34.615807692, 39.998646154,          0.0
 | 90.027594366, 75.819995902,          0.0,          0.0,          0.0, 90.027594366
 |  9.296140845, 22.540512295, 19.231115385, 19.231115385, 20.000092308,  9.296140845
 |  0.676264789,  1.639491803,          0.0,          0.0,          0.0,  0.676264789
 |          0.0,          0.0, 46.153076923, 46.153076923, 40.001261538,          0.0
 |];
stock = 
[|         20.0,         20.0, 34.615807692,          0.0,        150.0,         150.0
 |          0.0,          0.0,          0.0,          0.0, 90.027594366,           0.0
 | 61.002743064, 38.462230769, 19.231115385,          0.0,        150.0, 140.703859155
 | 19.323735211, 17.684243408, 17.684243408, 17.684243408, 17.684243408,  17.007978619
 |         20.0,        150.0,        150.0,        150.0,        150.0,         150.0
 |];
% _objective = 28403.5844834735;