buy = 
[|          0.0, 14.615807692,        150.0,           0.0,           0.0, 176.851795373
 | 59.411861345,          0.0, 75.819995902,         150.0,           0.0,           0.0
 | 10.996031351,          0.0, 48.872101052,           0.0, 175.421066034,           0.0
 |          0.0,          0.0,          0.0, 158.213897924,           0.0,  11.509922584
 | 26.153076923,          0.0,          0.0,           0.0,           0.0,         150.0
 |];
amount = 
[|               0.0, 34.615807692,          0.0, 55.917227811, 68.968053517, 51.966514045
 | 79.41186134500001,          0.0, 75.819995902,          0.0,          0.0,          0.0
 |      11.764915966, 19.231115385, 22.540512295, 26.331588757, 25.421066034,  42.13444382
 |       8.823222689,          0.0,  1.639491803, 17.751183432,  5.610880449,  5.899042135
 |               0.0, 46.153076923,          0.0,          0.0,          0.0,          0.0
 |];
stock = 
[|         20.0,          0.0,        150.0, 94.082772189,  25.114718672,        150.0
 |          0.0,          0.0,          0.0,        150.0,         150.0,        150.0
 | 19.231115385,          0.0, 26.331588757,          0.0,         150.0, 107.86555618
 | 11.176777311, 11.176777311,  9.537285508,        150.0, 144.389119551,        150.0
 | 46.153076923,          0.0,          0.0,          0.0,           0.0,        150.0
 |];
% _objective = 39878.0354742165;