buy = 
[| 185.917227811,          0.0,           0.0,          0.0,          0.0, 34.615807692
 |           0.0, 70.027594366, 136.631549956,          0.0, 90.027594366,        150.0
 |   6.331588757,  9.296140845, 160.811054054, 22.540512295,  9.296140845,          0.0
 |           0.0,          0.0, 148.427448221,  1.639491803,          0.0,  0.676264789
 |           0.0,          0.0,   8.377391892,        150.0,          0.0, 46.153076923
 |];
amount = 
[| 55.917227811,          0.0,          0.0,          0.0,          0.0, 34.615807692
 |          0.0, 90.027594366, 60.811554054, 75.819995902, 90.027594366,          0.0
 | 26.331588757,  9.296140845, 10.811054054, 22.540512295,  9.296140845, 19.231115385
 | 17.751183432,  0.676264789,          0.0,  1.639491803,  0.676264789,          0.0
 |          0.0,          0.0, 28.377391892,          0.0,          0.0, 46.153076923
 |];
stock = 
[|       150.0,       150.0,        150.0, 150.0,         150.0,         150.0
 |        20.0,         0.0, 75.819995902,   0.0,           0.0,         150.0
 |         0.0,         0.0,        150.0, 150.0,         150.0, 130.768884615
 | 2.248816568, 1.572551779,        150.0, 150.0, 149.323735211,         150.0
 |        20.0,        20.0,          0.0, 150.0,         150.0,         150.0
 |];
% _objective = 37350.4527949725;