production = [0: 0.0, 1: 0.0, 2: 0.0, 3: 0.0, 4: 0.0, 5: 0.0, 6: 0.0, 7: 0.0, 8: 0.0, 9: 0.0, 10: 0.0, 11: 0.0, 12: 0.0, 13: 0.0, 14: 0.0, 15: 0.0, 16: 0.0, 17: 0.0, 18: 0.0, 19: 0.0, 20: 0.0, 21: 0.0, 22: 0.0003, 23: 0.0, 24: 0.0, 25: 0.0, 26: 0.026, 27: 0.0, 28: 0.0838, 29: 0.0, 30: 0.1638, 31: 0.2687, 32: 0.431, 33: 0.0, 34: 0.0, 35: 0.8013, 36: 0.9383, 37: 1.0728, 38: 0.0, 39: 1.1843, 40: 1.1667, 41: 1.5145, 42: 1.6027, 43: 1.7252, 44: 1.2897, 45: 0.0, 46: 1.261, 47: 1.3862, 48: 0.8293, 49: 1.3055, 50: 0.0, 51: 0.0, 52: 0.0, 53: 0.0, 54: 0.0, 55: 0.698, 56: 0.0, 57: 0.0, 58: 0.0, 59: 0.887, 60: 1.699, 61: 0.9952, 62: 0.0, 63: 0.0, 64: 0.0, 65: 0.0, 66: 0.0, 67: 0.0, 68: 0.1975, 69: 0.0, 70: 0.0, 71: 0.0, 72: 0.1695, 73: 0.0, 74: 0.0, 75: 0.014, 76: 0.0043, 77: 0.0008, 78: 0.0, 79: 0.0, 80: 0.0, 81: 0.0, 82: 0.0, 83: 0.0, 84: 0.0, 85: 0.0, 86: 0.0, 87: 0.0, 88: 0.0, 89: 0.0, 90: 0.0, 91: 0.0, 92: 0.0, 93: 0.0, 94: 0.0, 95: 0.0];
buy = [0: 0.892271536, 1: 0.331575, 2: 0.0, 3: 0.773375, 4: 1.877575, 5: 0.029875, 6: 1.137375, 7: 0.0, 8: 1.390075, 9: 1.355675, 10: 1.349175, 11: 1.310375, 12: 0.303575, 13: 0.0, 14: 0.254675, 15: 0.0, 16: 1.265875, 17: 0.0, 18: 1.266675, 19: 1.755375, 20: 1.264875, 21: 0.0, 22: 0.265875, 23: 0.256375, 24: 0.0, 25: 0.255675, 26: 0.0, 27: 0.0, 28: 0.0, 29: 1.129675, 30: 0.269317064, 31: 0.0, 32: 0.0, 33: 1.797075, 34: 0.0, 35: 0.331075, 36: 0.0, 37: 0.0, 38: 1.647575, 39: 0.0, 40: 0.0, 41: 0.226375, 42: 0.654475, 43: 0.0, 44: 0.0, 45: 1.210875, 46: 0.0, 47: 0.0, 48: 0.504575, 49: 0.0, 50: 0.0, 51: 0.848575, 52: 1.261675, 53: 0.0, 54: 0.0, 55: 1.142075, 56: 1.365375, 57: 0.0, 58: 1.898575, 59: 0.0, 60: 0.170075, 61: 1.063175, 62: 0.0, 63: 1.246075, 64: 0.0, 65: 0.0, 66: 0.0, 67: 1.356375, 68: 0.0, 69: 1.354875, 70: 1.836675, 71: 0.0, 72: 0.0, 73: 1.182675, 74: 0.145175, 75: 0.0, 76: 0.176875, 77: 0.0, 78: 1.477175, 79: 1.201375, 80: 1.169575, 81: 0.0, 82: 0.169375, 83: 0.202875, 84: 0.0, 85: 0.0, 86: 0.146375, 87: 0.142575, 88: 1.132875, 89: 1.131675, 90: 1.166175, 91: 0.0, 92: 1.139075, 93: 0.363875, 94: 0.0, 95: 0.0];
sell = [0: 0.0, 1: 0.0, 2: 0.569925, 3: 0.0, 4: 0.0, 5: 0.0, 6: 0.0, 7: 0.0, 8: 0.0, 9: 0.0, 10: 0.0, 11: 0.0, 12: 0.0, 13: 0.639825, 14: 0.0, 15: 0.644625, 16: 0.0, 17: 0.626425, 18: 0.0, 19: 0.0, 20: 0.0, 21: 0.6401250000000001, 22: 0.0, 23: 0.0, 24: 0.636625, 25: 0.0, 26: 0.673125, 27: 0.654425, 28: 0.861125, 29: 0.0, 30: 0.0, 31: 1.039625, 32: 0.260125, 33: 0.0, 34: 0.581125, 35: 0.0, 36: 1.705925, 37: 1.334925, 38: 0.0, 39: 0.030225, 40: 1.035325, 41: 0.0, 42: 0.0, 43: 0.016325, 44: 1.941325, 45: 0.0, 46: 0.045425, 47: 1.953625, 48: 0.0, 49: 0.053925, 50: 0.037206916, 51: 0.0, 52: 0.0, 53: 0.442125, 54: 0.554925, 55: 0.0, 56: 0.0, 57: 0.618125, 58: 0.0, 59: 0.642825, 60: 0.0, 61: 0.0, 62: 0.0, 63: 0.0, 64: 0.169825, 65: 0.327325, 66: 0.557125, 67: 0.0, 68: 0.757925, 69: 0.0, 70: 0.0, 71: 0.0, 72: 0.940125, 73: 0.0, 74: 0.0, 75: 0.463125, 76: 0.0, 77: 0.0, 78: 0.0, 79: 0.0, 80: 0.0, 81: 0.728625, 82: 0.0, 83: 0.0, 84: 0.7006250000000001, 85: 0.742625, 86: 0.0, 87: 0.0, 88: 0.0, 89: 0.0, 90: 0.0, 91: 0.28837379, 92: 0.0, 93: 0.0, 94: 0.535825, 95: 0.530825];
charge = [0: 0.5613965359999999, 1: 0.0, 2: 0.0, 3: 0.0, 4: 1.0, 5: 0.0, 6: 1.0, 7: 0.0, 8: 1.0, 9: 1.0, 10: 1.0, 11: 1.0, 12: 0.0, 13: 0.0, 14: 0.0, 15: 0.0, 16: 1.0, 17: 0.0, 18: 1.0, 19: 1.0, 20: 1.0, 21: 0.0, 22: 0.0, 23: 0.0, 24: 0.0, 25: 0.0, 26: 0.0, 27: 0.0, 28: 0.0, 29: 1.0, 30: 0.303242064, 31: 0.0, 32: 0.0, 33: 1.0, 34: 0.0, 35: 1.0, 36: 0.0, 37: 0.0, 38: 1.0, 39: 1.0, 40: 0.0, 41: 1.0, 42: 1.0, 43: 1.0, 44: 0.0, 45: 1.0, 46: 1.0, 47: 0.0, 48: 1.0, 49: 1.0, 50: 0.0, 51: 0.0, 52: 1.0, 53: 0.0, 54: 0.0, 55: 1.0, 56: 1.0, 57: 0.0, 58: 1.0, 59: 0.0, 60: 0.0, 61: 1.0, 62: 0.0, 63: 1.0, 64: 0.0, 65: 0.0, 66: 0.0, 67: 1.0, 68: 0.0, 69: 1.0, 70: 1.0, 71: 0.0, 72: 0.0, 73: 1.0, 74: 0.0, 75: 0.0, 76: 0.0, 77: 0.0, 78: 1.0, 79: 1.0, 80: 1.0, 81: 0.0, 82: 0.0, 83: 0.0, 84: 0.0, 85: 0.0, 86: 0.0, 87: 0.0, 88: 1.0, 89: 1.0, 90: 1.0, 91: 0.0, 92: 1.0, 93: 0.0, 94: 0.0, 95: 0.0];
discharge = [0: 0.0, 1: 0.0, 2: 1.0, 3: 0.0, 4: 0.0, 5: 1.0, 6: 0.0, 7: 0.5307500000000001, 8: 0.0, 9: 0.0, 10: 0.0, 11: 0.0, 12: 0.0, 13: 1.0, 14: 0.0, 15: 1.0, 16: 0.0, 17: 1.0, 18: 0.0, 19: 0.0, 20: 0.0, 21: 1.0, 22: 0.0, 23: 0.0, 24: 1.0, 25: 0.0, 26: 1.0, 27: 1.0, 28: 1.0, 29: 0.0, 30: 0.0, 31: 1.0, 32: 0.0, 33: 0.0, 34: 1.0, 35: 0.0, 36: 1.0, 37: 1.0, 38: 0.0, 39: 0.0, 40: 0.0, 41: 0.0, 42: 0.0, 43: 0.0, 44: 1.0, 45: 0.0, 46: 0.0, 47: 1.0, 48: 0.0, 49: 0.0, 50: 0.962091018, 51: 0.0, 52: 0.0, 53: 1.0, 54: 1.0, 55: 0.0, 56: 0.0, 57: 1.0, 58: 0.0, 59: 1.0, 60: 0.0, 61: 0.0, 62: 0.396527778, 63: 0.0, 64: 1.0, 65: 1.0, 66: 1.0, 67: 0.0, 68: 1.0, 69: 0.0, 70: 0.0, 71: 0.183527778, 72: 1.0, 73: 0.0, 74: 0.0, 75: 1.0, 76: 0.0, 77: 0.174527778, 78: 0.0, 79: 0.0, 80: 0.0, 81: 1.0, 82: 0.0, 83: 0.0, 84: 1.0, 85: 1.0, 86: 0.0, 87: 0.0, 88: 0.0, 89: 0.0, 90: 0.0, 91: 0.461609767, 92: 0.0, 93: 0.0, 94: 1.0, 95: 1.0];
soc = [0: 12.252906882, 1: 12.250456301, 2: 11.24800621, 3: 11.245756608, 4: 12.143507457, 5: 11.141078756, 6: 12.03885054, 7: 11.50569277, 8: 12.403391631, 9: 13.300910953, 10: 14.198250771, 11: 15.09541112, 12: 15.092392038, 13: 14.08937356, 14: 14.086555685, 15: 13.083738374, 16: 13.981121626, 17: 12.978325402, 18: 13.875729737, 19: 14.772954591, 20: 15.67, 21: 14.666866, 22: 14.663932627, 23: 14.66099984, 24: 13.65806764, 25: 13.655336027, 26: 12.65260496, 27: 11.650074439, 28: 10.647744424, 29: 11.545614875, 30: 11.81622361, 31: 10.813860365, 32: 10.811697593, 33: 11.709535253, 34: 10.707193346, 35: 11.605051907, 36: 10.602730897, 37: 9.600610351, 38: 10.498690229, 39: 11.396590491, 40: 11.394311173, 41: 12.29203231, 42: 13.189573904, 43: 14.086935989, 44: 13.084118602, 45: 13.981501778, 46: 14.878705478, 47: 13.875729737, 48: 14.772954591, 49: 15.67, 50: 14.704774982, 51: 14.701834027, 52: 15.59889366, 53: 14.595773881, 54: 13.592854727, 55: 14.490136156, 56: 15.387238129, 57: 14.384160681, 58: 15.281283849, 59: 14.278227592, 60: 14.275371946, 61: 15.172516872, 62: 14.772954591, 63: 15.67, 64: 14.666866, 65: 13.663932627, 66: 12.66119984, 67: 13.5586676, 68: 12.555955867, 69: 13.453444676, 70: 14.350753987, 71: 14.164356058, 72: 13.161523187, 73: 14.058890882, 74: 14.056079104, 75: 13.053267888, 76: 13.050657235, 77: 12.873519325, 78: 13.770944622, 79: 14.668190433, 80: 15.565256795, 81: 14.562143743, 82: 14.559231314, 83: 14.556319468, 84: 13.553408204, 85: 12.550697523, 86: 12.548187383, 87: 12.545677746, 88: 13.44316861, 89: 14.340479976, 90: 15.23761188, 91: 14.772954591, 92: 15.67, 93: 15.666866, 94: 14.663732627, 95: 13.66079988];
cost = [0: 0.611433494, 1: 0.202559168, 2: 0.0, 3: 0.472454788, 4: 1.265188733, 5: 0.018250637, 6: 0.813000553, 7: 0.0, 8: 0.967374983, 9: 0.946360023, 10: 0.942389173, 11: 0.918686253, 12: 0.185453967, 13: 0.0, 14: 0.155580957, 15: 0.0, 16: 0.891501203, 17: 0.0, 18: 0.891989923, 19: 1.190536753, 20: 0.8908903030000001, 21: 0.0, 22: 0.162423037, 23: 0.156619488, 24: 0.0, 25: 0.30415098, 26: 0.0, 27: 0.0, 28: 0.0, 29: 1.462039545, 30: 0.35621617, 31: 0.0, 32: 0.0, 33: 2.255978585, 34: 0.0, 35: 0.512024985, 36: 0.0, 37: 0.0, 38: 2.078133385, 39: 0.118178165, 40: 0.0, 41: 0.387473865, 42: 0.896741625, 43: 0.118178165, 44: 0.0, 45: 1.558635065, 46: 0.118178165, 47: 0.0, 48: 0.7184205849999999, 49: 0.118178165, 50: 0.0, 51: 1.00946482, 52: 0.8889354229999999, 53: 0.0, 54: 0.0, 55: 0.815871783, 56: 0.952285753, 57: 0.0, 58: 1.278017633, 59: 0.0, 60: 0.20232122, 61: 1.382931145, 62: 0.0, 63: 1.600508985, 64: 0.0, 65: 0.0, 66: 0.0, 67: 1.731721865, 68: 0.0, 69: 1.729937465, 70: 2.303086745, 71: 0.0, 72: 0.0, 73: 1.525088345, 74: 0.17270018, 75: 0.0, 76: 0.2104105, 77: 0.0, 78: 1.875425545, 79: 1.547333865, 80: 1.509504585, 81: 0.0, 82: 0.2014885, 83: 0.2413401, 84: 0.0, 85: 0.0, 86: 0.1741277, 87: 0.16960722, 88: 0.810251503, 89: 0.809518423, 90: 0.830594473, 91: 0.0, 92: 0.8140390830000001, 93: 0.222291238, 94: 0.0, 95: 0.0];
earn = [0: 0.0, 1: 0.0, 2: 0.237715718, 3: 0.0, 4: 0.0, 5: 0.0, 6: 0.0, 7: 0.0, 8: 0.0, 9: 0.0, 10: 0.0, 11: 0.0, 12: 0.0, 13: 0.23673525, 14: 0.0, 15: 0.228261713, 16: 0.0, 17: 0.170262315, 18: 0.0, 19: 0.0, 20: 0.0, 21: 0.097491038, 22: 0.0, 23: 0.0, 24: 0.019480725, 25: 0.0, 26: 0.018780188, 27: 0.013677483, 28: 0.005597313, 29: 0.0, 30: 0.0, 31: -0.009044738, 32: -0.002107013, 33: 0.0, 34: -0.009646675, 35: 0.0, 36: -0.129820893, 37: -0.120410235, 38: 0.0, 39: -0.004503525, 40: -0.277363568, 41: 0.0, 42: 0.0, 43: -0.007318498, 44: -1.057245595, 45: 0.0, 46: -0.031988285, 47: -1.36363025, 48: 0.0, 49: -0.046105875, 50: -0.030896623, 51: 0.0, 52: 0.0, 53: -0.409363538, 54: -0.51963177, 55: 0.0, 56: 0.0, 57: -0.480715813, 58: 0.0, 59: -0.366345968, 60: 0.0, 61: 0.0, 62: 0.0, 63: 0.0, 64: -0.040316455, 65: -0.0549906, 66: -0.081451675, 67: 0.0, 68: -0.040473195, 69: 0.0, 70: 0.0, 71: 0.0, 72: 0.040049325, 73: 0.0, 74: 0.0, 75: 0.024545625, 76: 0.0, 77: 0.0, 78: 0.0, 79: 0.0, 80: 0.0, 81: 0.344566763, 82: 0.0, 83: 0.0, 84: 0.338752188, 85: 0.35141015, 86: 0.0, 87: 0.0, 88: 0.0, 89: 0.0, 90: 0.0, 91: 0.12630772, 92: 0.0, 93: 0.0, 94: 0.172696398, 95: 0.14608304];
total_cost = 47.69402499;
total_earn = -2.510957836;
