production = [0.0, 0.0, 0.0, 0.0, 0.0, 0.0, 0.0, 0.0, 0.0, 0.0, 0.0, 0.0, 0.0, 0.0, 0.0, 0.0, 0.0, 0.0, 0.0, 0.0, 0.0, 0.0, 0.0003, 0.0, 0.0, 0.004, 0.026, 0.0578, 0.0, 0.0897, 0.1638, 0.0, 0.0, 0.3272, 0.6993, 0.0, 0.9383, 1.0728, 1.172, 0.0, 0.0, 1.5145, 1.6027, 1.7252, 0.0, 1.4105, 1.261, 1.3862, 0.0, 0.0, 0.0, 0.7745, 0.3495, 0.4487, 0.0, 0.698, 0.3008, 0.2328, 0.8405, 0.0, 1.699, 0.9952, 0.363, 0.2385, 0.0, 0.0, 0.3432, 0.0, 0.0, 0.0, 0.0602, 0.0, 0.1695, 0.0, 0.06850000000000001, 0.014, 0.0, 0.0008, 0.0, 0.0, 0.0, 0.0, 0.0, 0.0, 0.0, 0.0, 0.0, 0.0, 0.0, 0.0, 0.0, 0.0, 0.0, 0.0, 0.0, 0.0];
buy = [0.0, 0.0, 0.0, 0.0, 0.0, 0.929875, 1.137375, 0.477675, 0.0, 1.355675, 0.0, 0.0, 0.303575, 0.260175, 0.254675, 1.255375, 0.265875, 0.0, 1.266675, 0.755375, 0.0, 1.259875, 1.265875, 0.256375, 1.263375, 1.251675, 1.226875, 1.187775, 0.0, 0.039975, 0.966075, 1.129075, 0.0, 0.0, 0.619575, 0.0, 0.0, 0.0, 0.0, 1.154075, 0.131375, 0.226375, 0.0, 0.0, 1.248375, 0.0, 0.0, 0.0, 0.333875, 1.251575, 0.0, 1.074075, 0.0, 1.009175, 1.345075, 1.142075, 0.06457499999999999, 0.0, 0.0, 0.244175, 0.0, 1.063175, 0.0, 0.0, 1.730175, 1.572675, 0.999675, 1.356375, 0.0, 0.0, 1.776475, 0.0, 0.959875, 0.182675, 1.076675, 0.436875, 0.0, 1.157075, 0.0, 0.201375, 0.169575, 0.171375, 1.169375, 0.0, 0.199375, 0.0, 1.146375, 0.0, 1.132875, 0.0, 1.166175, 0.127075, 1.139075, 1.363875, 0.367657222, 0.0];
sell = [0.569125, 0.568425, 0.569925, 0.126625, 0.022425, 0.0, 0.0, 0.0, 0.509925, 0.0, 0.550825, 0.589625, 0.0, 0.0, 0.0, 0.0, 0.0, 0.626425, 0.0, 0.0, 0.6351250000000001, 0.0, 0.0, 0.0, 0.0, 0.0, 0.0, 0.0, 0.777325, 0.0, 0.0, 0.0, 0.0, 0.430125, 0.0, 0.767625, 0.805925, 0.08337422899999999, 0.524425, 0.0, 0.0, 0.0, 0.345525, 1.016325, 0.0, 1.199625, 1.945425, 1.053625, 0.0, 0.0, 0.071325, 0.0, 0.087825, 0.0, 0.0, 0.0, 0.0, 0.850925, 0.841925, 0.0, 0.729925, 0.0, 0.006125, 0.892425, 0.0, 0.0, 0.0, 0.0, 0.560425, 0.545125, 0.0, 0.734825, 0.0, 0.0, 0.0, 0.0, 0.173782373, 0.0, 0.422825, 0.0, 0.0, 0.0, 0.0, 0.697125, 0.0, 0.742625, 0.0, 0.757425, 0.0, 0.768325, 0.0, 0.0, 0.0, 0.0, 0.0, 0.530825];
charge = [0.0, 0.0, 0.0, 0.0, 0.0, 0.0, 1.0, 0.0, 0.0, 1.0, 0.0, 0.0, 0.0, 0.0, 0.0, 1.0, 0.0, 0.0, 1.0, 0.0, 0.0, 1.0, 1.0, 0.0, 1.0, 1.0, 1.0, 1.0, 0.0, 0.0, 1.0, 1.0, 0.0, 0.0, 1.0, 0.0, 0.0, 0.351550771, 0.0, 1.0, 0.0, 1.0, 0.0, 0.0, 1.0, 0.0, 0.0, 0.0, 0.0, 1.0, 0.0, 1.0, 0.0, 1.0, 1.0, 1.0, 0.0, 0.0, 0.0, 0.0, 0.0, 1.0, 0.0, 0.0, 1.0, 1.0, 1.0, 1.0, 0.0, 0.0, 1.0, 0.0, 1.0, 0.0, 1.0, 0.0, 0.0, 1.0, 0.0, 0.0, 0.0, 0.0, 1.0, 0.0, 0.0, 0.0, 1.0, 0.0, 1.0, 0.0, 1.0, 0.0, 1.0, 1.0, 0.003482222, 0.0];
discharge = [1.0, 1.0, 1.0, 1.0, 1.0, 0.0, 0.0, 0.0, 1.0, 0.0, 1.0, 1.0, 0.0, 0.0, 0.0, 0.0, 0.0, 1.0, 0.0, 0.0, 1.0, 0.0, 0.0, 0.0, 0.0, 0.0, 0.0, 0.0, 1.0, 0.0, 0.0, 0.0, 0.189861111, 1.0, 0.0, 1.0, 0.0, 0.0, 0.0, 0.0, 0.0, 0.0, 0.0, 0.0, 0.0, 0.0, 1.0, 0.0, 0.0, 0.0, 1.0, 0.0, 0.0, 0.0, 0.0, 0.0, 0.0, 1.0, 1.0, 1.0, 1.0, 0.0, 0.0, 1.0, 0.0, 0.0, 0.0, 0.0, 1.0, 1.0, 0.0, 1.0, 0.0, 0.0, 0.0, 0.0, 0.394397081, 0.0, 1.0, 0.0, 0.0, 0.0, 0.0, 1.0, 0.0, 1.0, 0.0, 1.0, 0.0, 1.0, 0.0, 0.0, 0.0, 0.0, 0.0, 1.0];
soc = [10.74765, 9.74550047, 8.74355137, 7.74180266, 6.740254299, 6.738906248, 7.637558467, 7.636030955, 6.634503749, 7.533176848, 6.531670213, 5.530363879, 5.529257806, 5.528151955, 5.527046324, 6.425940915, 6.424655727, 5.423370796, 6.322286121, 6.321021664, 5.31975746, 6.218693508, 7.11744977, 7.11602628, 8.014603075, 8.913000154000001, 9.811217554000001, 10.70925531, 9.707113459, 9.705172037000001, 10.603231002, 11.501110356, 11.308949023, 10.306687233, 11.204625896, 10.20238497, 10.200344493, 10.514700118, 10.512597178, 11.410494659, 11.40821256, 12.305930917, 12.303469731, 12.301009037, 13.198548835, 13.195909126, 12.193269944, 12.19083129, 12.188393124, 13.085955445, 12.083338254, 12.980921586, 12.978325402, 13.875729737, 14.772954591, 15.67, 15.666866, 14.663732627, 13.66079988, 12.65806772, 11.655536107, 12.553205, 12.550694359, 11.54818422, 12.445874583, 13.343385408, 14.240716731, 15.137868587, 14.134841014, 13.132014046, 14.029387643, 13.026581765, 13.923976449, 13.921191654, 14.818407415, 14.815443734, 14.418083564, 15.315199948, 14.312136908, 14.30927448, 14.306412625, 14.303551343, 15.200690633, 14.197650495, 14.194810964, 13.191972002, 14.089333608, 13.086515741, 13.983898438, 12.981101658, 13.878505438, 13.875729737, 14.772954591, 15.67, 15.67, 14.666866];
cost = [0.0, 0.0, 0.0, 0.0, 0.0, 0.568060637, 0.813000553, 0.291811658, 0.0, 0.946360023, 0.0, 0.0, 0.185453967, 0.158940908, 0.155580957, 0.8850867529999999, 0.162423038, 0.0, 0.891989923, 0.461458587, 0.0, 0.887835803, 0.891501203, 0.156619488, 1.621089065, 1.607170745, 1.577668665, 1.531155305, 0.0, 0.04755426, 1.267420985, 1.461325785, 0.0, 0.0, 0.855224585, 0.0, 0.0, 0.041545625, 0.0, 1.491065785, 0.1562837, 0.387473865, 0.0, 0.0, 1.603245065, 0.0, 0.0, 0.0, 0.3971777, 1.607051785, 0.0, 1.395897785, 0.0, 0.734683173, 0.939884483, 0.815871783, 0.039448868, 0.0, 0.0, 0.149166507, 0.0, 1.382931145, 0.0, 0.0, 2.176394345, 1.989032345, 1.307391545, 1.731721865, 0.0, 0.0, 2.231472825, 0.0, 1.260045465, 0.21731018, 1.398990745, 0.5197065, 0.0, 1.494634585, 0.0, 0.2395557, 0.20172642, 0.2038677, 1.509266665, 0.0, 0.2371765, 0.0, 1.481905865, 0.0, 0.810251503, 0.0, 0.830594473, 0.077630118, 0.8140390830000001, 0.9513694029999999, 0.22501332, 0.0];
earn = [0.253260625, 0.240841673, 0.237715718, 0.0535877, 0.009393833000000001, 0.0, 0.0, 0.0, 0.196678072, 0.0, 0.21680472, 0.226121188, 0.0, 0.0, 0.0, 0.0, 0.0, 0.170262315, 0.0, 0.0, 0.103017275, 0.0, 0.0, 0.0, 0.0, 0.0, 0.0, 0.0, 0.005052613, 0.0, 0.0, 0.0, 0.0, -0.004086188, 0.0, -0.02364285, -0.061330893, -0.007520355, -0.053176695, 0.0, 0.0, 0.0, -0.129744638, -0.455618498, 0.0, -0.725653163, -1.369968285, -0.73543025, 0.0, 0.0, -0.05922828, 0.0, -0.07777777800000001, 0.0, 0.0, 0.0, 0.0, -0.661764373, -0.50953301, 0.0, -0.339999065, 0.0, -0.002637425, -0.319755878, 0.0, 0.0, 0.0, 0.0, -0.029926695, -0.013682638, 0.0, -0.018003213, 0.0, 0.0, 0.0, 0.0, 0.050466401, 0.0, 0.152428413, 0.0, 0.0, 0.0, 0.0, 0.333574312, 0.0, 0.35141015, 0.0, 0.355308067, 0.0, 0.33652635, 0.0, 0.0, 0.0, 0.0, 0.0, 0.14608304];
total_cost = 50.475557319;
total_earn = -2.159947744;
% _objective = 52.635505063;