production = [0: 0.0, 1: 0.0, 2: 0.0, 3: 0.0, 4: 0.0, 5: 0.0, 6: 0.0, 7: 0.0, 8: 0.0, 9: 0.0, 10: 0.0, 11: 0.0, 12: 0.0, 13: 0.0, 14: 0.0, 15: 0.0, 16: 0.0, 17: 0.0, 18: 0.0, 19: 0.0, 20: 0.0, 21: 0.0, 22: 0.0003, 23: 0.0, 24: 0.0, 25: 0.0, 26: 0.026, 27: 0.0, 28: 0.0838, 29: 0.0, 30: 0.1638, 31: 0.2687, 32: 0.0, 33: 0.0, 34: 0.6993, 35: 0.0, 36: 0.9383, 37: 0.0, 38: 1.172, 39: 0.0, 40: 0.0, 41: 1.5145, 42: 0.0, 43: 1.7252, 44: 1.2897, 45: 1.4105, 46: 1.261, 47: 1.3862, 48: 0.8293, 49: 1.3055, 50: 1.9007, 51: 0.0, 52: 0.0, 53: 0.0, 54: 0.0, 55: 0.0, 56: 0.0, 57: 0.2328, 58: 0.8405, 59: 0.0, 60: 0.0, 61: 0.0, 62: 0.0, 63: 0.0, 64: 0.0, 65: 0.0, 66: 0.0, 67: 0.0, 68: 0.1975, 69: 0.1275, 70: 0.0, 71: 0.2155, 72: 0.1695, 73: 0.0, 74: 0.06850000000000001, 75: 0.0, 76: 0.0, 77: 0.0008, 78: 0.0, 79: 0.0, 80: 0.0, 81: 0.0, 82: 0.0, 83: 0.0, 84: 0.0, 85: 0.0, 86: 0.0, 87: 0.0, 88: 0.0, 89: 0.0, 90: 0.0, 91: 0.0, 92: 0.0, 93: 0.0, 94: 0.0, 95: 0.0];
buy = [0: 0.0, 1: 1.331575, 2: 1.330075, 3: 1.773375, 4: 0.0, 5: 1.929875, 6: 1.137375, 7: 0.0, 8: 0.0, 9: 0.0, 10: 0.0, 11: 1.310375, 12: 1.303575, 13: 0.260175, 14: 1.254675, 15: 1.255375, 16: 0.0, 17: 1.273575, 18: 1.266675, 19: 1.755375, 20: 0.0, 21: 0.5698314840000001, 22: 1.265875, 23: 0.0, 24: 0.263375, 25: 1.255675, 26: 0.351444289, 27: 0.245575, 28: 0.0, 29: 1.129675, 30: 0.0, 31: 0.860375, 32: 0.0, 33: 0.0, 34: 0.0, 35: 1.132375, 36: 0.0, 37: 0.0, 38: 0.0, 39: 1.154075, 40: 0.131375, 41: 0.0, 42: 2.257175, 43: 0.0, 44: 0.0, 45: 0.0, 46: 0.0, 47: 0.0, 48: 0.504575, 49: 0.0, 50: 0.0, 51: 1.848575, 52: 0.0, 53: 1.457875, 54: 0.345075, 55: 0.0, 56: 0.365375, 57: 0.049075, 58: 0.0, 59: 2.144175, 60: 1.869075, 61: 1.058375, 62: 0.0, 63: 0.0, 64: 0.0, 65: 0.572675, 66: 0.342875, 67: 0.0, 68: 0.0, 69: 1.227375, 70: 1.836675, 71: 0.0, 72: 0.0, 73: 1.182675, 74: 0.07667499999999999, 75: 0.450875, 76: 1.181175, 77: 1.157075, 78: 0.477175, 79: 0.0, 80: 0.169575, 81: 0.0, 82: 0.169375, 83: 1.202875, 84: 0.0, 85: 0.157375, 86: 0.146375, 87: 1.142575, 88: 0.0, 89: 1.131675, 90: 0.166175, 91: 0.127075, 92: 1.139075, 93: 0.363875, 94: 1.364175, 95: 1.369175];
sell = [0: 0.569125, 1: 0.0, 2: 0.0, 3: 0.0, 4: 0.022425, 5: 0.0, 6: 0.0, 7: 0.422325, 8: 0.509925, 9: 0.5443249999999999, 10: 0.550825, 11: 0.0, 12: 0.0, 13: 0.0, 14: 0.0, 15: 0.0, 16: 0.634125, 17: 0.0, 18: 0.0, 19: 0.0, 20: 0.6351250000000001, 21: 0.0, 22: 0.0, 23: 0.643625, 24: 0.0, 25: 0.0, 26: 0.0, 27: 0.0, 28: 0.861125, 29: 0.0, 30: 0.933925, 31: 0.0, 32: 0.0, 33: 0.102925, 34: 0.380425, 35: 0.0, 36: 1.705925, 37: 0.262125, 38: 1.190702274, 39: 0.0, 40: 0.0, 41: 1.673625, 42: 0.0, 43: 0.016325, 44: 1.941325, 45: 2.099625, 46: 1.045425, 47: 0.053625, 48: 0.0, 49: 1.053925, 50: 0.07202500000000001, 51: 0.0, 52: 0.542845268, 53: 0.0, 54: 0.0, 55: 0.059925, 56: 0.0, 57: 0.0, 58: 0.841925, 59: 0.0, 60: 0.0, 61: 0.0, 62: 0.543125, 63: 0.653925, 64: 0.169825, 65: 0.0, 66: 0.0, 67: 0.543625, 68: 0.757925, 69: 0.0, 70: 0.0, 71: 0.950325, 72: 0.940125, 73: 0.0, 74: 0.0, 75: 0.0, 76: 0.0, 77: 0.0, 78: 0.0, 79: 0.6986250000000001, 80: 0.0, 81: 0.728625, 82: 0.0, 83: 0.0, 84: 0.7006250000000001, 85: 0.0, 86: 0.0, 87: 0.0, 88: 0.7671249999999999, 89: 0.0, 90: 0.0, 91: 0.0, 92: 0.0, 93: 0.0, 94: 0.0, 95: 0.0];
charge = [0: 0.0, 1: 1.0, 2: 1.0, 3: 1.0, 4: 0.0, 5: 1.0, 6: 1.0, 7: 0.0, 8: 0.0, 9: 0.0, 10: 0.0, 11: 1.0, 12: 1.0, 13: 0.0, 14: 1.0, 15: 1.0, 16: 0.0, 17: 1.0, 18: 1.0, 19: 1.0, 20: 0.0, 21: 0.309956484, 22: 1.0, 23: 0.0, 24: 0.0, 25: 1.0, 26: 0.124569289, 27: 0.0, 28: 0.0, 29: 1.0, 30: 0.0, 31: 1.0, 32: 0.0, 33: 0.0, 34: 0.0, 35: 1.0, 36: 0.0, 37: 0.0, 38: 0.0, 39: 1.0, 40: 0.0, 41: 0.0, 42: 1.0, 43: 1.0, 44: 0.0, 45: 0.0, 46: 0.0, 47: 1.0, 48: 1.0, 49: 0.0, 50: 1.0, 51: 1.0, 52: 0.0, 53: 1.0, 54: 0.0, 55: 0.0, 56: 0.0, 57: 0.0, 58: 0.0, 59: 1.0, 60: 0.0, 61: 0.0, 62: 0.0, 63: 0.0, 64: 0.0, 65: 0.0, 66: 0.0, 67: 0.0, 68: 0.0, 69: 1.0, 70: 1.0, 71: 0.0, 72: 0.0, 73: 1.0, 74: 0.0, 75: 0.0, 76: 1.0, 77: 1.0, 78: 0.0, 79: 0.0, 80: 0.0, 81: 0.0, 82: 0.0, 83: 1.0, 84: 0.0, 85: 0.0, 86: 0.0, 87: 1.0, 88: 0.0, 89: 1.0, 90: 0.0, 91: 0.0, 92: 1.0, 93: 0.0, 94: 1.0, 95: 1.0];
discharge = [0: 1.0, 1: 0.0, 2: 0.0, 3: 0.0, 4: 1.0, 5: 0.0, 6: 0.0, 7: 1.0, 8: 1.0, 9: 1.0, 10: 1.0, 11: 0.0, 12: 0.0, 13: 0.0, 14: 0.0, 15: 0.0, 16: 1.0, 17: 0.0, 18: 0.0, 19: 0.0, 20: 1.0, 21: 0.0, 22: 0.0, 23: 1.0, 24: 0.0, 25: 0.0, 26: 0.0, 27: 0.0, 28: 1.0, 29: 0.0, 30: 1.0, 31: 0.0, 32: 0.189861111, 33: 1.0, 34: 0.0, 35: 0.0, 36: 1.0, 37: 1.0, 38: 0.740308082, 39: 0.0, 40: 0.0, 41: 1.0, 42: 0.0, 43: 0.0, 44: 1.0, 45: 1.0, 46: 0.0, 47: 0.0, 48: 0.0, 49: 0.0, 50: 0.0, 51: 0.0, 52: 0.893911409, 53: 0.0, 54: 0.0, 55: 1.0, 56: 0.0, 57: 0.0, 58: 1.0, 59: 0.0, 60: 0.0, 61: 0.0, 62: 1.0, 63: 1.0, 64: 1.0, 65: 0.0, 66: 0.0, 67: 1.0, 68: 1.0, 69: 0.0, 70: 0.0, 71: 1.0, 72: 1.0, 73: 0.0, 74: 0.0, 75: 0.0, 76: 0.0, 77: 0.0, 78: 0.0, 79: 1.0, 80: 0.0, 81: 1.0, 82: 0.0, 83: 0.0, 84: 1.0, 85: 0.0, 86: 0.0, 87: 0.0, 88: 1.0, 89: 0.0, 90: 0.0, 91: 0.0, 92: 0.0, 93: 0.0, 94: 0.0, 95: 0.0];
soc = [0: 10.74765, 1: 11.64550047, 2: 12.54317137, 3: 13.440662736, 4: 12.437974603, 5: 13.335487008, 6: 14.232819911, 7: 13.229973347, 8: 12.227327352, 9: 11.224881887, 10: 10.22263691, 11: 11.120592383, 12: 12.018368264, 13: 12.015964591, 14: 12.913561398, 15: 13.810978686, 16: 12.80821649, 17: 13.705654847, 18: 14.602913716, 19: 15.499993133, 20: 14.496893134, 21: 14.772954591, 22: 15.67, 23: 14.666866, 24: 14.663932627, 25: 15.56099984, 26: 15.67, 27: 15.666866, 28: 14.663732627, 29: 15.56079988, 30: 14.55768772, 31: 15.454776183, 32: 15.261824116, 33: 14.258771752, 34: 14.255919997, 35: 15.153068813, 36: 14.150038199, 37: 13.147208192, 38: 12.404270668, 39: 13.301789814, 40: 13.299129456, 41: 12.29646963, 42: 13.194010336, 43: 14.091371534, 44: 13.08855326, 45: 12.085935549, 46: 12.083518362, 47: 12.981101658, 48: 13.878505438, 49: 13.875729737, 50: 14.772954591, 51: 15.67, 52: 14.772954591, 53: 15.67, 54: 15.666866, 55: 14.663732627, 56: 14.66079988, 57: 14.65786772, 58: 13.654936147, 59: 14.55220516, 60: 14.549294718, 61: 14.54638486, 62: 13.543475583, 63: 12.540766887, 64: 11.538258734, 65: 11.535951082, 66: 11.533643892, 67: 10.531337163, 68: 9.529230896, 69: 10.42732505, 70: 11.325239585, 71: 10.322974537, 72: 9.320909942, 73: 10.21904576, 74: 10.217001951, 75: 10.21495855, 76: 11.112915559, 77: 12.010692976, 78: 12.008290837, 79: 11.005889179, 80: 11.003688001, 81: 10.001487263, 82: 9.999486965999999, 83: 10.897487068, 84: 9.895307571, 85: 9.89332851, 86: 9.891349844000001, 87: 10.789371574, 88: 9.787213700000001, 89: 10.685256257, 90: 10.683119206, 91: 10.680982582, 92: 11.578846385, 93: 11.576530616, 94: 12.47421531, 95: 13.371720467];
cost = [0: 0.0, 1: 0.931637333, 2: 0.9307209829999999, 3: 1.201532953, 4: 0.0, 5: 1.297138803, 6: 0.813000553, 7: 0.0, 8: 0.0, 9: 0.0, 10: 0.0, 11: 0.918686253, 12: 0.914532133, 13: 0.158940908, 14: 0.884659123, 15: 0.8850867529999999, 16: 0.0, 17: 0.896205133, 18: 0.891989923, 19: 1.190536753, 20: 0.0, 21: 0.384740142, 22: 0.891501203, 23: 0.0, 24: 0.3133109, 25: 1.611929145, 26: 0.432799496, 27: 0.29213602, 28: 0.0, 29: 1.462039545, 30: 0.0, 31: 1.141680265, 32: 0.0, 33: 0.0, 34: 0.0, 35: 1.465251465, 36: 0.0, 37: 0.0, 38: 0.0, 39: 1.491065785, 40: 0.1562837, 41: 0.0, 42: 2.803313545, 43: 0.118178165, 44: 0.0, 45: 0.0, 46: 0.0, 47: 0.118178165, 48: 0.7184205849999999, 49: 0.0, 50: 0.118178165, 51: 2.317242985, 52: 0.0, 53: 1.008794003, 54: 0.210806318, 55: 0.0, 56: 0.223207588, 57: 0.029979917, 58: 0.0, 59: 1.428054673, 60: 2.22345162, 61: 1.2590429, 62: 0.0, 63: 0.0, 64: 0.0, 65: 0.68125418, 66: 0.4078841, 67: 0.0, 68: 0.0, 69: 1.578263465, 70: 2.303086745, 71: 0.0, 72: 0.0, 73: 1.525088345, 74: 0.09121258, 75: 0.5363609, 76: 1.523303945, 77: 1.494634585, 78: 0.56764738, 79: 0.0, 80: 0.20172642, 81: 0.0, 82: 0.2014885, 83: 1.549118265, 84: 0.0, 85: 0.1872133, 86: 0.1741277, 87: 1.477385385, 88: 0.0, 89: 0.809518423, 90: 0.101516308, 91: 0.077630118, 92: 0.8140390830000001, 93: 0.222291238, 94: 0.951552673, 95: 0.954607173];
earn = [0: 0.253260625, 1: 0.0, 2: 0.0, 3: 0.0, 4: 0.009393833000000001, 5: 0.0, 6: 0.0, 7: 0.180206078, 8: 0.196678073, 9: 0.214518483, 10: 0.21680472, 11: 0.0, 12: 0.0, 13: 0.0, 14: 0.0, 15: 0.0, 16: 0.195944625, 17: 0.0, 18: 0.0, 19: 0.0, 20: 0.103017275, 21: 0.0, 22: 0.0, 23: 0.084121788, 24: 0.0, 25: 0.0, 26: 0.0, 27: 0.0, 28: 0.005597313, 29: 0.0, 30: -0.004296055, 31: 0.0, 32: 0.0, 33: -0.0009777880000000001, 34: -0.006315055, 35: 0.0, 36: -0.129820893, 37: -0.023643675, 38: -0.120737211, 39: 0.0, 40: 0.0, 41: -0.484179712, 42: 0.0, 43: -0.007318498, 44: -1.057245595, 45: -1.270063163, 46: -0.736188285, 47: -0.03743025, 48: 0.0, 49: -0.9011058749999999, 50: -0.05980956, 51: 0.0, 52: -0.480743769, 53: 0.0, 54: 0.0, 55: -0.051523515, 56: 0.0, 57: 0.0, 58: -0.50953301, 59: 0.0, 60: 0.0, 61: 0.0, 62: -0.233869625, 63: -0.234301328, 64: -0.040316455, 65: 0.0, 66: 0.0, 67: -0.059690025, 68: -0.040473195, 69: 0.0, 70: 0.0, 71: -0.023282963, 72: 0.040049325, 73: 0.0, 74: 0.0, 75: 0.0, 76: 0.0, 77: 0.0, 78: 0.0, 79: 0.2816856, 80: 0.0, 81: 0.344566763, 82: 0.0, 83: 0.0, 84: 0.338752188, 85: 0.0, 86: 0.0, 87: 0.0, 88: 0.341600763, 89: 0.0, 90: 0.0, 91: 0.0, 92: 0.0, 93: 0.0, 94: 0.0, 95: 0.0];
total_cost = 52.565204713;
total_earn = -3.70666805;
% _objective = 56.271872763;