production = [0: 0.0, 1: 0.0, 2: 0.0, 3: 0.0, 4: 0.0, 5: 0.0, 6: 0.0, 7: 0.0, 8: 0.0, 9: 0.0, 10: 0.0, 11: 0.0, 12: 0.0, 13: 0.0, 14: 0.0, 15: 0.0, 16: 0.0, 17: 0.0, 18: 0.0, 19: 0.0, 20: 0.0, 21: 0.0, 22: 0.0, 23: 0.0, 24: 0.0, 25: 0.0, 26: 0.026, 27: 0.0, 28: 0.0, 29: 0.0897, 30: 0.1638, 31: 0.2687, 32: 0.431, 33: 0.0, 34: 0.6993, 35: 0.0, 36: 0.9383, 37: 1.0728, 38: 1.172, 39: 1.1843, 40: 0.0, 41: 1.5145, 42: 1.6027, 43: 0.0, 44: 0.0, 45: 0.0, 46: 0.0, 47: 0.0, 48: 0.8293, 49: 1.3055, 50: 1.9007, 51: 0.0, 52: 0.0, 53: 0.0, 54: 0.3287, 55: 0.0, 56: 0.0, 57: 0.0, 58: 0.0, 59: 0.0, 60: 1.699, 61: 0.0, 62: 0.0, 63: 0.2385, 64: 0.8027, 65: 0.0, 66: 0.3432, 67: 0.3242, 68: 0.0, 69: 0.0, 70: 0.0, 71: 0.0, 72: 0.1695, 73: 0.0825, 74: 0.0, 75: 0.0, 76: 0.0, 77: 0.0008, 78: 0.0, 79: 0.0, 80: 0.0, 81: 0.0, 82: 0.0, 83: 0.0, 84: 0.0, 85: 0.0, 86: 0.0, 87: 0.0, 88: 0.0, 89: 0.0, 90: 0.0, 91: 0.0, 92: 0.0, 93: 0.0, 94: 0.0, 95: 0.0];
buy = [0: 1.330875, 1: 1.331575, 2: 0.330075, 3: 1.773375, 4: 0.877575, 5: 0.929875, 6: 0.0, 7: 0.0, 8: 0.0, 9: 1.355675, 10: 0.0, 11: 1.310375, 12: 1.303575, 13: 0.260175, 14: 1.104191296, 15: 1.255375, 16: 1.265875, 17: 0.0, 18: 0.0, 19: 1.755375, 20: 1.264875, 21: 0.0, 22: 0.266175, 23: 0.0, 24: 0.0, 25: 1.255675, 26: 1.169926606, 27: 0.245575, 28: 0.0, 29: 0.0, 30: 0.966075, 31: 0.0, 32: 0.0, 33: 1.797075, 34: 0.619575, 35: 0.132375, 36: 0.0, 37: 0.0, 38: 0.0, 39: 0.0, 40: 0.0, 41: 0.0, 42: 0.654475, 43: 1.708875, 44: 1.248375, 45: 0.210875, 46: 1.215575, 47: 1.332575, 48: 0.0, 49: 0.0, 50: 0.0, 51: 0.848575, 52: 1.261675, 53: 0.0, 54: 1.016375, 55: 0.0, 56: 1.365375, 57: 1.281875, 58: 0.0, 59: 0.244175, 60: 0.170075, 61: 2.058375, 62: 1.356875, 63: 1.007575, 64: 0.0, 65: 0.572675, 66: 0.0, 67: 0.032175, 68: 0.0, 69: 1.354875, 70: 0.8366749999999999, 71: 0.0, 72: 0.0, 73: 0.0, 74: 1.145175, 75: 1.450875, 76: 1.181175, 77: 1.157075, 78: 0.477175, 79: 1.201375, 80: 0.0, 81: 0.0, 82: 0.169375, 83: 0.202875, 84: 0.199375, 85: 1.157375, 86: 1.146375, 87: 1.142575, 88: 0.132875, 89: 0.0, 90: 1.166175, 91: 0.0, 92: 1.139075, 93: 0.0, 94: 1.364175, 95: 0.0];
sell = [0: 0.0, 1: 0.0, 2: 0.0, 3: 0.0, 4: 0.0, 5: 0.0, 6: 0.762625, 7: 0.422325, 8: 0.509925, 9: 0.0, 10: 0.550825, 11: 0.0, 12: 0.0, 13: 0.0, 14: 0.0, 15: 0.0, 16: 0.0, 17: 0.43576947, 18: 0.633325, 19: 0.0, 20: 0.0, 21: 0.6401250000000001, 22: 0.0, 23: 0.643625, 24: 0.636625, 25: 0.0, 26: 0.0, 27: 0.0, 28: 0.777325, 29: 0.860025, 30: 0.0, 31: 0.0, 32: 0.260125, 33: 0.0, 34: 0.0, 35: 0.0, 36: 0.805925, 37: 1.334925, 38: 0.524425, 39: 1.930225, 40: 0.768625, 41: 1.673625, 42: 0.0, 43: 0.0, 44: 0.0, 45: 0.0, 46: 0.0, 47: 0.0, 48: 1.395425, 49: 1.953925, 50: 1.972025, 51: 0.0, 52: 0.0, 53: 0.442125, 54: 0.0, 55: 0.059925, 56: 0.0, 57: 0.0, 58: 0.001425, 59: 0.0, 60: 0.0, 61: 0.0, 62: 0.0, 63: 0.0, 64: 0.972525, 65: 0.0, 66: 0.900325, 67: 0.0, 68: 0.560425, 69: 0.0, 70: 0.0, 71: 0.734825, 72: 0.940125, 73: 0.164837214, 74: 0.0, 75: 0.0, 76: 0.0, 77: 0.0, 78: 0.0, 79: 0.0, 80: 0.730425, 81: 0.728625, 82: 0.0, 83: 0.0, 84: 0.0, 85: 0.0, 86: 0.0, 87: 0.0, 88: 0.0, 89: 0.768325, 90: 0.0, 91: 0.772925, 92: 0.0, 93: 0.246982573, 94: 0.0, 95: 0.530825];
charge = [0: 1.0, 1: 1.0, 2: 0.0, 3: 1.0, 4: 0.0, 5: 0.0, 6: 0.0, 7: 0.0, 8: 0.0, 9: 1.0, 10: 0.0, 11: 1.0, 12: 1.0, 13: 0.0, 14: 0.849516296, 15: 1.0, 16: 1.0, 17: 0.0, 18: 0.0, 19: 1.0, 20: 1.0, 21: 0.0, 22: 0.0, 23: 0.0, 24: 0.0, 25: 1.0, 26: 0.943051606, 27: 0.0, 28: 0.0, 29: 0.0, 30: 1.0, 31: 0.139625, 32: 0.0, 33: 1.0, 34: 1.0, 35: 0.0, 36: 0.0, 37: 0.0, 38: 0.0, 39: 0.0, 40: 0.0, 41: 0.0, 42: 1.0, 43: 1.0, 44: 1.0, 45: 0.0, 46: 1.0, 47: 1.0, 48: 0.0, 49: 0.0, 50: 0.0, 51: 0.0, 52: 1.0, 53: 0.0, 54: 1.0, 55: 0.0, 56: 1.0, 57: 1.0, 58: 0.0, 59: 0.0, 60: 0.0, 61: 1.0, 62: 1.0, 63: 1.0, 64: 0.0, 65: 0.0, 66: 0.0, 67: 0.0, 68: 0.0, 69: 1.0, 70: 0.0, 71: 0.0, 72: 0.0, 73: 0.0, 74: 1.0, 75: 1.0, 76: 1.0, 77: 1.0, 78: 0.0, 79: 1.0, 80: 0.0, 81: 0.0, 82: 0.0, 83: 0.0, 84: 0.0, 85: 1.0, 86: 1.0, 87: 1.0, 88: 0.0, 89: 0.0, 90: 1.0, 91: 0.0, 92: 1.0, 93: 0.0, 94: 1.0, 95: 0.0];
discharge = [0: 0.0, 1: 0.0, 2: 0.0, 3: 0.0, 4: 0.0, 5: 0.0, 6: 1.0, 7: 1.0, 8: 1.0, 9: 0.0, 10: 1.0, 11: 0.0, 12: 0.0, 13: 0.0, 14: 0.0, 15: 0.0, 16: 0.0, 17: 0.788160522, 18: 1.0, 19: 0.0, 20: 0.0, 21: 1.0, 22: 0.0, 23: 1.0, 24: 1.0, 25: 0.0, 26: 0.0, 27: 0.0, 28: 1.0, 29: 1.0, 30: 0.0, 31: 0.0, 32: 0.0, 33: 0.0, 34: 0.0, 35: 0.0, 36: 0.0, 37: 1.0, 38: 0.0, 39: 1.0, 40: 1.0, 41: 1.0, 42: 0.0, 43: 0.0, 44: 0.0, 45: 0.0, 46: 0.0, 47: 0.0, 48: 1.0, 49: 1.0, 50: 1.0, 51: 0.0, 52: 0.0, 53: 1.0, 54: 0.0, 55: 1.0, 56: 0.0, 57: 0.0, 58: 1.0, 59: 1.0, 60: 0.0, 61: 0.0, 62: 0.0, 63: 0.0, 64: 1.0, 65: 0.0, 66: 1.0, 67: 0.0, 68: 1.0, 69: 0.0, 70: 0.0, 71: 1.0, 72: 1.0, 73: 0.294458016, 74: 0.0, 75: 0.0, 76: 0.0, 77: 0.0, 78: 0.0, 79: 0.0, 80: 1.0, 81: 1.0, 82: 0.0, 83: 0.0, 84: 0.0, 85: 0.0, 86: 0.0, 87: 0.0, 88: 0.0, 89: 1.0, 90: 0.0, 91: 1.0, 92: 0.0, 93: 0.678730637, 94: 0.0, 95: 1.0];
soc = [0: 12.64765, 1: 13.54512047, 2: 13.542411446, 3: 14.439702964, 4: 14.436815023, 5: 14.43392766, 6: 13.431040874, 7: 12.428354666, 8: 11.425868995, 9: 12.323583822, 10: 11.321119105, 11: 12.218854881, 12: 13.11641111, 13: 13.113787828, 14: 13.875729737, 15: 14.772954591, 16: 15.67, 17: 14.878705478, 18: 13.875729737, 19: 14.772954591, 20: 15.67, 21: 14.666866, 22: 14.663932627, 23: 13.66099984, 24: 12.65826764, 25: 13.555735987, 26: 14.401771285, 27: 14.39889093, 28: 13.396011152, 29: 12.39333195, 30: 13.290853283, 31: 13.413857613, 32: 13.411174841, 33: 14.308492606, 34: 15.205630908, 35: 15.202589782, 36: 15.199549264, 37: 14.196509354, 38: 14.193670052, 39: 13.190831318, 40: 12.188193152, 41: 11.185755513, 42: 12.083518362, 43: 12.981101658, 44: 13.878505438, 45: 13.875729737, 46: 14.772954591, 47: 15.67, 48: 14.666866, 49: 13.663932627, 50: 12.66119984, 51: 12.6586676, 52: 13.556135867, 53: 12.55342464, 54: 13.450913955, 55: 12.448223772, 56: 13.345734127, 57: 14.24306498, 58: 13.240216367, 59: 12.237568324, 60: 12.23512081, 61: 13.132673786, 62: 14.030047251, 63: 14.927241242, 64: 13.924255794, 65: 13.921470943, 66: 12.918686648, 67: 12.916102911, 68: 11.913519691, 69: 12.811136987, 70: 12.808574759, 71: 11.806013044, 72: 10.803651842, 73: 10.507033095, 74: 11.404931689, 75: 12.302650702, 76: 13.200190172, 77: 14.097550134, 78: 14.094730624, 79: 14.991911678, 80: 13.988913296, 81: 12.986115513, 82: 12.98351829, 83: 12.980921586, 84: 12.978325402, 85: 13.875729737, 86: 14.772954591, 87: 15.67, 88: 15.666866, 89: 14.663732627, 90: 15.56079988, 91: 14.55768772, 92: 15.454776183, 93: 14.772954591, 94: 15.67, 95: 14.666866];
cost = [0: 0.9312097030000001, 1: 0.931637333, 2: 0.201642818, 3: 1.201532953, 4: 0.536110568, 5: 0.568060637, 6: 0.0, 7: 0.0, 8: 0.0, 9: 0.946360023, 10: 0.0, 11: 0.918686253, 12: 0.914532133, 13: 0.158940908, 14: 0.77494474, 15: 0.8850867529999999, 16: 0.891501203, 17: 0.0, 18: 0.0, 19: 1.190536753, 20: 0.8908903030000001, 21: 0.0, 22: 0.162606308, 23: 0.0, 24: 0.0, 25: 1.611929145, 26: 1.503192799, 27: 0.29213602, 28: 0.0, 29: 0.0, 30: 1.267420985, 31: 0.016500626, 32: 0.0, 33: 2.255978585, 34: 0.855224585, 35: 0.1574733, 36: 0.0, 37: 0.0, 38: 0.0, 39: 0.0, 40: 0.0, 41: 0.0, 42: 0.896741625, 43: 2.151055865, 44: 1.603245065, 45: 0.2508569, 46: 1.564226185, 47: 1.703409385, 48: 0.0, 49: 0.0, 50: 0.0, 51: 1.00946482, 52: 0.8889354229999999, 53: 0.0, 54: 0.7390816529999999, 55: 0.0, 56: 0.952285753, 57: 0.901275603, 58: 0.0, 59: 0.149166507, 60: 0.20232122, 61: 2.566821065, 62: 1.732316665, 63: 1.316789385, 64: 0.0, 65: 0.68125418, 66: 0.0, 67: 0.03827538, 68: 0.0, 69: 1.729937465, 70: 0.99530858, 71: 0.0, 72: 0.0, 73: 0.0, 74: 1.480478345, 75: 1.844139065, 76: 1.523303945, 77: 1.494634585, 78: 0.56764738, 79: 1.547333865, 80: 0.0, 81: 0.0, 82: 0.2014885, 83: 0.2413401, 84: 0.2371765, 85: 1.494991465, 86: 1.481905865, 87: 1.477385385, 88: 0.081173338, 89: 0.0, 90: 0.830594473, 91: 0.0, 92: 0.8140390830000001, 93: 0.0, 94: 0.951552673, 95: 0.0];
earn = [0: 0.0, 1: 0.0, 2: 0.0, 3: 0.0, 4: 0.0, 5: 0.0, 6: 0.3251833, 7: 0.180206078, 8: 0.196678072, 9: 0.0, 10: 0.21680472, 11: 0.0, 12: 0.0, 13: 0.0, 14: 0.0, 15: 0.0, 16: 0.0, 17: 0.118442142, 18: 0.168907778, 19: 0.0, 20: 0.0, 21: 0.097491038, 22: 0.0, 23: 0.084121788, 24: 0.019480725, 25: 0.0, 26: 0.0, 27: 0.0, 28: 0.005052613, 29: -0.002236065, 30: 0.0, 31: 0.0, 32: -0.002107012, 33: 0.0, 34: 0.0, 35: 0.0, 36: -0.061330893, 37: -0.120410235, 38: -0.053176695, 39: -0.287603525, 40: -0.205914638, 41: -0.484179712, 42: 0.0, 43: 0.0, 44: 0.0, 45: 0.0, 46: 0.0, 47: 0.0, 48: -1.05940666, 49: -1.670605875, 50: -1.63756956, 51: 0.0, 52: 0.0, 53: -0.409363538, 54: 0.0, 55: -0.051523515, 56: 0.0, 57: 0.0, 58: -0.00086241, 59: 0.0, 60: 0.0, 61: 0.0, 62: 0.0, 63: 0.0, 64: -0.230877435, 65: 0.0, 66: -0.131627515, 67: 0.0, 68: -0.029926695, 69: 0.0, 70: 0.0, 71: -0.018003213, 72: 0.040049325, 73: 0.008175926, 74: 0.0, 75: 0.0, 76: 0.0, 77: 0.0, 78: 0.0, 79: 0.0, 80: 0.335192032, 81: 0.344566763, 82: 0.0, 83: 0.0, 84: 0.0, 85: 0.0, 86: 0.0, 87: 0.0, 88: 0.0, 89: 0.33652635, 90: 0.0, 91: 0.33854115, 92: 0.0, 93: 0.097434625, 94: 0.0, 95: 0.14608304];
total_cost = 58.40608873;
total_earn = -3.397787727;
% _objective = 61.803876457;