production = [0: 0.0, 1: 0.0, 2: 0.0, 3: 0.0, 4: 0.0, 5: 0.0, 6: 0.0, 7: 0.0, 8: 0.0, 9: 0.0, 10: 0.0, 11: 0.0, 12: 0.0, 13: 0.0, 14: 0.0, 15: 0.0, 16: 0.0, 17: 0.0, 18: 0.0, 19: 0.0, 20: 0.0, 21: 0.0, 22: 0.0, 23: 0.0, 24: 0.0, 25: 0.0, 26: 0.0, 27: 0.0578, 28: 0.0838, 29: 0.0, 30: 0.0, 31: 0.2687, 32: 0.431, 33: 0.0, 34: 0.6993, 35: 0.8013, 36: 0.9383, 37: 1.0728, 38: 1.172, 39: 0.0, 40: 1.1667, 41: 0.0, 42: 1.6027, 43: 1.7252, 44: 1.2897, 45: 0.0, 46: 0.0, 47: 0.0, 48: 0.0, 49: 0.0, 50: 1.9007, 51: 0.7745, 52: 0.3495, 53: 0.4487, 54: 0.3287, 55: 0.698, 56: 0.3008, 57: 0.2328, 58: 0.0, 59: 0.887, 60: 1.699, 61: 0.9952, 62: 0.363, 63: 0.0, 64: 0.8027, 65: 0.0, 66: 0.0, 67: 0.0, 68: 0.1975, 69: 0.0, 70: 0.0, 71: 0.2155, 72: 0.1695, 73: 0.0825, 74: 0.0, 75: 0.014, 76: 0.0, 77: 0.0, 78: 0.0, 79: 0.0, 80: 0.0, 81: 0.0, 82: 0.0, 83: 0.0, 84: 0.0, 85: 0.0, 86: 0.0, 87: 0.0, 88: 0.0, 89: 0.0, 90: 0.0, 91: 0.0, 92: 0.0, 93: 0.0, 94: 0.0, 95: 0.0];
buy = [0: 0.209508381, 1: 1.331575, 2: 0.330075, 3: 0.0, 4: 1.877575, 5: 0.029875, 6: 0.137375, 7: 0.477675, 8: 0.0, 9: 1.355675, 10: 1.349175, 11: 1.310375, 12: 1.303575, 13: 1.260175, 14: 0.0, 15: 1.255375, 16: 0.265875, 17: 1.273575, 18: 0.0, 19: 0.0, 20: 1.264875, 21: 1.259875, 22: 0.266175, 23: 0.256375, 24: 0.0, 25: 1.255675, 26: 0.252875, 27: 0.187775, 28: 0.038875, 29: 0.129675, 30: 0.129875, 31: 0.0, 32: 0.0, 33: 0.0, 34: 0.619575, 35: 0.0, 36: 0.0, 37: 0.565075, 38: 0.0, 39: 0.0, 40: 0.0, 41: 0.0, 42: 0.0, 43: 0.0, 44: 0.0, 45: 1.210875, 46: 0.0, 47: 0.0, 48: 0.333875, 49: 0.0, 50: 0.0, 51: 0.0, 52: 0.912175, 53: 1.009175, 54: 1.016375, 55: 0.0, 56: 0.0, 57: 1.049075, 58: 0.898575, 59: 1.257175, 60: 1.170075, 61: 1.063175, 62: 0.0, 63: 0.246075, 64: 0.0, 65: 1.572675, 66: 0.0, 67: 0.0, 68: 0.0, 69: 1.354875, 70: 0.295384077, 71: 0.949675, 72: 0.0, 73: 0.100175, 74: 0.0, 75: 0.0, 76: 1.181175, 77: 1.157875, 78: 1.477175, 79: 0.0, 80: 0.0, 81: 0.0, 82: 0.0, 83: 0.202875, 84: 0.199375, 85: 0.157375, 86: 1.146375, 87: 1.142575, 88: 0.132875, 89: 0.131675, 90: 0.166175, 91: 1.127075, 92: 1.139075, 93: 0.363875, 94: 1.364175, 95: 1.369175];
sell = [0: 0.0, 1: 0.0, 2: 0.0, 3: 0.126625, 4: 0.0, 5: 0.0, 6: 0.0, 7: 0.0, 8: 0.509925, 9: 0.0, 10: 0.0, 11: 0.0, 12: 0.0, 13: 0.0, 14: 0.645325, 15: 0.0, 16: 0.0, 17: 0.0, 18: 0.633325, 19: 0.144625, 20: 0.0, 21: 0.0, 22: 0.0, 23: 0.0, 24: 0.636625, 25: 0.0, 26: 0.0, 27: 0.0, 28: 0.0, 29: 0.0, 30: 0.0, 31: 0.0, 32: 1.160125, 33: 0.102925, 34: 0.0, 35: 1.568925, 36: 1.705925, 37: 0.0, 38: 1.424425, 39: 0.7459249999999999, 40: 0.035325, 41: 0.159125, 42: 1.245525, 43: 1.916325, 44: 0.041325, 45: 0.0, 46: 0.684425, 47: 0.567425, 48: 0.0, 49: 0.648425, 50: 1.972025, 51: 0.825925, 52: 0.0, 53: 0.0, 54: 0.0, 55: 0.757925, 56: 0.835425, 57: 0.0, 58: 0.0, 59: 0.0, 60: 0.0, 61: 0.0, 62: 0.906125, 63: 0.0, 64: 0.07252500000000001, 65: 0.0, 66: 0.557125, 67: 0.543625, 68: 0.757925, 69: 0.0, 70: 0.0, 71: 0.0, 72: 0.040125, 73: 0.0, 74: 0.754825, 75: 0.463125, 76: 0.0, 77: 0.0, 78: 0.0, 79: 0.6986250000000001, 80: 0.730425, 81: 0.728625, 82: 0.730625, 83: 0.0, 84: 0.0, 85: 0.0, 86: 0.0, 87: 0.0, 88: 0.0, 89: 0.0, 90: 0.0, 91: 0.0, 92: 0.0, 93: 0.0, 94: 0.0, 95: 0.0];
charge = [0: 0.0, 1: 1.0, 2: 0.0, 3: 0.0, 4: 1.0, 5: 0.0, 6: 0.0, 7: 0.0, 8: 0.0, 9: 1.0, 10: 1.0, 11: 1.0, 12: 1.0, 13: 1.0, 14: 0.0, 15: 1.0, 16: 0.0, 17: 1.0, 18: 0.0, 19: 0.0, 20: 1.0, 21: 1.0, 22: 0.0, 23: 0.0, 24: 0.0, 25: 1.0, 26: 0.0, 27: 0.0, 28: 0.0, 29: 0.0, 30: 0.0, 31: 0.139625, 32: 0.0, 33: 0.0, 34: 1.0, 35: 0.0, 36: 0.0, 37: 1.0, 38: 0.0, 39: 0.0, 40: 1.0, 41: 0.0, 42: 0.0, 43: 0.0, 44: 1.0, 45: 1.0, 46: 0.0, 47: 0.0, 48: 0.0, 49: 0.0, 50: 0.0, 51: 0.0, 52: 1.0, 53: 1.0, 54: 1.0, 55: 0.0, 56: 0.0, 57: 1.0, 58: 0.0, 59: 1.0, 60: 1.0, 61: 1.0, 62: 0.0, 63: 0.0, 64: 0.0, 65: 1.0, 66: 0.0, 67: 0.0, 68: 0.0, 69: 1.0, 70: 0.0, 71: 1.0, 72: 0.0, 73: 0.0, 74: 0.0, 75: 0.0, 76: 1.0, 77: 1.0, 78: 1.0, 79: 0.0, 80: 0.0, 81: 0.0, 82: 0.0, 83: 0.0, 84: 0.0, 85: 0.0, 86: 1.0, 87: 1.0, 88: 0.0, 89: 0.0, 90: 0.0, 91: 1.0, 92: 1.0, 93: 0.0, 94: 1.0, 95: 1.0];
discharge = [0: 0.134851799, 1: 0.0, 2: 0.0, 3: 1.0, 4: 0.0, 5: 1.0, 6: 0.0, 7: 0.0, 8: 1.0, 9: 0.0, 10: 0.0, 11: 0.0, 12: 0.0, 13: 0.0, 14: 1.0, 15: 0.0, 16: 0.0, 17: 0.0, 18: 1.0, 19: 1.0, 20: 0.0, 21: 0.0, 22: 0.0, 23: 0.0, 24: 1.0, 25: 0.0, 26: 0.0, 27: 0.0, 28: 0.0, 29: 0.0, 30: 0.0, 31: 0.0, 32: 1.0, 33: 1.0, 34: 0.0, 35: 1.0, 36: 1.0, 37: 0.0, 38: 1.0, 39: 1.0, 40: 0.0, 41: 1.0, 42: 1.0, 43: 1.0, 44: 0.0, 45: 0.0, 46: 1.0, 47: 1.0, 48: 0.0, 49: 1.0, 50: 1.0, 51: 1.0, 52: 0.0, 53: 0.0, 54: 0.0, 55: 1.0, 56: 1.0, 57: 0.0, 58: 0.0, 59: 0.0, 60: 0.0, 61: 0.0, 62: 1.0, 63: 0.0, 64: 0.0, 65: 0.0, 66: 1.0, 67: 1.0, 68: 1.0, 69: 0.0, 70: 0.601434359, 71: 0.0, 72: 0.0, 73: 0.0, 74: 1.0, 75: 1.0, 76: 0.0, 77: 0.0, 78: 0.0, 79: 1.0, 80: 1.0, 81: 1.0, 82: 1.0, 83: 0.0, 84: 0.0, 85: 0.0, 86: 0.0, 87: 0.0, 88: 0.0, 89: 0.0, 90: 0.0, 91: 0.0, 92: 0.0, 93: 0.0, 94: 0.0, 95: 0.0];
soc = [0: 11.612798201, 1: 12.510475641, 2: 12.507973546, 3: 11.505471952, 4: 12.403170857, 5: 11.400690223, 6: 11.398410085, 7: 11.396130403, 8: 10.393851177, 9: 11.291772407, 10: 12.189514052, 11: 13.087076149, 12: 13.984458734, 13: 14.881661842, 14: 13.87868551, 15: 14.775909773, 16: 14.772954591, 17: 15.67, 18: 14.666866, 19: 13.663932627, 20: 14.56119984, 21: 15.4582876, 22: 15.455195943, 23: 15.452104904, 24: 14.449014483, 25: 15.34612468, 26: 15.343055455, 27: 15.339986844, 28: 15.336918846, 29: 15.333851463, 30: 15.330784692, 31: 15.453381035, 32: 14.450290359, 33: 13.447400301, 34: 14.344710821, 35: 13.341841879, 36: 12.33917351, 37: 13.236705676, 38: 12.234058335, 39: 11.231611523, 40: 12.129365201, 41: 11.126939328, 42: 10.12471394, 43: 9.122688996999999, 44: 10.020864459, 45: 10.918860286, 46: 9.916676514000001, 47: 8.914693179, 48: 8.91291024, 49: 7.911127658, 50: 6.909545433, 51: 5.908163524, 52: 6.806981891, 53: 7.705620495, 54: 8.604079369999999, 55: 7.602358555, 56: 6.600838083, 57: 7.499517915, 58: 7.498018012, 59: 8.396518408, 60: 9.294839103999999, 61: 10.192980137, 62: 9.190941540000001, 63: 9.189103352, 64: 9.187265532, 65: 10.085428078, 66: 9.083410992999999, 67: 8.081594311, 68: 7.079977992, 69: 7.978561996, 70: 7.375531925, 71: 8.274056819, 72: 8.272402007, 73: 8.270747526999999, 74: 7.269093377, 75: 6.267639559, 76: 7.166386031, 77: 8.064952754, 78: 8.963339763, 79: 7.961547095, 80: 6.959954786, 81: 5.958562795, 82: 4.957371082, 83: 4.956379608, 84: 4.955388332, 85: 4.954397254, 86: 5.853406375, 87: 6.752235694, 88: 6.750885247, 89: 6.749535069, 90: 6.748185162, 91: 7.646835525, 92: 8.545306158000001, 93: 8.543597096999999, 94: 9.441888378, 95: 10.34];
cost = [0: 0.12798867, 1: 0.931637333, 2: 0.201642818, 3: 0.0, 4: 1.265188733, 5: 0.018250637, 6: 0.083922388, 7: 0.291811658, 8: 0.0, 9: 0.946360023, 10: 0.942389173, 11: 0.918686253, 12: 0.914532133, 13: 0.888019073, 14: 0.0, 15: 0.8850867529999999, 16: 0.162423038, 17: 0.896205133, 18: 0.0, 19: 0.0, 20: 0.8908903030000001, 21: 0.887835803, 22: 0.162606308, 23: 0.156619488, 24: 0.0, 25: 1.611929145, 26: 0.3008201, 27: 0.22337714, 28: 0.0462457, 29: 0.15426138, 30: 0.1544993, 31: 0.016500626, 32: 0.0, 33: 0.0, 34: 0.855224585, 35: 0.0, 36: 0.0, 37: 0.7903913849999999, 38: 0.0, 39: 0.0, 40: 0.118178165, 41: 0.0, 42: 0.0, 43: 0.0, 44: 0.118178165, 45: 1.558635065, 46: 0.0, 47: 0.0, 48: 0.3971777, 49: 0.0, 50: 0.0, 51: 0.0, 52: 0.675425873, 53: 0.734683173, 54: 0.7390816529999999, 55: 0.0, 56: 0.0, 57: 0.759058083, 58: 0.548939467, 59: 0.886186373, 60: 1.510099385, 61: 1.382931145, 62: 0.0, 63: 0.29273082, 64: 0.0, 65: 1.989032345, 66: 0.0, 67: 0.0, 68: 0.0, 69: 1.729937465, 70: 0.351388898, 71: 1.247911545, 72: 0.0, 73: 0.11916818, 74: 0.0, 75: 0.0, 76: 1.523303945, 77: 1.495586265, 78: 1.875425545, 79: 0.0, 80: 0.0, 81: 0.0, 82: 0.0, 83: 0.2413401, 84: 0.2371765, 85: 0.1872133, 86: 1.481905865, 87: 1.477385385, 88: 0.081173338, 89: 0.080440258, 90: 0.101516308, 91: 0.806708283, 92: 0.8140390830000001, 93: 0.222291238, 94: 0.951552673, 95: 0.954607173];
earn = [0: 0.0, 1: 0.0, 2: 0.0, 3: 0.0535877, 4: 0.0, 5: 0.0, 6: 0.0, 7: 0.0, 8: 0.196678072, 9: 0.0, 10: 0.0, 11: 0.0, 12: 0.0, 13: 0.0, 14: 0.239157445, 15: 0.0, 16: 0.0, 17: 0.0, 18: 0.168907778, 19: 0.03673475, 20: 0.0, 21: 0.0, 22: 0.0, 23: 0.0, 24: 0.019480725, 25: 0.0, 26: 0.0, 27: 0.0, 28: 0.0, 29: 0.0, 30: 0.0, 31: 0.0, 32: -0.009397012999999999, 33: -0.0009777880000000001, 34: 0.0, 35: -0.04832289, 36: -0.129820893, 37: 0.0, 38: -0.144436695, 39: -0.111142825, 40: -0.009463568, 41: -0.046034863, 42: -0.467694638, 43: -0.859088497, 44: -0.022505595, 45: 0.0, 46: -0.481972085, 47: -0.39606265, 48: 0.0, 49: -0.554403375, 50: -1.63756956, 51: -0.679653683, 52: 0.0, 53: 0.0, 54: 0.0, 55: -0.651663915, 56: -0.73818153, 57: 0.0, 58: 0.0, 59: 0.0, 60: 0.0, 61: 0.0, 62: -0.390177425, 63: 0.0, 64: -0.017217435, 65: 0.0, 66: -0.081451675, 67: -0.059690025, 68: -0.040473195, 69: 0.0, 70: 0.0, 71: 0.0, 72: 0.001709325, 73: 0.0, 74: 0.038722523, 75: 0.024545625, 76: 0.0, 77: 0.0, 78: 0.0, 79: 0.2816856, 80: 0.335192033, 81: 0.344566763, 82: 0.349457938, 83: 0.0, 84: 0.0, 85: 0.0, 86: 0.0, 87: 0.0, 88: 0.0, 89: 0.0, 90: 0.0, 91: 0.0, 92: 0.0, 93: 0.0, 94: 0.0, 95: 0.0];
total_cost = 43.415753839;
total_earn = -5.48697554;
% _objective = 48.902729379;