production = [0: 0.0, 1: 0.0, 2: 0.0, 3: 0.0, 4: 0.0, 5: 0.0, 6: 0.0, 7: 0.0, 8: 0.0, 9: 0.0, 10: 0.0, 11: 0.0, 12: 0.0, 13: 0.0, 14: 0.0, 15: 0.0, 16: 0.0, 17: 0.0, 18: 0.0, 19: 0.0, 20: 0.0, 21: 0.0, 22: 0.0003, 23: 0.0, 24: 0.0, 25: 0.004, 26: 0.0, 27: 0.0, 28: 0.0, 29: 0.0897, 30: 0.1638, 31: 0.2687, 32: 0.431, 33: 0.0, 34: 0.0, 35: 0.8013, 36: 0.9383, 37: 1.0728, 38: 1.172, 39: 1.1843, 40: 0.0, 41: 0.0, 42: 1.6027, 43: 0.0, 44: 1.2897, 45: 1.4105, 46: 0.0, 47: 0.0, 48: 0.8293, 49: 0.0, 50: 1.9007, 51: 0.0, 52: 0.0, 53: 0.0, 54: 0.3287, 55: 0.698, 56: 0.0, 57: 0.0, 58: 0.0, 59: 0.887, 60: 0.0, 61: 0.9952, 62: 0.363, 63: 0.2385, 64: 0.0, 65: 0.5535, 66: 0.0, 67: 0.0, 68: 0.1975, 69: 0.0, 70: 0.0602, 71: 0.2155, 72: 0.0, 73: 0.0825, 74: 0.0, 75: 0.014, 76: 0.0, 77: 0.0, 78: 0.0, 79: 0.0, 80: 0.0, 81: 0.0, 82: 0.0, 83: 0.0, 84: 0.0, 85: 0.0, 86: 0.0, 87: 0.0, 88: 0.0, 89: 0.0, 90: 0.0, 91: 0.0, 92: 0.0, 93: 0.0, 94: 0.0, 95: 0.0];
buy = [0: 0.0, 1: 0.0, 2: 1.330075, 3: 1.773375, 4: 1.843373909, 5: 0.029875, 6: 0.137375, 7: 0.477675, 8: 0.390075, 9: 1.355675, 10: 1.349175, 11: 0.310375, 12: 1.303575, 13: 0.260175, 14: 0.0, 15: 0.0, 16: 1.265875, 17: 1.273575, 18: 1.266675, 19: 1.755375, 20: 0.0, 21: 1.259875, 22: 0.265875, 23: 0.0, 24: 1.263375, 25: 0.0, 26: 0.0, 27: 0.245575, 28: 0.0, 29: 0.0, 30: 0.966075, 31: 0.860375, 32: 0.0, 33: 1.797075, 34: 0.0, 35: 0.0, 36: 0.194075, 37: 0.565075, 38: 0.0, 39: 0.0, 40: 0.0, 41: 0.0, 42: 0.0, 43: 0.708875, 44: 0.0, 45: 0.0, 46: 1.215575, 47: 0.0, 48: 0.504575, 49: 1.251575, 50: 0.0, 51: 1.848575, 52: 1.261675, 53: 0.457875, 54: 0.016375, 55: 0.142075, 56: 0.0, 57: 1.281875, 58: 0.0, 59: 0.0, 60: 1.869075, 61: 1.063175, 62: 0.993875, 63: 0.007575, 64: 0.730175, 65: 0.019175, 66: 0.342875, 67: 0.0, 68: 1.142075, 69: 0.0, 70: 0.776475, 71: 0.0, 72: 1.129375, 73: 0.0, 74: 1.145175, 75: 0.436875, 76: 0.0, 77: 1.157875, 78: 0.477175, 79: 1.201375, 80: 0.169575, 81: 0.171375, 82: 1.169375, 83: 0.202875, 84: 0.0, 85: 0.0, 86: 1.146375, 87: 0.0, 88: 1.132875, 89: 0.0, 90: 0.0, 91: 0.127075, 92: 1.139075, 93: 1.363875, 94: 1.364175, 95: 0.0];
sell = [0: 0.569125, 1: 0.568425, 2: 0.0, 3: 0.0, 4: 0.0, 5: 0.0, 6: 0.0, 7: 0.0, 8: 0.0, 9: 0.0, 10: 0.0, 11: 0.0, 12: 0.0, 13: 0.0, 14: 0.645325, 15: 0.644625, 16: 0.0, 17: 0.0, 18: 0.0, 19: 0.0, 20: 0.539645268, 21: 0.0, 22: 0.0, 23: 0.643625, 24: 0.0, 25: 0.648325, 26: 0.647125, 27: 0.0, 28: 0.777325, 29: 0.860025, 30: 0.0, 31: 0.0, 32: 1.160125, 33: 0.0, 34: 0.581125, 35: 1.568925, 36: 0.0, 37: 0.0, 38: 1.424425, 39: 0.030225, 40: 0.768625, 41: 0.159125, 42: 1.245525, 43: 0.0, 44: 1.041325, 45: 0.199625, 46: 0.0, 47: 0.148203996, 48: 0.0, 49: 0.0, 50: 0.07202500000000001, 51: 0.0, 52: 0.0, 53: 0.0, 54: 0.0, 55: 0.0, 56: 0.534625, 57: 0.0, 58: 0.001425, 59: 0.642825, 60: 0.0, 61: 0.0, 62: 0.0, 63: 0.0, 64: 0.0, 65: 0.0, 66: 0.0, 67: 0.543625, 68: 0.0, 69: 0.545125, 70: 0.0, 71: 0.950325, 72: 0.0, 73: 0.799825, 74: 0.0, 75: 0.0, 76: 0.718825, 77: 0.0, 78: 0.0, 79: 0.0, 80: 0.0, 81: 0.0, 82: 0.0, 83: 0.0, 84: 0.7006250000000001, 85: 0.742625, 86: 0.0, 87: 0.757425, 88: 0.0, 89: 0.768325, 90: 0.253174603, 91: 0.0, 92: 0.0, 93: 0.0, 94: 0.0, 95: 0.530825];
charge = [0: 0.0, 1: 0.0, 2: 1.0, 3: 1.0, 4: 0.965798909, 5: 0.0, 6: 0.0, 7: 0.0, 8: 0.0, 9: 1.0, 10: 1.0, 11: 0.0, 12: 1.0, 13: 0.0, 14: 0.0, 15: 0.0, 16: 1.0, 17: 1.0, 18: 1.0, 19: 1.0, 20: 0.0, 21: 1.0, 22: 0.0, 23: 0.0, 24: 1.0, 25: 0.0, 26: 0.0, 27: 0.0, 28: 0.0, 29: 0.0, 30: 1.0, 31: 1.0, 32: 0.0, 33: 1.0, 34: 0.0, 35: 0.0, 36: 1.0, 37: 1.0, 38: 0.0, 39: 1.0, 40: 0.0, 41: 0.0, 42: 0.0, 43: 0.0, 44: 0.0, 45: 1.0, 46: 1.0, 47: 0.0, 48: 1.0, 49: 1.0, 50: 1.0, 51: 1.0, 52: 1.0, 53: 0.0, 54: 0.0, 55: 0.0, 56: 0.0, 57: 1.0, 58: 0.0, 59: 0.0, 60: 0.0, 61: 1.0, 62: 1.0, 63: 0.0, 64: 0.0, 65: 0.0, 66: 0.0, 67: 0.0, 68: 1.0, 69: 0.0, 70: 0.0, 71: 0.0, 72: 1.0, 73: 0.0, 74: 1.0, 75: 0.0, 76: 0.0, 77: 1.0, 78: 0.0, 79: 1.0, 80: 0.0, 81: 0.0, 82: 1.0, 83: 0.0, 84: 0.0, 85: 0.0, 86: 1.0, 87: 0.0, 88: 1.0, 89: 0.0, 90: 0.0, 91: 0.0, 92: 1.0, 93: 1.0, 94: 1.0, 95: 0.0];
discharge = [0: 1.0, 1: 1.0, 2: 0.0, 3: 0.0, 4: 0.0, 5: 1.0, 6: 0.0, 7: 0.0, 8: 0.0, 9: 0.0, 10: 0.0, 11: 0.0, 12: 0.0, 13: 0.0, 14: 1.0, 15: 1.0, 16: 0.0, 17: 0.0, 18: 0.0, 19: 0.0, 20: 0.893911409, 21: 0.0, 22: 0.0, 23: 1.0, 24: 0.0, 25: 1.0, 26: 1.0, 27: 0.0, 28: 1.0, 29: 1.0, 30: 0.0, 31: 0.0, 32: 1.0, 33: 0.0, 34: 1.0, 35: 1.0, 36: 0.0, 37: 0.0, 38: 1.0, 39: 0.0, 40: 1.0, 41: 1.0, 42: 1.0, 43: 0.0, 44: 0.0, 45: 0.0, 46: 0.0, 47: 0.534198884, 48: 0.0, 49: 0.0, 50: 0.0, 51: 0.0, 52: 0.0, 53: 0.0, 54: 0.0, 55: 0.0, 56: 1.0, 57: 0.0, 58: 1.0, 59: 1.0, 60: 0.0, 61: 0.0, 62: 0.0, 63: 0.0, 64: 0.0, 65: 0.0, 66: 0.0, 67: 1.0, 68: 0.0, 69: 1.0, 70: 0.0, 71: 1.0, 72: 0.0, 73: 1.0, 74: 0.0, 75: 0.0, 76: 1.0, 77: 0.0, 78: 0.0, 79: 0.0, 80: 0.0, 81: 0.0, 82: 0.0, 83: 0.0, 84: 1.0, 85: 1.0, 86: 0.0, 87: 1.0, 88: 0.0, 89: 1.0, 90: 0.465943089, 91: 0.0, 92: 0.0, 93: 0.0, 94: 0.0, 95: 1.0];
soc = [0: 10.74765, 1: 9.74550047, 2: 10.64355137, 3: 11.54142266, 4: 12.408333393, 5: 11.405851726, 6: 11.403570556, 7: 11.401289842, 8: 11.399009584, 9: 12.296729782, 10: 13.194270436, 11: 13.191631582, 12: 14.088993256, 13: 14.086175457, 14: 13.083358222, 15: 12.08074155, 16: 12.978325402, 17: 13.875729737, 18: 14.772954591, 19: 15.67, 20: 14.772954591, 21: 15.67, 22: 15.666866, 23: 14.663732627, 24: 15.56079988, 25: 14.55768772, 26: 13.554776183, 27: 13.552065228, 28: 12.549354814, 29: 11.546844944, 30: 12.444535575, 31: 13.342046667, 32: 12.339378258, 33: 13.236910382, 34: 12.234263, 35: 11.231816148, 36: 12.129569785, 37: 13.027143871, 38: 12.024538442, 39: 12.922133534, 40: 11.919549107, 41: 10.917165198, 42: 9.914981765, 43: 9.912998768, 44: 9.911016168, 45: 10.809033965, 46: 11.706872158, 47: 11.1703319, 48: 12.068097833, 49: 12.965684214, 50: 13.863091077, 51: 14.76031746, 52: 15.657366395, 53: 15.654234922, 54: 15.651104075, 55: 15.647973854, 56: 14.644844259, 57: 15.54191529, 58: 14.538806907, 59: 13.535899146, 60: 13.533191966, 61: 14.430485328, 62: 15.327599231, 63: 15.324533711, 64: 15.321468804, 65: 15.31840451, 66: 15.315340829, 67: 14.312277761, 68: 15.209415306, 69: 14.206373423, 70: 14.203532148, 71: 13.200691442, 72: 14.098051303, 73: 13.095231693, 74: 13.992612647, 75: 13.989814124, 76: 12.987016161, 77: 13.884418758, 78: 13.881641874, 79: 14.778865546, 80: 14.775909773, 81: 14.772954591, 82: 15.67, 83: 15.666866, 84: 14.663732627, 85: 13.66079988, 86: 14.55806772, 87: 13.555156107, 88: 14.452445076, 89: 13.449554587, 90: 12.980921586, 91: 12.978325402, 92: 13.875729737, 93: 14.772954591, 94: 15.67, 95: 14.666866];
cost = [0: 0.0, 1: 0.0, 2: 0.9307209829999999, 3: 1.201532953, 4: 1.240253464, 5: 0.018250637, 6: 0.083922388, 7: 0.291811658, 8: 0.238296818, 9: 0.946360023, 10: 0.942389173, 11: 0.189608088, 12: 0.914532133, 13: 0.158940908, 14: 0.0, 15: 0.0, 16: 0.891501203, 17: 0.896205133, 18: 0.891989923, 19: 1.190536753, 20: 0.0, 21: 0.887835803, 22: 0.162423037, 23: 0.0, 24: 1.621089065, 25: 0.0, 26: 0.0, 27: 0.29213602, 28: 0.0, 29: 0.0, 30: 1.267420985, 31: 1.141680265, 32: 0.0, 33: 2.255978585, 34: 0.0, 35: 0.0, 36: 0.349049785, 37: 0.7903913849999999, 38: 0.0, 39: 0.118178165, 40: 0.0, 41: 0.0, 42: 0.0, 43: 0.8432777, 44: 0.0, 45: 0.118178165, 46: 1.564226185, 47: 0.0, 48: 0.7184205849999999, 49: 1.607051785, 50: 0.118178165, 51: 2.317242985, 52: 0.8889354229999999, 53: 0.279715838, 54: 0.010003488, 55: 0.086793617, 56: 0.0, 57: 0.901275603, 58: 0.0, 59: 0.0, 60: 2.22345162, 61: 1.382931145, 62: 1.300491865, 63: 0.00901122, 64: 0.86861618, 65: 0.02281058, 66: 0.4078841, 67: 0.0, 68: 1.476790585, 69: 0.0, 70: 0.92369466, 71: 0.0, 72: 1.461682665, 73: 0.0, 74: 1.480478345, 75: 0.5197065, 76: 0.0, 77: 1.495586265, 78: 0.56764738, 79: 1.547333865, 80: 0.20172642, 81: 0.2038677, 82: 1.509266665, 83: 0.2413401, 84: 0.0, 85: 0.0, 86: 1.481905865, 87: 0.0, 88: 0.810251503, 89: 0.0, 90: 0.0, 91: 0.077630118, 92: 0.8140390830000001, 93: 0.9513694029999999, 94: 0.951552673, 95: 0.0];
earn = [0: 0.253260625, 1: 0.240841673, 2: 0.0, 3: 0.0, 4: 0.0, 5: 0.0, 6: 0.0, 7: 0.0, 8: 0.0, 9: 0.0, 10: 0.0, 11: 0.0, 12: 0.0, 13: 0.0, 14: 0.239157445, 15: 0.228261713, 16: 0.0, 17: 0.0, 18: 0.0, 19: 0.0, 20: 0.087530462, 21: 0.0, 22: 0.0, 23: 0.084121788, 24: 0.0, 25: 0.019514583, 26: 0.018054788, 27: 0.0, 28: 0.005052613, 29: -0.002236065, 30: 0.0, 31: 0.0, 32: -0.009397012999999999, 33: 0.0, 34: -0.009646675, 35: -0.04832289, 36: 0.0, 37: 0.0, 38: -0.144436695, 39: -0.004503525, 40: -0.205914638, 41: -0.046034863, 42: -0.467694638, 43: 0.0, 44: -0.567105595, 45: -0.120753163, 46: 0.0, 47: -0.103446389, 48: 0.0, 49: 0.0, 50: -0.05980956, 51: 0.0, 52: 0.0, 53: 0.0, 54: 0.0, 55: 0.0, 56: -0.47239465, 57: 0.0, 58: -0.00086241, 59: -0.366345968, 60: 0.0, 61: 0.0, 62: 0.0, 63: 0.0, 64: 0.0, 65: 0.0, 66: 0.0, 67: -0.059690025, 68: 0.0, 69: -0.013682638, 70: 0.0, 71: -0.023282963, 72: 0.0, 73: 0.03967132, 74: 0.0, 75: 0.0, 76: 0.20874678, 77: 0.0, 78: 0.0, 79: 0.0, 80: 0.0, 81: 0.0, 82: 0.0, 83: 0.0, 84: 0.338752188, 85: 0.35141015, 86: 0.0, 87: 0.355308068, 88: 0.0, 89: 0.33652635, 90: 0.110864798, 91: 0.0, 92: 0.0, 93: 0.0, 94: 0.0, 95: 0.14608304];
total_cost = 52.297401382;
total_earn = 0.337598022;
% _objective = 51.95980336;