production = [0: 0.0, 1: 0.0, 2: 0.0, 3: 0.0, 4: 0.0, 5: 0.0, 6: 0.0, 7: 0.0, 8: 0.0, 9: 0.0, 10: 0.0, 11: 0.0, 12: 0.0, 13: 0.0, 14: 0.0, 15: 0.0, 16: 0.0, 17: 0.0, 18: 0.0, 19: 0.0, 20: 0.0, 21: 0.0, 22: 0.0003, 23: 0.0, 24: 0.0, 25: 0.0, 26: 0.026, 27: 0.0, 28: 0.0, 29: 0.0, 30: 0.1638, 31: 0.0, 32: 0.0, 33: 0.3272, 34: 0.0, 35: 0.8013, 36: 0.0, 37: 0.637875, 38: 0.0, 39: 0.0, 40: 0.0, 41: 0.0, 42: 1.6027, 43: 1.7252, 44: 0.0, 45: 1.4105, 46: 1.261, 47: 0.0, 48: 0.0, 49: 1.3055, 50: 1.9007, 51: 0.7745, 52: 0.3495, 53: 0.4487, 54: 0.0, 55: 0.0, 56: 0.0, 57: 0.2328, 58: 0.0, 59: 0.0, 60: 1.699, 61: 0.0, 62: 0.363, 63: 0.2385, 64: 0.8027, 65: 0.5535, 66: 0.3432, 67: 0.3242, 68: 0.0, 69: 0.1275, 70: 0.0602, 71: 0.0, 72: 0.0, 73: 0.0825, 74: 0.06850000000000001, 75: 0.0, 76: 0.0, 77: 0.0, 78: 0.0, 79: 0.0, 80: 0.0, 81: 0.0, 82: 0.0, 83: 0.0, 84: 0.0, 85: 0.0, 86: 0.0, 87: 0.0, 88: 0.0, 89: 0.0, 90: 0.0, 91: 0.0, 92: 0.0, 93: 0.0, 94: 0.0, 95: 0.0];
buy = [0: 0.330875, 1: 1.331575, 2: 0.330075, 3: 0.0, 4: 1.877575, 5: 0.029875, 6: 0.0, 7: 1.477675, 8: 1.390075, 9: 0.0, 10: 1.349175, 11: 0.310375, 12: 0.303575, 13: 0.0, 14: 0.0, 15: 0.0, 16: 0.0, 17: 1.273575, 18: 0.266675, 19: 1.755375, 20: 1.264875, 21: 1.259875, 22: 1.265875, 23: 1.256375, 24: 1.263375, 25: 0.0, 26: 0.0, 27: 0.0, 28: 0.0, 29: 1.129675, 30: 0.966075, 31: 0.0, 32: 0.170875, 33: 1.469875, 34: 0.318875, 35: 0.331075, 36: 1.132375, 37: 0.0, 38: 0.647575, 39: 1.154075, 40: 0.131375, 41: 0.740875, 42: 0.0, 43: 0.0, 44: 0.0, 45: 0.0, 46: 0.0, 47: 0.332575, 48: 0.0, 49: 0.0, 50: 0.0, 51: 0.0, 52: 0.0, 53: 0.009175000000000001, 54: 0.345075, 55: 0.0, 56: 1.365375, 57: 0.0, 58: 0.898575, 59: 2.144175, 60: 1.170075, 61: 0.158375, 62: 0.0, 63: 0.0, 64: 0.0, 65: 1.019175, 66: 0.999675, 67: 0.0, 68: 1.339575, 69: 1.227375, 70: 1.776475, 71: 0.0, 72: 1.129375, 73: 0.100175, 74: 0.07667499999999999, 75: 0.450875, 76: 0.0, 77: 0.0, 78: 0.0, 79: 0.0, 80: 1.169575, 81: 1.171375, 82: 1.169375, 83: 0.0, 84: 0.0, 85: 1.157375, 86: 0.146375, 87: 0.0, 88: 0.0, 89: 0.0, 90: 0.0, 91: 1.127075, 92: 0.139075, 93: 0.0, 94: 0.364175, 95: 1.369175];
sell = [0: 0.0, 1: 0.0, 2: 0.0, 3: 0.126625, 4: 0.0, 5: 0.0, 6: 0.762625, 7: 0.0, 8: 0.0, 9: 0.5443249999999999, 10: 0.0, 11: 0.0, 12: 0.0, 13: 0.639825, 14: 0.645325, 15: 0.0, 16: 0.634125, 17: 0.0, 18: 0.0, 19: 0.0, 20: 0.0, 21: 0.0, 22: 0.0, 23: 0.0, 24: 0.0, 25: 0.644325, 26: 0.581681601, 27: 0.654425, 28: 0.777325, 29: 0.0, 30: 0.0, 31: 0.770925, 32: 0.0, 33: 0.0, 34: 0.0, 35: 0.0, 36: 0.0, 37: 0.0, 38: 0.0, 39: 0.0, 40: 0.0, 41: 0.0, 42: 0.345525, 43: 1.016325, 44: 0.651625, 45: 1.064570343, 46: 0.045425, 47: 0.0, 48: 0.137498864, 49: 1.053925, 50: 1.072025, 51: 0.825925, 52: 0.087825, 53: 0.0, 54: 0.0, 55: 0.059925, 56: 0.0, 57: 0.850925, 58: 0.0, 59: 0.0, 60: 0.0, 61: 0.0, 62: 0.906125, 63: 0.892425, 64: 0.07252500000000001, 65: 0.0, 66: 0.0, 67: 0.867825, 68: 0.0, 69: 0.0, 70: 0.0, 71: 0.734825, 72: 0.0, 73: 0.0, 74: 0.0, 75: 0.0, 76: 0.718825, 77: 0.0, 78: 0.422825, 79: 0.6986250000000001, 80: 0.0, 81: 0.0, 82: 0.0, 83: 0.697125, 84: 0.7006250000000001, 85: 0.0, 86: 0.0, 87: 0.757425, 88: 0.7671249999999999, 89: 0.768325, 90: 0.7338249999999999, 91: 0.0, 92: 0.0, 93: 0.536125, 94: 0.0, 95: 0.0];
charge = [0: 0.0, 1: 1.0, 2: 0.0, 3: 0.0, 4: 1.0, 5: 0.0, 6: 0.0, 7: 1.0, 8: 1.0, 9: 0.0, 10: 1.0, 11: 0.0, 12: 0.0, 13: 0.0, 14: 0.0, 15: 0.0, 16: 0.0, 17: 1.0, 18: 0.0, 19: 1.0, 20: 1.0, 21: 1.0, 22: 1.0, 23: 1.0, 24: 1.0, 25: 0.0, 26: 0.0, 27: 0.0, 28: 0.0, 29: 1.0, 30: 1.0, 31: 0.0, 32: 0.0, 33: 1.0, 34: 0.0, 35: 1.0, 36: 1.0, 37: 0.0, 38: 0.0, 39: 1.0, 40: 0.0, 41: 0.0, 42: 0.0, 43: 0.0, 44: 0.0, 45: 0.135054657, 46: 1.0, 47: 0.0, 48: 0.0, 49: 0.0, 50: 0.0, 51: 0.0, 52: 0.0, 53: 0.0, 54: 0.0, 55: 0.0, 56: 1.0, 57: 0.0, 58: 0.0, 59: 1.0, 60: 1.0, 61: 0.0, 62: 0.0, 63: 0.0, 64: 0.0, 65: 1.0, 66: 1.0, 67: 0.0, 68: 1.0, 69: 1.0, 70: 1.0, 71: 0.0, 72: 1.0, 73: 0.0, 74: 0.0, 75: 0.0, 76: 0.0, 77: 0.0, 78: 0.0, 79: 0.0, 80: 1.0, 81: 1.0, 82: 1.0, 83: 0.0, 84: 0.0, 85: 1.0, 86: 0.0, 87: 0.0, 88: 0.0, 89: 0.0, 90: 0.0, 91: 1.0, 92: 0.0, 93: 0.0, 94: 0.0, 95: 1.0];
discharge = [0: 0.0, 1: 0.0, 2: 0.0, 3: 1.0, 4: 0.0, 5: 1.0, 6: 1.0, 7: 0.0, 8: 0.0, 9: 1.0, 10: 0.0, 11: 0.0, 12: 0.0, 13: 1.0, 14: 1.0, 15: 0.28375, 16: 1.0, 17: 0.0, 18: 0.0, 19: 0.0, 20: 0.0, 21: 0.0, 22: 0.0, 23: 0.0, 24: 0.0, 25: 1.0, 26: 0.898396223, 27: 1.0, 28: 1.0, 29: 0.0, 30: 0.0, 31: 1.0, 32: 0.0, 33: 0.0, 34: 0.0, 35: 0.0, 36: 0.0, 37: 0.0, 38: 0.0, 39: 0.0, 40: 0.0, 41: 0.0, 42: 0.0, 43: 0.0, 44: 1.0, 45: 0.0, 46: 0.0, 47: 0.0, 48: 0.523748738, 49: 0.0, 50: 0.0, 51: 1.0, 52: 0.0, 53: 0.0, 54: 0.0, 55: 1.0, 56: 0.0, 57: 1.0, 58: 0.0, 59: 0.0, 60: 0.0, 61: 1.0, 62: 1.0, 63: 1.0, 64: 0.0, 65: 0.0, 66: 0.0, 67: 1.0, 68: 0.0, 69: 0.0, 70: 0.0, 71: 1.0, 72: 0.0, 73: 0.0, 74: 0.0, 75: 0.0, 76: 1.0, 77: 0.175416667, 78: 1.0, 79: 1.0, 80: 0.0, 81: 0.0, 82: 0.0, 83: 1.0, 84: 1.0, 85: 0.0, 86: 0.0, 87: 1.0, 88: 1.0, 89: 1.0, 90: 1.0, 91: 0.0, 92: 0.0, 93: 1.0, 94: 0.0, 95: 0.0];
soc = [0: 11.74765, 1: 12.64530047, 2: 12.64277141, 3: 11.640242856, 4: 12.537914807, 5: 11.535407224, 6: 10.533100143, 7: 11.430993523, 8: 12.328707324, 9: 11.326241582, 10: 12.223976334, 11: 12.221531539, 12: 12.219087233, 13: 11.216643415, 14: 10.214400086, 15: 9.928607206000001, 16: 8.926621485, 17: 9.824836161, 18: 9.822871192999999, 19: 10.720906619, 20: 11.618762438, 21: 12.516438685, 22: 13.413935398, 23: 14.311252611, 24: 15.20839036, 25: 14.205348682, 26: 13.304111389, 27: 12.301450567, 28: 11.298990277, 29: 12.196730479, 30: 13.094291133, 31: 12.091672275, 32: 12.08925394, 33: 12.986836089, 34: 12.984238722, 35: 13.881641874, 36: 14.778865546, 37: 14.775909773, 38: 14.772954591, 39: 15.67, 40: 15.666866, 41: 15.663732627, 42: 15.66059988, 43: 15.65746776, 44: 14.654336267, 45: 14.772954591, 46: 15.67, 47: 15.666866, 48: 15.139983889, 49: 15.136955892, 50: 15.133928501, 51: 14.130901715, 52: 14.128075535, 53: 14.12524992, 54: 14.12242487, 55: 13.119600385, 56: 14.016976465, 57: 13.014173069, 58: 13.011570235, 59: 13.908967921, 60: 14.806186127, 61: 13.80322489, 62: 12.800464245, 63: 11.797904152, 64: 11.795544571, 65: 12.693185462, 66: 13.590646825, 67: 12.587928696, 68: 13.48541111, 69: 14.382714028, 70: 15.279837485, 71: 14.276781517, 72: 15.173926161, 73: 15.170891376, 74: 15.167857198, 75: 15.164823626, 76: 14.161790662, 77: 13.983541637, 78: 12.980744928, 79: 11.978148779, 80: 12.87575315, 81: 13.773177999, 82: 14.670423363, 83: 13.667489279, 84: 12.664755781, 85: 13.56222283, 86: 13.559510385, 87: 12.556798483, 88: 11.554287123, 89: 10.551976266, 90: 9.549865871, 91: 10.447955898, 92: 10.445866306, 93: 9.443777132999999, 94: 9.441888378, 95: 10.34];
cost = [0: 0.202131538, 1: 0.931637333, 2: 0.201642818, 3: 0.0, 4: 1.265188733, 5: 0.018250637, 6: 0.0, 7: 1.020889823, 8: 0.967374983, 9: 0.0, 10: 0.942389173, 11: 0.189608088, 12: 0.185453967, 13: 0.0, 14: 0.0, 15: 0.0, 16: 0.0, 17: 0.896205133, 18: 0.162911758, 19: 1.190536753, 20: 0.8908903030000001, 21: 0.887835803, 22: 0.891501203, 23: 0.885697653, 24: 1.621089065, 25: 0.0, 26: 0.0, 27: 0.0, 28: 0.0, 29: 1.462039545, 30: 1.267420985, 31: 0.0, 32: 0.2032729, 33: 1.866741465, 34: 0.3793337, 35: 0.512024985, 36: 1.465251465, 37: 0.0, 38: 0.77035522, 39: 1.491065785, 40: 0.1562837, 41: 0.8813449, 42: 0.0, 43: 0.0, 44: 0.0, 45: 0.015960512, 46: 0.118178165, 47: 0.39563122, 48: 0.0, 49: 0.0, 50: 0.0, 51: 0.0, 52: 0.0, 53: 0.005605008, 54: 0.210806318, 55: 0.0, 56: 0.952285753, 57: 0.0, 58: 0.548939467, 59: 1.428054673, 60: 1.510099385, 61: 0.1884029, 62: 0.0, 63: 0.0, 64: 0.0, 65: 1.330588745, 66: 1.307391545, 67: 0.0, 68: 1.711736585, 69: 1.578263465, 70: 2.231472825, 71: 0.0, 72: 1.461682665, 73: 0.11916818, 74: 0.09121258, 75: 0.5363609, 76: 0.0, 77: 0.0, 78: 0.0, 79: 0.0, 80: 1.509504585, 81: 1.511645865, 82: 1.509266665, 83: 0.0, 84: 0.0, 85: 1.494991465, 86: 0.1741277, 87: 0.0, 88: 0.0, 89: 0.0, 90: 0.0, 91: 0.806708283, 92: 0.084960918, 93: 0.0, 94: 0.222474508, 95: 0.954607173];
earn = [0: 0.0, 1: 0.0, 2: 0.0, 3: 0.0535877, 4: 0.0, 5: 0.0, 6: 0.3251833, 7: 0.0, 8: 0.0, 9: 0.214518483, 10: 0.0, 11: 0.0, 12: 0.0, 13: 0.23673525, 14: 0.239157445, 15: 0.0, 16: 0.195944625, 17: 0.0, 18: 0.0, 19: 0.0, 20: 0.0, 21: 0.0, 22: 0.0, 23: 0.0, 24: 0.0, 25: 0.019394183, 26: 0.016228917, 27: 0.013677483, 28: 0.005052613, 29: 0.0, 30: 0.0, 31: -0.006707048, 32: 0.0, 33: 0.0, 34: 0.0, 35: 0.0, 36: 0.0, 37: 0.0, 38: 0.0, 39: 0.0, 40: 0.0, 41: 0.0, 42: -0.129744638, 43: -0.455618498, 44: -0.354874975, 45: -0.6439586, 46: -0.031988285, 47: 0.0, 48: -0.104389138, 49: -0.9011058749999999, 50: -0.89020956, 51: -0.679653683, 52: -0.07777777800000001, 53: 0.0, 54: 0.0, 55: -0.051523515, 56: 0.0, 57: -0.661764373, 58: 0.0, 59: 0.0, 60: 0.0, 61: 0.0, 62: -0.390177425, 63: -0.319755878, 64: -0.017217435, 65: 0.0, 66: 0.0, 67: -0.095287185, 68: 0.0, 69: 0.0, 70: 0.0, 71: -0.018003213, 72: 0.0, 73: 0.0, 74: 0.0, 75: 0.0, 76: 0.20874678, 77: 0.0, 78: 0.152428413, 79: 0.2816856, 80: 0.0, 81: 0.0, 82: 0.0, 83: 0.333574312, 84: 0.338752188, 85: 0.0, 86: 0.0, 87: 0.355308068, 88: 0.341600763, 89: 0.33652635, 90: 0.321341968, 91: 0.0, 92: 0.0, 93: 0.211501312, 94: 0.0, 95: 0.0];
total_cost = 47.81649747;
total_earn = -1.628811392;
