production = [0: 0.0, 1: 0.0, 2: 0.0, 3: 0.0, 4: 0.0, 5: 0.0, 6: 0.0, 7: 0.0, 8: 0.0, 9: 0.0, 10: 0.0, 11: 0.0, 12: 0.0, 13: 0.0, 14: 0.0, 15: 0.0, 16: 0.0, 17: 0.0, 18: 0.0, 19: 0.0, 20: 0.0, 21: 0.0, 22: 0.0, 23: 0.0025, 24: 0.0182, 25: 0.0, 26: 0.0, 27: 0.0, 28: 0.0, 29: 0.0, 30: 0.3533, 31: 0.0, 32: 0.583, 33: 0.6274999999999999, 34: 0.0, 35: 0.0, 36: 0.0, 37: 0.9862, 38: 1.3553, 39: 1.4325, 40: 0.0, 41: 0.0, 42: 1.0175, 43: 0.0, 44: 1.559, 45: 0.0, 46: 0.0, 47: 0.0, 48: 0.0, 49: 1.0485, 50: 1.0497, 51: 0.0, 52: 1.1365, 53: 0.0, 54: 0.0, 55: 0.0, 56: 0.0, 57: 0.0, 58: 0.0, 59: 0.0, 60: 0.0, 61: 0.0, 62: 0.0, 63: 0.26, 64: 0.0, 65: 0.0, 66: 0.0, 67: 0.2392, 68: 0.2082, 69: 0.1128, 70: 0.0, 71: 0.0462, 72: 0.0123, 73: 0.001, 74: 0.0, 75: 0.0003, 76: 0.0, 77: 0.0, 78: 0.0, 79: 0.0, 80: 0.0, 81: 0.0, 82: 0.0, 83: 0.0, 84: 0.0, 85: 0.0, 86: 0.0, 87: 0.0, 88: 0.0, 89: 0.0, 90: 0.0, 91: 0.0, 92: 0.0, 93: 0.0, 94: 0.0, 95: 0.0, 96: 0.0, 97: 0.0, 98: 0.0, 99: 0.0, 100: 0.0, 101: 0.0, 102: 0.0, 103: 0.0, 104: 0.0, 105: 0.0, 106: 0.0, 107: 0.0, 108: 0.0, 109: 0.0, 110: 0.0, 111: 0.0, 112: 0.0, 113: 0.0, 114: 0.0, 115: 0.0, 116: 0.0, 117: 0.0, 118: 0.0003, 119: 0.0, 120: 0.0177, 121: 0.0455, 122: 0.0, 123: 0.1557, 124: 0.1998, 125: 0.0, 126: 0.3967, 127: 0.0, 128: 0.0, 129: 0.6215000000000001, 130: 0.8263, 131: 0.8095, 132: 0.0, 133: 0.6318, 134: 0.674, 135: 0.0, 136: 0.6558, 137: 0.0, 138: 0.0, 139: 0.0, 140: 0.8732, 141: 0.0, 142: 0.8257, 143: 0.8147, 144: 0.0, 145: 0.7558, 146: 0.854, 147: 0.8185, 148: 0.7133, 149: 0.0, 150: 1.08, 151: 1.044, 152: 0.0, 153: 0.0, 154: 0.0, 155: 0.0, 156: 0.8582, 157: 0.7592, 158: 0.0, 159: 0.0, 160: 0.5383, 161: 0.4325, 162: 0.0, 163: 0.0, 164: 0.1762, 165: 0.0, 166: 0.0725, 167: 0.0357, 168: 0.0037, 169: 0.0003, 170: 0.0003, 171: 0.0, 172: 0.0, 173: 0.0, 174: 0.0, 175: 0.0, 176: 0.0, 177: 0.0, 178: 0.0, 179: 0.0, 180: 0.0, 181: 0.0, 182: 0.0, 183: 0.0, 184: 0.0, 185: 0.0, 186: 0.0, 187: 0.0, 188: 0.0, 189: 0.0, 190: 0.0, 191: 0.0];
buy = [0: 1.111091667, 1: 0.303991667, 2: 1.306991667, 3: 1.294991667, 4: 0.0, 5: 0.0, 6: 0.0, 7: 0.0, 8: 0.0, 9: 0.0, 10: 1.210791667, 11: 1.213791667, 12: 1.223491667, 13: 1.224991667, 14: 0.0, 15: 1.208591667, 16: 0.220791667, 17: 1.104791667, 18: 0.096791667, 19: 0.0, 20: 0.0, 21: 0.0, 22: 0.0, 23: 0.088491667, 24: 0.0, 25: 0.0, 26: 1.087791667, 27: 1.080491667, 28: 0.0, 29: 0.0, 30: 0.0, 31: 1.098291667, 32: 0.0, 33: 0.0, 34: 1.098291667, 35: 0.0, 36: 1.098491667, 37: 0.128891667, 38: 0.0, 39: 0.0, 40: 0.0, 41: 1.124091667, 42: 0.0, 43: 1.128291667, 44: 0.0, 45: 0.0, 46: 1.163791667, 47: 1.170591667, 48: 0.0, 49: 0.0, 50: 0.0, 51: 0.0, 52: 0.0, 53: 0.504991667, 54: 1.603791667, 55: 0.6060916669999999, 56: 0.0, 57: 1.399791667, 58: 0.0, 59: 1.468591667, 60: 1.118291667, 61: 0.0, 62: 1.129291667, 63: 0.0, 64: 0.158791667, 65: 1.181591667, 66: 1.190791667, 67: 0.887591667, 68: 0.0, 69: 0.0, 70: 0.0, 71: 1.064591667, 72: 0.0, 73: 0.0, 74: 0.088991667, 75: 0.0, 76: 1.096991667, 77: 0.095991667, 78: 0.0, 79: 1.089791667, 80: 0.096791667, 81: 0.096991667, 82: 0.0, 83: 1.080991667, 84: 0.0, 85: 1.098491667, 86: 1.105791667, 87: 0.109591667, 88: 0.0, 89: 1.279091667, 90: 0.319791667, 91: 0.318991667, 92: 0.317491667, 93: 1.280291667, 94: 1.250991667, 95: 0.258791667, 96: 0.232291667, 97: 1.231991667, 98: 0.220291667, 99: 1.219791667, 100: 0.228791667, 101: 0.0, 102: 1.222791667, 103: 0.0, 104: 0.222991667, 105: 0.0, 106: 1.229291667, 107: 0.223291667, 108: 0.223291667, 109: 0.0, 110: 0.233291667, 111: 0.0, 112: 1.223791667, 113: 1.224291667, 114: 0.0, 115: 0.0, 116: 1.227791667, 117: 0.0, 118: 1.223991667, 119: 1.231291667, 120: 0.0, 121: 1.057091667, 122: 0.0, 123: 0.935291667, 124: 0.0, 125: 0.0, 126: 0.0, 127: 0.09279166699999999, 128: 0.090491667, 129: 0.0, 130: 0.0, 131: 0.0, 132: 0.090491667, 133: 0.459991667, 134: 0.425291667, 135: 0.099791667, 136: 0.0, 137: 1.090291667, 138: 0.0, 139: 0.098791667, 140: 0.0, 141: 1.098291667, 142: 0.0, 143: 0.0, 144: 0.0, 145: 0.0, 146: 0.0, 147: 0.0, 148: 0.380291667, 149: 0.583291667, 150: 0.0, 151: 0.0, 152: 1.096991667, 153: 0.387991667, 154: 0.402791667, 155: 0.0, 156: 0.237091667, 157: 0.336091667, 158: 1.095291667, 159: 0.0, 160: 0.0, 161: 0.659291667, 162: 1.090791667, 163: 1.099591667, 164: 0.0, 165: 0.0, 166: 0.0, 167: 1.058591667, 168: 1.096891667, 169: 0.0, 170: 0.0, 171: 1.098991667, 172: 1.098291667, 173: 1.106491667, 174: 1.106491667, 175: 0.105491667, 176: 1.098291667, 177: 0.098291667, 178: 1.105291667, 179: 1.107791667, 180: 1.106491667, 181: 1.099291667, 182: 0.098791667, 183: 0.0, 184: 0.0, 185: 1.098991667, 186: 0.099291667, 187: 0.0, 188: 0.106791667, 189: 1.107791667, 190: 1.106791667, 191: 1.099291667];
sell = [0: 0.0, 1: 0.0, 2: 0.0, 3: 0.0, 4: 0.610508333, 5: 0.613008333, 6: 0.639508333, 7: 0.631708333, 8: 0.659408333, 9: 0.668708333, 10: 0.0, 11: 0.0, 12: 0.0, 13: 0.0, 14: 0.683008333, 15: 0.0, 16: 0.0, 17: 0.0, 18: 0.0, 19: 0.810008333, 20: 0.8092083329999999, 21: 0.795708333, 22: 0.674911373, 23: 0.0, 24: 0.843908333, 25: 0.818508333, 26: 0.0, 27: 0.0, 28: 0.820908333, 29: 0.821708333, 30: 1.165708333, 31: 0.0, 32: 1.392708333, 33: 1.437508333, 34: 0.0, 35: 0.801508333, 36: 0.0, 37: 0.0, 38: 0.186308333, 39: 2.187208333, 40: 0.754208333, 41: 0.0, 42: 1.793208333, 43: 0.0, 44: 2.308208333, 45: 0.269484596, 46: 0.0, 47: 0.0, 48: 0.717908333, 49: 0.888208333, 50: 0.895408333, 51: 0.237130174, 52: 0.876862386, 53: 0.0, 54: 0.0, 55: 0.0, 56: 0.079008333, 57: 0.0, 58: 0.391292429, 59: 0.0, 60: 0.0, 61: 0.768508333, 62: 0.0, 63: 0.119208333, 64: 0.0, 65: 0.0, 66: 0.0, 67: 0.0, 68: 0.08940833300000001, 69: 0.907308333, 70: 0.7810083330000001, 71: 0.0, 72: 0.811708333, 73: 0.812008333, 74: 0.0, 75: 0.804008333, 76: 0.0, 77: 0.0, 78: 0.812008333, 79: 0.0, 80: 0.0, 81: 0.0, 82: 0.8102083329999999, 83: 0.0, 84: 0.780795672, 85: 0.0, 86: 0.0, 87: 0.0, 88: 0.8012083330000001, 89: 0.0, 90: 0.0, 91: 0.0, 92: 0.0, 93: 0.0, 94: 0.0, 95: 0.0, 96: 0.0, 97: 0.0, 98: 0.0, 99: 0.0, 100: 0.0, 101: 0.669508333, 102: 0.0, 103: 0.6772083330000001, 104: 0.0, 105: 0.671008333, 106: 0.0, 107: 0.0, 108: 0.0, 109: 0.677008333, 110: 0.0, 111: 0.667208333, 112: 0.0, 113: 0.0, 114: 0.668708333, 115: 0.667208333, 116: 0.0, 117: 0.675708333, 118: 0.0, 119: 0.0, 120: 0.810908333, 121: 0.0, 122: 0.8092083329999999, 123: 0.0, 124: 0.09820833299999999, 125: 0.798708333, 126: 0.297108333, 127: 0.0, 128: 0.0, 129: 1.422508333, 130: 1.627008333, 131: 0.709208333, 132: 0.0, 133: 0.0, 134: 0.0, 135: 0.0, 136: 0.0, 137: 0.0, 138: 0.807708333, 139: 0.0, 140: 0.774408333, 141: 0.0, 142: 0.735208333, 143: 1.625208333, 144: 0.8012083330000001, 145: 1.216584266, 146: 0.0, 147: 1.623908333, 148: 0.0, 149: 0.0, 150: 1.422708333, 151: 0.214508333, 152: 0.0, 153: 0.0, 154: 0.0, 155: 0.524208333, 156: 0.0, 157: 0.0, 158: 0.0, 159: 0.797408333, 160: 0.435508333, 161: 0.0, 162: 0.0, 163: 0.0, 164: 0.07490833299999999, 165: 0.797908333, 166: 0.875508333, 167: 0.0, 168: 0.0, 169: 0.793308333, 170: 0.793808333, 171: 0.0, 172: 0.0, 173: 0.0, 174: 0.0, 175: 0.0, 176: 0.0, 177: 0.0, 178: 0.0, 179: 0.0, 180: 0.0, 181: 0.0, 182: 0.0, 183: 0.793008333, 184: 0.793008333, 185: 0.0, 186: 0.0, 187: 0.8012083330000001, 188: 0.0, 189: 0.0, 190: 0.0, 191: 0.0];
charge = [0: 1.0, 1: 0.0, 2: 1.0, 3: 1.0, 4: 0.0, 5: 0.0, 6: 0.0, 7: 0.0, 8: 0.0, 9: 0.0, 10: 1.0, 11: 1.0, 12: 1.0, 13: 1.0, 14: 0.0, 15: 1.0, 16: 0.0, 17: 1.0, 18: 0.0, 19: 0.0, 20: 0.0, 21: 0.0, 22: 0.0, 23: 0.0, 24: 0.0, 25: 0.0, 26: 1.0, 27: 1.0, 28: 0.0, 29: 0.0, 30: 0.0, 31: 1.0, 32: 0.0, 33: 0.0, 34: 1.0, 35: 0.0, 36: 1.0, 37: 1.0, 38: 1.0, 39: 0.0, 40: 0.0, 41: 1.0, 42: 0.0, 43: 1.0, 44: 0.0, 45: 0.0, 46: 1.0, 47: 1.0, 48: 0.0, 49: 0.0, 50: 0.0, 51: 0.0, 52: 0.114545947, 53: 0.0, 54: 1.0, 55: 0.0, 56: 0.0, 57: 1.0, 58: 0.0, 59: 1.0, 60: 1.0, 61: 0.0, 62: 1.0, 63: 0.0, 64: 0.0, 65: 1.0, 66: 1.0, 67: 1.0, 68: 0.0, 69: 0.0, 70: 0.0, 71: 1.0, 72: 0.0, 73: 0.0, 74: 0.0, 75: 0.0, 76: 1.0, 77: 0.0, 78: 0.0, 79: 1.0, 80: 0.0, 81: 0.0, 82: 0.0, 83: 1.0, 84: 0.0, 85: 1.0, 86: 1.0, 87: 0.0, 88: 0.0, 89: 1.0, 90: 0.0, 91: 0.0, 92: 0.0, 93: 1.0, 94: 1.0, 95: 0.0, 96: 0.0, 97: 1.0, 98: 0.0, 99: 1.0, 100: 0.0, 101: 0.0, 102: 1.0, 103: 0.0, 104: 0.0, 105: 0.0, 106: 1.0, 107: 0.0, 108: 0.0, 109: 0.0, 110: 0.0, 111: 0.0, 112: 1.0, 113: 1.0, 114: 0.0, 115: 0.0, 116: 1.0, 117: 0.0, 118: 1.0, 119: 1.0, 120: 0.0, 121: 1.0, 122: 0.0, 123: 1.0, 124: 0.0, 125: 0.0, 126: 0.0, 127: 0.0, 128: 0.0, 129: 0.0, 130: 0.0, 131: 0.0, 132: 0.0, 133: 1.0, 134: 1.0, 135: 0.0, 136: 0.5653083330000001, 137: 1.0, 138: 0.0, 139: 0.0, 140: 0.0, 141: 1.0, 142: 0.0, 143: 0.0, 144: 0.0, 145: 0.0, 146: 0.763708333, 147: 0.0, 148: 1.0, 149: 0.0, 150: 0.0, 151: 0.0, 152: 1.0, 153: 0.0, 154: 0.0, 155: 0.0, 156: 1.0, 157: 1.0, 158: 1.0, 159: 0.0, 160: 0.0, 161: 1.0, 162: 1.0, 163: 1.0, 164: 0.0, 165: 0.0, 166: 0.0, 167: 1.0, 168: 1.0, 169: 0.0, 170: 0.0, 171: 1.0, 172: 1.0, 173: 1.0, 174: 1.0, 175: 0.0, 176: 1.0, 177: 0.0, 178: 1.0, 179: 1.0, 180: 1.0, 181: 1.0, 182: 0.0, 183: 0.0, 184: 0.0, 185: 1.0, 186: 0.0, 187: 0.0, 188: 0.0, 189: 1.0, 190: 1.0, 191: 1.0];
discharge = [0: 0.0, 1: 0.0, 2: 0.0, 3: 0.0, 4: 1.0, 5: 1.0, 6: 1.0, 7: 1.0, 8: 1.0, 9: 1.0, 10: 0.0, 11: 0.0, 12: 0.0, 13: 0.0, 14: 1.0, 15: 0.0, 16: 0.0, 17: 0.0, 18: 0.0, 19: 1.0, 20: 1.0, 21: 1.0, 22: 0.861892266, 23: 0.0, 24: 1.0, 25: 1.0, 26: 0.0, 27: 0.0, 28: 1.0, 29: 1.0, 30: 1.0, 31: 0.0, 32: 1.0, 33: 1.0, 34: 0.0, 35: 1.0, 36: 0.0, 37: 0.0, 38: 0.0, 39: 1.0, 40: 1.0, 41: 0.0, 42: 1.0, 43: 0.0, 44: 1.0, 45: 0.492306958, 46: 0.0, 47: 0.0, 48: 1.0, 49: 0.0, 50: 0.0, 51: 0.795802045, 52: 0.0, 53: 0.0, 54: 0.0, 55: 0.0, 56: 1.0, 57: 0.0, 58: 0.898760106, 59: 0.0, 60: 0.0, 61: 1.0, 62: 0.0, 63: 0.0, 64: 0.0, 65: 0.0, 66: 0.0, 67: 0.0, 68: 0.0, 69: 1.0, 70: 1.0, 71: 0.0, 72: 1.0, 73: 1.0, 74: 0.0, 75: 1.0, 76: 0.0, 77: 0.0, 78: 1.0, 79: 0.0, 80: 0.0, 81: 0.0, 82: 1.0, 83: 0.0, 84: 0.977319265, 85: 0.0, 86: 0.0, 87: 0.0, 88: 1.0, 89: 0.0, 90: 0.0, 91: 0.0, 92: 0.0, 93: 0.0, 94: 0.0, 95: 0.0, 96: 0.0, 97: 0.0, 98: 0.0, 99: 0.0, 100: 0.0, 101: 1.0, 102: 0.0, 103: 1.0, 104: 0.0, 105: 1.0, 106: 0.0, 107: 0.0, 108: 0.0, 109: 1.0, 110: 0.0, 111: 1.0, 112: 0.0, 113: 0.0, 114: 1.0, 115: 1.0, 116: 0.0, 117: 1.0, 118: 0.0, 119: 0.0, 120: 1.0, 121: 0.0, 122: 1.0, 123: 0.0, 124: 0.0, 125: 1.0, 126: 0.0, 127: 0.0, 128: 0.0, 129: 1.0, 130: 1.0, 131: 0.0, 132: 0.0, 133: 0.0, 134: 0.0, 135: 0.0, 136: 0.0, 137: 0.0, 138: 1.0, 139: 0.0, 140: 0.0, 141: 0.0, 142: 0.0, 143: 1.0, 144: 1.0, 145: 0.622862147, 146: 0.0, 147: 1.0, 148: 0.0, 149: 0.0, 150: 1.0, 151: 0.0, 152: 0.0, 153: 0.0, 154: 0.0, 155: 1.0, 156: 0.0, 157: 0.0, 158: 0.0, 159: 1.0, 160: 0.0, 161: 0.0, 162: 0.0, 163: 0.0, 164: 0.0, 165: 1.0, 166: 1.0, 167: 0.0, 168: 0.0, 169: 1.0, 170: 1.0, 171: 0.0, 172: 0.0, 173: 0.0, 174: 0.0, 175: 0.0, 176: 0.0, 177: 0.0, 178: 0.0, 179: 0.0, 180: 0.0, 181: 0.0, 182: 0.0, 183: 1.0, 184: 1.0, 185: 0.0, 186: 0.0, 187: 1.0, 188: 0.0, 189: 0.0, 190: 0.0, 191: 0.0];
soc = [0: 10.768026, 1: 10.765872395, 2: 11.66371922, 3: 12.561386476, 4: 11.558874199, 5: 10.556562424, 6: 9.554451112000001, 7: 8.552540221999999, 8: 7.550829714, 9: 6.549319548, 10: 7.448009684, 11: 8.346520082, 12: 9.244850778, 13: 10.143001808, 14: 9.140973207, 15: 10.039145013, 16: 10.037137184, 17: 10.935129756, 18: 10.93294273, 19: 9.930756142, 20: 8.928769989999999, 21: 7.926984236, 22: 7.063506573, 23: 7.062093872, 24: 6.060681453, 25: 5.059469317, 26: 5.958457423, 27: 6.857265732, 28: 5.855894278, 29: 4.8547231, 30: 3.853752155, 31: 4.752981405, 32: 3.752030808, 33: 2.751280402, 34: 3.650730146, 35: 2.65, 36: 3.54947, 37: 4.448760106, 38: 5.347870354, 39: 4.34680078, 40: 3.34593142, 41: 4.245262233, 42: 3.244413181, 43: 4.143764298, 44: 3.142935546, 45: 2.65, 46: 3.54947, 47: 4.448760106, 48: 3.447870354, 49: 3.44718078, 50: 3.446491344, 51: 2.65, 52: 2.752561353, 53: 2.75201084, 54: 3.651460438, 55: 3.650730146, 56: 2.65, 57: 3.54947, 58: 2.65, 59: 3.54947, 60: 4.448760106, 61: 3.447870354, 62: 4.34718078, 63: 4.346311344, 64: 4.345442081, 65: 5.244572993, 66: 6.143524078, 67: 7.042295374, 68: 7.040886915, 69: 6.039478737, 70: 5.038270841, 71: 5.937263187, 72: 4.936075735, 73: 3.935088519, 74: 3.934301502, 75: 2.933514641, 76: 3.832927939, 77: 3.832161353, 78: 2.831394921, 79: 3.730828642, 80: 3.730082476, 81: 3.729336459, 82: 2.728590592, 83: 3.628044874, 84: 2.65, 85: 3.54947, 86: 4.448760106, 87: 4.447870354, 88: 3.44698078, 89: 4.346291384, 90: 4.345422125, 91: 4.344553041, 92: 4.34368413, 93: 5.242815394, 94: 6.141766831, 95: 6.140538477, 96: 6.139310369, 97: 7.038082507, 98: 7.036674891, 99: 7.935267556, 100: 7.933680502, 101: 6.932093766, 102: 7.830707348, 103: 6.829141206, 104: 6.827775378, 105: 5.826409823, 106: 6.725244541, 107: 6.723899492, 108: 6.722554712, 109: 5.721210201, 110: 5.720065959, 111: 4.718921946, 112: 5.617978161, 113: 6.516854566, 114: 5.515551195, 115: 4.514448085, 116: 5.413545195, 117: 4.412462486, 118: 5.311579993, 119: 6.210517677, 120: 5.209275574, 121: 6.108233719, 122: 5.107012072, 123: 6.00599067, 124: 6.004789472, 125: 5.003588514, 126: 5.002587796, 127: 5.001587278, 128: 5.000586961, 129: 3.999586844, 130: 2.998786926, 131: 2.998187169, 132: 2.997587531, 133: 3.896988014, 134: 4.796208616, 135: 4.795249375, 136: 5.303067825, 137: 6.202007211, 138: 5.20076681, 139: 5.199726656, 140: 5.198686711, 141: 6.097646974, 142: 6.096427444, 143: 5.095208159, 144: 4.094189117, 145: 3.470508132, 146: 4.15715153, 147: 3.1563201, 148: 4.055688836, 149: 4.054877698, 150: 3.054066723, 151: 3.053455909, 152: 3.952845218, 153: 3.952054649, 154: 3.951264238, 155: 2.950473985, 156: 3.84988389, 157: 4.749113914, 158: 5.648164091, 159: 4.647034458, 160: 4.646105051, 161: 5.54517583, 162: 6.444066795, 163: 7.342777982, 164: 7.341309426, 165: 6.339841164, 166: 5.338573196, 167: 6.237505481, 168: 7.13625798, 169: 6.134830729, 170: 5.133603762, 171: 6.032577042, 172: 6.931370526, 173: 7.829984252, 174: 8.728418254999999, 175: 8.726672572, 176: 9.624927237, 177: 9.623002251999999, 178: 10.521077651, 179: 11.418973436, 180: 12.316689641, 181: 13.214226303, 182: 13.211583458, 183: 12.208941141, 184: 11.206499353, 185: 12.104258053, 186: 12.101837201, 187: 11.099416834, 188: 11.097196951, 189: 11.994977511, 190: 12.892578516, 191: 13.79];
cost = [0: 0.796944065, 1: 0.185708509, 2: 0.916619375, 3: 0.909288575, 4: 0.0, 5: 0.0, 6: 0.0, 7: 0.0, 8: 0.0, 9: 0.0, 10: 0.8578507950000001, 11: 0.859683495, 12: 0.865609225, 13: 0.866525575, 14: 0.0, 15: 0.856506815, 16: 0.134881629, 17: 0.793095395, 18: 0.059130029, 19: 0.0, 20: 0.0, 21: 0.0, 22: 0.0, 23: 0.054059559, 24: 0.0, 25: 0.0, 26: 1.412215132, 27: 1.403531052, 28: 0.0, 29: 0.0, 30: 0.0, 31: 1.424705932, 32: 0.0, 33: 0.0, 34: 1.424705932, 35: 0.0, 36: 1.424943852, 37: 0.271507692, 38: 0.118178165, 39: 0.0, 40: 0.0, 41: 1.455397612, 42: 0.0, 43: 1.460393932, 44: 0.0, 45: 0.0, 46: 1.502624732, 47: 1.510714012, 48: 0.0, 49: 0.0, 50: 0.0, 51: 0.0, 52: 0.01353683, 53: 0.308499409, 54: 1.097934495, 55: 0.370261399, 56: 0.0, 57: 0.973310895, 58: 0.0, 59: 1.015340815, 60: 1.448497932, 61: 0.0, 62: 1.461583532, 63: 0.0, 64: 0.188898567, 65: 1.523799612, 66: 1.534743932, 67: 1.174057212, 68: 0.0, 69: 0.0, 70: 0.0, 71: 1.384616412, 72: 0.0, 73: 0.0, 74: 0.105864487, 75: 0.0, 76: 1.423159452, 77: 0.114191687, 78: 0.0, 79: 1.414594332, 80: 0.115143367, 81: 0.115381287, 82: 0.0, 83: 1.404125852, 84: 0.0, 85: 1.424943852, 86: 1.433627932, 87: 0.130370247, 88: 0.0, 89: 0.899575265, 90: 0.195360729, 91: 0.194872009, 92: 0.193955659, 93: 0.900308345, 94: 0.882408975, 95: 0.158095829, 96: 0.141906979, 97: 0.8708018749999999, 98: 0.134576179, 99: 0.863348895, 100: 0.139768829, 101: 0.0, 102: 0.865181595, 103: 0.0, 104: 0.136225609, 105: 0.0, 106: 0.869152445, 107: 0.136408879, 108: 0.136408879, 109: 0.0, 110: 0.142517879, 111: 0.0, 112: 0.865792495, 113: 0.866097945, 114: 0.0, 115: 0.0, 116: 0.868236095, 117: 0.0, 118: 0.865914675, 119: 0.870374245, 120: 0.0, 121: 1.375694412, 122: 0.0, 123: 1.230801132, 124: 0.0, 125: 0.0, 126: 0.0, 127: 0.110384967, 128: 0.107648887, 129: 0.0, 130: 0.0, 131: 0.0, 132: 0.107648887, 133: 0.665384252, 134: 0.624105132, 135: 0.118712167, 136: 0.06680710199999999, 137: 1.415189132, 138: 0.0, 139: 0.117522567, 140: 0.0, 141: 1.424705932, 142: 0.0, 143: 0.0, 144: 0.0, 145: 0.0, 146: 0.09025365, 147: 0.0, 148: 0.350498345, 149: 0.356332879, 150: 0.0, 151: 0.0, 152: 0.788330375, 153: 0.237024109, 154: 0.246065429, 155: 0.0, 156: 0.400222412, 157: 0.517992812, 158: 1.421137132, 159: 0.0, 160: 0.0, 161: 0.902471532, 162: 1.415783932, 163: 1.426252412, 164: 0.0, 165: 0.0, 166: 0.0, 167: 1.377478812, 168: 1.423040492, 169: 0.0, 170: 0.0, 171: 1.425538652, 172: 1.424705932, 173: 1.434460652, 174: 1.434460652, 175: 0.125492887, 176: 1.424705932, 177: 0.116927767, 178: 1.433033132, 179: 1.436007132, 180: 1.434460652, 181: 1.425895532, 182: 0.117522567, 183: 0.0, 184: 0.0, 185: 0.789552175, 186: 0.060657279, 187: 0.0, 188: 0.065239029, 189: 0.7949280949999999, 190: 0.794317195, 191: 0.789735445];
earn = [0: 0.0, 1: 0.0, 2: 0.0, 3: 0.0, 4: 0.374058456, 5: 0.377980938, 6: 0.396942823, 7: 0.39191185, 8: 0.404612953, 9: 0.416337808, 10: 0.0, 11: 0.0, 12: 0.0, 13: 0.0, 14: 0.447575361, 15: 0.0, 16: 0.0, 17: 0.0, 18: 0.0, 19: 0.595113123, 20: 0.609172033, 21: 0.619936363, 22: 0.555722025, 23: 0.0, 24: 0.746521312, 25: 0.764241231, 26: 0.0, 27: 0.0, 28: 0.719526154, 29: 0.726390167, 30: 1.026173046, 31: 0.0, 32: 0.965703958, 33: 0.975349404, 34: 0.0, 35: 0.478420324, 36: 0.0, 37: 0.0, 38: 0.09203631700000001, 39: 0.894349488, 40: 0.268573588, 41: 0.0, 42: 0.590862146, 43: 0.0, 44: 0.524886575, 45: 0.052172218, 46: 0.0, 47: 0.0, 48: 0.100220003, 49: 0.123816242, 50: 0.130371453, 51: 0.043655665, 52: 0.302429837, 53: 0.0, 54: 0.0, 55: 0.0, 56: 0.039930812, 57: 0.0, 58: 0.210906619, 59: 0.0, 60: 0.0, 61: 0.453035663, 62: 0.0, 63: 0.08202725399999999, 64: 0.0, 65: 0.0, 66: 0.0, 67: 0.0, 68: 0.07290355499999999, 69: 0.797251833, 70: 0.744769547, 71: 0.0, 72: 0.9894724580000001, 73: 1.077535058, 74: 0.0, 75: 1.146515883, 76: 0.0, 77: 0.0, 78: 1.019070458, 79: 0.0, 80: 0.0, 81: 0.0, 82: 0.807129542, 83: 0.0, 84: 0.65844499, 85: 0.0, 86: 0.0, 87: 0.0, 88: 0.6714927040000001, 89: 0.0, 90: 0.0, 91: 0.0, 92: 0.0, 93: 0.0, 94: 0.0, 95: 0.0, 96: 0.0, 97: 0.0, 98: 0.0, 99: 0.0, 100: 0.0, 101: 0.423597923, 102: 0.0, 103: 0.417228054, 104: 0.0, 105: 0.389990043, 106: 0.0, 107: 0.0, 108: 0.0, 109: 0.374317907, 110: 0.0, 111: 0.366364096, 112: 0.0, 113: 0.0, 114: 0.373741087, 115: 0.373970271, 116: 0.0, 117: 0.4119118, 118: 0.0, 119: 0.0, 120: 0.5749340080000001, 121: 0.0, 122: 0.590155637, 123: 0.0, 124: 0.062990825, 125: 0.493761492, 126: 0.182038276, 127: 0.0, 128: 0.0, 129: 0.731738287, 130: 0.789749845, 131: 0.3046759, 132: 0.0, 133: 0.0, 134: 0.0, 135: 0.0, 136: 0.0, 137: 0.0, 138: 0.034650688, 139: 0.0, 140: -0.0, 141: 0.0, 142: -0.038010271, 143: -0.105476021, 144: -0.005287975, 145: -0.001459901, 146: -0.0, 147: 0.012991267, 148: 0.0, 149: 0.0, 150: 0.03926675, 151: 0.0102964, 152: 0.0, 153: 0.0, 154: 0.0, 155: 0.137028058, 156: 0.0, 157: 0.0, 158: 0.0, 159: 0.418400153, 160: 0.251462512, 161: 0.0, 162: 0.0, 163: 0.0, 164: 0.047401993, 165: 0.543774529, 166: 0.64612515, 167: 0.0, 168: 0.0, 169: 0.597599168, 170: 0.611391178, 171: 0.0, 172: 0.0, 173: 0.0, 174: 0.0, 175: 0.0, 176: 0.0, 177: 0.0, 178: 0.0, 179: 0.0, 180: 0.0, 181: 0.0, 182: 0.0, 183: 0.357567458, 184: 0.387067368, 185: 0.0, 186: 0.0, 187: 0.3518907, 188: 0.0, 189: 0.0, 190: 0.0, 191: 0.0];
total_cost = 88.78372452000001;
total_earn = 34.643393888;
