production = [0: 0.0, 1: 0.0, 2: 0.0, 3: 0.0, 4: 0.0, 5: 0.0, 6: 0.0, 7: 0.0, 8: 0.0, 9: 0.0, 10: 0.0, 11: 0.0, 12: 0.0, 13: 0.0, 14: 0.0, 15: 0.0, 16: 0.0, 17: 0.0, 18: 0.0, 19: 0.0, 20: 0.0, 21: 0.0, 22: 0.001, 23: 0.0025, 24: 0.0, 25: 0.0, 26: 0.0, 27: 0.1487, 28: 0.1915, 29: 0.0, 30: 0.0, 31: 0.5125, 32: 0.583, 33: 0.0, 34: 0.5523, 35: 0.0, 36: 0.0, 37: 0.9862, 38: 1.3553, 39: 1.4325, 40: 1.4352, 41: 0.0, 42: 1.0175, 43: 0.0, 44: 0.0, 45: 0.0, 46: 0.9918, 47: 0.0, 48: 0.9945000000000001, 49: 1.0485, 50: 1.0497, 51: 0.0, 52: 1.1365, 53: 0.0, 54: 0.0, 55: 0.0, 56: 0.6425, 57: 0.0, 58: 0.0, 59: 0.0, 60: 0.2923, 61: 0.0, 62: 0.0, 63: 0.26, 64: 0.0, 65: 0.0, 66: 0.0, 67: 0.0, 68: 0.0, 69: 0.1128, 70: 0.0, 71: 0.0462, 72: 0.0, 73: 0.0, 74: 0.0, 75: 0.0003, 76: 0.0, 77: 0.0, 78: 0.0, 79: 0.0, 80: 0.0, 81: 0.0, 82: 0.0, 83: 0.0, 84: 0.0, 85: 0.0, 86: 0.0, 87: 0.0, 88: 0.0, 89: 0.0, 90: 0.0, 91: 0.0, 92: 0.0, 93: 0.0, 94: 0.0, 95: 0.0, 96: 0.0, 97: 0.0, 98: 0.0, 99: 0.0, 100: 0.0, 101: 0.0, 102: 0.0, 103: 0.0, 104: 0.0, 105: 0.0, 106: 0.0, 107: 0.0, 108: 0.0, 109: 0.0, 110: 0.0, 111: 0.0, 112: 0.0, 113: 0.0, 114: 0.0, 115: 0.0, 116: 0.0, 117: 0.0, 118: 0.0003, 119: 0.0018, 120: 0.0, 121: 0.0455, 122: 0.0, 123: 0.1557, 124: 0.1998, 125: 0.2597, 126: 0.0, 127: 0.0, 128: 0.6693, 129: 0.6215000000000001, 130: 0.8263, 131: 0.0, 132: 0.707, 133: 0.0, 134: 0.674, 135: 0.6825, 136: 0.0, 137: 0.7815, 138: 0.0, 139: 0.76, 140: 0.0, 141: 0.7765, 142: 0.8257, 143: 0.8147, 144: 0.8263, 145: 0.0, 146: 0.0, 147: 0.8185, 148: 0.7133, 149: 0.0, 150: 0.0, 151: 0.0, 152: 1.0917, 153: 0.0, 154: 0.8698, 155: 0.0, 156: 0.0, 157: 0.0, 158: 0.7448, 159: 0.0, 160: 0.0, 161: 0.4325, 162: 0.294, 163: 0.1953, 164: 0.0, 165: 0.0, 166: 0.0725, 167: 0.0, 168: 0.0, 169: 0.0, 170: 0.0003, 171: 0.0, 172: 0.0, 173: 0.0, 174: 0.0, 175: 0.0, 176: 0.0, 177: 0.0, 178: 0.0, 179: 0.0, 180: 0.0, 181: 0.0, 182: 0.0, 183: 0.0, 184: 0.0, 185: 0.0, 186: 0.0, 187: 0.0, 188: 0.0, 189: 0.0, 190: 0.0, 191: 0.0];
buy = [0: 1.111091667, 1: 0.303991667, 2: 0.0, 3: 0.294991667, 4: 1.289491667, 5: 1.286991667, 6: 0.326237223, 7: 1.268291667, 8: 0.0, 9: 1.231291667, 10: 1.210791667, 11: 0.0, 12: 0.0, 13: 0.224991667, 14: 1.216991667, 15: 1.208591667, 16: 1.220791667, 17: 0.104791667, 18: 1.096791667, 19: 0.089991667, 20: 0.0, 21: 1.104291667, 22: 0.099791667, 23: 1.088491667, 24: 0.0, 25: 0.081491667, 26: 1.087791667, 27: 0.0, 28: 0.0, 29: 0.078291667, 30: 0.0, 31: 0.585791667, 32: 0.0, 33: 0.0, 34: 0.0, 35: 0.0, 36: 1.098491667, 37: 0.0, 38: 0.0, 39: 0.0, 40: 0.0, 41: 1.124091667, 42: 0.0, 43: 0.128291667, 44: 0.0, 45: 0.0, 46: 0.171991667, 47: 1.170591667, 48: 0.187591667, 49: 0.0, 50: 0.104591667, 51: 1.479091667, 52: 0.0, 53: 0.0, 54: 1.157584732, 55: 1.606091667, 56: 0.178491667, 57: 1.399791667, 58: 0.417591667, 59: 0.0, 60: 0.424690122, 61: 0.0, 62: 0.0, 63: 0.0, 64: 0.0, 65: 1.181591667, 66: 1.190791667, 67: 0.0, 68: 0.0, 69: 0.992691667, 70: 0.118991667, 71: 0.0, 72: 0.0, 73: 0.0, 74: 1.088991667, 75: 1.095991667, 76: 0.0, 77: 0.095991667, 78: 0.087991667, 79: 0.08979166700000001, 80: 1.096791667, 81: 1.096991667, 82: 0.0, 83: 0.0, 84: 0.0, 85: 0.098491667, 86: 1.105791667, 87: 0.109591667, 88: 1.098791667, 89: 0.279091667, 90: 1.319791667, 91: 1.318991667, 92: 1.317491667, 93: 1.280291667, 94: 0.0, 95: 0.258791667, 96: 0.0, 97: 1.062330678, 98: 0.0, 99: 0.0, 100: 1.228791667, 101: 0.0, 102: 0.222791667, 103: 1.222791667, 104: 1.222991667, 105: 1.228991667, 106: 0.0, 107: 1.223291667, 108: 0.0, 109: 1.222991667, 110: 1.233291667, 111: 0.0, 112: 1.223791667, 113: 0.0, 114: 1.231291667, 115: 0.0, 116: 0.0, 117: 1.224291667, 118: 1.223991667, 119: 0.0, 120: 0.0, 121: 0.0, 122: 1.090791667, 123: 0.0, 124: 0.901791667, 125: 0.0, 126: 0.09959166699999999, 127: 0.09279166699999999, 128: 0.0, 129: 0.477491667, 130: 0.0, 131: 0.100291667, 132: 0.383491667, 133: 1.091791667, 134: 0.425291667, 135: 0.0, 136: 0.090491667, 137: 0.0, 138: 1.092291667, 139: 0.0, 140: 0.0, 141: 0.321791667, 142: 0.0, 143: 0.274791667, 144: 0.0, 145: 1.099791667, 146: 0.0, 147: 0.0, 148: 0.0, 149: 0.0, 150: 0.0, 151: 0.0, 152: 0.005291667, 153: 1.387991667, 154: 0.0, 155: 1.375791667, 156: 1.095291667, 157: 1.095291667, 158: 0.350491667, 159: 0.0, 160: 1.102791667, 161: 0.0, 162: 0.0, 163: 0.904291667, 164: 0.101291667, 165: 1.102091667, 166: 0.0, 167: 0.094291667, 168: 1.100591667, 169: 0.106991667, 170: 0.312534252, 171: 1.098991667, 172: 0.0, 173: 0.0, 174: 1.106491667, 175: 0.0, 176: 0.098291667, 177: 0.0, 178: 0.105291667, 179: 0.0, 180: 1.106491667, 181: 0.0, 182: 1.098791667, 183: 1.106991667, 184: 1.106991667, 185: 0.09899166700000001, 186: 1.099291667, 187: 0.0, 188: 0.0, 189: 0.0, 190: 1.106791667, 191: 1.099291667];
sell = [0: 0.0, 1: 0.0, 2: 0.593008333, 3: 0.0, 4: 0.0, 5: 0.0, 6: 0.0, 7: 0.0, 8: 0.659408333, 9: 0.0, 10: 0.0, 11: 0.6862083329999999, 12: 0.676508333, 13: 0.0, 14: 0.0, 15: 0.0, 16: 0.0, 17: 0.0, 18: 0.0, 19: 0.0, 20: 0.8092083329999999, 21: 0.0, 22: 0.0, 23: 0.0, 24: 0.825708333, 25: 0.0, 26: 0.0, 27: 0.968208333, 28: 1.012408333, 29: 0.0, 30: 0.812408333, 31: 0.0, 32: 1.392708333, 33: 0.810008333, 34: 0.454008333, 35: 0.0, 36: 0.0, 37: 1.771108333, 38: 0.186308333, 39: 2.187208333, 40: 0.289408333, 41: 0.0, 42: 0.893208333, 43: 0.0, 44: 0.749208333, 45: 0.726408333, 46: 0.0, 47: 0.0, 48: 0.0, 49: 1.788208333, 50: 0.0, 51: 0.0, 52: 0.991408333, 53: 0.395008333, 54: 0.0, 55: 0.0, 56: 0.0, 57: 0.0, 58: 0.0, 59: 0.431408333, 60: 0.0, 61: 0.0, 62: 0.770708333, 63: 0.119208333, 64: 0.741208333, 65: 0.0, 66: 0.0, 67: 0.773208333, 68: 0.781208333, 69: 0.0, 70: 0.0, 71: 0.8354083329999999, 72: 0.799408333, 73: 0.811008333, 74: 0.0, 75: 0.0, 76: 0.803008333, 77: 0.0, 78: 0.0, 79: 0.0, 80: 0.0, 81: 0.0, 82: 0.8102083329999999, 83: 0.819008333, 84: 0.8012083330000001, 85: 0.0, 86: 0.0, 87: 0.0, 88: 0.0, 89: 0.0, 90: 0.0, 91: 0.0, 92: 0.0, 93: 0.0, 94: 0.649008333, 95: 0.0, 96: 0.667708333, 97: 0.0, 98: 0.679708333, 99: 0.6802083330000001, 100: 0.0, 101: 0.669508333, 102: 0.0, 103: 0.0, 104: 0.0, 105: 0.0, 106: 0.670708333, 107: 0.0, 108: 0.676708333, 109: 0.0, 110: 0.0, 111: 0.667208333, 112: 0.0, 113: 0.675708333, 114: 0.0, 115: 0.667208333, 116: 0.672208333, 117: 0.0, 118: 0.0, 119: 0.670508333, 120: 0.793208333, 121: 0.842908333, 122: 0.0, 123: 0.964708333, 124: 0.0, 125: 1.058408333, 126: 0.0, 127: 0.0, 128: 1.478808333, 129: 0.0, 130: 0.727008333, 131: 0.0, 132: 0.0, 133: 0.0, 134: 0.0, 135: 1.482708333, 136: 0.0, 137: 1.591208333, 138: 0.0, 139: 1.561208333, 140: 0.8012083330000001, 141: 0.0, 142: 1.635208333, 143: 0.0, 144: 0.0, 145: 0.0, 146: 0.809708333, 147: 1.623908333, 148: 1.519708333, 149: 0.316708333, 150: 0.342708333, 151: 0.07050833300000001, 152: 0.0, 153: 0.0, 154: 0.467008333, 155: 0.0, 156: 0.0, 157: 0.0, 158: 0.0, 159: 0.797408333, 160: 0.0, 161: 1.240708333, 162: 1.103208333, 163: 0.0, 164: 0.0, 165: 0.0, 166: 0.875508333, 167: 0.0, 168: 0.0, 169: 0.0, 170: 0.0, 171: 0.0, 172: 0.801708333, 173: 0.793508333, 174: 0.0, 175: 0.794508333, 176: 0.0, 177: 0.0, 178: 0.0, 179: 0.792208333, 180: 0.0, 181: 0.800708333, 182: 0.0, 183: 0.0, 184: 0.0, 185: 0.0, 186: 0.0, 187: 0.0, 188: 0.793208333, 189: 0.792208333, 190: 0.0, 191: 0.0];
charge = [0: 1.0, 1: 0.0, 2: 0.0, 3: 0.0, 4: 1.0, 5: 1.0, 6: 0.065745557, 7: 1.0, 8: 0.0, 9: 1.0, 10: 1.0, 11: 0.0, 12: 0.0, 13: 0.0, 14: 1.0, 15: 1.0, 16: 1.0, 17: 0.0, 18: 1.0, 19: 0.0, 20: 0.0, 21: 1.0, 22: 0.0, 23: 1.0, 24: 0.0, 25: 0.0, 26: 1.0, 27: 0.0, 28: 0.0, 29: 0.0, 30: 0.0, 31: 1.0, 32: 0.0, 33: 0.0, 34: 0.0, 35: 0.0, 36: 1.0, 37: 0.0, 38: 1.0, 39: 0.0, 40: 1.0, 41: 1.0, 42: 0.0, 43: 0.0, 44: 0.0, 45: 0.0, 46: 1.0, 47: 1.0, 48: 1.0, 49: 0.0, 50: 1.0, 51: 1.0, 52: 0.0, 53: 0.0, 54: 0.553793066, 55: 1.0, 56: 0.0, 57: 1.0, 58: 0.0, 59: 0.0, 60: 0.598698456, 61: 0.0, 62: 0.0, 63: 0.0, 64: 0.0, 65: 1.0, 66: 1.0, 67: 0.0, 68: 0.0, 69: 1.0, 70: 0.0, 71: 0.0, 72: 0.0, 73: 0.0, 74: 1.0, 75: 1.0, 76: 0.0, 77: 0.0, 78: 0.0, 79: 0.0, 80: 1.0, 81: 1.0, 82: 0.0, 83: 0.0, 84: 0.0, 85: 0.0, 86: 1.0, 87: 0.0, 88: 1.0, 89: 0.0, 90: 1.0, 91: 1.0, 92: 1.0, 93: 1.0, 94: 0.0, 95: 0.0, 96: 0.0, 97: 0.830339011, 98: 0.0, 99: 0.0, 100: 1.0, 101: 0.0, 102: 0.0, 103: 1.0, 104: 1.0, 105: 1.0, 106: 0.0, 107: 1.0, 108: 0.0, 109: 1.0, 110: 1.0, 111: 0.0, 112: 1.0, 113: 0.0, 114: 1.0, 115: 0.0, 116: 0.0, 117: 1.0, 118: 1.0, 119: 0.0, 120: 0.0, 121: 0.0, 122: 1.0, 123: 0.0, 124: 1.0, 125: 0.0, 126: 0.0, 127: 0.0, 128: 0.0, 129: 1.0, 130: 0.0, 131: 0.0, 132: 1.0, 133: 1.0, 134: 1.0, 135: 0.0, 136: 0.0, 137: 0.0, 138: 1.0, 139: 0.0, 140: 0.0, 141: 1.0, 142: 0.0, 143: 1.0, 144: 0.727508333, 145: 1.0, 146: 0.0, 147: 0.0, 148: 0.0, 149: 0.0, 150: 0.0, 151: 0.0, 152: 1.0, 153: 1.0, 154: 0.0, 155: 1.0, 156: 1.0, 157: 1.0, 158: 1.0, 159: 0.0, 160: 1.0, 161: 0.0, 162: 0.0, 163: 1.0, 164: 0.0, 165: 1.0, 166: 0.0, 167: 0.0, 168: 1.0, 169: 0.0, 170: 0.206342585, 171: 1.0, 172: 0.0, 173: 0.0, 174: 1.0, 175: 0.0, 176: 0.0, 177: 0.0, 178: 0.0, 179: 0.0, 180: 1.0, 181: 0.0, 182: 1.0, 183: 1.0, 184: 1.0, 185: 0.0, 186: 1.0, 187: 0.0, 188: 0.0, 189: 0.0, 190: 1.0, 191: 1.0];
discharge = [0: 0.0, 1: 0.0, 2: 1.0, 3: 0.0, 4: 0.0, 5: 0.0, 6: 0.0, 7: 0.0, 8: 1.0, 9: 0.0, 10: 0.0, 11: 1.0, 12: 1.0, 13: 0.0, 14: 0.0, 15: 0.0, 16: 0.0, 17: 0.0, 18: 0.0, 19: 0.0, 20: 1.0, 21: 0.0, 22: 0.0, 23: 0.0, 24: 1.0, 25: 0.0, 26: 0.0, 27: 1.0, 28: 1.0, 29: 0.0, 30: 1.0, 31: 0.0, 32: 1.0, 33: 1.0, 34: 0.0, 35: 0.109435185, 36: 0.0, 37: 1.0, 38: 0.0, 39: 1.0, 40: 0.0, 41: 0.0, 42: 0.0, 43: 0.0, 44: 1.0, 45: 1.0, 46: 0.0, 47: 0.0, 48: 0.0, 49: 1.0, 50: 0.0, 51: 0.0, 52: 0.0, 53: 1.0, 54: 0.0, 55: 0.0, 56: 0.0, 57: 0.0, 58: 0.0, 59: 1.0, 60: 0.0, 61: 0.146101852, 62: 1.0, 63: 0.0, 64: 1.0, 65: 0.0, 66: 0.0, 67: 1.0, 68: 1.0, 69: 0.0, 70: 0.0, 71: 1.0, 72: 1.0, 73: 1.0, 74: 0.0, 75: 0.0, 76: 1.0, 77: 0.0, 78: 0.0, 79: 0.0, 80: 0.0, 81: 0.0, 82: 1.0, 83: 1.0, 84: 1.0, 85: 0.0, 86: 0.0, 87: 0.0, 88: 0.0, 89: 0.0, 90: 0.0, 91: 0.0, 92: 0.0, 93: 0.0, 94: 1.0, 95: 0.0, 96: 1.0, 97: 0.0, 98: 1.0, 99: 1.0, 100: 0.0, 101: 1.0, 102: 0.0, 103: 0.0, 104: 0.0, 105: 0.0, 106: 1.0, 107: 0.0, 108: 1.0, 109: 0.0, 110: 0.0, 111: 1.0, 112: 0.0, 113: 1.0, 114: 0.0, 115: 1.0, 116: 1.0, 117: 0.0, 118: 0.0, 119: 1.0, 120: 1.0, 121: 1.0, 122: 0.0, 123: 1.0, 124: 0.0, 125: 1.0, 126: 0.0, 127: 0.0, 128: 1.0, 129: 0.0, 130: 0.0, 131: 0.0, 132: 0.0, 133: 0.0, 134: 0.0, 135: 1.0, 136: 0.0, 137: 1.0, 138: 0.0, 139: 1.0, 140: 1.0, 141: 0.0, 142: 1.0, 143: 0.0, 144: 0.0, 145: 0.0, 146: 1.0, 147: 1.0, 148: 1.0, 149: 1.0, 150: 1.0, 151: 1.0, 152: 0.0, 153: 0.0, 154: 0.0, 155: 0.0, 156: 0.0, 157: 0.0, 158: 0.0, 159: 1.0, 160: 0.0, 161: 1.0, 162: 1.0, 163: 0.0, 164: 0.0, 165: 0.0, 166: 1.0, 167: 0.0, 168: 0.0, 169: 0.0, 170: 0.0, 171: 0.0, 172: 1.0, 173: 1.0, 174: 0.0, 175: 1.0, 176: 0.0, 177: 0.109212963, 178: 0.0, 179: 1.0, 180: 0.0, 181: 1.0, 182: 0.0, 183: 0.0, 184: 0.0, 185: 0.0, 186: 0.0, 187: 0.109768519, 188: 1.0, 189: 1.0, 190: 0.0, 191: 0.0];
soc = [0: 10.768026, 1: 10.765873016, 2: 9.76371922, 3: 9.761766476, 4: 10.659814123, 5: 11.55768216, 6: 11.614541625, 7: 12.512218717, 8: 11.509716273, 9: 12.40741433, 10: 13.304932847, 11: 12.30227186, 12: 11.299811406, 13: 11.297551443, 14: 12.195291933, 15: 13.092852875, 16: 13.990234304, 17: 13.987436257, 18: 14.88463877, 19: 14.881661842, 20: 13.87868551, 21: 14.775909773, 22: 14.772954591, 23: 15.67, 24: 14.666866, 25: 14.663932627, 26: 15.56099984, 27: 14.55788764, 28: 13.554976063, 29: 13.552265068, 30: 12.549554615, 31: 13.447044704, 32: 12.444355295, 33: 11.441866424, 34: 11.43957805, 35: 11.32785495, 36: 12.225589379, 37: 11.223144261, 38: 12.120899632, 39: 11.118475452, 40: 12.016251757, 41: 12.913848506, 42: 12.911265737, 43: 12.908683484, 44: 11.906101747, 45: 10.903720527, 46: 11.801539782, 47: 12.699179475, 48: 13.596639639, 49: 12.593920311, 50: 13.491401527, 51: 14.388703246, 52: 14.385825506, 53: 13.382948341, 54: 13.87868551, 55: 14.775909773, 56: 14.772954591, 57: 15.67, 58: 15.666866, 59: 14.663732627, 60: 15.19962849, 61: 15.050486713, 62: 14.047476616, 63: 14.04466712, 64: 13.041858187, 65: 13.939249815, 66: 14.836461965, 67: 13.833494673, 68: 12.830727974, 69: 13.728161828, 70: 13.725416196, 71: 12.722671113, 72: 11.720126578, 73: 10.717782553, 74: 11.615638997, 75: 12.513315869, 76: 11.510813206, 77: 11.508511043, 78: 11.506209341, 79: 11.503908099, 80: 12.401607317, 81: 13.299126996, 82: 12.29646717, 83: 11.294007877, 84: 10.291749075, 85: 10.289690726, 86: 11.187632788, 87: 11.185395261, 88: 12.083158182, 89: 12.08074155, 90: 12.978325402, 91: 13.875729737, 92: 14.772954591, 93: 15.67, 94: 14.666866, 95: 14.663932627, 96: 13.66099984, 97: 14.40557275, 98: 13.402691636, 99: 12.400011097, 100: 13.297531095, 101: 12.294871589, 102: 12.292412615, 103: 13.189954132, 104: 14.087316141, 105: 14.984498678, 106: 13.981501778, 107: 14.878705478, 108: 13.875729737, 109: 14.772954591, 110: 15.67, 111: 14.666866, 112: 15.563932627, 113: 14.56081984, 114: 15.457907676, 115: 14.454816095, 116: 13.451925132, 117: 14.349234747, 118: 15.2463649, 119: 14.243315627, 120: 13.240466963, 121: 12.23781887, 122: 13.135371306, 123: 12.132744232, 124: 13.030317683, 125: 12.02771162, 126: 12.025306077, 127: 12.022901016, 128: 11.020496436, 129: 11.918292337, 130: 11.915908678, 131: 11.913525496, 132: 12.811142791, 133: 13.708580563, 134: 14.605838847, 135: 13.602917679, 136: 13.600197095, 137: 12.597477056, 138: 13.494957561, 139: 12.492258569, 140: 11.489760117, 141: 12.387462165, 142: 11.384984673, 143: 12.282707676, 144: 12.935008634, 145: 13.832421633, 146: 12.829655148, 147: 11.827089217, 148: 10.824723799, 149: 9.822558855, 150: 8.820594343, 151: 7.818830224, 152: 8.717266457999999, 153: 9.615523005, 154: 9.613599900000001, 155: 10.51167718, 156: 11.409574845, 157: 12.30729293, 158: 13.204831471, 159: 12.202190505, 160: 13.099750067, 161: 12.097130117, 162: 11.094710691, 163: 11.992491749, 164: 11.99009325, 165: 12.887695232, 166: 11.885117693, 167: 11.882740669, 168: 12.780364121, 169: 12.777808048, 170: 12.960960813, 171: 13.858368621, 172: 12.855596947, 173: 11.853025828, 174: 12.750655223, 175: 11.748105092, 176: 11.745755471, 177: 11.634193357, 178: 11.631866518, 179: 10.629540145, 180: 11.527414237, 181: 10.525108754, 182: 11.423003732, 183: 12.320719131, 184: 13.218254987, 185: 13.215611336, 186: 14.112968214, 187: 14.000377102, 188: 12.997577027, 189: 11.994977511, 190: 12.892578516, 191: 13.79];
cost = [0: 0.796944065, 1: 0.185708509, 2: 0.0, 3: 0.180210409, 4: 0.905928625, 5: 0.904401375, 6: 0.207068009, 7: 0.892977545, 8: 0.0, 9: 0.870374245, 10: 0.8578507950000001, 11: 0.0, 12: 0.0, 13: 0.137447409, 14: 0.861638375, 15: 0.856506815, 16: 0.863959795, 17: 0.06401722899999999, 18: 0.7882081949999999, 19: 0.054975909, 20: 0.0, 21: 0.792789945, 22: 0.060962729, 23: 0.783137725, 24: 0.0, 25: 0.09694248699999999, 26: 1.412215132, 27: 0.0, 28: 0.0, 29: 0.09313576699999999, 30: 0.0, 31: 0.815035932, 32: 0.0, 33: 0.0, 34: 0.0, 35: 0.0, 36: 1.424943852, 37: 0.0, 38: 0.118178165, 39: 0.0, 40: 0.118178165, 41: 1.455397612, 42: 0.0, 43: 0.152615767, 44: 0.0, 45: 0.0, 46: 0.322779452, 47: 1.510714012, 48: 0.341337212, 49: 0.0, 50: 0.242600412, 51: 1.877705612, 52: 0.0, 53: 0.0, 54: 0.772614761, 55: 1.099339565, 56: 0.109040559, 57: 0.973310895, 58: 0.255106749, 59: 0.0, 60: 0.575964455, 61: 0.0, 62: 0.0, 63: 0.0, 64: 0.0, 65: 1.523799612, 66: 1.534743932, 67: 0.0, 68: 0.0, 69: 1.299084172, 70: 0.141552487, 71: 0.0, 72: 0.0, 73: 0.0, 74: 1.413642652, 75: 1.421969852, 76: 0.0, 77: 0.114191687, 78: 0.104674887, 79: 0.106816167, 80: 1.422921532, 81: 1.423159452, 82: 0.0, 83: 0.0, 84: 0.0, 85: 0.117165687, 86: 1.433627932, 87: 0.130370247, 88: 0.789429995, 89: 0.170497099, 90: 0.924438895, 91: 0.923950175, 92: 0.923033825, 93: 0.900308345, 94: 0.0, 95: 0.158095829, 96: 0.0, 97: 0.747105752, 98: 0.0, 99: 0.0, 100: 0.868846995, 101: 0.0, 102: 0.136103429, 103: 0.865181595, 104: 0.865303775, 105: 0.868969175, 106: 0.0, 107: 0.865487045, 108: 0.0, 109: 0.865303775, 110: 0.871596045, 111: 0.0, 112: 0.865792495, 113: 0.0, 114: 0.870374245, 115: 0.0, 116: 0.0, 117: 0.866097945, 118: 0.865914675, 119: 0.0, 120: 0.0, 121: 0.0, 122: 1.415783932, 123: 0.0, 124: 1.190949532, 125: 0.0, 126: 0.118474247, 127: 0.110384967, 128: 0.0, 129: 0.686202252, 130: 0.0, 131: 0.119306967, 132: 0.574379852, 133: 1.416973532, 134: 0.624105132, 135: 0.0, 136: 0.107648887, 137: 0.0, 138: 1.417568332, 139: 0.0, 140: 0.0, 141: 0.500981532, 142: 0.0, 143: 0.445070332, 144: 0.0859756, 145: 1.426490332, 146: 0.0, 147: 0.0, 148: 0.0, 149: 0.0, 150: 0.0, 151: 0.0, 152: 0.121410845, 153: 0.966102275, 154: 0.0, 155: 0.958649295, 156: 1.421137132, 157: 1.421137132, 158: 0.535123052, 159: 0.0, 160: 1.430059132, 161: 0.0, 162: 0.0, 163: 1.193923532, 164: 0.120496567, 165: 1.429226412, 166: 0.0, 167: 0.112169367, 168: 1.427442012, 169: 0.127277287, 170: 0.396175934, 171: 1.425538652, 172: 0.0, 173: 0.0, 174: 1.434460652, 175: 0.0, 176: 0.116927767, 177: 0.0, 178: 0.125254967, 179: 0.0, 180: 1.434460652, 181: 0.0, 182: 1.425300732, 183: 1.435055452, 184: 0.7944393749999999, 185: 0.060474009, 186: 0.789735445, 187: 0.0, 188: 0.0, 189: 0.0, 190: 0.794317195, 191: 0.789735445];
earn = [0: 0.0, 1: 0.0, 2: 0.372587136, 3: 0.0, 4: 0.0, 5: 0.0, 6: 0.0, 7: 0.0, 8: 0.404612953, 9: 0.0, 10: 0.0, 11: 0.435193325, 12: 0.436009621, 13: 0.0, 14: 0.0, 15: 0.0, 16: 0.0, 17: 0.0, 18: 0.0, 19: 0.0, 20: 0.609172033, 21: 0.0, 22: 0.0, 23: 0.0, 24: 0.730421592, 25: 0.0, 26: 0.0, 27: 0.911084042, 28: 0.887375904, 29: 0.0, 30: 0.715163056, 31: 0.0, 32: 0.965703958, 33: 0.549590654, 34: 0.285798246, 35: 0.0, 36: 0.0, 37: 0.916548562, 38: 0.09203631700000001, 39: 0.894349488, 40: 0.103058307, 41: 0.0, 42: 0.294312146, 43: 0.0, 44: 0.170369975, 45: 0.140632653, 46: 0.0, 47: 0.0, 48: 0.0, 49: 0.249276242, 50: 0.0, 51: 0.0, 52: 0.341936734, 53: 0.144889057, 54: 0.0, 55: 0.0, 56: 0.0, 57: 0.0, 58: 0.0, 59: 0.232529092, 60: 0.0, 61: 0.0, 62: 0.494717679, 63: 0.08202725399999999, 64: 0.514620946, 65: 0.0, 66: 0.0, 67: 0.655139421, 68: 0.636997275, 69: 0.0, 70: 0.0, 71: 0.857964358, 72: 0.9744787579999999, 73: 1.076208058, 74: 0.0, 75: 0.0, 76: 1.044713842, 77: 0.0, 78: 0.0, 79: 0.0, 80: 0.0, 81: 0.0, 82: 0.807129542, 83: 0.756436097, 84: 0.675658988, 85: 0.0, 86: 0.0, 87: 0.0, 88: 0.0, 89: 0.0, 90: 0.0, 91: 0.0, 92: 0.0, 93: 0.0, 94: 0.474684695, 95: 0.0, 96: 0.491633646, 97: 0.0, 98: 0.489593913, 99: 0.483832188, 100: 0.0, 101: 0.423597923, 102: 0.0, 103: 0.0, 104: 0.0, 105: 0.0, 106: 0.388809621, 107: 0.0, 108: 0.376317504, 109: 0.0, 110: 0.0, 111: 0.366364096, 112: 0.0, 113: 0.374342417, 114: 0.0, 115: 0.373970271, 116: 0.404198871, 117: 0.0, 118: 0.0, 119: 0.41678798, 120: 0.562384708, 121: 0.609001271, 122: 0.0, 123: 0.685039388, 124: 0.0, 125: 0.654308032, 126: 0.0, 127: 0.0, 128: 0.814083988, 129: 0.0, 130: 0.352889845, 131: 0.0, 132: 0.0, 133: 0.0, 134: 0.0, 135: 0.397958917, 136: 0.0, 137: 0.125864579, 138: 0.0, 139: 0.051051513, 140: -0.0, 141: 0.0, 142: -0.084540271, 143: 0.0, 144: 0.0, 145: 0.0, 146: -0.0, 147: 0.012991267, 148: 0.015956938, 149: 0.005415713, 150: 0.00945875, 151: 0.0033844, 152: 0.0, 153: 0.0, 154: 0.101714415, 155: 0.0, 156: 0.0, 157: 0.0, 158: 0.0, 159: 0.418400153, 160: 0.0, 161: 0.736608538, 162: 0.666889438, 163: 0.0, 164: 0.0, 165: 0.0, 166: 0.64612515, 167: 0.0, 168: 0.0, 169: 0.0, 170: 0.0, 171: 0.0, 172: 0.568090525, 173: 0.583863432, 174: 0.0, 175: 0.567358401, 176: 0.0, 177: 0.0, 178: 0.0, 179: 0.4924367, 180: 0.0, 181: 0.422533788, 182: 0.0, 183: 0.0, 184: 0.0, 185: 0.0, 186: 0.0, 187: 0.0, 188: 0.325215417, 189: 0.304445663, 190: 0.0, 191: 0.0];
total_cost = 84.75814140200001;
total_earn = 34.571807084;
