production = [0: 0.0, 1: 0.0, 2: 0.0, 3: 0.0, 4: 0.0, 5: 0.0, 6: 0.0, 7: 0.0, 8: 0.0, 9: 0.0, 10: 0.0, 11: 0.0, 12: 0.0, 13: 0.0, 14: 0.0, 15: 0.0, 16: 0.0, 17: 0.0, 18: 0.0, 19: 0.0, 20: 0.0, 21: 0.0, 22: 0.0, 23: 0.0025, 24: 0.0182, 25: 0.0525, 26: 0.0927, 27: 0.0, 28: 0.0, 29: 0.2472, 30: 0.0, 31: 0.5125, 32: 0.583, 33: 0.0, 34: 0.5523, 35: 0.0, 36: 0.0, 37: 0.0, 38: 1.3553, 39: 1.4325, 40: 0.0, 41: 0.124091667, 42: 0.0, 43: 1.0562, 44: 1.559, 45: 0.0, 46: 0.9918, 47: 0.9892, 48: 0.9945000000000001, 49: 0.0, 50: 0.0, 51: 0.0, 52: 0.0, 53: 0.8395, 54: 0.603791667, 55: 0.0, 56: 0.6425, 57: 0.4923, 58: 0.0, 59: 0.435, 60: 0.2923, 61: 0.0, 62: 0.2948, 63: 0.0, 64: 0.2777, 65: 0.0, 66: 0.2355, 67: 0.0, 68: 0.2082, 69: 0.1128, 70: 0.068, 71: 0.0462, 72: 0.0, 73: 0.0, 74: 0.0, 75: 0.0003, 76: 0.0, 77: 0.0, 78: 0.0, 79: 0.0, 80: 0.0, 81: 0.0, 82: 0.0, 83: 0.0, 84: 0.0, 85: 0.0, 86: 0.0, 87: 0.0, 88: 0.0, 89: 0.0, 90: 0.0, 91: 0.0, 92: 0.0, 93: 0.0, 94: 0.0, 95: 0.0, 96: 0.0, 97: 0.0, 98: 0.0, 99: 0.0, 100: 0.0, 101: 0.0, 102: 0.0, 103: 0.0, 104: 0.0, 105: 0.0, 106: 0.0, 107: 0.0, 108: 0.0, 109: 0.0, 110: 0.0, 111: 0.0, 112: 0.0, 113: 0.0, 114: 0.0, 115: 0.0, 116: 0.0, 117: 0.0, 118: 0.0, 119: 0.0, 120: 0.0177, 121: 0.0455, 122: 0.0, 123: 0.1557, 124: 0.1998, 125: 0.0, 126: 0.0, 127: 0.5978, 128: 0.0, 129: 0.0, 130: 0.0, 131: 0.0, 132: 0.707, 133: 0.0, 134: 0.0, 135: 0.0, 136: 0.0, 137: 0.0, 138: 0.0, 139: 0.0, 140: 0.8732, 141: 0.098291667, 142: 0.8257, 143: 0.8147, 144: 0.8263, 145: 0.7558, 146: 0.0, 147: 0.0, 148: 0.0, 149: 0.8672, 150: 0.0, 151: 0.0, 152: 0.0, 153: 0.972, 154: 0.8698, 155: 0.0, 156: 0.0, 157: 0.0, 158: 0.0, 159: 0.0, 160: 0.0, 161: 0.0, 162: 0.294, 163: 0.0, 164: 0.0, 165: 0.0, 166: 0.0, 167: 0.0357, 168: 0.0037, 169: 0.0003, 170: 0.0003, 171: 0.0, 172: 0.0, 173: 0.0, 174: 0.0, 175: 0.0, 176: 0.0, 177: 0.0, 178: 0.0, 179: 0.0, 180: 0.0, 181: 0.0, 182: 0.0, 183: 0.0, 184: 0.0, 185: 0.0, 186: 0.0, 187: 0.0, 188: 0.0, 189: 0.0, 190: 0.0, 191: 0.0];
buy = [0: 1.111091667, 1: 0.0, 2: 0.0, 3: 1.294991667, 4: 0.0, 5: 0.0, 6: 1.260491667, 7: 1.268291667, 8: 1.240591667, 9: 0.0, 10: 0.0, 11: 1.213791667, 12: 0.223491667, 13: 0.0, 14: 0.216991667, 15: 0.208591667, 16: 1.220791667, 17: 1.104791667, 18: 0.0, 19: 1.089991667, 20: 1.090791667, 21: 1.104291667, 22: 0.0, 23: 0.0, 24: 1.056091667, 25: 0.0, 26: 0.995091667, 27: 1.080491667, 28: 1.079091667, 29: 0.831091667, 30: 0.0, 31: 0.585791667, 32: 0.5072916669999999, 33: 1.089991667, 34: 0.0, 35: 0.0, 36: 1.098491667, 37: 0.0, 38: 0.0, 39: 0.0, 40: 0.0, 41: 0.0, 42: 1.124291667, 43: 0.0, 44: 0.0, 45: 1.173591667, 46: 0.0, 47: 0.0, 48: 0.0, 49: 0.0, 50: 1.154291667, 51: 0.0, 52: 0.0, 53: 0.0, 54: 0.0, 55: 1.606091667, 56: 0.178491667, 57: 0.0, 58: 0.0, 59: 1.033591667, 60: 0.825991667, 61: 1.131491667, 62: 0.834491667, 63: 0.0, 64: 0.881091667, 65: 1.181591667, 66: 0.955291667, 67: 1.126791667, 68: 0.0, 69: 0.992691667, 70: 0.0, 71: 1.064591667, 72: 0.0, 73: 1.088991667, 74: 0.088991667, 75: 0.0, 76: 0.0, 77: 0.0, 78: 0.0, 79: 0.08979166700000001, 80: 0.0, 81: 0.096991667, 82: 0.0, 83: 0.080991667, 84: 0.0, 85: 1.098491667, 86: 0.105791667, 87: 0.109591667, 88: 1.098791667, 89: 0.279091667, 90: 0.0, 91: 0.318991667, 92: 0.317491667, 93: 0.280291667, 94: 1.250991667, 95: 0.0, 96: 0.0, 97: 1.231991667, 98: 1.220291667, 99: 0.0, 100: 0.228791667, 101: 1.230491667, 102: 0.0, 103: 0.222791667, 104: 0.222991667, 105: 0.0, 106: 1.229291667, 107: 0.0, 108: 1.223291667, 109: 1.222991667, 110: 0.0, 111: 0.0, 112: 0.0, 113: 0.224291667, 114: 1.231291667, 115: 1.232791667, 116: 1.227791667, 117: 0.0, 118: 1.224291667, 119: 1.231291667, 120: 0.0, 121: 0.0, 122: 0.0, 123: 0.935291667, 124: 0.901791667, 125: 0.0, 126: 1.099591667, 127: 0.0, 128: 1.090491667, 129: 1.098991667, 130: 1.029497808, 131: 1.100291667, 132: 0.383491667, 133: 1.091791667, 134: 1.099291667, 135: 1.099791667, 136: 0.0, 137: 0.0, 138: 0.09229166699999999, 139: 0.0, 140: 0.225591667, 141: 0.0, 142: 0.0, 143: 0.0, 144: 0.0, 145: 0.343991667, 146: 1.078854311, 147: 0.0, 148: 1.093591667, 149: 0.0, 150: 1.557291667, 151: 1.829491667, 152: 0.096991667, 153: 0.0, 154: 0.532991667, 155: 0.0, 156: 0.0, 157: 1.095291667, 158: 1.095291667, 159: 0.102591667, 160: 0.102791667, 161: 0.0, 162: 0.0, 163: 0.0, 164: 0.0, 165: 1.102091667, 166: 0.0, 167: 1.009407757, 168: 1.096891667, 169: 1.106691667, 170: 1.106191667, 171: 1.098991667, 172: 0.0, 173: 0.0, 174: 0.0, 175: 0.105491667, 176: 0.098291667, 177: 0.0, 178: 1.105291667, 179: 0.0, 180: 0.106491667, 181: 0.099291667, 182: 1.098791667, 183: 0.0, 184: 1.106991667, 185: 1.098991667, 186: 0.099291667, 187: 0.098791667, 188: 0.106791667, 189: 0.107791667, 190: 0.0, 191: 1.099291667];
sell = [0: 0.0, 1: 0.596008333, 2: 0.593008333, 3: 0.0, 4: 0.610508333, 5: 0.613008333, 6: 0.0, 7: 0.0, 8: 0.0, 9: 0.649257038, 10: 0.689208333, 11: 0.0, 12: 0.0, 13: 0.0, 14: 0.0, 15: 0.0, 16: 0.0, 17: 0.0, 18: 0.8032083330000001, 19: 0.0, 20: 0.0, 21: 0.0, 22: 0.799208333, 23: 0.811508333, 24: 0.0, 25: 0.871008333, 26: 0.0, 27: 0.0, 28: 0.0, 29: 0.0, 30: 0.812408333, 31: 0.0, 32: 0.0, 33: 0.0, 34: 0.454008333, 35: 0.801508333, 36: 0.0, 37: 0.784908333, 38: 0.94388788, 39: 0.287208333, 40: 0.754208333, 41: 0.0, 42: 0.0, 43: 1.827908333, 44: 2.308208333, 45: 0.0, 46: 0.526751725, 47: 1.718608333, 48: 1.712408333, 49: 0.7397083330000001, 50: 0.0, 51: 0.420908333, 52: 0.754908333, 53: 0.334508333, 54: 0.0, 55: 0.0, 56: 0.0, 57: 0.992508333, 58: 0.482408333, 59: 0.0, 60: 0.0, 61: 0.0, 62: 0.0, 63: 0.759208333, 64: 0.0, 65: 0.0, 66: 0.0, 67: 0.0, 68: 0.989408333, 69: 0.0, 70: 0.849008333, 71: 0.0, 72: 0.799408333, 73: 0.0, 74: 0.0, 75: 0.804008333, 76: 0.803008333, 77: 0.804008333, 78: 0.812008333, 79: 0.0, 80: 0.8032083330000001, 81: 0.0, 82: 0.8102083329999999, 83: 0.0, 84: 0.8012083330000001, 85: 0.0, 86: 0.0, 87: 0.0, 88: 0.0, 89: 0.0, 90: 0.580208333, 91: 0.0, 92: 0.0, 93: 0.0, 94: 0.0, 95: 0.641208333, 96: 0.667708333, 97: 0.0, 98: 0.0, 99: 0.6802083330000001, 100: 0.0, 101: 0.0, 102: 0.6772083330000001, 103: 0.0, 104: 0.0, 105: 0.671008333, 106: 0.0, 107: 0.676708333, 108: 0.0, 109: 0.0, 110: 0.666708333, 111: 0.667208333, 112: 0.6762083330000001, 113: 0.0, 114: 0.0, 115: 0.0, 116: 0.0, 117: 0.675708333, 118: 0.0, 119: 0.0, 120: 0.810908333, 121: 0.842908333, 122: 0.8092083329999999, 123: 0.0, 124: 0.0, 125: 0.798708333, 126: 0.0, 127: 0.505008333, 128: 0.0, 129: 0.0, 130: 0.0, 131: 0.0, 132: 0.0, 133: 0.0, 134: 0.0, 135: 0.0, 136: 0.809508333, 137: 0.809708333, 138: 0.0, 139: 0.8012083330000001, 140: 0.0, 141: 0.0, 142: 1.635208333, 143: 0.725208333, 144: 0.0, 145: 0.0, 146: 0.0, 147: 0.805408333, 148: 0.0, 149: 1.183908333, 150: 0.0, 151: 0.0, 152: 0.0, 153: 1.484008333, 154: 0.0, 155: 0.524208333, 156: 0.804708333, 157: 0.0, 158: 0.0, 159: 0.0, 160: 0.0, 161: 0.8082083329999999, 162: 1.103208333, 163: 0.800408333, 164: 0.798708333, 165: 0.0, 166: 0.803008333, 167: 0.0, 168: 0.0, 169: 0.0, 170: 0.0, 171: 0.0, 172: 0.801708333, 173: 0.793508333, 174: 0.793508333, 175: 0.0, 176: 0.0, 177: 0.196041383, 178: 0.0, 179: 0.792208333, 180: 0.0, 181: 0.0, 182: 0.0, 183: 0.793008333, 184: 0.0, 185: 0.0, 186: 0.0, 187: 0.0, 188: 0.0, 189: 0.0, 190: 0.793208333, 191: 0.0];
charge = [0: 1.0, 1: 0.0, 2: 0.0, 3: 1.0, 4: 0.0, 5: 0.0, 6: 1.0, 7: 1.0, 8: 1.0, 9: 0.0, 10: 0.0, 11: 1.0, 12: 0.0, 13: 0.0, 14: 0.0, 15: 0.0, 16: 1.0, 17: 1.0, 18: 0.0, 19: 1.0, 20: 1.0, 21: 1.0, 22: 0.0, 23: 0.0, 24: 1.0, 25: 0.0, 26: 1.0, 27: 1.0, 28: 1.0, 29: 1.0, 30: 0.0, 31: 1.0, 32: 1.0, 33: 1.0, 34: 0.0, 35: 0.0, 36: 1.0, 37: 0.0, 38: 0.242420454, 39: 1.0, 40: 0.0, 41: 0.0, 42: 1.0, 43: 0.0, 44: 0.0, 45: 1.0, 46: 0.301256608, 47: 0.0, 48: 0.0, 49: 0.0, 50: 1.0, 51: 0.0, 52: 0.0, 53: 0.0, 54: 0.0, 55: 1.0, 56: 0.0, 57: 0.0, 58: 0.0, 59: 1.0, 60: 1.0, 61: 1.0, 62: 1.0, 63: 0.0, 64: 1.0, 65: 1.0, 66: 1.0, 67: 1.0, 68: 0.0, 69: 1.0, 70: 0.0, 71: 1.0, 72: 0.0, 73: 1.0, 74: 0.0, 75: 0.0, 76: 0.0, 77: 0.0, 78: 0.0, 79: 0.0, 80: 0.0, 81: 0.0, 82: 0.0, 83: 0.0, 84: 0.0, 85: 1.0, 86: 0.0, 87: 0.0, 88: 1.0, 89: 0.0, 90: 0.0, 91: 0.0, 92: 0.0, 93: 0.0, 94: 1.0, 95: 0.0, 96: 0.0, 97: 1.0, 98: 1.0, 99: 0.0, 100: 0.0, 101: 1.0, 102: 0.0, 103: 0.0, 104: 0.0, 105: 0.0, 106: 1.0, 107: 0.0, 108: 1.0, 109: 1.0, 110: 0.0, 111: 0.0, 112: 0.0, 113: 0.0, 114: 1.0, 115: 1.0, 116: 1.0, 117: 0.0, 118: 1.0, 119: 1.0, 120: 0.0, 121: 0.0, 122: 0.0, 123: 1.0, 124: 1.0, 125: 0.0, 126: 1.0, 127: 0.0, 128: 1.0, 129: 1.0, 130: 0.930206142, 131: 1.0, 132: 1.0, 133: 1.0, 134: 1.0, 135: 1.0, 136: 0.0, 137: 0.0, 138: 0.0, 139: 0.0, 140: 1.0, 141: 0.0, 142: 0.0, 143: 0.0, 144: 0.727508333, 145: 1.0, 146: 0.988562644, 147: 0.0, 148: 1.0, 149: 0.0, 150: 1.0, 151: 1.0, 152: 0.0, 153: 0.0, 154: 1.0, 155: 0.0, 156: 0.0, 157: 1.0, 158: 1.0, 159: 0.0, 160: 0.0, 161: 0.0, 162: 0.0, 163: 0.0, 164: 0.0, 165: 1.0, 166: 0.0, 167: 0.950816091, 168: 1.0, 169: 1.0, 170: 1.0, 171: 1.0, 172: 0.0, 173: 0.0, 174: 0.0, 175: 0.0, 176: 0.0, 177: 0.0, 178: 1.0, 179: 0.0, 180: 0.0, 181: 0.0, 182: 1.0, 183: 0.0, 184: 1.0, 185: 1.0, 186: 0.0, 187: 0.0, 188: 0.0, 189: 0.0, 190: 0.0, 191: 1.0];
discharge = [0: 0.0, 1: 1.0, 2: 1.0, 3: 0.0, 4: 1.0, 5: 1.0, 6: 0.0, 7: 0.0, 8: 0.0, 9: 0.978387449, 10: 1.0, 11: 0.0, 12: 0.0, 13: 0.249990741, 14: 0.0, 15: 0.0, 16: 0.0, 17: 0.0, 18: 1.0, 19: 0.0, 20: 0.0, 21: 0.0, 22: 1.0, 23: 1.0, 24: 0.0, 25: 1.0, 26: 0.0, 27: 0.0, 28: 0.0, 29: 0.0, 30: 1.0, 31: 0.0, 32: 0.0, 33: 0.0, 34: 0.0, 35: 1.0, 36: 0.0, 37: 1.0, 38: 0.0, 39: 0.0, 40: 1.0, 41: 0.0, 42: 0.0, 43: 1.0, 44: 1.0, 45: 0.0, 46: 0.0, 47: 1.0, 48: 1.0, 49: 1.0, 50: 0.0, 51: 1.0, 52: 1.0, 53: 0.0, 54: 0.0, 55: 0.0, 56: 0.0, 57: 1.0, 58: 1.0, 59: 0.0, 60: 0.0, 61: 0.0, 62: 0.0, 63: 1.0, 64: 0.0, 65: 0.0, 66: 0.0, 67: 0.0, 68: 1.0, 69: 0.0, 70: 1.0, 71: 0.0, 72: 1.0, 73: 0.0, 74: 0.0, 75: 1.0, 76: 1.0, 77: 1.0, 78: 1.0, 79: 0.0, 80: 1.0, 81: 0.0, 82: 1.0, 83: 0.0, 84: 1.0, 85: 0.0, 86: 0.0, 87: 0.0, 88: 0.0, 89: 0.0, 90: 1.0, 91: 0.0, 92: 0.0, 93: 0.0, 94: 0.0, 95: 1.0, 96: 1.0, 97: 0.0, 98: 0.0, 99: 1.0, 100: 0.0, 101: 0.0, 102: 1.0, 103: 0.0, 104: 0.0, 105: 1.0, 106: 0.0, 107: 1.0, 108: 0.0, 109: 0.0, 110: 1.0, 111: 1.0, 112: 1.0, 113: 0.0, 114: 0.0, 115: 0.0, 116: 0.0, 117: 1.0, 118: 0.0, 119: 0.0, 120: 1.0, 121: 1.0, 122: 1.0, 123: 0.0, 124: 0.0, 125: 1.0, 126: 0.0, 127: 0.0, 128: 0.0, 129: 0.0, 130: 0.0, 131: 0.0, 132: 0.0, 133: 0.0, 134: 0.0, 135: 0.0, 136: 1.0, 137: 1.0, 138: 0.0, 139: 1.0, 140: 0.0, 141: 0.0, 142: 1.0, 143: 0.0, 144: 0.0, 145: 0.0, 146: 0.0, 147: 1.0, 148: 0.0, 149: 1.0, 150: 0.0, 151: 0.0, 152: 0.0, 153: 1.0, 154: 0.0, 155: 1.0, 156: 1.0, 157: 0.0, 158: 0.0, 159: 0.0, 160: 0.0, 161: 1.0, 162: 1.0, 163: 1.0, 164: 1.0, 165: 0.0, 166: 1.0, 167: 0.0, 168: 0.0, 169: 0.0, 170: 0.0, 171: 0.0, 172: 1.0, 173: 1.0, 174: 1.0, 175: 0.0, 176: 0.0, 177: 0.327036721, 178: 0.0, 179: 1.0, 180: 0.0, 181: 0.0, 182: 0.0, 183: 1.0, 184: 0.0, 185: 0.0, 186: 0.0, 187: 0.0, 188: 0.0, 189: 0.0, 190: 1.0, 191: 0.0];
soc = [0: 10.768026, 1: 9.765872395000001, 2: 8.76391922, 3: 9.662166436, 4: 8.660234002999999, 5: 7.658501956, 6: 8.556970256, 7: 9.455258862000001, 8: 10.35336781, 9: 9.372909687, 10: 8.371035106000001, 11: 9.269360898, 12: 9.267507026000001, 13: 9.015662784, 14: 9.013859652000001, 15: 9.012056879999999, 16: 9.910254468, 17: 10.808272417, 18: 9.806110763, 19: 10.704149541, 20: 11.602008711, 21: 12.499688309, 22: 11.497188371, 23: 10.494888934, 24: 11.392789956, 25: 10.390511398, 26: 11.288433296, 27: 12.186175609, 28: 13.083738374, 29: 13.981121626, 30: 12.978325402, 31: 13.875729737, 32: 14.772954591, 33: 15.67, 34: 15.666866, 35: 14.663732627, 36: 15.56079988, 37: 14.55768772, 38: 14.772954591, 39: 15.67, 40: 14.666866, 41: 14.663932627, 42: 15.56099984, 43: 14.55788764, 44: 13.554976063, 45: 14.452265068, 46: 14.720505562, 47: 13.717561461, 48: 12.714817948, 49: 11.712274985, 50: 12.60993253, 51: 11.607410543, 52: 10.605089061, 53: 10.602968043, 54: 10.60084745, 55: 11.49872728, 56: 11.496427535, 57: 10.494128249, 58: 9.492029424, 59: 10.390131018, 60: 11.288052992, 61: 12.185795381, 62: 13.083358222, 63: 12.08074155, 64: 12.978325402, 65: 13.875729737, 66: 14.772954591, 67: 15.67, 68: 14.666866, 69: 15.563932627, 70: 14.56081984, 71: 15.457907676, 72: 14.454816095, 73: 15.351925132, 74: 15.348854747, 75: 14.345784976, 76: 13.342915819, 77: 12.340247235, 78: 11.337779186, 79: 11.33551163, 80: 10.333244528, 81: 10.331177879, 82: 9.329111642999999, 83: 9.327245821, 84: 8.325380372, 85: 9.223715296, 86: 9.221870553, 87: 9.220026179, 88: 10.118182173, 89: 10.116158537, 90: 9.114135305, 91: 9.112312478, 92: 9.110490016, 93: 9.108667918, 94: 10.006846184, 95: 9.004844815, 96: 8.003043846000001, 97: 8.901443237000001, 98: 9.799662948, 99: 8.797703016, 100: 8.795943475, 101: 9.694184287000001, 102: 8.69224545, 103: 8.690507001, 104: 8.688768898999999, 105: 7.687031145, 106: 8.585493739, 107: 7.58377664, 108: 8.482259884999999, 109: 9.380563433000001, 110: 8.378687319999999, 111: 7.377011583, 112: 6.375536181, 113: 6.374261073, 114: 7.272986221, 115: 8.171531624, 116: 9.069897318000001, 117: 8.068083337999999, 118: 8.966469721999999, 119: 9.864676427999999, 120: 8.862703492, 121: 7.860930952, 122: 6.859358765, 123: 7.757986894, 124: 8.656435296, 125: 7.654704009, 126: 8.553173068, 127: 8.551462433999999, 128: 9.449752140999999, 129: 10.347862191, 130: 11.182978146, 131: 12.08074155, 132: 12.978325402, 133: 13.875729737, 134: 14.772954591, 135: 15.67, 136: 14.666866, 137: 13.663932627, 138: 13.66119984, 139: 12.6584676, 140: 13.555935907, 141: 13.55322472, 142: 12.550514075, 143: 12.548003972, 144: 13.200251871, 145: 14.097611821, 146: 14.984498678, 147: 13.981501778, 148: 14.878705478, 149: 13.875729737, 150: 14.772954591, 151: 15.67, 152: 15.666866, 153: 14.663732627, 154: 15.56079988, 155: 14.55768772, 156: 13.554776183, 157: 14.452065228, 158: 15.349174814, 159: 15.34610498, 160: 15.343035759, 161: 14.339967151, 162: 13.337099158, 163: 12.334431738, 164: 11.331964852, 165: 12.229698459, 166: 11.227252519, 167: 12.08074155, 168: 12.978325402, 169: 13.875729737, 170: 14.772954591, 171: 15.67, 172: 14.666866, 173: 13.663932627, 174: 12.66119984, 175: 12.6586676, 176: 12.656135867, 177: 12.326567918, 178: 13.224102605, 179: 12.221457784, 180: 12.219013493, 181: 12.21656969, 182: 13.114126376, 183: 12.111503551, 184: 13.00908125, 185: 13.906479434, 186: 13.903698138, 187: 13.900917398, 188: 13.898137215, 189: 13.895357587, 190: 12.892578516, 191: 13.79];
cost = [0: 0.796944065, 1: 0.0, 2: 0.0, 3: 0.909288575, 4: 0.0, 5: 0.0, 6: 0.888212525, 7: 0.892977545, 8: 0.876055615, 9: 0.0, 10: 0.0, 11: 0.859683495, 12: 0.136531059, 13: 0.0, 14: 0.132560209, 15: 0.127428649, 16: 0.863959795, 17: 0.793095395, 18: 0.0, 19: 0.784054075, 20: 0.784542795, 21: 0.792789945, 22: 0.0, 23: 0.0, 24: 1.374504812, 25: 0.0, 26: 1.301939212, 27: 1.403531052, 28: 1.401865612, 29: 1.106844812, 30: 0.0, 31: 0.815035932, 32: 0.721652332, 33: 1.414832252, 34: 0.0, 35: 0.0, 36: 1.424943852, 37: 0.0, 38: 0.028648804, 39: 0.118178165, 40: 0.0, 41: 0.0, 42: 1.455635532, 43: 0.0, 44: 0.0, 45: 1.514282812, 46: 0.035601953, 47: 0.0, 48: 0.0, 49: 0.0, 50: 1.491323532, 51: 0.0, 52: 0.0, 53: 0.0, 54: 0.0, 55: 1.099339565, 56: 0.109040559, 57: 0.0, 58: 0.0, 59: 0.749599315, 60: 1.100777852, 61: 1.464200652, 62: 1.110889452, 63: 0.0, 64: 1.166324812, 65: 1.523799612, 66: 1.254593132, 67: 1.458609532, 68: 0.0, 69: 1.299084172, 70: 0.0, 71: 1.384616412, 72: 0.0, 73: 1.413642652, 74: 0.105864487, 75: 0.0, 76: 0.0, 77: 0.0, 78: 0.0, 79: 0.106816167, 80: 0.0, 81: 0.115381287, 82: 0.0, 83: 0.096347687, 84: 0.0, 85: 1.424943852, 86: 0.125849767, 87: 0.130370247, 88: 0.789429995, 89: 0.170497099, 90: 0.0, 91: 0.194872009, 92: 0.193955659, 93: 0.171230179, 94: 0.882408975, 95: 0.0, 96: 0.0, 97: 0.8708018749999999, 98: 0.863654345, 99: 0.0, 100: 0.139768829, 101: 0.869885525, 102: 0.0, 103: 0.136103429, 104: 0.136225609, 105: 0.0, 106: 0.869152445, 107: 0.0, 108: 0.865487045, 109: 0.865303775, 110: 0.0, 111: 0.0, 112: 0.0, 113: 0.137019779, 114: 0.870374245, 115: 0.8712905949999999, 116: 0.868236095, 117: 0.0, 118: 0.866097945, 119: 0.870374245, 120: 0.0, 121: 0.0, 122: 0.0, 123: 1.230801132, 124: 1.190949532, 125: 0.0, 126: 1.426252412, 127: 0.0, 128: 1.415427052, 129: 1.425538652, 130: 1.334620648, 131: 1.427085132, 132: 0.574379852, 133: 1.416973532, 134: 1.425895532, 135: 1.426490332, 136: 0.0, 137: 0.0, 138: 0.109790167, 139: 0.0, 140: 0.386542012, 141: 0.0, 142: 0.0, 143: 0.0, 144: 0.0859756, 145: 0.527390652, 146: 1.400231608, 147: 0.0, 148: 0.786253315, 149: 0.0, 150: 1.069527645, 151: 1.235814625, 152: 0.059252209, 153: 0.0, 154: 0.443782775, 155: 0.0, 156: 0.0, 157: 1.421137132, 158: 1.421137132, 159: 0.122043047, 160: 0.122280967, 161: 0.0, 162: 0.0, 163: 0.0, 164: 0.0, 165: 1.429226412, 166: 0.0, 167: 1.313157169, 168: 1.423040492, 169: 1.434698572, 170: 1.434103772, 171: 1.425538652, 172: 0.0, 173: 0.0, 174: 0.0, 175: 0.125492887, 176: 0.116927767, 177: 0.0, 178: 1.433033132, 179: 0.0, 180: 0.126682487, 181: 0.118117367, 182: 1.425300732, 183: 0.0, 184: 0.7944393749999999, 185: 0.789552175, 186: 0.060657279, 187: 0.060351829, 188: 0.065239029, 189: 0.065849929, 190: 0.0, 191: 0.789735445];
earn = [0: 0.0, 1: 0.388955038, 2: 0.372587136, 3: 0.0, 4: 0.374058456, 5: 0.377980938, 6: 0.0, 7: 0.0, 8: 0.0, 9: 0.404227432, 10: 0.436131033, 11: 0.0, 12: 0.0, 13: 0.0, 14: 0.0, 15: 0.0, 16: 0.0, 17: 0.0, 18: 0.583289892, 19: 0.0, 20: 0.0, 21: 0.0, 22: 0.658068142, 23: 0.683127715, 24: 0.0, 25: 0.813260481, 26: 0.0, 27: 0.0, 28: 0.0, 29: 0.0, 30: 0.715163056, 31: 0.0, 32: 0.0, 33: 0.0, 34: 0.285798246, 35: 0.478420324, 36: 0.0, 37: 0.406190062, 38: 0.466280613, 39: 0.117439488, 40: 0.268573588, 41: 0.0, 42: 0.0, 43: 0.600833469, 44: 0.524886575, 45: 0.0, 46: 0.091338749, 47: 0.293366443, 48: 0.239052203, 49: 0.103115342, 50: 0.0, 51: 0.077489224, 52: 0.260367884, 53: 0.122697657, 54: 0.0, 55: 0.0, 56: 0.0, 57: 0.503697979, 58: 0.260018092, 59: 0.0, 60: 0.0, 61: 0.0, 62: 0.0, 63: 0.522411254, 64: 0.0, 65: 0.0, 66: 0.0, 67: 0.0, 68: 0.806763555, 69: 0.0, 70: 0.809614347, 71: 0.0, 72: 0.9744787579999999, 73: 0.0, 74: 0.0, 75: 1.146515883, 76: 1.044713842, 77: 1.023502608, 78: 1.019070458, 79: 0.0, 80: 0.8473847920000001, 81: 0.0, 82: 0.807129542, 83: 0.0, 84: 0.675658988, 85: 0.0, 86: 0.0, 87: 0.0, 88: 0.0, 89: 0.0, 90: 0.469794688, 91: 0.0, 92: 0.0, 93: 0.0, 94: 0.0, 95: 0.450641217, 96: 0.491633646, 97: 0.0, 98: 0.0, 99: 0.483832188, 100: 0.0, 101: 0.0, 102: 0.422713442, 103: 0.0, 104: 0.0, 105: 0.389990043, 106: 0.0, 107: 0.387889217, 108: 0.0, 109: 0.0, 110: 0.367022938, 111: 0.366364096, 112: 0.376445179, 113: 0.0, 114: 0.0, 115: 0.0, 116: 0.0, 117: 0.4119118, 118: 0.0, 119: 0.0, 120: 0.5749340080000001, 121: 0.609001271, 122: 0.590155637, 123: 0.0, 124: 0.0, 125: 0.493761492, 126: 0.0, 127: 0.291894817, 128: 0.0, 129: 0.0, 130: 0.0, 131: 0.0, 132: 0.0, 133: 0.0, 134: 0.0, 135: 0.0, 136: 0.08872211300000001, 137: 0.064047929, 138: 0.0, 139: 0.026199512, 140: -0.0, 141: 0.0, 142: -0.084540271, 143: -0.047066021, 144: 0.0, 145: 0.0, 146: -0.0, 147: 0.006443267, 148: 0.0, 149: 0.020244833, 150: 0.0, 151: 0.0, 152: 0.0, 153: 0.291310836, 154: 0.0, 155: 0.137028058, 156: 0.350370008, 157: 0.0, 158: 0.0, 159: 0.0, 160: 0.0, 161: 0.479833288, 162: 0.666889438, 163: 0.497053575, 164: 0.505422633, 165: 0.0, 166: 0.59262015, 167: 0.0, 168: 0.0, 169: 0.0, 170: 0.0, 171: 0.0, 172: 0.568090525, 173: 0.583863432, 174: 0.578864329, 175: 0.0, 176: 0.0, 177: 0.124662715, 178: 0.0, 179: 0.4924367, 180: 0.0, 181: 0.0, 182: 0.0, 183: 0.357567458, 184: 0.0, 185: 0.0, 186: 0.0, 187: 0.0, 188: 0.0, 189: 0.0, 190: 0.261679429, 191: 0.0];
total_cost = 92.905922503;
total_earn = 34.323388894;
% _objective = 58.582533609;