production = [0: 0.0, 1: 0.0, 2: 0.0, 3: 0.0, 4: 0.0, 5: 0.0, 6: 0.0, 7: 0.0, 8: 0.0, 9: 0.0, 10: 0.0, 11: 0.0, 12: 0.0, 13: 0.0, 14: 0.0, 15: 0.0, 16: 0.0, 17: 0.0, 18: 0.0, 19: 0.0, 20: 0.0, 21: 0.0, 22: 0.0, 23: 0.000106, 24: 0.0, 25: 0.000327, 26: 0.00515, 27: 0.030316, 28: 0.07156999999999999, 29: 0.02135, 30: 0.06095, 31: 0.079251, 32: 0.037303, 33: 0.08469699999999999, 34: 0.129995, 35: 0.077073, 36: 0.009717, 37: 0.118161, 38: 0.046881, 39: 0.127958, 40: 0.183122, 41: 0.114128, 42: 0.363278, 43: 0.12109, 44: 0.59819, 45: 0.506816, 46: 0.594637, 47: 0.144586, 48: 0.6216390000000001, 49: 0.117597, 50: 1.022979, 51: 0.092034, 52: 0.664359, 53: 0.302942, 54: 0.259928, 55: 0.676701, 56: 0.276787, 57: 1.698227, 58: 0.7024010000000001, 59: 1.247729, 60: 0.340563, 61: 0.463138, 62: 0.420563, 63: 0.237536, 64: 0.164337, 65: 0.01365, 66: 0.228962, 67: 0.503246, 68: 0.494308, 69: 0.448466, 70: 0.374537, 71: 0.3384, 72: 0.157175, 73: 0.061231, 74: 0.015228, 75: 0.024294, 76: 0.005965, 77: 0.012411, 78: 0.001074, 79: 0.000638, 80: 0.000397, 81: 0.0, 82: 0.0, 83: 0.0, 84: 0.0, 85: 0.0, 86: 0.0, 87: 0.0, 88: 0.0, 89: 0.0, 90: 0.0, 91: 0.0, 92: 0.0, 93: 0.0, 94: 0.0, 95: 0.0, 96: 0.0, 97: 0.0, 98: 0.0, 99: 0.0, 100: 0.0, 101: 0.0, 102: 0.0, 103: 0.0, 104: 0.0, 105: 0.0, 106: 0.0, 107: 0.0, 108: 0.0, 109: 0.0, 110: 0.0, 111: 0.0, 112: 0.0, 113: 0.0, 114: 0.0, 115: 0.0, 116: 0.0, 117: 0.0, 118: 0.000205, 119: 0.0, 120: 0.0, 121: 0.00272, 122: 0.024502, 123: 0.037155, 124: 0.062159, 125: 0.008607999999999999, 126: 0.098732, 127: 0.097541, 128: 0.152731, 129: 0.240753, 130: 0.436902, 131: 0.703704, 132: 0.585199, 133: 0.466208, 134: 0.303319, 135: 1.166082, 136: 0.827542, 137: 0.046464, 138: 0.08787300000000001, 139: 0.682073, 140: 0.670779, 141: 0.32233, 142: 0.827749, 143: 0.427465, 144: 0.750257, 145: 0.359585, 146: 0.584587, 147: 0.324938, 148: 0.007602, 149: 0.319971, 150: 0.039455, 151: 0.178008, 152: 0.287067, 153: 0.120677, 154: 0.405869, 155: 0.862076, 156: 0.184983, 157: 0.664644, 158: 0.184578, 159: 0.090836, 160: 0.182082, 161: 0.019908, 162: 0.097009, 163: 0.320054, 164: 0.185883, 165: 0.085836, 166: 0.018237, 167: 0.139002, 168: 0.08704000000000001, 169: 0.029551, 170: 0.03946, 171: 0.001327, 172: 0.001848, 173: 0.000684, 174: 0.0, 175: 0.0, 176: 0.0, 177: 0.0, 178: 0.0, 179: 0.0, 180: 0.0, 181: 0.0, 182: 0.0, 183: 0.0, 184: 0.0, 185: 0.0, 186: 0.0, 187: 0.0, 188: 0.0, 189: 0.0, 190: 0.0, 191: 0.0];
buy = [0: 210.626437, 1: 117.124455, 2: 429.67034, 3: 945.8259, 4: 552.48851, 5: 775.247509, 6: 13.398034, 7: 590.773555, 8: 865.246019, 9: 295.659927, 10: 272.25668, 11: 873.713031, 12: 178.020021, 13: 605.850192, 14: 492.775325, 15: 314.12936, 16: 990.204107, 17: 195.809382, 18: 796.027304, 19: 314.485547, 20: 451.159287, 21: 531.048605, 22: 652.788977, 23: 998.569207, 24: 920.031583, 25: 404.307823, 26: 895.501356, 27: 294.128321, 28: 185.863097, 29: 883.60578, 30: 366.439073, 31: 898.828712, 32: 257.696876, 33: 822.4931319999999, 34: 665.3950139999999, 35: 786.822884, 36: 475.535088, 37: 414.35108, 38: 145.793514, 39: 783.377593, 40: 453.49056, 41: 880.707571, 42: 553.378008, 43: 842.76805, 44: 619.135669, 45: 609.25943, 46: 912.581187, 47: 499.64147, 48: 816.622729, 49: 603.517192, 50: 852.87005, 51: 699.52888, 52: 986.693696, 53: 855.9372980000001, 54: 343.78359, 55: 769.440666, 56: 605.171332, 57: 731.430763, 58: 111.086383, 59: 575.322921, 60: 820.899675, 61: 801.538502, 62: 44.713551, 63: 443.123732, 64: 210.425291, 65: 399.267214, 66: 451.038402, 67: 321.552028, 68: 868.082657, 69: 311.964147, 70: 426.707658, 71: 215.468932, 72: 452.003417, 73: 279.278076, 74: 90.641294, 75: 689.630656, 76: 129.716432, 77: 104.357794, 78: 956.668903, 79: 880.700283, 80: 957.295373, 81: 321.156924, 82: 513.690547, 83: 270.430495, 84: 941.260674, 85: 901.662401, 86: 622.600411, 87: 431.74685, 88: 556.378655, 89: 925.167463, 90: 189.987742, 91: 97.627861, 92: 147.457492, 93: 42.707961, 94: 748.369639, 95: 268.791579, 96: 817.199169, 97: 141.248148, 98: 690.007756, 99: 86.11310899999999, 100: 353.374195, 101: 868.8091879999999, 102: 876.761843, 103: 945.25389, 104: 990.115454, 105: 181.239793, 106: 763.438455, 107: 23.640545, 108: 496.717031, 109: 303.307168, 110: 948.835296, 111: 668.302091, 112: 103.248049, 113: 308.804535, 114: 100.114205, 115: 443.395277, 116: 642.762326, 117: 289.059001, 118: 806.549783, 119: 52.346104, 120: 568.419121, 121: 922.4552640000001, 122: 880.745185, 123: 599.1050760000001, 124: 736.143203, 125: 602.795237, 126: 403.817539, 127: 617.7074249999999, 128: 551.871063, 129: 190.214769, 130: 905.101536, 131: 702.6899069999999, 132: 798.747147, 133: 347.379665, 134: 432.121314, 135: 642.62317, 136: 872.339933, 137: 842.961047, 138: 356.967822, 139: 766.709066, 140: 354.020342, 141: 302.331189, 142: 771.174611, 143: 679.503017, 144: 186.840885, 145: 93.608465, 146: 850.140042, 147: 172.433512, 148: 153.26372, 149: 551.884846, 150: 57.132991, 151: 169.954239, 152: 886.651959, 153: 234.988773, 154: 318.891975, 155: 16.755656, 156: 12.402224, 157: 645.860474, 158: 215.041541, 159: 227.7233, 160: 799.350538, 161: 145.481937, 162: 219.252213, 163: 75.968833, 164: 177.056423, 165: 915.982608, 166: 263.029315, 167: 435.54809, 168: 337.738037, 169: 754.764708, 170: 645.1658190000001, 171: 806.741905, 172: 810.316944, 173: 205.85133, 174: 13.819302, 175: 50.566721, 176: 915.023312, 177: 816.480187, 178: 963.615761, 179: 802.208812, 180: 861.51446, 181: 419.526717, 182: 880.3290490000001, 183: 215.199706, 184: 86.02085, 185: 657.055102, 186: 412.632982, 187: 23.024758, 188: 433.305376, 189: 804.771163, 190: 981.944111, 191: 790.800575];
sell = [0: 3.847043, 1: 2.812614, 2: 2.081124, 3: 3.404636, 4: 0.752014, 5: 0.86425, 6: 0.738561, 7: 3.834329, 8: 3.86295, 9: 0.7593, 10: 1.481339, 11: 2.627448, 12: 0.21115, 13: 2.20219, 14: 2.51393, 15: 1.343565, 16: 0.986324, 17: 2.836376, 18: 2.144376, 19: 2.521838, 20: 2.787492, 21: 2.488269, 22: 1.869329, 23: 0.283433, 24: 1.191748, 25: 2.619647, 26: 1.44621, 27: 0.054946, 28: 1.366114, 29: 0.060477, 30: 0.248617, 31: 2.82198, 32: 1.053634, 33: 0.506935, 34: 2.224067, 35: 2.745438, 36: 3.255963, 37: 3.976121, 38: 0.123966, 39: 2.919418, 40: 1.32757, 41: 1.482483, 42: 3.312272, 43: 2.279174, 44: 3.027519, 45: 1.217409, 46: 3.645329, 47: 3.068733, 48: 3.133653, 49: 3.498027, 50: 3.553779, 51: 0.462123, 52: 3.518294, 53: 1.284928, 54: 0.243117, 55: 1.678966, 56: 0.451201, 57: 3.316337, 58: 0.401684, 59: 0.416929, 60: 3.436874, 61: 3.510709, 62: 0.927628, 63: 3.460721, 64: 0.283656, 65: 2.218841, 66: 2.190772, 67: 0.174413, 68: 3.928654, 69: 3.917241, 70: 3.293263, 71: 0.859753, 72: 2.812543, 73: 3.784121, 74: 1.511363, 75: 3.089855, 76: 0.432189, 77: 3.022813, 78: 2.324186, 79: 2.235378, 80: 1.676875, 81: 3.474356, 82: 0.329496, 83: 1.341651, 84: 3.710163, 85: 2.107203, 86: 1.541457, 87: 1.334613, 88: 0.130039, 89: 2.032212, 90: 0.220099, 91: 0.675868, 92: 3.514216, 93: 0.7127329999999999, 94: 0.000513, 95: 0.923118, 96: 2.60219, 97: 3.355567, 98: 1.492196, 99: 1.821437, 100: 3.95133, 101: 2.896174, 102: 2.926455, 103: 0.056882, 104: 2.820649, 105: 2.357146, 106: 0.09776700000000001, 107: 1.069614, 108: 1.770371, 109: 2.380307, 110: 3.877634, 111: 0.636094, 112: 0.357821, 113: 1.813624, 114: 0.580454, 115: 1.924991, 116: 2.954183, 117: 3.271313, 118: 0.08268399999999999, 119: 1.02336, 120: 0.260722, 121: 1.546254, 122: 3.506586, 123: 1.08596, 124: 1.048794, 125: 2.478638, 126: 2.000711, 127: 0.882059, 128: 1.052788, 129: 0.688338, 130: 2.368486, 131: 1.072234, 132: 3.177646, 133: 3.790168, 134: 2.047807, 135: 2.173742, 136: 1.481464, 137: 1.47109, 138: 3.935555, 139: 2.899224, 140: 1.827179, 141: 1.036969, 142: 3.336039, 143: 2.983256, 144: 3.275742, 145: 1.030252, 146: 0.137212, 147: 2.833273, 148: 1.006987, 149: 1.535204, 150: 3.483287, 151: 2.916666, 152: 2.482098, 153: 0.7324310000000001, 154: 1.795475, 155: 1.273459, 156: 3.580187, 157: 1.668131, 158: 0.062501, 159: 3.942763, 160: 3.595511, 161: 0.740994, 162: 1.835288, 163: 1.677722, 164: 2.294293, 165: 2.414885, 166: 3.150852, 167: 2.144365, 168: 0.398811, 169: 1.575224, 170: 2.664018, 171: 0.111686, 172: 1.352029, 173: 1.089291, 174: 1.623661, 175: 1.868361, 176: 0.858762, 177: 0.23816, 178: 0.754444, 179: 2.559957, 180: 1.025181, 181: 0.635188, 182: 3.002859, 183: 1.862143, 184: 0.5002220000000001, 185: 1.374336, 186: 1.326488, 187: 2.001551, 188: 2.64804, 189: 2.814135, 190: 0.96251, 191: 3.410715];
charge = [0: 0.700011, 1: 0.258822, 2: 0.074882, 3: 0.30698, 4: 0.965521, 5: 0.251971, 6: 0.378307, 7: 0.554296, 8: 0.213615, 9: 0.575403, 10: 0.981452, 11: 0.416071, 12: 0.476614, 13: 0.522367, 14: 0.815191, 15: 0.285212, 16: 0.007048, 17: 0.181034, 18: 0.251907, 19: 0.565954, 20: 0.111585, 21: 0.890437, 22: 0.344231, 23: 0.489273, 24: 0.42292, 25: 0.16567, 26: 0.116344, 27: 0.417846, 28: 0.5621699999999999, 29: 0.650582, 30: 0.231256, 31: 0.23178, 32: 0.431297, 33: 0.728633, 34: 0.723929, 35: 0.846532, 36: 0.680373, 37: 0.823568, 38: 0.9118039999999999, 39: 0.998648, 40: 0.516775, 41: 0.878155, 42: 0.422135, 43: 0.685716, 44: 0.8853259999999999, 45: 0.084924, 46: 0.334552, 47: 0.520573, 48: 0.06462, 49: 0.127736, 50: 0.810318, 51: 0.095987, 52: 0.152422, 53: 0.352789, 54: 0.769338, 55: 0.123429, 56: 0.42167, 57: 0.133155, 58: 0.186347, 59: 0.349541, 60: 0.832329, 61: 0.347168, 62: 0.966907, 63: 0.732378, 64: 0.213532, 65: 0.763725, 66: 0.629327, 67: 0.9754890000000001, 68: 0.057793, 69: 0.05215, 70: 0.654762, 71: 0.526602, 72: 0.134162, 73: 0.248841, 74: 0.542604, 75: 0.415386, 76: 0.192683, 77: 0.295879, 78: 0.741887, 79: 0.139251, 80: 0.270126, 81: 0.860408, 82: 0.3641, 83: 0.648358, 84: 0.86242, 85: 0.86065, 86: 0.024319, 87: 0.108703, 88: 0.229553, 89: 0.582182, 90: 0.021148, 91: 0.09291000000000001, 92: 0.141406, 93: 0.398438, 94: 0.474313, 95: 0.438274, 96: 0.484869, 97: 0.706859, 98: 0.184675, 99: 0.464915, 100: 0.015987, 101: 0.755753, 102: 0.151294, 103: 0.050914, 104: 0.42973, 105: 0.92625, 106: 0.342989, 107: 0.47088, 108: 0.737432, 109: 0.342227, 110: 0.879055, 111: 0.323478, 112: 0.772944, 113: 0.179031, 114: 0.046621, 115: 0.84519, 116: 0.590547, 117: 0.690673, 118: 0.432011, 119: 0.754657, 120: 0.651678, 121: 0.401857, 122: 0.878477, 123: 0.206785, 124: 0.47485, 125: 0.923782, 126: 0.013704, 127: 0.18215, 128: 0.146938, 129: 0.779572, 130: 0.000228, 131: 0.54786, 132: 0.89257, 133: 0.709305, 134: 0.734686, 135: 0.216035, 136: 0.960139, 137: 0.07190000000000001, 138: 0.252118, 139: 0.234768, 140: 0.811262, 141: 0.301521, 142: 0.215921, 143: 0.8344240000000001, 144: 0.574443, 145: 0.60153, 146: 0.777235, 147: 0.777957, 148: 0.445266, 149: 0.423927, 150: 0.89693, 151: 0.274381, 152: 0.55052, 153: 0.005404, 154: 0.6236120000000001, 155: 0.068662, 156: 0.74724, 157: 0.36394, 158: 0.437435, 159: 0.606735, 160: 0.850492, 161: 0.007565, 162: 0.627055, 163: 0.570396, 164: 0.388145, 165: 0.678727, 166: 0.88776, 167: 0.62669, 168: 0.189389, 169: 0.270793, 170: 0.931171, 171: 0.943964, 172: 0.750578, 173: 0.599631, 174: 0.907317, 175: 0.630572, 176: 0.560774, 177: 0.385811, 178: 0.407812, 179: 0.590319, 180: 0.037389, 181: 0.364825, 182: 0.73002, 183: 0.674243, 184: 0.82073, 185: 0.672903, 186: 0.587867, 187: 0.285907, 188: 0.827391, 189: 0.476426, 190: 0.805719, 191: 0.058426];
discharge = [0: 0.13803, 1: 0.859474, 2: 0.110729, 3: 0.167813, 4: 0.554688, 5: 0.266119, 6: 0.961104, 7: 0.43915, 8: 0.205372, 9: 0.456381, 10: 0.078401, 11: 0.000205, 12: 0.923722, 13: 0.7774180000000001, 14: 0.052734, 15: 0.285672, 16: 0.223846, 17: 0.424193, 18: 0.550901, 19: 0.177386, 20: 0.901846, 21: 0.268749, 22: 0.428557, 23: 0.106029, 24: 0.333049, 25: 0.465389, 26: 0.972152, 27: 0.7913249999999999, 28: 0.413964, 29: 0.414137, 30: 0.182265, 31: 0.635733, 32: 0.246137, 33: 0.489582, 34: 0.351213, 35: 0.62158, 36: 0.415337, 37: 0.126078, 38: 0.589653, 39: 0.44277, 40: 0.980411, 41: 0.6287740000000001, 42: 0.03033, 43: 0.853969, 44: 0.127067, 45: 0.876209, 46: 0.441026, 47: 0.817879, 48: 0.939025, 49: 0.228039, 50: 0.703541, 51: 0.226342, 52: 0.777495, 53: 0.540642, 54: 0.781841, 55: 0.404594, 56: 0.942966, 57: 0.952103, 58: 0.043193, 59: 0.348988, 60: 0.032011, 61: 0.964, 62: 0.843379, 63: 0.253374, 64: 0.597879, 65: 0.371734, 66: 0.466578, 67: 0.256745, 68: 0.095093, 69: 0.271082, 70: 0.06635099999999999, 71: 0.032372, 72: 0.511696, 73: 0.162314, 74: 0.581057, 75: 0.182169, 76: 0.081233, 77: 0.765663, 78: 0.5006930000000001, 79: 0.750522, 80: 0.378807, 81: 0.823372, 82: 0.655764, 83: 0.429755, 84: 0.44736, 85: 0.461356, 86: 0.472866, 87: 0.257124, 88: 0.792299, 89: 0.687411, 90: 0.162421, 91: 0.024019, 92: 0.007305, 93: 0.402952, 94: 0.7761130000000001, 95: 0.07584299999999999, 96: 0.147104, 97: 0.343327, 98: 0.871898, 99: 0.397708, 100: 0.59704, 101: 0.10408, 102: 0.759709, 103: 0.337515, 104: 0.584853, 105: 0.064001, 106: 0.666077, 107: 0.245859, 108: 0.388596, 109: 0.932445, 110: 0.9181589999999999, 111: 0.683997, 112: 0.760796, 113: 0.834734, 114: 0.215223, 115: 0.691869, 116: 0.282297, 117: 0.889564, 118: 0.2427, 119: 0.754712, 120: 0.669071, 121: 0.59438, 122: 0.173158, 123: 0.009801000000000001, 124: 0.138945, 125: 0.065941, 126: 0.340205, 127: 0.057742, 128: 0.655779, 129: 0.844825, 130: 0.64834, 131: 0.276572, 132: 0.919438, 133: 0.452663, 134: 0.715414, 135: 0.8974839999999999, 136: 0.018831, 137: 0.583442, 138: 0.835916, 139: 0.754407, 140: 0.36984, 141: 0.288361, 142: 0.563437, 143: 0.126252, 144: 0.44607, 145: 0.380349, 146: 0.914708, 147: 0.687627, 148: 0.297335, 149: 0.324951, 150: 0.233924, 151: 0.825833, 152: 0.00573, 153: 0.257118, 154: 0.341778, 155: 0.886042, 156: 0.796808, 157: 0.689982, 158: 0.739298, 159: 0.768232, 160: 0.360014, 161: 0.834081, 162: 0.823657, 163: 0.190825, 164: 0.609414, 165: 0.33139, 166: 0.597359, 167: 0.031788, 168: 0.880806, 169: 0.224234, 170: 0.016007, 171: 0.3628, 172: 0.981724, 173: 0.887889, 174: 0.835294, 175: 0.734649, 176: 0.267467, 177: 0.682094, 178: 0.666462, 179: 0.677804, 180: 0.558924, 181: 0.634096, 182: 0.056628, 183: 0.032492, 184: 0.645916, 185: 0.919565, 186: 0.44601, 187: 0.082844, 188: 0.315187, 189: 0.9502620000000001, 190: 0.09333, 191: 0.001944];
soc = [0: 9.268274, 1: 10.488759, 2: 8.813912999999999, 3: 7.235483, 4: 11.378588, 5: 7.337087, 6: 9.590653, 7: 8.250674999999999, 8: 12.504639, 9: 15.401133, 10: 12.113605, 11: 10.668497, 12: 15.519851, 13: 4.942677, 14: 7.837669, 15: 2.883461, 16: 5.953183, 17: 3.509716, 18: 8.529684, 19: 7.418967, 20: 10.73634, 21: 7.907855, 22: 13.437724, 23: 5.956175, 24: 9.013764999999999, 25: 6.910535, 26: 10.142069, 27: 12.61474, 28: 10.894558, 29: 10.936869, 30: 13.176938, 31: 13.265394, 32: 13.099335, 33: 15.18553, 34: 13.001152, 35: 3.709918, 36: 13.907257, 37: 7.995752, 38: 8.97602, 39: 9.029972000000001, 40: 6.320309, 41: 6.960925, 42: 7.319492, 43: 6.523196, 44: 15.128211, 45: 6.523892, 46: 6.846714, 47: 10.133723, 48: 9.907660999999999, 49: 8.546449000000001, 50: 5.630879, 51: 14.613176, 52: 10.254237, 53: 6.278554, 54: 7.786448, 55: 12.305831, 56: 4.174483, 57: 6.13643, 58: 14.892581, 59: 9.05308, 60: 13.909574, 61: 14.911396, 62: 11.21991, 63: 14.315603, 64: 11.143284, 65: 3.530465, 66: 14.208874, 67: 3.853268, 68: 6.89396, 69: 13.114462, 70: 10.614538, 71: 4.56235, 72: 10.603789, 73: 5.751916, 74: 14.289519, 75: 5.328393, 76: 13.899581, 77: 14.693659, 78: 13.193596, 79: 15.072305, 80: 10.431469, 81: 5.685746, 82: 13.451556, 83: 5.289822, 84: 6.373515, 85: 13.754937, 86: 12.258127, 87: 6.87335, 88: 9.463179999999999, 89: 10.911498, 90: 5.881896, 91: 15.201161, 92: 14.274562, 93: 13.420728, 94: 14.185899, 95: 9.262475999999999, 96: 8.270337, 97: 14.834767, 98: 3.764973, 99: 5.654759, 100: 11.972679, 101: 8.814629999999999, 102: 11.561886, 103: 8.574797999999999, 104: 11.585976, 105: 7.398447, 106: 4.518696, 107: 13.80989, 108: 7.498658, 109: 14.33797, 110: 7.340982, 111: 5.099399, 112: 10.018931, 113: 3.661829, 114: 10.082409, 115: 8.320722999999999, 116: 8.468111, 117: 9.323587, 118: 13.127322, 119: 14.166511, 120: 8.530355, 121: 3.38189, 122: 5.788244, 123: 12.717807, 124: 3.793677, 125: 7.589343, 126: 3.708623, 127: 11.071758, 128: 6.481358, 129: 3.673432, 130: 3.751332, 131: 4.0665, 132: 4.599707, 133: 10.069609, 134: 2.765665, 135: 7.66166, 136: 3.66154, 137: 3.580535, 138: 7.650129, 139: 3.828411, 140: 14.932028, 141: 7.881395, 142: 6.391649, 143: 11.190247, 144: 8.3489, 145: 11.911031, 146: 6.905939, 147: 8.267614999999999, 148: 13.424896, 149: 10.120742, 150: 11.962139, 151: 4.60205, 152: 14.955904, 153: 6.735328, 154: 9.706042, 155: 12.402214, 156: 9.166413, 157: 3.661434, 158: 13.375342, 159: 6.699586, 160: 6.697716, 161: 9.866603, 162: 2.976731, 163: 14.790687, 164: 6.905316, 165: 4.538052, 166: 6.055817, 167: 13.473752, 168: 7.633613, 169: 6.006031, 170: 7.844589, 171: 4.035495, 172: 7.692189, 173: 8.33056, 174: 3.645911, 175: 12.43819, 176: 7.954107, 177: 6.45231, 178: 6.638028, 179: 10.687935, 180: 6.271088, 181: 5.004547, 182: 14.711832, 183: 15.451013, 184: 5.588085, 185: 9.874065999999999, 186: 11.170638, 187: 11.747573, 188: 11.097251, 189: 3.711295, 190: 15.113636, 191: 14.966718];
cost = [0: 509.953168, 1: 605.77144, 2: 111.731739, 3: 369.97129, 4: 513.370605, 5: 553.968837, 6: 33.917203, 7: 173.788949, 8: 224.748354, 9: 69.698256, 10: 242.844745, 11: 171.448176, 12: 191.618296, 13: 260.72154, 14: 289.718832, 15: 64.20464, 16: 240.717456, 17: 442.865982, 18: 30.919109, 19: 227.200781, 20: 16.530027, 21: 459.196346, 22: 314.232173, 23: 385.357767, 24: 450.547105, 25: 805.311587, 26: 573.742742, 27: 541.964709, 28: 1157.342869, 29: 10.165151, 30: 1123.527811, 31: 173.182232, 32: 1008.085403, 33: 1080.378146, 34: 637.288826, 35: 999.049548, 36: 822.339388, 37: 552.629764, 38: 483.573768, 39: 894.186776, 40: 581.876166, 41: 774.8357569999999, 42: 696.079213, 43: 903.83413, 44: 1087.491421, 45: 428.28848, 46: 763.624386, 47: 306.603946, 48: 223.152479, 49: 1071.21257, 50: 1124.730561, 51: 333.254479, 52: 13.76822, 53: 559.2356160000001, 54: 222.18485, 55: 222.6077, 56: 516.436006, 57: 108.415374, 58: 459.591013, 59: 21.0057, 60: 21.687314, 61: 908.728121, 62: 1155.389408, 63: 1115.338054, 64: 872.957523, 65: 1110.618463, 66: 1127.985764, 67: 393.605901, 68: 1050.555723, 69: 92.112724, 70: 684.433533, 71: 817.999983, 72: 1083.785653, 73: 1169.497313, 74: 573.506991, 75: 32.162288, 76: 843.959786, 77: 107.036228, 78: 434.642103, 79: 310.117223, 80: 890.622927, 81: 1060.480977, 82: 880.702463, 83: 419.049304, 84: 815.926062, 85: 227.261395, 86: 481.831531, 87: 188.865451, 88: 586.166606, 89: 143.202886, 90: 557.395131, 91: 49.035816, 92: 437.524851, 93: 360.561743, 94: 242.816414, 95: 177.482362, 96: 73.919676, 97: 425.335348, 98: 512.353573, 99: 544.833587, 100: 244.061388, 101: 604.652599, 102: 491.342716, 103: 574.584262, 104: 241.305648, 105: 477.54085, 106: 340.702876, 107: 443.822026, 108: 235.487332, 109: 46.690804, 110: 437.745134, 111: 137.161572, 112: 423.44661, 113: 185.517186, 114: 114.485712, 115: 333.925895, 116: 313.337778, 117: 105.114317, 118: 54.218474, 119: 506.441125, 120: 836.234203, 121: 659.317871, 122: 408.724119, 123: 200.676049, 124: 885.616944, 125: 991.974466, 126: 886.496721, 127: 159.439675, 128: 394.259173, 129: 785.748933, 130: 878.55175, 131: 258.533919, 132: 1066.688903, 133: 1164.435027, 134: 359.458725, 135: 21.191332, 136: 225.522955, 137: 152.958266, 138: 304.02772, 139: 367.070763, 140: 1170.305913, 141: 101.032165, 142: 220.194704, 143: 408.899054, 144: 935.707418, 145: 798.957438, 146: 294.861102, 147: 395.219434, 148: 4.782783, 149: 96.76900000000001, 150: 301.120757, 151: 568.9274809999999, 152: 563.294652, 153: 9.721847, 154: 292.556524, 155: 91.840597, 156: 462.899052, 157: 622.432439, 158: 1119.080861, 159: 110.273978, 160: 916.893911, 161: 119.483518, 162: 714.2750140000001, 163: 1058.736417, 164: 450.036102, 165: 581.025965, 166: 38.4596, 167: 670.189832, 168: 638.086177, 169: 1180.884777, 170: 190.453057, 171: 765.316569, 172: 613.942842, 173: 1016.16749, 174: 31.530635, 175: 75.70322400000001, 176: 145.189576, 177: 764.877017, 178: 39.474974, 179: 1151.803589, 180: 533.5485200000001, 181: 1100.24266, 182: 5.388399, 183: 452.929457, 184: 415.75454, 185: 9.66165, 186: 379.940826, 187: 468.167799, 188: 294.343891, 189: 232.809872, 190: 400.243936, 191: 199.612311];
earn = [0: 0.953363, 1: 0.022314, 2: 0.295134, 3: 0.84204, 4: 0.706961, 5: 1.48882, 6: 1.32054, 7: 0.81691, 8: 1.222996, 9: 0.562267, 10: 0.485576, 11: 1.273785, 12: 0.67743, 13: 1.513557, 14: 0.235394, 15: 0.898479, 16: 0.372696, 17: 1.243907, 18: 1.15659, 19: 0.125952, 20: 0.397854, 21: 0.979039, 22: 1.095226, 23: 0.298309, 24: 0.429358, 25: 0.91017, 26: 0.263526, 27: 0.872774, 28: 0.489987, 29: 0.58523, 30: 0.510429, 31: 0.558958, 32: 0.699048, 33: 0.320212, 34: 0.700348, 35: 0.401406, 36: 0.320945, 37: 0.166729, 38: 0.04413, 39: 0.106378, 40: 0.026458, 41: 0.033856, 42: 0.011727, 43: 0.003022, 44: 0.005632, 45: 0.005041, 46: 0.008128, 47: 0.001353, 48: 0.003343, 49: -0.000235, 50: -0.000792, 51: -0.001964, 52: -0.008125, 53: -0.007904, 54: -0.008493000000000001, 55: -0.001136, 56: -0.019627, 57: -0.012621, 58: -0.003441, 59: -0.020392, 60: -0.001942, 61: -0.001527, 62: -0.001298, 63: -0.001799, 64: 0.001557, 65: 0.013111, 66: 0.027472, 67: 0.308723, 68: 0.499401, 69: 0.46593, 70: 0.191215, 71: 1.338192, 72: 1.682404, 73: 1.449352, 74: 0.525975, 75: 2.070764, 76: 1.891037, 77: 1.978516, 78: 1.99134, 79: 2.922834, 80: 2.486556, 81: 0.96186, 82: 1.726311, 83: 0.933962, 84: 0.348715, 85: 1.464832, 86: 0.9343900000000001, 87: 0.035819, 88: 1.055947, 89: 1.251677, 90: 1.604487, 91: 1.930613, 92: 0.259196, 93: 0.437083, 94: 0.684706, 95: 0.906502, 96: 1.168924, 97: 0.618687, 98: 0.115484, 99: 1.071655, 100: 0.300726, 101: 0.5104030000000001, 102: 1.544207, 103: 0.65119, 104: 0.008026, 105: 0.404211, 106: 0.054873, 107: 0.170335, 108: 1.130694, 109: 1.459751, 110: 0.545126, 111: 0.143376, 112: 1.120496, 113: 0.374284, 114: 0.191996, 115: 0.69162, 116: 0.240485, 117: 0.106406, 118: 0.138371, 119: 0.188691, 120: 0.094347, 121: 0.09773800000000001, 122: 0.030507, 123: 0.028302, 124: 0.021837, 125: -0.004847, 126: -0.004947, 127: -0.032951, 128: -0.010229, 129: -0.013111, 130: -0.034928, 131: -0.04923, 132: -0.252862, 133: -0.211802, 134: -0.069963, 135: -0.579059, 136: -0.991116, 137: -0.314894, 138: -0.612936, 139: -1.066293, 140: -1.364686, 141: -1.058385, 142: -0.923914, 143: -2.457661, 144: -0.834046, 145: -1.1334, 146: -2.342277, 147: -2.953729, 148: -2.809327, 149: -0.122194, 150: -1.502769, 151: -0.7440870000000001, 152: -0.687798, 153: -0.616567, 154: -1.782336, 155: -1.161098, 156: -1.318093, 157: -0.715269, 158: -0.936929, 159: -0.531989, 160: -0.206197, 161: -0.471306, 162: -0.165523, 163: -0.135268, 164: -0.119258, 165: -0.021025, 166: -0.000309, 167: -0.094489, 168: 0.12604, 169: 0.046131, 170: 0.080193, 171: 0.152272, 172: 1.026324, 173: 0.874906, 174: 0.168504, 175: 0.699537, 176: 0.810627, 177: 0.114957, 178: 0.7465850000000001, 179: 1.432032, 180: 1.208528, 181: 1.727159, 182: 0.201243, 183: 1.477907, 184: 0.151858, 185: 0.438016, 186: 1.281422, 187: 0.796814, 188: 0.439605, 189: 1.532843, 190: 0.7130379999999999, 191: 0.754032];
total_cost = 109.6572388792131;
total_earn = 7.571419279413021;
