production = [0: 0.0, 1: 0.0, 2: 0.0, 3: 0.0, 4: 0.0, 5: 0.0, 6: 0.0, 7: 0.0, 8: 0.0, 9: 0.0, 10: 0.0, 11: 0.0, 12: 0.0, 13: 0.0, 14: 0.0, 15: 0.0, 16: 0.0, 17: 0.0, 18: 0.0, 19: 0.0, 20: 0.0, 21: 0.0, 22: 0.0, 23: 0.000354, 24: 0.0, 25: 0.000806, 26: 0.004284, 27: 0.003992, 28: 0.065565, 29: 0.027625, 30: 0.019599, 31: 0.042763, 32: 0.080528, 33: 0.066056, 34: 0.009568, 35: 0.145016, 36: 0.058372, 37: 0.07553600000000001, 38: 0.060851, 39: 0.007074, 40: 0.447533, 41: 0.478245, 42: 0.136492, 43: 0.086954, 44: 0.636246, 45: 0.174847, 46: 0.489729, 47: 0.157661, 48: 0.349085, 49: 0.339737, 50: 0.901686, 51: 0.405829, 52: 0.446963, 53: 0.145703, 54: 0.615569, 55: 0.290775, 56: 0.26705, 57: 1.261083, 58: 0.462582, 59: 0.637666, 60: 0.031285, 61: 0.09041, 62: 0.194587, 63: 0.306873, 64: 0.922691, 65: 0.151643, 66: 0.09131300000000001, 67: 0.110141, 68: 0.477901, 69: 0.351361, 70: 0.376567, 71: 0.345215, 72: 0.133232, 73: 0.07209500000000001, 74: 0.043273, 75: 0.035769, 76: 0.016704, 77: 0.020578, 78: 0.004882, 79: 0.000583, 80: 0.000492, 81: 0.0, 82: 0.0, 83: 0.0, 84: 0.0, 85: 0.0, 86: 0.0, 87: 0.0, 88: 0.0, 89: 0.0, 90: 0.0, 91: 0.0, 92: 0.0, 93: 0.0, 94: 0.0, 95: 0.0, 96: 0.0, 97: 0.0, 98: 0.0, 99: 0.0, 100: 0.0, 101: 0.0, 102: 0.0, 103: 0.0, 104: 0.0, 105: 0.0, 106: 0.0, 107: 0.0, 108: 0.0, 109: 0.0, 110: 0.0, 111: 0.0, 112: 0.0, 113: 0.0, 114: 0.0, 115: 0.0, 116: 0.0, 117: 0.0, 118: 0.000168, 119: 0.0, 120: 0.0, 121: 0.002165, 122: 0.008243, 123: 0.027333, 124: 0.045869, 125: 0.044913, 126: 0.059021, 127: 0.160306, 128: 0.135597, 129: 0.226163, 130: 0.038217, 131: 0.312062, 132: 0.645688, 133: 0.394051, 134: 0.418161, 135: 0.45026, 136: 0.058076, 137: 1.258499, 138: 0.649679, 139: 0.574028, 140: 1.220398, 141: 0.931462, 142: 0.259184, 143: 0.168561, 144: 0.702999, 145: 0.492954, 146: 1.435582, 147: 0.352003, 148: 0.252036, 149: 0.3473, 150: 0.128282, 151: 0.16758, 152: 0.257374, 153: 0.012409, 154: 0.122614, 155: 0.498262, 156: 0.110169, 157: 0.000892, 158: 0.11914, 159: 0.023372, 160: 0.29482, 161: 0.466049, 162: 0.191062, 163: 0.218704, 164: 0.096661, 165: 0.086883, 166: 0.022532, 167: 0.178974, 168: 0.070025, 169: 0.017554, 170: 0.016436, 171: 0.011046, 172: 0.000757, 173: 0.00026, 174: 0.0, 175: 0.0, 176: 0.0, 177: 0.0, 178: 0.0, 179: 0.0, 180: 0.0, 181: 0.0, 182: 0.0, 183: 0.0, 184: 0.0, 185: 0.0, 186: 0.0, 187: 0.0, 188: 0.0, 189: 0.0, 190: 0.0, 191: 0.0];
buy = [0: 1.501337, 1: 697.3584049999999, 2: 957.027912, 3: 882.918092, 4: 692.725186, 5: 490.923745, 6: 705.32067, 7: 151.639867, 8: 516.2542560000001, 9: 436.792276, 10: 467.724599, 11: 293.231413, 12: 996.539793, 13: 374.576367, 14: 526.983799, 15: 151.933987, 16: 903.05101, 17: 547.134138, 18: 118.247946, 19: 857.91295, 20: 533.826516, 21: 364.173705, 22: 16.355779, 23: 594.182395, 24: 684.941583, 25: 396.5133, 26: 204.844902, 27: 892.565544, 28: 549.387336, 29: 152.296518, 30: 264.335627, 31: 818.545106, 32: 6.743138, 33: 462.245847, 34: 674.4323000000001, 35: 937.531106, 36: 116.563814, 37: 606.386296, 38: 683.922424, 39: 509.510906, 40: 514.690619, 41: 659.9190579999999, 42: 966.757146, 43: 958.796203, 44: 616.156342, 45: 59.332029, 46: 987.243203, 47: 419.598242, 48: 138.406168, 49: 671.179389, 50: 55.976808, 51: 507.404742, 52: 627.613121, 53: 137.729842, 54: 914.736708, 55: 307.742452, 56: 325.589575, 57: 176.746402, 58: 839.3711929999999, 59: 411.082447, 60: 982.154897, 61: 241.823334, 62: 661.9824630000001, 63: 238.172553, 64: 936.4808, 65: 615.056345, 66: 115.182175, 67: 33.298043, 68: 384.270131, 69: 12.840166, 70: 677.927259, 71: 960.0056939999999, 72: 812.171781, 73: 765.1408709999999, 74: 112.698526, 75: 791.530401, 76: 975.733714, 77: 545.596423, 78: 573.135768, 79: 556.185039, 80: 981.779288, 81: 304.045659, 82: 887.33495, 83: 542.266219, 84: 98.860472, 85: 328.712779, 86: 917.414885, 87: 144.742439, 88: 107.686925, 89: 415.93455, 90: 376.602726, 91: 962.6587950000001, 92: 956.02101, 93: 29.518978, 94: 602.415172, 95: 900.200462, 96: 847.165983, 97: 293.289183, 98: 176.027814, 99: 862.032055, 100: 150.76619, 101: 337.290186, 102: 359.228839, 103: 89.53425300000001, 104: 431.863333, 105: 250.467467, 106: 450.787877, 107: 627.215294, 108: 25.502287, 109: 987.430216, 110: 476.427302, 111: 524.562945, 112: 792.456139, 113: 164.579803, 114: 235.497242, 115: 881.1428540000001, 116: 221.722366, 117: 349.74085, 118: 221.484409, 119: 600.488897, 120: 241.833859, 121: 688.99698, 122: 760.97955, 123: 159.912959, 124: 889.446758, 125: 90.92036, 126: 226.183372, 127: 265.663232, 128: 329.867214, 129: 694.9970510000001, 130: 825.983885, 131: 748.975172, 132: 103.477251, 133: 997.216338, 134: 628.633025, 135: 606.042075, 136: 134.666931, 137: 531.925564, 138: 286.176916, 139: 294.674092, 140: 367.816745, 141: 894.691462, 142: 381.997931, 143: 500.418767, 144: 482.833125, 145: 343.529085, 146: 11.844133, 147: 15.73383, 148: 959.505736, 149: 846.835626, 150: 633.176025, 151: 442.562785, 152: 723.08097, 153: 825.417629, 154: 253.22317, 155: 879.601314, 156: 382.97887, 157: 39.383092, 158: 67.037578, 159: 570.59068, 160: 51.968262, 161: 739.804967, 162: 677.268513, 163: 789.279523, 164: 938.065112, 165: 221.604043, 166: 513.351235, 167: 202.796967, 168: 185.483081, 169: 358.333369, 170: 322.219085, 171: 653.798391, 172: 86.47865, 173: 583.149255, 174: 756.562802, 175: 325.543531, 176: 151.972233, 177: 452.242176, 178: 45.663963, 179: 598.619615, 180: 239.594897, 181: 90.904099, 182: 79.607596, 183: 245.840231, 184: 842.4114520000001, 185: 902.2411070000001, 186: 338.442722, 187: 152.373994, 188: 820.232404, 189: 315.692108, 190: 479.695211, 191: 486.129];
sell = [0: 0.597312, 1: 2.711028, 2: 1.360713, 3: 0.903145, 4: 1.980458, 5: 3.871311, 6: 0.406888, 7: 0.323798, 8: 2.109443, 9: 3.67681, 10: 1.660274, 11: 2.157817, 12: 2.730214, 13: 2.618888, 14: 1.156205, 15: 2.154369, 16: 2.179836, 17: 3.984111, 18: 2.62836, 19: 1.556724, 20: 1.358955, 21: 1.669432, 22: 2.635262, 23: 1.207548, 24: 1.563392, 25: 2.449548, 26: 2.26274, 27: 2.629744, 28: 1.261909, 29: 2.570529, 30: 3.397242, 31: 3.041879, 32: 2.232039, 33: 3.767711, 34: 1.887597, 35: 0.527582, 36: 3.655548, 37: 1.753059, 38: 0.548523, 39: 2.041615, 40: 0.6066780000000001, 41: 3.404346, 42: 0.536982, 43: 1.512015, 44: 2.932067, 45: 1.053782, 46: 1.528112, 47: 0.815453, 48: 0.860063, 49: 0.188324, 50: 0.439851, 51: 2.773639, 52: 2.346994, 53: 2.657272, 54: 0.166823, 55: 2.738645, 56: 1.852257, 57: 2.74203, 58: 0.375955, 59: 2.131254, 60: 2.027836, 61: 0.236931, 62: 3.742952, 63: 1.510125, 64: 2.799764, 65: 0.942163, 66: 1.445307, 67: 1.862496, 68: 1.289071, 69: 3.097598, 70: 0.997068, 71: 1.405464, 72: 2.868882, 73: 0.211813, 74: 0.77346, 75: 2.796826, 76: 1.791414, 77: 0.60316, 78: 0.07624400000000001, 79: 2.020567, 80: 3.134529, 81: 3.79189, 82: 1.391001, 83: 3.993687, 84: 1.535589, 85: 0.8886849999999999, 86: 3.422596, 87: 3.46981, 88: 0.659349, 89: 2.380642, 90: 0.903436, 91: 2.127342, 92: 1.187511, 93: 3.071257, 94: 0.200889, 95: 2.109291, 96: 1.396954, 97: 1.051085, 98: 2.623308, 99: 1.207466, 100: 3.535592, 101: 0.888006, 102: 0.025701, 103: 1.286622, 104: 2.569094, 105: 1.999805, 106: 3.147436, 107: 3.662686, 108: 2.725049, 109: 1.85233, 110: 3.26205, 111: 3.590544, 112: 0.865838, 113: 0.386346, 114: 3.904343, 115: 2.352245, 116: 0.151152, 117: 1.9924, 118: 0.221875, 119: 2.682334, 120: 1.108157, 121: 2.45388, 122: 2.960927, 123: 0.336086, 124: 1.528442, 125: 3.257953, 126: 3.54132, 127: 2.738851, 128: 3.307185, 129: 1.382758, 130: 2.780083, 131: 3.783549, 132: 1.718213, 133: 1.532292, 134: 0.60081, 135: 2.552177, 136: 0.517468, 137: 1.442183, 138: 0.25347, 139: 3.920337, 140: 0.288475, 141: 3.327354, 142: 3.808493, 143: 2.942139, 144: 0.058563, 145: 1.671997, 146: 3.540307, 147: 2.417384, 148: 0.891611, 149: 2.638203, 150: 0.198877, 151: 1.052268, 152: 3.421357, 153: 3.702328, 154: 0.120084, 155: 2.32979, 156: 0.741751, 157: 0.574525, 158: 3.915157, 159: 1.547786, 160: 2.179749, 161: 3.997193, 162: 2.176322, 163: 3.485942, 164: 3.204803, 165: 0.8809129999999999, 166: 0.081152, 167: 1.778446, 168: 2.832096, 169: 0.01261, 170: 2.332214, 171: 3.034065, 172: 1.494176, 173: 2.641808, 174: 2.952358, 175: 0.407782, 176: 3.133331, 177: 0.286732, 178: 3.312498, 179: 2.598073, 180: 1.261279, 181: 2.162314, 182: 2.451008, 183: 3.755212, 184: 3.9938, 185: 2.258578, 186: 0.14408, 187: 2.062795, 188: 2.191667, 189: 3.76512, 190: 3.193435, 191: 0.032696];
charge = [0: 0.177809, 1: 0.335517, 2: 0.390189, 3: 0.650184, 4: 0.110975, 5: 0.507968, 6: 0.910841, 7: 0.13833, 8: 0.369659, 9: 0.835909, 10: 0.997051, 11: 0.545234, 12: 0.9124370000000001, 13: 0.132615, 14: 0.014082, 15: 0.528459, 16: 0.353854, 17: 0.582786, 18: 0.881628, 19: 0.775841, 20: 0.646231, 21: 0.364796, 22: 0.010903, 23: 0.076914, 24: 0.386965, 25: 0.104948, 26: 0.65032, 27: 0.923199, 28: 0.93996, 29: 0.416233, 30: 0.889271, 31: 0.362054, 32: 0.557581, 33: 0.397681, 34: 0.125946, 35: 0.854866, 36: 0.092902, 37: 0.51758, 38: 0.290751, 39: 0.463422, 40: 0.003145, 41: 0.339978, 42: 0.070046, 43: 0.06483, 44: 0.211976, 45: 0.871675, 46: 0.915814, 47: 0.82752, 48: 0.700975, 49: 0.479543, 50: 0.999906, 51: 0.047919, 52: 0.456163, 53: 0.170436, 54: 0.812299, 55: 0.427533, 56: 0.261599, 57: 0.364638, 58: 0.084938, 59: 0.263223, 60: 0.5383559999999999, 61: 0.231267, 62: 0.058782, 63: 0.079626, 64: 0.833971, 65: 0.685025, 66: 0.938738, 67: 0.426372, 68: 0.638583, 69: 0.92827, 70: 0.631894, 71: 0.368532, 72: 0.881645, 73: 0.989013, 74: 0.339614, 75: 0.591584, 76: 0.258121, 77: 0.623036, 78: 0.128331, 79: 0.588292, 80: 0.715229, 81: 0.511776, 82: 0.368356, 83: 0.218831, 84: 0.858371, 85: 0.24341, 86: 0.6688770000000001, 87: 0.348573, 88: 0.239665, 89: 0.011189, 90: 0.9184, 91: 0.244782, 92: 0.06322800000000001, 93: 0.035819, 94: 0.9671650000000001, 95: 0.566483, 96: 0.728938, 97: 0.735779, 98: 0.395238, 99: 0.491861, 100: 0.15773, 101: 0.541645, 102: 0.936808, 103: 0.02234, 104: 0.775567, 105: 0.380605, 106: 0.355783, 107: 0.188613, 108: 0.242946, 109: 0.088238, 110: 0.361758, 111: 0.277098, 112: 0.136138, 113: 0.777573, 114: 0.533315, 115: 0.36559, 116: 0.207675, 117: 0.256576, 118: 0.190484, 119: 0.869822, 120: 0.507096, 121: 0.566726, 122: 0.708115, 123: 0.577036, 124: 0.487766, 125: 0.925383, 126: 0.293414, 127: 0.328242, 128: 0.572591, 129: 0.09203600000000001, 130: 0.730441, 131: 0.273974, 132: 0.46919, 133: 0.863436, 134: 0.992899, 135: 0.270415, 136: 0.754835, 137: 0.962507, 138: 0.024971, 139: 0.461862, 140: 0.369513, 141: 0.912046, 142: 0.097955, 143: 0.457646, 144: 0.284318, 145: 0.696268, 146: 0.737208, 147: 0.77323, 148: 0.503061, 149: 0.90113, 150: 0.366901, 151: 0.110381, 152: 0.060717, 153: 0.120446, 154: 0.186121, 155: 0.891896, 156: 0.266491, 157: 0.188996, 158: 0.5863930000000001, 159: 0.216633, 160: 0.246028, 161: 0.858141, 162: 0.732607, 163: 0.234278, 164: 0.866071, 165: 0.183237, 166: 0.38311, 167: 0.207719, 168: 0.808051, 169: 0.241296, 170: 0.545104, 171: 0.661721, 172: 0.419336, 173: 0.153309, 174: 0.884368, 175: 0.242616, 176: 0.841006, 177: 0.29533, 178: 0.207398, 179: 0.104758, 180: 0.683006, 181: 0.627633, 182: 0.9445519999999999, 183: 0.565595, 184: 0.381195, 185: 0.220733, 186: 0.614294, 187: 0.944895, 188: 0.292268, 189: 0.63078, 190: 0.381738, 191: 0.966492];
discharge = [0: 0.708394, 1: 0.164457, 2: 0.32203, 3: 0.743474, 4: 0.562348, 5: 0.496303, 6: 0.970172, 7: 0.834871, 8: 0.881902, 9: 0.5627259999999999, 10: 0.414685, 11: 0.406442, 12: 0.713489, 13: 0.553948, 14: 0.731101, 15: 0.054745, 16: 0.04308, 17: 0.718881, 18: 0.671574, 19: 0.5973889999999999, 20: 0.301741, 21: 0.291289, 22: 0.368439, 23: 0.204655, 24: 0.878441, 25: 0.858896, 26: 0.838326, 27: 0.576471, 28: 0.838812, 29: 0.663674, 30: 0.645137, 31: 0.673942, 32: 0.739587, 33: 0.66801, 34: 0.246781, 35: 0.739542, 36: 0.5553360000000001, 37: 0.8953989999999999, 38: 0.155679, 39: 0.27665, 40: 0.151046, 41: 0.206888, 42: 0.405624, 43: 0.783955, 44: 0.45665, 45: 0.752638, 46: 0.460534, 47: 0.368618, 48: 0.358472, 49: 0.755005, 50: 0.682806, 51: 0.912359, 52: 0.054826, 53: 0.821488, 54: 0.783976, 55: 0.58579, 56: 0.726757, 57: 0.682015, 58: 0.81594, 59: 0.495299, 60: 0.164521, 61: 0.464303, 62: 0.04616, 63: 0.117982, 64: 0.168573, 65: 0.631315, 66: 0.164411, 67: 0.423911, 68: 0.992644, 69: 0.75385, 70: 0.885965, 71: 0.033624, 72: 0.601793, 73: 0.7341839999999999, 74: 0.896539, 75: 0.623433, 76: 0.8032010000000001, 77: 0.31422, 78: 0.717733, 79: 0.788867, 80: 0.96497, 81: 0.560574, 82: 0.162108, 83: 0.459267, 84: 0.063086, 85: 0.268693, 86: 0.972934, 87: 0.643225, 88: 0.728206, 89: 0.898683, 90: 0.788192, 91: 0.882348, 92: 0.093461, 93: 0.061874, 94: 0.672624, 95: 0.7294850000000001, 96: 0.6544219999999999, 97: 0.297352, 98: 0.78779, 99: 0.588672, 100: 0.147245, 101: 0.848175, 102: 0.049379, 103: 0.369074, 104: 0.037209, 105: 0.1907, 106: 0.017497, 107: 0.644272, 108: 0.100033, 109: 0.609954, 110: 0.777721, 111: 0.107531, 112: 0.403388, 113: 0.014741, 114: 0.340132, 115: 0.104226, 116: 0.078663, 117: 0.829125, 118: 0.882993, 119: 0.679828, 120: 0.568281, 121: 0.653141, 122: 0.970047, 123: 0.380367, 124: 0.817217, 125: 0.170616, 126: 0.738847, 127: 0.9544859999999999, 128: 0.0545, 129: 0.194995, 130: 0.918808, 131: 0.018277, 132: 0.129194, 133: 0.505594, 134: 0.068146, 135: 0.386551, 136: 0.624093, 137: 0.331992, 138: 0.457897, 139: 0.344254, 140: 0.725655, 141: 0.325374, 142: 0.390213, 143: 0.934952, 144: 0.855056, 145: 0.686434, 146: 0.101018, 147: 0.05381, 148: 0.9611229999999999, 149: 0.137349, 150: 0.86735, 151: 0.669066, 152: 0.426942, 153: 0.111205, 154: 0.709344, 155: 0.785234, 156: 0.921416, 157: 0.7318480000000001, 158: 0.563935, 159: 0.683872, 160: 0.101612, 161: 0.641205, 162: 0.44753, 163: 0.803457, 164: 0.92594, 165: 0.440698, 166: 0.873241, 167: 0.932022, 168: 0.731642, 169: 0.429684, 170: 0.144206, 171: 0.497089, 172: 0.825273, 173: 0.378833, 174: 0.845729, 175: 0.033874, 176: 0.841564, 177: 0.945112, 178: 0.942923, 179: 0.13713, 180: 0.422446, 181: 0.319058, 182: 0.620312, 183: 0.498227, 184: 0.30033, 185: 0.944405, 186: 0.7727579999999999, 187: 0.733525, 188: 0.007043, 189: 0.178996, 190: 0.972298, 191: 0.740444];
soc = [0: 9.895713000000001, 1: 9.919555000000001, 2: 8.542289, 3: 11.024553, 4: 10.97155, 5: 11.496468, 6: 10.526813, 7: 2.982612, 8: 15.407432, 9: 13.421234, 10: 12.847281, 11: 13.454518, 12: 7.309273, 13: 13.284812, 14: 10.158673, 15: 4.320474, 16: 14.36687, 17: 4.307341, 18: 14.749598, 19: 13.750096, 20: 11.25985, 21: 8.87419, 22: 3.273655, 23: 10.003705, 24: 6.237479, 25: 8.894572999999999, 26: 13.523995, 27: 14.727829, 28: 6.846542, 29: 7.891016, 30: 7.084581, 31: 8.990399999999999, 32: 15.250492, 33: 10.460356, 34: 12.002209, 35: 5.156402, 36: 6.217587, 37: 5.034781, 38: 5.861249, 39: 7.664082, 40: 3.440998, 41: 4.912687, 42: 8.996542, 43: 2.734911, 44: 9.089249000000001, 45: 4.403149, 46: 5.640891, 47: 12.889055, 48: 7.559285, 49: 6.668566, 50: 7.894196, 51: 4.431131, 52: 3.250678, 53: 6.749756, 54: 6.674225, 55: 9.955508, 56: 6.516182, 57: 11.042874, 58: 6.004332, 59: 10.411197, 60: 4.991409, 61: 15.233786, 62: 14.130058, 63: 14.860328, 64: 6.29297, 65: 6.511297, 66: 9.866018, 67: 12.145228, 68: 5.528268, 69: 7.96425, 70: 9.816174, 71: 13.063893, 72: 13.801978, 73: 11.961038, 74: 3.800916, 75: 6.473029, 76: 6.348008, 77: 4.801096, 78: 14.523704, 79: 13.204869, 80: 9.608274, 81: 10.774776, 82: 9.636998999999999, 83: 6.029334, 84: 11.192807, 85: 9.128463, 86: 6.171665, 87: 5.300881, 88: 8.242905, 89: 8.749760999999999, 90: 3.206348, 91: 5.969623, 92: 7.575811, 93: 13.267255, 94: 3.436966, 95: 4.128073, 96: 10.547298, 97: 5.714635, 98: 10.738484, 99: 6.518553, 100: 8.152927, 101: 13.50063, 102: 6.985101, 103: 14.716369, 104: 11.000669, 105: 8.19604, 106: 3.12256, 107: 12.536503, 108: 10.78505, 109: 6.199469, 110: 14.754008, 111: 10.018849, 112: 4.54382, 113: 6.503986, 114: 12.810251, 115: 12.022907, 116: 6.2457, 117: 5.742643, 118: 4.064368, 119: 5.801112, 120: 13.654159, 121: 13.905707, 122: 3.655807, 123: 8.671048000000001, 124: 5.55849, 125: 8.163577, 126: 15.498653, 127: 4.463487, 128: 12.880079, 129: 8.994431000000001, 130: 13.345235, 131: 3.474332, 132: 13.66185, 133: 13.715216, 134: 7.75075, 135: 8.104576, 136: 7.623951, 137: 11.542297, 138: 4.130313, 139: 8.042669999999999, 140: 9.351786000000001, 141: 9.688218000000001, 142: 8.530796, 143: 10.346675, 144: 15.659474, 145: 4.09942, 146: 13.928077, 147: 10.944626, 148: 4.844241, 149: 4.530595, 150: 8.82066, 151: 12.273945, 152: 8.979887, 153: 14.09635, 154: 5.157931, 155: 13.365259, 156: 15.250463, 157: 12.442701, 158: 13.694308, 159: 8.581528, 160: 4.238781, 161: 13.272763, 162: 12.61027, 163: 5.37803, 164: 4.09774, 165: 14.370634, 166: 15.406239, 167: 10.081574, 168: 10.576983, 169: 9.013688999999999, 170: 4.029652, 171: 5.875976, 172: 6.41458, 173: 6.792605, 174: 14.96828, 175: 11.41301, 176: 8.046086000000001, 177: 7.381341, 178: 8.584929000000001, 179: 5.804866, 180: 10.052371, 181: 14.475208, 182: 10.034671, 183: 14.85299, 184: 11.442661, 185: 12.349843, 186: 8.992856, 187: 10.504707, 188: 10.927406, 189: 4.143565, 190: 13.621166, 191: 12.170506];
cost = [0: 406.423119, 1: 174.224249, 2: 194.164116, 3: 445.00267, 4: 52.403887, 5: 108.580056, 6: 483.652409, 7: 103.12899, 8: 158.350585, 9: 149.951556, 10: 351.963396, 11: 446.30574, 12: 373.115562, 13: 233.629583, 14: 317.566857, 15: 222.389169, 16: 479.975643, 17: 321.208719, 18: 448.124797, 19: 168.067026, 20: 460.498395, 21: 53.380424, 22: 206.958543, 23: 279.483472, 24: 1099.940225, 25: 737.513121, 26: 1036.364468, 27: 136.164573, 28: 417.906253, 29: 20.690141, 30: 380.610943, 31: 1180.953738, 32: 1002.632709, 33: 67.37738299999999, 34: 789.747883, 35: 552.30889, 36: 251.192698, 37: 415.13392, 38: 246.651976, 39: 302.976623, 40: 354.086513, 41: 1152.445746, 42: 423.563606, 43: 408.642612, 44: 511.137584, 45: 648.81537, 46: 338.180723, 47: 272.725426, 48: 1040.196759, 49: 602.4875960000001, 50: 858.891943, 51: 499.715766, 52: 55.735323, 53: 519.953247, 54: 232.545007, 55: 563.982403, 56: 379.248382, 57: 514.580765, 58: 176.229859, 59: 288.80093, 60: 464.87532, 61: 660.480497, 62: 819.432677, 63: 397.309748, 64: 643.783061, 65: 1132.016099, 66: 759.235776, 67: 1028.842674, 68: 1111.484733, 69: 270.350055, 70: 336.380303, 71: 196.515762, 72: 855.434969, 73: 412.799803, 74: 984.168871, 75: 642.091098, 76: 331.277913, 77: 1183.418905, 78: 580.739183, 79: 1096.715599, 80: 1131.569452, 81: 1073.138219, 82: 520.825408, 83: 743.703214, 84: 924.966279, 85: 73.861439, 86: 1031.164297, 87: 189.21105, 88: 161.639007, 89: 248.399527, 90: 30.967586, 91: 578.99569, 92: 443.055422, 93: 22.65993, 94: 522.69403, 95: 32.283109, 96: 469.145309, 97: 585.48985, 98: 162.492896, 99: 314.569755, 100: 503.479493, 101: 572.860177, 102: 533.330034, 103: 300.833873, 104: 355.350677, 105: 528.448119, 106: 603.1827019999999, 107: 32.135983, 108: 510.751576, 109: 382.228244, 110: 300.516936, 111: 454.023222, 112: 118.531909, 113: 338.245888, 114: 547.164337, 115: 184.295096, 116: 576.55627, 117: 278.85656, 118: 192.468523, 119: 65.350116, 120: 190.427011, 121: 557.551435, 122: 602.0985899999999, 123: 540.524296, 124: 1173.696914, 125: 482.331877, 126: 778.693476, 127: 1086.431903, 128: 571.992561, 129: 981.4762899999999, 130: 985.269717, 131: 1142.753242, 132: 339.472209, 133: 545.010899, 134: 565.918893, 135: 323.148645, 136: 1121.168267, 137: 95.002323, 138: 138.619575, 139: 872.504291, 140: 400.5316, 141: 688.435376, 142: 483.013, 143: 526.572229, 144: 1018.737423, 145: 146.054296, 146: 933.0242459999999, 147: 455.140146, 148: 275.459965, 149: 40.234851, 150: 325.318819, 151: 213.001863, 152: 439.311074, 153: 539.557824, 154: 87.804565, 155: 230.804634, 156: 1107.965133, 157: 1003.294292, 158: 92.920052, 159: 1007.98462, 160: 754.491291, 161: 665.940128, 162: 1027.886347, 163: 683.537244, 164: 804.553521, 165: 1164.363009, 166: 904.663379, 167: 942.372357, 168: 709.841917, 169: 640.639355, 170: 428.652826, 171: 1042.590837, 172: 617.118122, 173: 770.317076, 174: 800.379967, 175: 457.282283, 176: 774.527882, 177: 826.032427, 178: 279.639091, 179: 453.290368, 180: 1069.596864, 181: 1036.577912, 182: 394.013835, 183: 158.059623, 184: 148.316482, 185: 63.222536, 186: 241.198939, 187: 463.275065, 188: 475.72004, 189: 415.93847, 190: 397.643964, 191: 319.331087];
earn = [0: 2.016442, 1: 0.857027, 2: 1.466398, 3: 1.146729, 4: 1.731619, 5: 1.045886, 6: 1.061101, 7: 0.642566, 8: 0.317611, 9: 0.8102009999999999, 10: 0.6516380000000001, 11: 1.213646, 12: 0.210188, 13: 0.410201, 14: 1.199889, 15: 0.359377, 16: 0.347011, 17: 0.852526, 18: 1.067799, 19: 0.906506, 20: 0.622383, 21: 1.099492, 22: 0.752549, 23: 0.657197, 24: 0.362679, 25: 0.838668, 26: 0.405589, 27: 0.975082, 28: 0.392728, 29: 0.590749, 30: 0.410868, 31: 0.386998, 32: 0.861191, 33: 0.564549, 34: 0.792779, 35: 0.336878, 36: 0.437311, 37: 0.278403, 38: 0.08280999999999999, 39: 0.05679, 40: 0.073353, 41: 0.021973, 42: 0.036389, 43: 0.005887, 44: 0.0165, 45: 0.009218, 46: 0.000252, 47: 0.002376, 48: 0.004159, 49: -0.000938, 50: -0.003847, 51: -0.004553, 52: -0.005342, 53: -0.006282, 54: -0.006213, 55: -0.007958, 56: -0.014253, 57: -0.010006, 58: -0.011969, 59: -0.00249, 60: -0.002686, 61: -0.003995, 62: -0.000365, 63: -0.002, 64: 0.000665, 65: 0.006456, 66: 0.042916, 67: 0.129506, 68: 0.667127, 69: 0.06769699999999999, 70: 0.305667, 71: 1.023541, 72: 1.190434, 73: 0.9555979999999999, 74: 2.227095, 75: 1.36173, 76: 1.332774, 77: 0.08399, 78: 2.867624, 79: 2.340766, 80: 0.522374, 81: 0.013693, 82: 0.030166, 83: 2.080571, 84: 1.318216, 85: 1.876825, 86: 1.800269, 87: 1.20836, 88: 0.61435, 89: 1.717084, 90: 1.911199, 91: 0.409479, 92: 0.163136, 93: 0.457386, 94: 1.767215, 95: 0.708241, 96: 0.76022, 97: 0.419183, 98: 0.594006, 99: 1.231205, 100: 0.102257, 101: 0.144309, 102: 0.090894, 103: 0.142416, 104: 1.331841, 105: 0.362612, 106: 1.227149, 107: 1.155783, 108: 1.325355, 109: 0.313614, 110: 0.823733, 111: 1.088949, 112: 0.55561, 113: 0.218182, 114: 0.846724, 115: 0.938928, 116: 0.395123, 117: 0.229735, 118: 0.406748, 119: 0.204712, 120: 0.112469, 121: 0.006045, 122: 0.108565, 123: 0.037227, 124: 0.003816, 125: -0.010134, 126: -0.015898, 127: -0.006666, 128: -0.017249, 129: -0.011919, 130: -0.02059, 131: -0.025407, 132: -0.078946, 133: -0.00826, 134: -0.079442, 135: -0.089383, 136: -0.649147, 137: -1.018458, 138: -1.273999, 139: -1.184538, 140: -0.434958, 141: -1.050686, 142: -0.678749, 143: -2.120222, 144: -0.989808, 145: -0.734715, 146: -2.276013, 147: -2.926823, 148: -2.619057, 149: -1.93694, 150: -1.289214, 151: -3.364585, 152: -0.672384, 153: -0.602488, 154: -1.409883, 155: -1.450128, 156: -1.824852, 157: -1.771378, 158: -0.655139, 159: -0.457654, 160: -0.242104, 161: -0.150639, 162: -0.042438, 163: -0.361046, 164: -0.211792, 165: -0.079536, 166: -0.008621, 167: -0.022093, 168: 0.153684, 169: 0.042623, 170: 0.108765, 171: 0.12442, 172: 0.021621, 173: 0.495501, 174: 1.374895, 175: 0.07245799999999999, 176: 1.735637, 177: 0.022194, 178: 0.00607, 179: 1.175487, 180: 1.260745, 181: 1.430227, 182: 1.036935, 183: 1.277267, 184: 0.808191, 185: 0.710354, 186: 1.595943, 187: 1.345555, 188: 1.507446, 189: 0.163694, 190: 1.251951, 191: 0.257127];
total_cost = 106.9766085274494;
total_earn = 4.159620338030574;
