production = [0.0, 0.0, 0.0, 0.0, 0.0, 0.0, 0.0, 0.0, 0.0, 0.0, 0.0, 0.0, 0.0, 0.0, 0.0, 0.0, 0.0, 0.0, 0.0, 0.0, 0.0, 0.0, 0.0, 0.0003, 0.0, 0.0283, 0.0452, 0.0843, 0.0, 0.145, 0.218, 0.4283, 0.0, 0.7712, 0.881, 0.0, 0.0, 0.0, 0.0, 0.0, 0.0, 0.0, 1.094, 1.1045, 1.1018, 0.0, 0.0, 0.0, 0.0, 0.0, 0.0, 0.0, 0.0638, 0.317, 0.3438, 0.3775, 0.0, 1.3277, 1.221, 0.0, 0.0, 0.0, 0.7562, 0.0, 0.0, 0.0, 0.3402, 0.0, 0.132, 0.0825, 0.0, 0.0, 0.0, 0.0003, 0.0, 0.0, 0.0, 0.0, 0.0, 0.0, 0.0, 0.0, 0.0, 0.0, 0.0, 0.0, 0.0, 0.0, 0.0, 0.0, 0.0, 0.0, 0.0, 0.0, 0.0, 0.0];
buy = [0.0, 0.0, 1.355528, 0.312528, 0.0, 1.835828, 0.335028, 0.265328, 0.259728, 1.270028, 0.268528, 1.271328, 0.271828, 0.0, 1.271828, 0.0, 0.243028, 0.0, 0.0, 0.224028, 1.223028, 0.223528, 1.222728, 1.223928, 1.083328, 0.0, 0.045328, 1.002228, 0.087728, 0.0, 0.0, 0.0, 1.088228, 0.314128, 0.0, 0.0, 1.087228, 0.0, 1.083028, 0.0, 0.0, 1.087528, 0.0, 0.0, 0.0, 0.083828, 0.0, 1.084328, 0.090528, 0.0, 0.0, 0.0, 0.022928, 0.019528, 1.046028, 0.020828, 1.409828, 0.051328, 0.0, 0.356528, 0.0, 1.133728, 0.378028, 0.160152634, 1.133228, 1.128828, 0.0, 1.130028, 0.999728, 1.047728, 0.0, 0.0, 0.0, 0.0, 0.0, 0.0, 1.072528, 1.075028, 0.074728, 1.075028, 1.074728, 0.091528, 1.093328, 1.093828, 0.092028, 0.092528, 0.0, 0.091528, 0.0, 0.257728, 0.315228, 1.313528, 1.314028, 1.276028, 0.0, 1.090568977];
sell = [0.497972, 0.543972, 0.0, 0.0, 0.592472, 0.0, 0.0, 0.0, 0.0, 0.0, 0.0, 0.0, 0.0, 0.626472, 0.0, 0.435172, 0.0, 0.658672, 0.392399904, 0.0, 0.0, 0.0, 0.0, 0.0, 0.0, 0.841072, 0.0, 0.0, 0.0, 0.057772, 0.130472, 0.343972, 0.0, 0.0, 0.0, 0.813672, 0.0, 0.814972, 0.0, 0.817972, 0.817172, 0.0, 1.010972, 1.916272, 1.919772, 0.0, 0.810472, 0.0, 0.0, 0.428179207, 0.817172, 0.815672, 0.0, 0.0, 0.0, 0.0, 0.0, 0.0, 1.737972, 0.0, 0.767272, 0.0, 0.0, 0.0, 0.0, 0.0, 1.111872, 0.0, 0.0, 0.0, 0.781272, 0.780772, 0.779772, 0.780572, 0.7794720000000001, 0.823972, 0.0, 0.0, 0.0, 0.0, 0.0, 0.0, 0.0, 0.0, 0.0, 0.0, 0.807472, 0.0, 0.807472, 0.0, 0.0, 0.0, 0.0, 0.0, 0.627972, 0.0];
charge = [0.0, 0.0, 1.0, 0.0, 0.0, 1.0, 0.0, 0.0, 0.0, 1.0, 0.0, 1.0, 0.0, 0.0, 1.0, 0.0, 0.0, 0.0, 0.0, 0.0, 1.0, 0.0, 1.0, 1.0, 1.0, 0.0, 0.0, 1.0, 0.0, 0.0, 0.0, 0.0, 1.0, 1.0, 0.793972, 0.0, 1.0, 0.0, 1.0, 0.0, 0.0, 1.0, 0.0, 0.0, 0.0, 0.0, 0.0, 1.0, 0.0, 0.0, 0.0, 0.0, 0.0, 0.0, 1.0, 0.0, 1.0, 1.0, 0.0, 0.0, 0.0, 1.0, 1.0, 0.025924634, 1.0, 1.0, 0.0, 1.0, 1.0, 1.0, 0.0, 0.0, 0.0, 0.0, 0.0, 0.0, 1.0, 1.0, 0.0, 1.0, 1.0, 0.0, 1.0, 1.0, 0.0, 0.0, 0.0, 0.0, 0.0, 0.0, 0.0, 1.0, 1.0, 1.0, 0.0, 0.817240977];
discharge = [1.0, 1.0, 0.0, 0.0, 1.0, 0.0, 0.0, 0.0, 0.0, 0.0, 0.0, 0.0, 0.0, 1.0, 0.0, 1.0, 0.0, 1.0, 0.693808783, 0.0, 0.0, 0.0, 0.0, 0.0, 0.0, 1.0, 0.0, 0.0, 0.0, 0.0, 0.0, 0.0, 0.0, 0.0, 0.0, 1.0, 0.0, 1.0, 0.0, 1.0, 1.0, 0.0, 0.0, 1.0, 1.0, 0.0, 1.0, 0.0, 0.0, 0.57523023, 1.0, 1.0, 0.0, 0.0, 0.0, 0.0, 0.0, 0.0, 1.0, 0.0, 1.0, 0.0, 0.0, 0.0, 0.0, 0.0, 1.0, 0.0, 0.0, 0.0, 1.0, 1.0, 1.0, 1.0, 1.0, 1.0, 0.0, 0.0, 0.0, 0.0, 0.0, 0.0, 0.0, 0.0, 0.0, 0.0, 1.0, 0.0, 1.0, 0.0, 0.0, 0.0, 0.0, 0.0, 1.0, 0.0];
soc = [3.859028, 2.858256194, 3.757684543, 3.756933006, 2.75618162, 3.655630383, 3.654899257, 3.654168277, 3.653437444, 4.552706756, 4.551796215, 5.450885856, 5.449795678, 4.448705719, 5.347815978, 4.346746415, 4.345877066, 3.34500789, 2.650530106, 2.65, 3.54947, 3.548760106, 4.448050354, 5.347160744, 6.246091312, 5.244842093, 5.243793125, 6.142744366, 6.141515818, 6.140287514, 6.139059457, 6.137831645, 7.036604079, 7.935196758, 8.648184519000001, 7.646454882, 8.544925591, 7.543216606, 8.441707962000001, 7.440019621, 6.438531617, 7.33724391, 7.335776462, 6.334309306, 5.333042444, 5.331975836, 4.330909441, 5.230043259, 5.22899725, 4.65272122, 3.651790676, 2.651060318, 2.650530106, 2.65, 3.54947, 3.548760106, 4.448050354, 5.347160744, 4.346091312, 4.345222093, 3.344353049, 4.243684178, 5.142835442, 5.165139045, 6.064106017, 6.962893196, 5.961500617, 6.860308317, 7.758936255, 8.657384468, 7.655652991, 6.654121861, 5.652791036, 4.651660478, 3.650730146, 2.65, 3.54947, 4.448760106, 4.447870354, 5.34698078, 6.245911384, 6.244662201, 7.143413269, 8.041984586, 8.040376189, 8.038768114, 7.037160361, 7.035752929, 6.034345778, 6.033138909, 6.031932281, 6.930725895, 7.829339749, 8.727773880999999, 7.726028327, 8.460000000000001];
cost = [0.0, 0.0, 0.946270221, 0.190923355, 0.0, 1.239685491, 0.204668605, 0.162088875, 0.158667835, 0.894038271, 0.164043755, 0.894832441, 0.166059725, 0.0, 0.895137891, 0.0, 0.148465805, 0.0, 0.0, 0.136858705, 0.865325971, 0.136553255, 0.865142701, 0.865875781, 1.406905154, 0.0, 0.053922189, 1.310428594, 0.104361229, 0.0, 0.0, 0.0, 1.412734194, 0.491864834, 0.093830154, 0.0, 1.411544594, 0.0, 1.406548274, 0.0, 0.0, 1.411901474, 0.0, 0.0, 0.0, 0.09972178900000001, 0.0, 1.408094754, 0.107692109, 0.0, 0.0, 0.0, 0.014006715, 0.011929655, 0.757196671, 0.012723825, 0.979442091, 0.149534441, 0.0, 0.217802955, 0.0, 1.466860994, 0.567880274, 0.193581299, 1.466266194, 1.461031954, 0.0, 1.462459474, 1.307454594, 1.364555394, 0.0, 0.0, 0.0, 0.0, 0.0, 0.0, 1.394057474, 1.397031474, 0.088896429, 1.397031474, 1.396674594, 0.108881709, 1.418801154, 1.419395954, 0.109476509, 0.110071309, 0.0, 0.108881709, 0.0, 0.157446035, 0.192572785, 0.920612421, 0.920917871, 0.897703671, 0.0, 0.762808627];
earn = [0.273038048, 0.289828282, 0.0, 0.0, 0.314543385, 0.0, 0.0, 0.0, 0.0, 0.0, 0.0, 0.0, 0.0, 0.32933633, 0.0, 0.229770816, 0.0, 0.351072176, 0.209580789, 0.0, 0.0, 0.0, 0.0, 0.0, 0.0, 0.631897394, 0.0, 0.0, 0.0, 0.043964492, 0.09470962500000001, 0.224854496, 0.0, 0.0, 0.0, 0.376811503, 0.0, 0.263154459, 0.0, 0.102082906, -0.003595557, 0.0, -0.10615206, -0.20944853, -0.049530118, 0.0, -0.038821609, 0.0, 0.0, -0.022950406, -0.035792134, -0.014437394, 0.0, 0.0, 0.0, 0.0, 0.0, 0.0, 0.035107034, 0.0, 0.242534679, 0.0, 0.0, 0.0, 0.0, 0.0, 0.751959034, 0.0, 0.0, 0.0, 0.67720657, 0.725259111, 0.752324026, 0.778464456, 0.793502496, 0.84045144, 0.0, 0.0, 0.0, 0.0, 0.0, 0.0, 0.0, 0.0, 0.0, 0.0, 0.566441608, 0.0, 0.55973959, 0.0, 0.0, 0.0, 0.0, 0.0, 0.381241801, 0.0];
total_cost = 43.888175754;
total_earn = 10.358148738;
