production = [0.0, 0.0, 0.0, 0.0, 0.0, 0.0, 0.0, 0.0, 0.0, 0.0, 0.0, 0.0, 0.0, 0.0, 0.0, 0.0, 0.0, 0.0, 0.0, 0.0, 0.0, 0.0, 0.0, 0.0003, 0.0045, 0.0, 0.0452, 0.0843, 0.11, 0.0, 0.218, 0.0, 0.0, 0.0, 0.881, 0.0, 0.0, 0.0, 1.2873, 0.0, 1.082828, 1.1013, 0.0, 1.1045, 1.082028, 1.102, 0.4933, 0.0575, 0.0602, 0.0592, 0.0, 0.0, 0.0, 0.0, 0.0, 0.3775, 0.0, 0.0, 0.0, 0.0, 1.0217, 0.0, 0.7562, 0.0, 0.5952, 0.4165, 0.0, 0.1988, 0.0, 0.0825, 0.0435, 0.0177, 0.0055, 0.0003, 0.0, 0.0, 0.0, 0.0, 0.0, 0.0, 0.0, 0.0, 0.0, 0.0, 0.0, 0.0, 0.0, 0.0, 0.0, 0.0, 0.0, 0.0, 0.0, 0.0, 0.0, 0.0];
buy = [0.21539723, 0.0, 0.0, 1.312528, 1.307528, 0.835828, 0.335028, 1.265328, 0.259728, 1.270028, 1.065050014, 1.271328, 0.0, 1.273528, 0.271828, 1.464828, 1.243028, 0.241328, 0.0, 1.224028, 1.223028, 0.223528, 0.0, 0.0, 0.0, 0.087228, 1.045328, 1.002228, 0.977728, 0.087228, 0.0, 1.084328, 1.088228, 1.085328, 0.206028, 1.086328, 0.087228, 1.085028, 0.0, 0.0, 0.0, 0.0, 0.0, 0.0, 0.0, 0.0, 0.596228, 0.026828, 1.030328, 1.030328, 0.082828, 1.084328, 0.086728, 0.336528, 0.400272577, 0.020828, 0.0, 0.379028, 1.383028, 0.0, 0.0, 0.133728, 0.0, 0.0, 0.538028, 0.712328, 0.0, 0.0, 0.0, 0.0, 0.0, 1.101528, 1.114728, 0.0, 1.120528, 1.076028, 0.0, 1.075028, 0.0, 0.075028, 0.074728, 0.091528, 0.09332799999999999, 0.0, 0.0, 0.0, 0.0, 0.0, 0.0, 0.295335394, 0.0, 0.313528, 1.314028, 0.0, 0.272028, 0.273328];
sell = [0.0, 0.543972, 0.544472, 0.0, 0.0, 0.0, 0.0, 0.0, 0.0, 0.0, 0.0, 0.0, 0.628172, 0.0, 0.0, 0.0, 0.0, 0.0, 0.667972, 0.0, 0.0, 0.0, 0.677272, 0.676072, 0.821172, 0.0, 0.0, 0.0, 0.0, 0.0, 1.030472, 0.0, 0.0, 0.0, 0.0, 0.0, 0.0, 0.0, 0.204272, 0.817972, 0.0, 1.913772, 0.816972, 1.916272, 0.0, 1.918172, 0.0, 0.0, 0.0, 0.0, 0.0, 0.0, 0.0, 0.0, 0.0, 0.0, 0.490172, 0.0, 0.0, 0.543472, 0.888972, 0.0, 0.252327068, 0.765772, 0.0, 0.0, 0.0, 0.068772, 0.768272, 0.852272, 0.8247719999999999, 0.0, 0.0, 0.266391126, 0.0, 0.0, 0.7319922679999999, 0.0, 0.825272, 0.0, 0.0, 0.0, 0.0, 0.806172, 0.807972, 0.807472, 0.807472, 0.0, 0.807472, 0.0, 0.584772, 0.0, 0.0, 0.623972, 0.0, 0.0];
charge = [0.0, 0.0, 0.0, 1.0, 1.0, 0.0, 0.0, 1.0, 0.0, 1.0, 0.796522014, 1.0, 0.0, 1.0, 0.0, 1.0, 1.0, 0.0, 0.0, 1.0, 1.0, 0.0, 0.0, 0.0, 0.0, 0.0, 1.0, 1.0, 1.0, 0.0, 0.0, 1.0, 1.0, 1.0, 1.0, 1.0, 0.0, 1.0, 1.0, 0.0, 1.0, 0.0, 0.0, 0.0, 1.0, 0.0, 1.0, 0.0, 1.0, 1.0, 0.0, 1.0, 0.0, 0.0, 0.010444577, 0.0, 0.0, 0.0, 1.0, 0.0, 0.0, 0.0, 0.369644932, 0.0, 1.0, 1.0, 0.0, 0.0, 0.0, 0.0, 0.0, 1.0, 1.0, 0.0, 1.0, 1.0, 0.0, 1.0, 0.0, 0.0, 0.0, 0.0, 0.0, 0.0, 0.0, 0.0, 0.0, 0.0, 0.0, 0.037607394, 0.0, 0.0, 1.0, 0.0, 0.0, 0.0];
discharge = [0.207367522, 1.0, 1.0, 0.0, 0.0, 0.0, 0.0, 0.0, 0.0, 0.0, 0.0, 0.0, 1.0, 0.0, 0.0, 0.0, 0.0, 0.0, 1.0, 0.0, 0.0, 0.0, 1.0, 1.0, 1.0, 0.0, 0.0, 0.0, 0.0, 0.0, 1.0, 0.0, 0.0, 0.0, 0.0, 0.0, 0.0, 0.0, 0.0, 1.0, 0.0, 1.0, 1.0, 1.0, 0.0, 1.0, 0.0, 0.0, 0.0, 0.0, 0.0, 0.0, 0.0, 0.0, 0.0, 0.0, 1.0, 0.0, 0.0, 1.0, 0.0, 0.0, 0.0, 1.0, 0.0, 0.0, 0.142586667, 0.0, 1.0, 1.0, 1.0, 0.0, 0.0, 0.428687918, 0.0, 0.0, 0.893911409, 0.0, 1.0, 0.0, 0.0, 0.0, 0.0, 1.0, 1.0, 1.0, 1.0, 0.101697778, 1.0, 0.0, 1.0, 0.0, 0.0, 1.0, 0.0, 0.0];
soc = [4.651660478, 3.650730146, 2.65, 3.54947, 4.448760106, 4.447870354, 4.44698078, 5.346091384, 5.345022165, 6.243953161, 6.959574183, 7.858182268, 6.856610631, 7.755239309, 7.753688261, 8.652137524, 9.550407096000001, 9.548497015000001, 8.546587315, 9.444877998000001, 10.342989022, 10.340920425, 9.33885224, 8.336984470000001, 7.335317073, 7.33385001, 8.232383240000001, 9.130736763, 10.028910616, 10.026904834, 9.024899453, 9.923094473000001, 10.821109854, 11.718945632, 12.616601843, 13.514078522, 13.511375707, 14.408673432, 15.305791697, 14.302730539, 15.199869992, 14.196830018, 13.193990652, 12.191351854, 13.088913584, 12.086295801, 12.983878542, 12.981281766, 13.87868551, 14.775909773, 14.772954591, 15.67, 15.666866, 15.663732627, 15.67, 15.666866, 14.663732627, 14.66079988, 15.55786772, 14.554756147, 14.551845196, 14.548934826, 14.878705478, 13.875729737, 14.772954591, 15.67, 15.524279333, 15.521174477, 14.518070243, 13.515166629, 12.512463595, 13.409961102, 14.30727911, 13.875729737, 14.772954591, 15.67, 14.772954591, 15.67, 14.666866, 14.663932627, 14.66099984, 14.65806764, 14.655136027, 13.652205, 12.649474559, 11.646944664, 10.644615275, 10.540788574, 9.538680416, 9.570619334, 8.568705209999999, 8.566991469, 9.465278071, 8.463385015, 8.461692338000001, 8.460000000000001];
cost = [0.131586168, 0.0, 0.0, 0.920001521, 0.916947021, 0.5106073249999999, 0.204668605, 0.891167041, 0.158667835, 0.894038271, 0.744770564, 0.894832441, 0.0, 0.8961764209999999, 0.166059725, 1.013041591, 0.877543971, 0.147427275, 0.0, 0.8659368710000001, 0.865325971, 0.136553255, 0.0, 0.0, 0.0, 0.103766429, 1.361700354, 1.310428594, 1.281283394, 0.103766429, 0.0, 1.408094754, 1.412734194, 1.409284354, 0.363269074, 1.410473954, 0.103766429, 1.408927474, 0.118178165, 0.0, 0.118178165, 0.0, 0.0, 0.0, 0.118178165, 0.0, 0.827450994, 0.031914589, 1.343856354, 1.343856354, 0.09853218900000001, 1.408094754, 0.052982135, 0.205584955, 0.245760839, 0.012723825, 0.0, 0.231548205, 0.963069971, 0.0, 0.0, 0.159082829, 0.04368396, 0.0, 0.758216274, 0.965563554, 0.0, 0.0, 0.0, 0.0, 0.0, 1.428555874, 1.444258594, 0.0, 1.451158274, 1.398221074, 0.0, 1.397031474, 0.0, 0.089253309, 0.088896429, 0.108881709, 0.111022989, 0.0, 0.0, 0.0, 0.0, 0.0, 0.0, 0.184864765, 0.0, 0.191534255, 0.920917871, 0.0, 0.166181905, 0.166976075];
earn = [0.0, 0.289828282, 0.290203576, 0.0, 0.0, 0.0, 0.0, 0.0, 0.0, 0.0, 0.0, 0.0, 0.331297913, 0.0, 0.0, 0.0, 0.0, 0.0, 0.356763845, 0.0, 0.0, 0.0, 0.40974956, 0.431063507, 0.585413519, 0.0, 0.0, 0.0, 0.0, 0.0, 0.748019625, 0.0, 0.0, 0.0, 0.0, 0.0, 0.0, 0.0, 0.052845166, 0.102082906, 0.0, -0.032342747, -0.08578205999999999, -0.20944853, 0.0, -0.079028686, 0.0, 0.0, 0.0, 0.0, 0.0, 0.0, 0.0, 0.0, 0.0, 0.0, 0.003186118, 0.0, 0.0, 0.025651878, 0.281004049, 0.0, 0.124952364, 0.431665676, 0.0, 0.0, 0.0, 0.04973591, 0.549775443, 0.6876130499999999, 0.71491237, 0.0, 0.0, 0.26567187, 0.0, 0.0, 0.734188245, 0.0, 0.771134157, 0.0, 0.0, 0.0, 0.0, 0.626556878, 0.60048479, 0.587839616, 0.566441608, 0.0, 0.55973959, 0.0, 0.38115439, 0.0, 0.0, 0.381184495, 0.0, 0.0];
total_cost = 41.107058178;
total_earn = 11.533558374;
