production = [0.0, 0.0, 0.0, 0.0, 0.0, 0.0, 0.0, 0.0, 0.0, 0.0, 0.0, 0.0, 0.0, 0.0, 0.0, 0.0, 0.0, 0.0, 0.0, 0.0, 0.0, 0.0, 0.0, 0.0003, 0.0045, 0.0283, 0.0452, 0.0, 0.0, 0.0, 0.218, 0.0, 0.0, 0.0, 0.0, 0.0, 0.0, 0.0, 0.0, 0.0, 0.0, 1.1013, 0.0, 0.0, 0.0, 0.0, 0.0, 0.0, 0.0, 0.0592, 0.0525, 0.0, 0.0, 0.0, 0.3438, 0.3775, 0.0, 0.0, 0.0, 0.0, 0.0, 0.957, 0.7562, 0.0, 0.0, 0.0, 0.0, 0.0, 0.0, 0.0, 0.0435, 0.0, 0.0, 0.0, 0.0, 0.0, 0.0, 0.0, 0.0, 0.0, 0.0, 0.0, 0.0, 0.0, 0.0, 0.0, 0.0, 0.0, 0.0, 0.0, 0.0, 0.0, 0.0, 0.0, 0.0, 0.0];
buy = [0.0, 0.0, 0.355528, 0.193051501, 0.307528, 1.835828, 0.0, 0.0, 1.259728, 0.0, 1.268528, 0.271328, 0.0, 1.273528, 1.181142307, 1.464828, 1.243028, 1.241328, 0.0, 0.0, 0.0, 1.223528, 0.0, 1.223928, 1.078828, 0.0, 0.0, 0.08652799999999999, 1.087728, 0.0, 0.869528, 0.0, 0.088228, 0.0, 1.087028, 0.0, 0.087228, 1.085028, 0.083028, 1.082028, 0.0, 0.0, 1.083028, 0.0, 0.0, 1.083828, 0.089528, 0.084328, 1.090528, 1.030328, 1.030328, 0.084328, 1.086728, 0.0, 0.0, 0.020828, 1.409828, 0.0, 1.383028, 1.356528, 1.132728, 0.0, 0.378028, 1.134228, 1.133228, 1.128828, 1.128328, 1.130028, 0.131728, 0.0, 1.075228, 0.0, 1.120228, 1.119728, 1.120528, 0.0, 0.072528, 0.0, 0.0, 0.075028, 1.074728, 0.0, 0.0, 0.0, 0.0, 0.0, 0.092528, 0.0, 1.092528, 0.0, 0.0, 0.313528, 1.314028, 1.276028, 1.272028, 1.273328];
sell = [0.497972, 0.0, 0.0, 0.0, 0.0, 0.0, 0.0, 0.634672, 0.0, 0.629972, 0.0, 0.0, 0.628172, 0.0, 0.0, 0.0, 0.0, 0.0, 0.667972, 0.675972, 0.676972, 0.0, 0.677272, 0.0, 0.0, 0.841072, 0.854672, 0.0, 0.0, 0.812772, 0.0, 0.815672, 0.0, 0.0, 0.0, 0.813672, 0.0, 0.0, 0.0, 0.0, 0.817172, 1.013772, 0.0, 0.811772, 0.817972, 0.0, 0.0, 0.0, 0.0, 0.0, 0.0, 0.0, 0.0, 0.563472, 0.853972, 0.0, 0.0, 0.520972, 0.0, 0.0, 0.0, 1.723272, 0.0, 0.0, 0.0, 0.0, 0.0, 0.0, 0.0, 0.769772, 0.0, 0.780772, 0.0, 0.0, 0.0, 0.823972, 0.0, 0.824972, 0.825272, 0.0, 0.0, 0.808472, 0.8066719999999999, 0.806172, 0.807972, 0.807472, 0.0, 0.808472, 0.0, 0.642272, 0.584772, 0.0, 0.0, 0.0, 0.0, 0.0];
charge = [0.0, 0.0, 0.0, 0.0, 0.0, 1.0, 0.0, 0.0, 1.0, 0.0, 1.0, 0.0, 0.0, 1.0, 0.909314307, 1.0, 1.0, 1.0, 0.0, 0.0, 0.0, 1.0, 0.0, 1.0, 1.0, 0.0, 0.0, 0.0, 1.0, 0.0, 1.0, 0.0, 0.0, 0.0, 1.0, 0.0, 0.0, 1.0, 0.0, 1.0, 0.0, 0.0, 1.0, 0.0, 0.0, 1.0, 0.0, 0.0, 1.0, 1.0, 1.0, 0.0, 1.0, 0.0, 0.0, 0.0, 1.0, 0.0, 1.0, 1.0, 1.0, 0.0, 1.0, 1.0, 1.0, 1.0, 1.0, 1.0, 0.0, 0.0, 1.0, 0.0, 1.0, 1.0, 1.0, 0.0, 0.0, 0.0, 0.0, 0.0, 1.0, 0.0, 0.0, 0.0, 0.0, 0.0, 0.0, 0.0, 1.0, 0.0, 0.0, 0.0, 1.0, 1.0, 1.0, 1.0];
discharge = [1.0, 0.395586667, 0.0, 0.132751665, 0.0, 0.0, 0.372253333, 1.0, 0.0, 1.0, 0.0, 0.0, 1.0, 0.0, 0.0, 0.0, 0.0, 0.0, 1.0, 1.0, 1.0, 0.0, 1.0, 0.0, 0.0, 1.0, 1.0, 0.0, 0.0, 1.0, 0.0, 1.0, 0.0, 0.09480888899999999, 0.0, 1.0, 0.0, 0.0, 0.0, 0.0, 1.0, 0.0, 0.0, 1.0, 1.0, 0.0, 0.0, 0.0, 0.0, 0.0, 0.0, 0.0, 0.0, 1.0, 1.0, 0.0, 0.0, 1.0, 0.0, 0.0, 0.0, 1.0, 0.0, 0.0, 0.0, 0.0, 0.0, 0.0, 0.0, 1.0, 0.0, 1.0, 0.0, 0.0, 0.0, 1.0, 0.0, 1.0, 1.0, 0.0, 0.0, 1.0, 1.0, 1.0, 1.0, 1.0, 0.0, 1.0, 0.0, 1.0, 1.0, 0.0, 0.0, 0.0, 0.0, 0.0];
soc = [3.859028, 3.462669528, 3.461976994, 3.328532933, 3.327867227, 4.227201653, 3.85410288, 2.853332059, 3.752761393, 2.75201084, 3.651460438, 3.650730146, 2.65, 3.54947, 4.367142982, 5.266269553, 6.165216299, 7.063983256, 6.06257046, 5.061357945, 4.060345674, 4.959533605, 3.958541698, 4.85774999, 5.75677844, 4.755627084, 3.754675959, 3.753925023, 4.653174603, 3.652243604, 4.551513155, 3.550602852, 3.549892732, 3.454373864, 4.353682989, 3.352812253, 3.35214169, 4.251471262, 4.250620968, 5.149770844, 4.148740889, 4.147911141, 5.047081559, 4.046072143, 3.045262928, 3.944653876, 3.943864945, 3.943076172, 4.842287557, 5.741319099, 6.640170835, 6.638842801, 7.537515033, 6.53600753, 5.534700328, 5.533593388, 6.432486669, 5.431200172, 6.330113932, 7.228847909, 8.127402139999999, 7.125776659, 8.024351504, 8.922746633999999, 9.820962084, 10.718997892, 11.616854092, 12.514530721, 12.512027815, 11.50952541, 12.407223505, 11.40474206, 12.302461112, 13.2, 14.097360619, 13.094541147, 13.091922239, 12.089303854, 11.086885994, 11.084668616, 11.982451683, 10.980055192, 9.977859180999999, 8.975863608999999, 7.974068437, 6.972473623, 6.971079128, 5.969684913, 6.868490976, 5.867117277, 4.865943854, 4.864970665, 5.763997671, 6.662844871, 7.561512302, 8.460000000000001];
cost = [0.0, 0.0, 0.217192055, 0.117935162, 0.187868855, 1.239685491, 0.0, 0.0, 0.887746001, 0.0, 0.893121921, 0.165754275, 0.0, 0.8961764209999999, 0.829020932, 1.013041591, 0.877543971, 0.8765054410000001, 0.0, 0.0, 0.0, 0.865631421, 0.0, 0.865875781, 1.401551954, 0.0, 0.0, 0.102933709, 1.412139394, 0.0, 1.152568674, 0.0, 0.104956029, 0.0, 1.411306674, 0.0, 0.103766429, 1.408927474, 0.09877010899999999, 1.405358674, 0.0, 0.0, 1.406548274, 0.0, 0.0, 1.407499954, 0.106502509, 0.100316589, 1.415470274, 1.343856354, 1.343856354, 0.100316589, 0.782060301, 0.0, 0.0, 0.012723825, 0.979442091, 0.0, 0.963069971, 0.946881121, 1.465671394, 0.0, 0.567880274, 1.467455794, 1.466266194, 1.461031954, 1.460437154, 1.462459474, 0.156703629, 0.0, 1.397269394, 0.0, 1.450801394, 1.450206594, 1.451158274, 0.0, 0.086279309, 0.0, 0.0, 0.089253309, 1.396674594, 0.0, 0.0, 0.0, 0.0, 0.0, 0.110071309, 0.0, 0.785603521, 0.0, 0.0, 0.191534255, 0.920917871, 0.897703671, 0.895260071, 0.896054241];
earn = [0.273038048, 0.0, 0.0, 0.0, 0.0, 0.0, 0.0, 0.330791046, 0.0, 0.329097373, 0.0, 0.0, 0.331297913, 0.0, 0.0, 0.0, 0.0, 0.0, 0.356763845, 0.361847812, 0.389123506, 0.0, 0.40974956, 0.0, 0.0, 0.631897394, 0.653140342, 0.0, 0.0, 0.618519492, 0.0, 0.533204786, 0.0, 0.0, 0.0, 0.376811503, 0.0, 0.0, 0.0, 0.0, -0.003595557, -0.017132747, 0.0, -0.08872668, -0.021103678, 0.0, 0.0, 0.0, 0.0, 0.0, 0.0, 0.0, 0.0, -0.008001302, -0.007429556, 0.0, 0.0, 0.007606191, 0.0, 0.0, 0.0, 0.680003131, 0.0, 0.0, 0.0, 0.0, 0.0, 0.0, 0.0, 0.62105205, 0.0, 0.725259111, 0.0, 0.0, 0.0, 0.84045144, 0.0, 0.796922952, 0.771134157, 0.0, 0.0, 0.6551857089999999, 0.636464208, 0.626556878, 0.60048479, 0.587839616, 0.0, 0.5456377529999999, 0.0, 0.430065331, 0.38115439, 0.0, 0.0, 0.0, 0.0, 0.0];
total_cost = 50.970616314;
total_earn = 14.355110807;
