production = [0.0, 0.0, 0.0, 0.0, 0.0, 0.0, 0.0, 0.0, 0.0, 0.0, 0.0, 0.0, 0.0, 0.0, 0.0, 0.0, 0.0, 0.0, 0.0, 0.0, 0.0, 0.0, 0.0, 0.0, 0.0045, 0.0, 0.0452, 0.0, 0.11, 0.145, 0.0, 0.0, 0.631, 0.7712, 0.0, 0.9785, 1.0675, 0.0, 1.2873, 1.362, 0.0, 1.1013, 0.0, 1.1045, 1.1018, 0.0, 0.4933, 0.0, 0.0602, 0.0592, 0.0, 0.0, 0.0, 0.317, 0.3438, 0.0, 1.39, 0.0, 1.221, 0.0, 1.0217, 0.0, 0.0, 0.712, 0.0, 0.4165, 0.0, 0.0, 0.132, 0.0825, 0.0, 0.0177, 0.0, 0.0, 0.0, 0.0, 0.0, 0.0, 0.0, 0.0, 0.0, 0.0, 0.0, 0.0, 0.0, 0.0, 0.0, 0.0, 0.0, 0.0, 0.0, 0.0, 0.0, 0.0, 0.0, 0.0];
buy = [0.0, 1.237588315, 0.0, 0.0, 1.307528, 0.976943417, 0.335028, 0.0, 1.259728, 1.270028, 0.268528, 1.271328, 0.271828, 1.273528, 0.271828, 0.0, 0.0, 1.241328, 1.232028, 0.224028, 0.223028, 0.0, 0.0, 1.224228, 0.078828, 0.0, 1.045328, 0.0, 0.0, 0.942228, 0.0, 0.084328, 0.457228, 0.0, 0.08702799999999999, 0.107828, 0.019728, 0.451416074, 0.0, 0.0, 0.0, 0.0, 1.083028, 0.0, 0.0, 0.0, 0.596228, 0.0, 1.030328, 0.030328, 1.082828, 0.084328, 0.0, 0.019528, 1.046028, 0.398328, 0.019828, 0.0, 0.0, 1.356528, 0.0, 1.133728, 0.0, 0.0, 0.0, 0.0, 1.128328, 0.0, 0.999728, 1.047728, 1.118728, 0.101528, 1.120228, 0.119728, 0.0, 1.076028, 0.0, 0.0, 1.074728, 0.0, 0.0, 0.091528, 0.09332799999999999, 1.093828, 1.092028, 1.092528, 1.092528, 1.091528, 1.092528, 1.257728, 1.315228, 0.313528, 1.314028, 1.276028, 1.272028, 1.273328];
sell = [0.497972, 0.0, 0.544472, 0.587472, 0.0, 0.0, 0.0, 0.634672, 0.0, 0.0, 0.0, 0.0, 0.0, 0.0, 0.0, 0.435172, 0.656972, 0.0, 0.0, 0.0, 0.0, 0.676472, 0.677272, 0.0, 0.0, 0.812772, 0.0, 0.813472, 0.922272, 0.0, 0.812472, 0.0, 0.0, 1.585872, 0.0, 0.0, 0.0, 0.0, 0.204272, 0.279972, 0.817172, 1.013772, 0.0, 1.916272, 1.919772, 0.816172, 0.0, 0.815672, 0.0, 0.0, 0.0, 0.0, 0.813272, 0.0, 0.0, 0.0, 0.0, 0.520972, 1.737972, 0.0, 1.788972, 0.0, 0.765772, 0.577772, 0.766772, 0.287672, 0.0, 0.769972, 0.0, 0.0, 0.0, 0.0, 0.0, 0.0, 0.7794720000000001, 0.0, 0.827472, 0.824972, 0.0, 0.824972, 0.825272, 0.0, 0.0, 0.0, 0.0, 0.0, 0.0, 0.0, 0.0, 0.0, 0.0, 0.0, 0.0, 0.0, 0.0, 0.0];
charge = [0.0, 0.881560315, 0.0, 0.0, 1.0, 0.141115417, 0.0, 0.0, 1.0, 1.0, 0.0, 1.0, 0.0, 1.0, 0.0, 0.0, 0.0, 1.0, 1.0, 0.0, 0.0, 0.0, 0.0, 1.0, 0.0, 0.0, 1.0, 0.0, 0.0, 1.0, 0.0, 0.0, 1.0, 0.0, 0.0, 1.0, 1.0, 0.366388074, 1.0, 1.0, 0.0, 0.0, 1.0, 0.0, 0.0, 0.0, 1.0, 0.0, 1.0, 0.0, 1.0, 0.0, 0.0, 0.0, 1.0, 0.0, 1.0, 0.0, 0.0, 1.0, 0.0, 1.0, 0.0, 0.0, 0.0, 0.0, 1.0, 0.0, 1.0, 1.0, 1.0, 0.0, 1.0, 0.0, 0.0, 1.0, 0.0, 0.0, 1.0, 0.0, 0.0, 0.0, 0.0, 1.0, 1.0, 1.0, 1.0, 1.0, 1.0, 1.0, 1.0, 0.0, 1.0, 1.0, 1.0, 1.0];
discharge = [1.0, 0.0, 1.0, 1.0, 0.0, 0.0, 0.0, 1.0, 0.0, 0.0, 0.0, 0.0, 0.0, 0.0, 0.0, 1.0, 1.0, 0.0, 0.0, 0.0, 0.0, 1.0, 1.0, 0.0, 0.0, 1.0, 0.0, 1.0, 1.0, 0.0, 1.0, 0.0, 0.0, 1.0, 0.0, 0.0, 0.0, 0.0, 0.0, 0.0, 1.0, 0.0, 0.0, 1.0, 1.0, 1.0, 0.0, 1.0, 0.0, 0.0, 0.0, 0.0, 1.0, 0.0, 0.0, 0.0, 0.0, 1.0, 1.0, 0.0, 1.0, 0.0, 1.0, 0.0, 1.0, 0.0, 0.0, 1.0, 0.0, 0.0, 0.0, 0.0, 0.0, 0.0, 1.0, 0.0, 1.0, 1.0, 0.0, 1.0, 1.0, 0.0, 0.0, 0.0, 0.0, 0.0, 0.0, 0.0, 0.0, 0.0, 0.0, 0.0, 0.0, 0.0, 0.0, 0.0];
soc = [3.859028, 4.651660478, 3.650730146, 2.65, 3.54947, 3.675763981, 3.675028828, 2.674293823, 3.573758964, 4.473044212, 4.472149603, 5.371255173, 5.370180922, 6.269106886, 6.267853065, 5.266599494, 4.265546174, 5.164693065, 6.063660126, 6.062447394, 6.061234905, 5.060022658, 4.059010653, 4.958198851, 4.957207212, 3.95621577, 4.855424527, 3.854453442, 2.853682551, 3.753111815, 2.752361192, 2.75181072, 3.651260358, 2.650530106, 2.65, 3.54947, 4.448760106, 4.777619621, 5.676664097, 6.575528764, 5.574213658, 5.573098816, 6.471984196, 5.470689799, 4.469595661, 3.468701742, 4.368008002, 3.3671344, 4.266460973, 4.265607681, 5.164754559, 5.163721609, 4.162688864, 4.161856326, 5.061023955, 5.06001175, 5.958999748, 4.957807948, 3.956816387, 4.856025023, 3.855053818, 4.754282807, 3.753331951, 3.752581285, 2.751830768, 2.751280402, 3.650730146, 2.65, 3.54947, 4.448760106, 5.347870354, 5.34680078, 6.24573142, 6.244482273, 5.243233377, 6.14218473, 5.140956293, 4.139928102, 5.039100117, 4.038092296, 3.037284678, 3.036677221, 3.036069886, 3.935462672, 4.834675579, 5.733708644, 6.632561902, 7.53123539, 8.429729142999999, 9.328043197, 10.226177588, 10.224132353, 11.122087526, 12.019863109, 12.917459136, 13.814875644];
cost = [0.0, 0.860223883, 0.0, 0.0, 0.916947021, 0.613492063, 0.204668605, 0.0, 0.887746001, 0.894038271, 0.164043755, 0.894832441, 0.166059725, 0.8961764209999999, 0.166059725, 0.0, 0.0, 0.8765054410000001, 0.870824071, 0.136858705, 0.136247805, 0.0, 0.0, 0.866059051, 0.093773789, 0.0, 1.361700354, 0.0, 0.0, 1.239052594, 0.0, 0.100316589, 0.662096594, 0.0, 0.103528509, 0.246450354, 0.141646594, 0.580303633, 0.118178165, 0.118178165, 0.0, 0.0, 1.406548274, 0.0, 0.0, 0.0, 0.827450994, 0.0, 1.343856354, 0.036078189, 1.406310354, 0.100316589, 0.0, 0.011929655, 0.757196671, 0.243338575, 0.130291091, 0.0, 0.0, 0.946881121, 0.0, 1.466860994, 0.0, 0.0, 0.0, 0.0, 1.460437154, 0.0, 1.307454594, 1.364555394, 1.449016994, 0.120777709, 1.450801394, 0.142428429, 0.0, 1.398221074, 0.0, 0.0, 1.396674594, 0.0, 0.0, 0.108881709, 0.111022989, 1.419395954, 1.417254674, 1.417849474, 1.417849474, 1.416659874, 0.785603521, 0.886524201, 0.9216509510000001, 0.191534255, 0.920917871, 0.897703671, 0.895260071, 0.896054241];
earn = [0.273038048, 0.0, 0.290203576, 0.312065126, 0.0, 0.0, 0.0, 0.330791046, 0.0, 0.0, 0.0, 0.0, 0.0, 0.0, 0.0, 0.229770816, 0.347866674, 0.0, 0.0, 0.0, 0.0, 0.392286113, 0.40974956, 0.0, 0.0, 0.6106356040000001, 0.0, 0.626048051, 0.702679037, 0.0, 0.589773425, 0.0, 0.0, 0.882854942, 0.0, 0.0, 0.0, 0.0, 0.052845166, 0.034940506, -0.003595557, -0.017132747, 0.0, -0.20944853, -0.049530118, -0.033626286, 0.0, -0.040865167, 0.0, 0.0, 0.0, 0.0, -0.018135966, 0.0, 0.0, 0.0, 0.0, 0.007606191, 0.035107034, 0.0, 0.565494049, 0.0, 0.379210294, 0.325690076, 0.433532889, 0.170330591, 0.0, 0.55684375, 0.0, 0.0, 0.0, 0.0, 0.0, 0.0, 0.793502496, 0.0, 0.829954416, 0.796922952, 0.0, 0.726800332, 0.6917429899999999, 0.0, 0.0, 0.0, 0.0, 0.0, 0.0, 0.0, 0.0, 0.0, 0.0, 0.0, 0.0, 0.0, 0.0, 0.0];
total_cost = 46.78759688;
total_earn = 12.025951382;
