production = [0.0, 0.0, 0.0, 0.0, 0.0, 0.0, 0.0, 0.0, 0.0, 0.0, 0.0, 0.0, 0.0, 0.0, 0.0, 0.0, 0.0, 0.0, 0.0, 0.0, 0.0, 0.0, 0.0, 0.0, 0.0045, 0.0283, 0.0452, 0.0843, 0.11, 0.145, 0.218, 0.0, 0.0, 0.0, 0.881, 0.9785, 0.0, 1.184, 1.2873, 0.0, 0.0, 1.1013, 0.0, 0.0, 1.1018, 0.0, 0.4933, 0.0, 0.0, 0.0592, 0.0525, 0.0, 0.0638, 0.317, 0.0, 0.3775, 1.39, 1.3277, 0.0, 1.068, 1.0217, 0.957, 0.7562, 0.0, 0.5952, 0.0, 0.0, 0.1988, 0.0, 0.0, 0.0435, 0.0, 0.0, 0.0, 0.0, 0.0, 0.0, 0.0, 0.0, 0.0, 0.0, 0.0, 0.0, 0.0, 0.0, 0.0, 0.0, 0.0, 0.0, 0.0, 0.0, 0.0, 0.0, 0.0, 0.0, 0.0];
buy = [1.402028, 1.356028, 0.0, 0.0, 1.307528, 1.835828, 1.335028, 1.265328, 0.0, 0.0, 1.268528, 0.0, 0.0, 1.273528, 0.0, 1.464828, 1.243028, 0.241328, 1.232028, 0.0, 1.223028, 0.0, 0.0, 0.0, 0.078828, 0.058928, 0.045328, 1.002228, 0.0, 0.0, 0.0, 1.084328, 1.088228, 1.085328, 0.206028, 0.0, 1.087228, 0.0, 0.0, 0.082028, 0.0, 0.0, 1.083028, 1.088228, 0.0, 0.083828, 0.0, 0.0, 1.090528, 0.0, 1.030328, 0.084328, 0.022928, 0.0, 1.389828, 0.0, 0.019828, 0.0, 0.0, 0.0, 0.0, 0.176728, 0.378028, 1.134228, 0.0, 0.128828, 0.0, 0.9312279999999999, 0.0, 0.0, 0.44949021, 0.0, 1.120228, 0.119728, 1.120528, 1.076028, 0.072528, 0.0, 1.074728, 1.075028, 0.0, 0.0, 1.093328, 0.0, 1.092028, 0.0, 1.092528, 1.091528, 1.092528, 0.0, 1.315228, 1.313528, 1.314028, 1.276028, 0.272028, 0.0];
sell = [0.0, 0.0, 0.544472, 0.587472, 0.0, 0.0, 0.0, 0.0, 0.640272, 0.629972, 0.0, 0.628672, 0.628172, 0.0, 0.628172, 0.0, 0.0, 0.0, 0.0, 0.675972, 0.0, 0.676472, 0.0, 0.675772, 0.0, 0.0, 0.0, 0.0, 0.0, 0.057772, 1.030472, 0.0, 0.0, 0.0, 0.0, 1.792172, 0.0, 1.998972, 2.104272, 0.0, 0.817172, 1.913772, 0.0, 0.0, 1.919772, 0.0, 1.303772, 0.815672, 0.0, 0.869672, 0.0, 0.0, 0.0, 0.880472, 0.0, 0.879172, 0.0, 0.948672, 0.516972, 0.711472, 0.0, 0.0, 0.0, 0.0, 1.361972, 0.0, 0.771672, 0.0, 0.768272, 0.769772, 0.0, 0.780772, 0.0, 0.0, 0.0, 0.0, 0.0, 0.824972, 0.0, 0.0, 0.825272, 0.808472, 0.0, 0.806172, 0.0, 0.807472, 0.0, 0.0, 0.0, 0.642272, 0.0, 0.0, 0.0, 0.0, 0.0, 0.626672];
charge = [1.0, 1.0, 0.0, 0.0, 1.0, 1.0, 1.0, 1.0, 0.0, 0.0, 1.0, 0.0, 0.0, 1.0, 0.0, 1.0, 1.0, 0.0, 1.0, 0.0, 1.0, 0.0, 0.0, 0.0, 0.0, 0.0, 0.0, 1.0, 0.022272, 0.0, 0.0, 1.0, 1.0, 1.0, 1.0, 0.0, 1.0, 0.0, 0.0, 0.0, 0.0, 0.0, 1.0, 1.0, 0.0, 0.0, 0.0, 0.0, 1.0, 0.0, 1.0, 0.0, 0.0, 0.0, 1.0, 0.0, 1.0, 0.0, 0.0, 0.0, 0.888972, 1.0, 1.0, 1.0, 0.0, 0.0, 0.0, 1.0, 0.0, 0.0, 0.37426221, 0.0, 1.0, 0.0, 1.0, 1.0, 0.0, 0.0, 1.0, 1.0, 0.0, 0.0, 1.0, 0.0, 1.0, 0.0, 1.0, 1.0, 1.0, 0.0, 1.0, 1.0, 1.0, 1.0, 0.0, 0.0];
discharge = [0.0, 0.0, 1.0, 1.0, 0.0, 0.0, 0.0, 0.0, 1.0, 1.0, 0.0, 1.0, 1.0, 0.0, 1.0, 0.0, 0.0, 0.0, 0.0, 1.0, 0.0, 1.0, 0.247475556, 1.0, 0.0, 0.0, 0.0, 0.0, 0.0, 0.0, 1.0, 0.0, 0.0, 0.0, 0.0, 1.0, 0.0, 1.0, 1.0, 0.0, 1.0, 1.0, 0.0, 0.0, 1.0, 0.0, 1.0, 1.0, 0.0, 1.0, 0.0, 0.0, 0.0, 1.0, 0.0, 1.0, 0.0, 0.0, 1.0, 0.0, 0.0, 0.0, 0.0, 0.0, 1.0, 0.0, 1.0, 0.0, 1.0, 1.0, 0.0, 1.0, 0.0, 0.0, 0.0, 0.0, 0.0, 1.0, 0.0, 0.0, 1.0, 1.0, 0.0, 1.0, 0.0, 1.0, 0.0, 0.0, 0.0, 1.0, 0.0, 0.0, 0.0, 0.0, 0.0, 1.0];
soc = [5.759028, 6.657876194, 5.656544619, 4.65541331, 5.554482228, 6.453371331, 7.352080657, 8.250610241, 7.248960119, 6.247510327, 7.146260825, 6.144831572, 5.143602606, 6.042573886, 5.041365371, 5.940357098, 6.839169026, 6.837801193, 7.736433632, 6.734886346, 7.633539368, 6.63201266, 6.383210702, 5.38193406, 5.380857673, 5.379781502, 5.378705546, 6.277629804, 6.296419078, 6.295159795, 5.293900763, 6.192841983, 7.091603414, 7.990185093, 8.888587056, 7.886809339, 8.785231977, 7.783474931, 6.781918236, 6.780561852, 5.77920574, 4.778049899, 5.677094289, 6.57595887, 5.574643678, 5.573528749, 4.572414044, 3.571499561, 4.470785261, 3.469891104, 4.369197126, 4.368323286, 4.367449621, 3.366576132, 4.265902816, 3.265049636, 4.164396626, 4.163563746, 3.162731034, 3.162098488, 3.961540868, 4.86074856, 5.75977641, 6.658624455, 5.65729273, 5.656161271, 4.655030039, 5.554099033, 4.552988213, 3.552077616, 3.888203189, 2.887425548, 3.786848063, 3.786090694, 4.685333475, 5.584396409, 5.583279529, 4.582162874, 5.481246441, 6.380150192, 5.378874162, 4.377798387, 5.276922827, 4.275867443, 5.175012269, 4.173977267, 5.073142471, 5.972127843, 6.870933417, 5.86955923, 6.768385319, 7.667031641, 8.565498235, 9.463785136, 9.461892378, 8.460000000000001];
cost = [0.974677071, 0.946575671, 0.0, 0.0, 0.916947021, 1.239685491, 0.933746771, 0.891167041, 0.0, 0.0, 0.893121921, 0.0, 0.0, 0.8961764209999999, 0.0, 1.013041591, 0.877543971, 0.147427275, 0.870824071, 0.0, 0.865325971, 0.0, 0.0, 0.0, 0.093773789, 0.070100749, 0.053922189, 1.310428594, 0.002632064, 0.0, 0.0, 1.408094754, 1.412734194, 1.409284354, 0.363269074, 0.0, 1.411544594, 0.0, 0.0, 0.097580509, 0.0, 0.0, 1.406548274, 1.412734194, 0.0, 0.09972178900000001, 0.0, 0.0, 1.415470274, 0.0, 1.343856354, 0.100316589, 0.014006715, 0.0, 0.967224091, 0.0, 0.130291091, 0.0, 0.0, 0.0, 0.10505708, 0.328413794, 0.567880274, 1.467455794, 0.0, 0.153253789, 0.0, 1.225966994, 0.0, 0.0, 0.578943175, 0.0, 1.450801394, 0.142428429, 1.451158274, 1.398221074, 0.086279309, 0.0, 1.396674594, 1.397031474, 0.0, 0.0, 1.418801154, 0.0, 1.417254674, 0.0, 1.417849474, 1.416659874, 0.785603521, 0.0, 0.9216509510000001, 0.920612421, 0.920917871, 0.897703671, 0.166181905, 0.0];
earn = [0.0, 0.0, 0.290203576, 0.312065126, 0.0, 0.0, 0.0, 0.0, 0.334478093, 0.329097373, 0.0, 0.328229651, 0.331297913, 0.0, 0.331486364, 0.0, 0.0, 0.0, 0.0, 0.361847812, 0.0, 0.392286113, 0.0, 0.430872227, 0.0, 0.0, 0.0, 0.0, 0.0, 0.043964492, 0.748019625, 0.0, 0.0, 0.0, 0.0, 0.829954853, 0.0, 0.645468059, 0.544375166, 0.0, -0.003595557, -0.032342747, 0.0, 0.0, -0.049530118, 0.0, -0.062450679, -0.040865167, 0.0, -0.046614419, 0.0, 0.0, 0.0, -0.012502702, 0.0, -0.000439586, 0.0, 0.013850611, 0.010442834, 0.033581478, 0.0, 0.0, 0.0, 0.0, 0.770058969, 0.0, 0.521881774, 0.0, 0.549775443, 0.62105205, 0.0, 0.725259111, 0.0, 0.0, 0.0, 0.0, 0.0, 0.796922952, 0.0, 0.0, 0.6917429899999999, 0.6551857089999999, 0.0, 0.626556878, 0.0, 0.587839616, 0.0, 0.0, 0.0, 0.430065331, 0.0, 0.0, 0.0, 0.0, 0.0, 0.36973648];
total_cost = 48.022595482;
total_earn = 13.409257695;
