production = [0.0, 0.0, 0.0, 0.0, 0.0, 0.0, 0.0, 0.0, 0.0, 0.0, 0.0, 0.0, 0.0, 0.0, 0.0, 0.0, 0.0, 0.0, 0.0, 0.0, 0.0, 0.0, 0.0, 0.0, 0.0, 0.0, 0.0452, 0.0843, 0.11, 0.145, 0.0, 0.0, 0.0, 0.0, 0.881, 0.0, 1.0675, 1.184, 1.2873, 1.362, 0.0, 0.0, 0.0, 0.0, 1.1018, 1.102, 0.4933, 0.0, 0.0, 0.0, 0.0, 0.0473, 0.0638, 0.317, 0.0, 0.3775, 0.409828, 1.3277, 0.0, 0.0, 1.0217, 0.957, 0.7562, 0.0, 0.5952, 0.4165, 0.3402, 0.1988, 0.132, 0.0, 0.0435, 0.0, 0.0, 0.0, 0.0, 0.0, 0.0, 0.0, 0.0, 0.0, 0.0, 0.0, 0.0, 0.0, 0.0, 0.0, 0.0, 0.0, 0.0, 0.0, 0.0, 0.0, 0.0, 0.0, 0.0, 0.0];
buy = [0.402028, 1.356028, 0.355528, 1.312528, 1.307528, 1.835828, 0.0, 1.265328, 1.259728, 1.270028, 0.268528, 0.0, 0.271828, 1.273528, 1.271828, 0.0, 0.0, 1.241328, 0.232028, 0.0, 0.0, 0.0, 0.0, 0.0, 1.083328, 0.0, 0.045328, 1.002228, 0.0, 0.0, 1.087528, 0.0, 0.0, 0.085328, 0.0, 0.0, 0.019728, 0.0, 0.0, 0.0, 0.0, 0.200650669, 1.083028, 0.0, 0.0, 0.0, 0.596228, 0.0, 0.0, 1.089528, 1.082828, 1.037028, 1.022928, 1.019528, 0.389828, 0.020828, 0.0, 0.051328, 0.0, 1.356528, 0.0, 0.0, 0.0, 0.0, 0.0, 0.712328, 0.0, 0.9312279999999999, 0.999728, 1.130228, 0.0, 1.119228, 1.120228, 0.0, 0.120528, 1.076028, 1.072528, 1.075028, 1.074728, 0.075028, 0.0, 1.091528, 1.093328, 0.09382799999999999, 1.092028, 1.092528, 0.092528, 1.091528, 0.092528, 0.257728, 0.0, 0.0, 0.0, 0.276028, 0.0, 0.0];
sell = [0.0, 0.0, 0.0, 0.0, 0.0, 0.0, 0.564972, 0.0, 0.0, 0.0, 0.0, 0.628672, 0.0, 0.0, 0.0, 0.435172, 0.656972, 0.0, 0.0, 0.675972, 0.676972, 0.676472, 0.677272, 0.675772, 0.0, 0.812772, 0.0, 0.0, 0.022272, 0.057772, 0.0, 0.815672, 0.811772, 0.0, 0.793972, 0.813672, 0.0, 1.688154225, 2.104272, 0.279972, 0.817172, 0.0, 0.0, 0.811772, 0.019772, 0.018172, 0.0, 0.815672, 0.809472, 0.0, 0.0, 0.0, 0.0, 0.0, 0.0, 0.0, 0.0, 0.0, 0.516972, 0.0, 1.788972, 1.189832246, 0.621972, 0.765772, 1.361972, 0.0, 0.211872, 0.0, 0.0, 0.0, 0.8247719999999999, 0.0, 0.0, 0.780272, 0.0, 0.0, 0.0, 0.0, 0.0, 0.0, 0.825272, 0.0, 0.0, 0.0, 0.0, 0.0, 0.0, 0.0, 0.0, 0.0, 0.584772, 0.586472, 0.585972, 0.0, 0.627972, 0.626672];
charge = [0.0, 1.0, 0.0, 1.0, 1.0, 1.0, 0.0, 1.0, 1.0, 1.0, 0.0, 0.0, 0.0, 1.0, 1.0, 0.0, 0.0, 1.0, 0.0, 0.0, 0.0, 0.0, 0.0, 0.0, 1.0, 0.0, 0.0, 1.0, 0.0, 0.0, 1.0, 0.0, 0.0, 0.0, 0.0, 0.0, 1.0, 0.0, 0.0, 1.0, 0.0, 0.113122669, 1.0, 0.0, 1.0, 1.0, 1.0, 0.0, 0.0, 1.0, 1.0, 1.0, 1.0, 1.0, 0.0, 0.0, 0.0, 1.0, 0.0, 1.0, 0.0, 0.0, 0.0, 0.0, 0.0, 1.0, 0.0, 1.0, 1.0, 1.0, 0.0, 1.0, 1.0, 0.0, 0.0, 1.0, 1.0, 1.0, 1.0, 0.0, 0.0, 1.0, 1.0, 0.0, 1.0, 1.0, 0.0, 1.0, 0.0, 0.0, 0.0, 0.0, 0.0, 0.0, 0.0, 0.0];
discharge = [0.0, 0.0, 0.0, 0.0, 0.0, 0.0, 1.0, 0.0, 0.0, 0.0, 0.0, 1.0, 0.0, 0.0, 0.0, 1.0, 1.0, 0.0, 0.0, 1.0, 1.0, 1.0, 1.0, 1.0, 0.0, 1.0, 0.0, 0.0, 0.0, 0.0, 0.0, 1.0, 1.0, 0.0, 0.0, 1.0, 0.0, 0.654646917, 1.0, 0.0, 1.0, 0.0, 0.0, 1.0, 0.0, 0.0, 0.0, 1.0, 1.0, 0.0, 0.0, 0.0, 0.0, 0.0, 0.0, 0.0, 0.0, 0.0, 1.0, 0.0, 1.0, 0.407289162, 0.0, 1.0, 1.0, 0.0, 0.0, 0.0, 0.0, 0.0, 1.0, 0.0, 0.0, 1.0, 0.0, 0.0, 0.0, 0.0, 0.0, 0.0, 1.0, 0.0, 0.0, 0.0, 0.0, 0.0, 0.0, 0.0, 0.0, 0.0, 1.0, 1.0, 1.0, 0.0, 1.0, 1.0];
soc = [4.859028, 5.758056194, 5.756904583, 6.655753202, 7.554422052, 8.452911167, 7.451220585, 8.349730341000001, 9.248060395, 10.146210783, 10.144181541, 9.142152704000001, 9.140324273999999, 10.038496209, 10.93648851, 9.934301211999999, 8.932314352000001, 9.830527889000001, 9.828561783, 8.826596071000001, 7.824830752, 6.823265785, 5.821901132, 4.820736752, 5.719772605, 4.71862865, 4.717684924, 5.616741388, 5.615618039, 5.614494916, 6.513372017, 5.512069342, 4.510966928, 4.510064735, 4.509162722, 3.508260889, 4.407559237, 3.752030808, 2.751280402, 3.650730146, 2.65, 2.751280402, 3.650730146, 2.65, 3.54947, 4.448760106, 5.347870354, 4.34680078, 3.34593142, 4.245262233, 5.144413181, 6.043384298, 6.942175622, 7.840787186, 7.839219029, 7.837651185, 7.836083655, 8.734516438, 7.732769535, 8.631222981000001, 7.629496736, 7.220681675, 7.219237538, 6.217793691, 5.216550132, 6.115506822, 6.114283721, 7.013060864, 7.911658252, 8.810075919999999, 7.808313905, 8.706752242, 9.605010891999999, 8.60308989, 8.601369271999999, 9.499648998, 10.397749068, 11.295669518, 12.193410384, 12.190971702, 11.188533508, 12.086295801, 12.983878542, 12.981281766, 13.87868551, 14.775909773, 14.772954591, 15.67, 15.666866, 15.663732627, 14.66059988, 13.65766776, 12.654936227, 12.65240524, 11.649874758, 10.647544784];
cost = [0.245598905, 0.946575671, 0.217192055, 0.920001521, 0.916947021, 1.239685491, 0.0, 0.891167041, 0.887746001, 0.894038271, 0.164043755, 0.0, 0.166059725, 0.8961764209999999, 0.895137891, 0.0, 0.0, 0.8765054410000001, 0.141745905, 0.0, 0.0, 0.0, 0.0, 0.0, 1.406905154, 0.0, 0.053922189, 1.310428594, 0.0, 0.0, 1.411901474, 0.0, 0.0, 0.101506189, 0.0, 0.0, 0.141646594, 0.0, 0.0, 0.118178165, 0.0, 0.252062665, 1.406548274, 0.0, 0.118178165, 0.118178165, 0.827450994, 0.0, 0.0, 1.414280674, 1.406310354, 1.351826674, 0.743084881, 0.741007821, 0.238145925, 0.012723825, 0.0, 0.149534441, 0.0, 0.946881121, 0.0, 0.0, 0.0, 0.0, 0.0, 0.965563554, 0.0, 1.225966994, 1.307454594, 1.462697394, 0.0, 1.449611794, 1.450801394, 0.0, 0.143380109, 1.398221074, 1.394057474, 1.397031474, 1.396674594, 0.089253309, 0.0, 1.416659874, 1.418801154, 0.111617789, 1.417254674, 1.417849474, 0.110071309, 1.416659874, 0.056525355, 0.157446035, 0.0, 0.0, 0.0, 0.168625505, 0.0, 0.0];
earn = [0.0, 0.0, 0.0, 0.0, 0.0, 0.0, 0.294293915, 0.0, 0.0, 0.0, 0.0, 0.328229651, 0.0, 0.0, 0.0, 0.229770816, 0.347866674, 0.0, 0.0, 0.361847812, 0.389123506, 0.392286113, 0.40974956, 0.430872227, 0.0, 0.6106356040000001, 0.0, 0.0, 0.016969037, 0.043964492, 0.0, 0.533204786, 0.508006918, 0.0, 0.400003094, 0.376811503, 0.0, 0.545104999, 0.544375166, 0.034940506, -0.003595557, 0.0, 0.0, -0.08872668, -0.0005101180000000001, -0.000748686, 0.0, -0.040865167, -0.037154765, 0.0, 0.0, 0.0, 0.0, 0.0, 0.0, 0.0, 0.0, 0.0, 0.010442834, 0.0, 0.565494049, 0.469507804, 0.308000534, 0.431665676, 0.770058969, 0.0, 0.143289034, 0.0, 0.0, 0.0, 0.71491237, 0.0, 0.0, 0.778165266, 0.0, 0.0, 0.0, 0.0, 0.0, 0.0, 0.6917429899999999, 0.0, 0.0, 0.0, 0.0, 0.0, 0.0, 0.0, 0.0, 0.0, 0.38115439, 0.374521019, 0.371271859, 0.0, 0.381241801, 0.36973648];
total_cost = 45.941548256;
total_earn = 13.387660481;
