production = [0.0, 0.0, 0.0, 0.0, 0.0, 0.0, 0.0, 0.0, 0.0, 0.0, 0.0, 0.0, 0.0, 0.0, 0.0, 0.0, 0.0, 0.0, 0.0, 0.0, 0.0, 0.0, 0.0, 0.0003, 0.0045, 0.0283, 0.0, 0.0843, 0.0, 0.145, 0.218, 0.310841399, 0.0, 0.7712, 0.881, 0.9785, 0.0, 1.184, 0.0, 1.362, 0.0, 1.1013, 0.0, 1.088228, 0.0, 0.0, 0.0, 0.0, 0.0602, 0.0, 0.0525, 0.0473, 0.0638, 0.0, 0.0, 0.3775, 0.409828, 0.0, 1.221, 1.068, 1.0217, 0.0, 0.0, 0.0, 0.5952, 0.4165, 0.0, 0.0, 0.132, 0.0, 0.0435, 0.0177, 0.0, 0.0, 0.0, 0.0, 0.0, 0.0, 0.0, 0.0, 0.0, 0.0, 0.0, 0.0, 0.0, 0.0, 0.0, 0.0, 0.0, 0.0, 0.0, 0.0, 0.0, 0.0, 0.0, 0.0];
buy = [1.402028, 1.356028, 1.355528, 0.0, 0.0, 1.835828, 1.335028, 0.265328, 0.0, 0.270028, 0.268528, 0.0, 0.0, 0.0, 0.0, 1.464828, 0.0, 0.241916889, 1.232028, 1.224028, 1.223028, 0.0, 0.222728, 1.223928, 0.0, 0.0, 1.090528, 0.002228, 0.0, 0.0, 0.0, 0.0, 1.088228, 0.0, 0.206028, 0.0, 0.0, 0.0, 1.083028, 0.0, 1.082828, 0.0, 1.083028, 0.0, 0.0, 1.083828, 0.0, 1.084328, 0.0, 1.089528, 0.0, 0.0, 0.022928, 0.0, 0.389828, 1.020828, 0.0, 0.0, 0.0, 0.288528, 0.0, 1.133728, 1.134228, 1.134228, 0.0, 0.712328, 1.128328, 0.130028, 0.0, 0.0, 0.0, 0.0, 1.120228, 0.119728, 0.0, 0.983826377, 1.072528, 0.0, 0.0, 1.075028, 0.0, 1.091528, 1.093328, 1.093828, 1.092028, 0.0, 0.0, 1.091528, 0.092528, 1.257728, 1.315228, 1.313528, 0.314028, 1.276028, 1.272028, 0.273328];
sell = [0.0, 0.0, 0.0, 0.587472, 0.592472, 0.0, 0.0, 0.0, 0.640272, 0.0, 0.0, 0.260068274, 0.628172, 0.626472, 0.628172, 0.0, 0.656972, 0.0, 0.0, 0.0, 0.0, 0.676472, 0.0, 0.0, 0.821172, 0.841072, 0.0, 0.0, 0.812272, 0.0, 0.617900415, 0.0, 0.0, 1.585872, 0.0, 0.892172, 0.812772, 0.098972, 0.0, 2.179972, 0.0, 1.013772, 0.0, 0.0, 0.817972, 0.0, 0.810472, 0.0, 0.869672, 0.0, 0.869672, 0.862972, 0.0, 0.563472, 0.0, 0.0, 0.0, 0.520972, 0.8379720000000001, 0.0, 1.770638191, 0.0, 0.0, 0.0, 1.361972, 0.0, 0.0, 0.0, 0.0, 0.769772, 0.8247719999999999, 0.798472, 0.0, 0.0, 0.7794720000000001, 0.0, 0.0, 0.824972, 0.825272, 0.0, 0.825272, 0.0, 0.0, 0.0, 0.0, 0.807472, 0.807472, 0.0, 0.0, 0.0, 0.0, 0.0, 0.0, 0.0, 0.0, 0.0];
charge = [1.0, 1.0, 1.0, 0.0, 0.0, 1.0, 1.0, 0.0, 0.0, 0.0, 0.0, 0.0, 0.0, 0.0, 0.0, 1.0, 0.0, 0.000588889, 1.0, 1.0, 1.0, 0.0, 0.0, 1.0, 0.0, 0.0, 1.0, 0.0, 0.0, 0.057772, 0.0, 0.226513399, 1.0, 0.0, 1.0, 0.0, 0.0, 1.0, 1.0, 0.0, 1.0, 0.0, 1.0, 1.0, 0.0, 1.0, 0.0, 1.0, 0.0, 1.0, 0.0, 0.0, 0.0, 0.0, 0.0, 1.0, 0.0, 0.0, 0.0, 1.0, 0.0, 1.0, 1.0, 1.0, 0.0, 1.0, 1.0, 0.0, 0.000272, 0.0, 0.0, 0.0, 1.0, 0.0, 0.0, 0.907798377, 1.0, 0.0, 0.0, 1.0, 0.0, 1.0, 1.0, 1.0, 1.0, 0.0, 0.0, 1.0, 0.0, 1.0, 1.0, 1.0, 0.0, 1.0, 1.0, 0.0];
discharge = [0.0, 0.0, 0.0, 1.0, 1.0, 0.0, 0.0, 0.0, 1.0, 0.0, 0.0, 0.590440305, 1.0, 1.0, 1.0, 0.0, 1.0, 0.0, 0.0, 0.0, 0.0, 1.0, 0.0, 0.0, 1.0, 1.0, 0.0, 0.0, 1.0, 0.0, 0.541587128, 0.0, 0.0, 1.0, 0.0, 0.0, 1.0, 0.0, 0.0, 1.0, 0.0, 0.0, 0.0, 0.0, 1.0, 0.0, 1.0, 0.0, 1.0, 0.0, 1.0, 1.0, 0.0, 1.0, 0.0, 0.0, 0.0, 1.0, 0.0, 0.0, 0.979629101, 0.0, 0.0, 0.0, 1.0, 0.0, 0.0, 0.0, 0.0, 1.0, 1.0, 1.0, 0.0, 0.0, 1.0, 0.0, 0.0, 1.0, 1.0, 0.0, 1.0, 0.0, 0.0, 0.0, 0.0, 1.0, 1.0, 0.0, 0.0, 0.0, 0.0, 0.0, 0.0, 0.0, 0.0, 0.0];
soc = [5.759028, 6.657876194, 7.556544619, 6.55503331, 5.553722304, 6.452611559, 7.351321037, 7.349850773, 6.348380802, 6.347111126, 6.345841704, 5.754132231, 4.752981405, 3.752030808, 2.751280402, 3.650730146, 2.65, 2.65, 3.54947, 4.448760106, 5.347870354, 4.34680078, 4.34593142, 5.245062233, 4.244013221, 3.243164418, 4.142515785, 4.141687282, 3.140858945, 3.192225573, 2.65, 2.853332059, 3.752761393, 2.75201084, 3.651460438, 3.650730146, 2.65, 3.54947, 4.448760106, 3.447870354, 4.34718078, 4.346311344, 5.245442081, 6.144392993, 5.143164114, 6.042135482, 5.040927055, 5.939918869, 4.938730885, 5.837743139, 4.836575591, 3.835608275, 3.834841154, 2.834074186, 2.833507371, 3.732940669, 3.732194081, 2.731447642, 2.730901353, 3.630355172, 2.65, 3.54947, 4.448760106, 5.347870354, 4.34680078, 5.24593142, 6.144882233, 6.143653257, 6.142669326, 5.141440793, 4.140412504, 3.139584422, 4.038956505, 4.038148714, 3.037341084, 3.853752155, 4.752981405, 3.752030808, 2.751280402, 3.650730146, 2.65, 3.54947, 4.448760106, 5.347870354, 6.24680078, 5.24555142, 4.244502309, 5.143653409, 5.142624678, 6.041596153, 6.940387834, 7.838999757, 7.837431957, 8.735864469999999, 9.634117297, 9.632190474];
cost = [0.974677071, 0.946575671, 0.946270221, 0.0, 0.0, 1.239685491, 0.933746771, 0.162088875, 0.0, 0.164960105, 0.164043755, 0.0, 0.0, 0.0, 0.0, 1.013041591, 0.0, 0.147856621, 0.870824071, 0.8659368710000001, 0.865325971, 0.0, 0.136064535, 0.865875781, 0.0, 0.0, 1.415470274, 0.002650429, 0.0, 0.006827389, 0.0, 0.026768938, 1.412734194, 0.0, 0.363269074, 0.0, 0.0, 0.118178165, 1.406548274, 0.0, 1.406310354, 0.0, 1.406548274, 0.118178165, 0.0, 1.407499954, 0.0, 1.408094754, 0.0, 1.414280674, 0.0, 0.0, 0.014006715, 0.0, 0.238145925, 0.741801991, 0.0, 0.0, 0.0, 0.294439921, 0.0, 1.466860994, 1.467455794, 1.467455794, 0.0, 0.965563554, 1.460437154, 0.154681309, 3.2144e-05, 0.0, 0.0, 0.0, 1.450801394, 0.142428429, 0.0, 1.277641805, 1.394057474, 0.0, 0.0, 1.397031474, 0.0, 1.416659874, 1.418801154, 1.419395954, 1.417254674, 0.0, 0.0, 1.416659874, 0.056525355, 0.886524201, 0.9216509510000001, 0.920612421, 0.191839705, 0.897703671, 0.895260071, 0.166976075];
earn = [0.0, 0.0, 0.0, 0.312065126, 0.314543385, 0.0, 0.0, 0.0, 0.334478093, 0.0, 0.0, 0.135781646, 0.331297913, 0.32933633, 0.331486364, 0.0, 0.347866674, 0.0, 0.0, 0.0, 0.0, 0.392286113, 0.0, 0.0, 0.585413519, 0.631897394, 0.0, 0.0, 0.618870037, 0.0, 0.448533911, 0.0, 0.0, 0.882854942, 0.0, 0.413164853, 0.333480352, 0.031958059, 0.0, 0.272060506, 0.0, -0.017132747, 0.0, 0.0, -0.021103678, 0.0, -0.038821609, 0.0, -0.039917945, 0.0, -0.038091634, -0.015274604, 0.0, -0.008001302, 0.0, 0.0, 0.0, 0.007606191, 0.016927034, 0.0, 0.559698732, 0.0, 0.0, 0.0, 0.770058969, 0.0, 0.0, 0.0, 0.0, 0.62105205, 0.71491237, 0.741700641, 0.0, 0.0, 0.793502496, 0.0, 0.0, 0.796922952, 0.771134157, 0.0, 0.6917429899999999, 0.0, 0.0, 0.0, 0.0, 0.587839616, 0.566441608, 0.0, 0.0, 0.0, 0.0, 0.0, 0.0, 0.0, 0.0, 0.0];
total_cost = 48.169038164;
total_earn = 14.508571504;
