production = [0.0, 0.0, 0.0, 0.0, 0.0, 0.0, 0.0, 0.0, 0.0, 0.0, 0.0, 0.0, 0.0, 0.0, 0.0, 0.0, 0.0, 0.0, 0.0, 0.0, 0.0, 0.0, 0.0, 0.0, 0.0, 0.0, 0.0, 0.0, 0.11, 0.145, 0.218, 0.4283, 0.0, 0.7712, 0.881, 0.9785, 0.0, 0.0, 1.2873, 1.362, 1.4492, 1.1013, 0.0, 0.0, 0.0, 0.0, 0.4933, 0.0, 0.0602, 0.0, 0.0525, 0.0, 0.0638, 0.317, 0.3438, 0.3775, 0.0, 1.3277, 1.221, 0.0, 0.0, 0.0, 0.0, 0.0, 0.5952, 0.0, 0.0, 0.0, 0.0, 0.0825, 0.0, 0.0177, 0.0055, 0.0, 0.0, 0.0, 0.0, 0.0, 0.0, 0.0, 0.0, 0.0, 0.0, 0.0, 0.0, 0.0, 0.0, 0.0, 0.0, 0.0, 0.0, 0.0, 0.0, 0.0, 0.0, 0.0];
buy = [0.402028, 0.356028, 1.355528, 0.0, 1.307528, 0.32120306, 1.335028, 0.0, 0.259728, 1.270028, 1.268528, 0.271328, 0.271828, 0.0, 1.271828, 1.464828, 1.243028, 0.0, 0.0, 0.0, 0.223028, 0.0, 1.222728, 1.224228, 0.083328, 1.087228, 0.0, 0.0, 0.0, 0.0, 0.0, 0.6560279999999999, 0.088228, 0.314128, 0.0, 0.0, 0.087228, 1.085028, 0.0, 0.0, 0.0, 0.0, 0.0, 0.0, 1.082028, 0.0, 0.596228, 1.084328, 1.030328, 1.089528, 0.0, 0.084328, 0.022928, 1.019528, 0.046028, 0.0, 0.0, 0.051328, 0.162028, 1.356528, 1.132728, 1.133728, 1.134228, 0.0, 0.0, 1.128828, 1.128328, 1.130028, 0.131728, 0.047728, 1.118728, 1.101528, 1.114728, 0.0, 0.0, 0.0, 0.072528, 0.075028, 0.074728, 0.0, 0.0, 0.091528, 0.0, 0.09382799999999999, 1.092028, 0.092528, 0.0, 0.0, 0.0, 0.0, 0.0, 1.313528, 0.314028, 0.276028, 1.272028, 1.273328];
sell = [0.0, 0.0, 0.0, 0.587472, 0.0, 0.0, 0.0, 0.0, 0.0, 0.0, 0.0, 0.0, 0.0, 0.626472, 0.0, 0.0, 0.0, 0.658672, 0.667972, 0.675972, 0.0, 0.676472, 0.0, 0.0, 0.0, 0.0, 0.809472, 0.813472, 0.922272, 0.957772, 1.030472, 0.0, 0.0, 0.0, 1.693972, 1.792172, 0.0, 0.0, 0.204272, 0.279972, 1.710342203, 1.013772, 0.816972, 0.0, 0.0, 0.816172, 0.0, 0.0, 0.0, 0.0, 0.869672, 0.0, 0.0, 0.0, 0.0, 0.0, 0.490172, 0.0, 0.0, 0.0, 0.0, 0.0, 0.0, 0.765772, 1.361972, 0.0, 0.0, 0.0, 0.0, 0.0, 0.0, 0.0, 0.0, 0.780272, 0.7794720000000001, 0.0, 0.0, 0.0, 0.0, 0.824972, 0.825272, 0.0, 0.8066719999999999, 0.0, 0.0, 0.0, 0.807472, 0.808472, 0.807472, 0.642272, 0.584772, 0.0, 0.0, 0.0, 0.0, 0.0];
charge = [0.0, 0.0, 1.0, 0.0, 1.0, 0.0, 1.0, 0.0, 0.0, 1.0, 1.0, 0.0, 0.0, 0.0, 1.0, 1.0, 1.0, 0.0, 0.0, 0.0, 0.0, 0.0, 1.0, 1.0, 0.0, 1.0, 0.0, 0.0, 0.0, 0.0, 0.0, 1.0, 0.0, 1.0, 0.0, 0.0, 0.0, 1.0, 1.0, 1.0, 0.0, 0.0, 0.0, 0.0, 1.0, 0.0, 1.0, 1.0, 1.0, 1.0, 0.0, 0.0, 0.0, 1.0, 0.0, 0.0, 0.0, 1.0, 1.0, 1.0, 1.0, 1.0, 1.0, 0.0, 0.0, 1.0, 1.0, 1.0, 0.0, 0.0, 1.0, 1.0, 1.0, 0.0, 0.0, 0.0, 0.0, 0.0, 0.0, 0.0, 0.0, 0.0, 0.0, 0.0, 1.0, 0.0, 0.0, 0.0, 0.0, 0.0, 0.0, 1.0, 0.0, 0.0, 1.0, 1.0];
discharge = [0.0, 0.0, 0.0, 1.0, 0.0, 0.5718054889999999, 0.0, 0.294808889, 0.0, 0.0, 0.0, 0.0, 0.0, 1.0, 0.0, 0.0, 0.0, 1.0, 1.0, 1.0, 0.0, 1.0, 0.0, 0.0, 0.0, 0.0, 1.0, 1.0, 1.0, 1.0, 1.0, 0.0, 0.0, 0.0, 1.0, 1.0, 0.0, 0.0, 0.0, 0.0, 0.382189114, 0.0, 1.0, 0.098031111, 0.0, 1.0, 0.0, 0.0, 0.0, 0.0, 1.0, 0.0, 0.0, 0.0, 0.0, 0.023142222, 1.0, 0.0, 0.0, 0.0, 0.0, 0.0, 0.0, 1.0, 1.0, 0.0, 0.0, 0.0, 0.0, 0.0, 0.0, 0.0, 0.0, 1.0, 1.0, 0.08447555599999999, 0.0, 0.0, 0.0, 1.0, 1.0, 0.0, 1.0, 0.0, 0.0, 0.0, 1.0, 1.0, 1.0, 1.0, 1.0, 0.0, 0.0, 0.0, 0.0, 0.0];
soc = [4.859028, 4.858056194, 5.757084583, 4.755933166, 5.65498198, 5.082045495, 5.981029086, 5.685023991, 5.683886986, 6.582750209, 7.481433659, 7.479937372, 7.478441384, 6.476945696, 7.375650307, 8.274175177, 9.172520342, 8.170685838000001, 7.169051701, 6.16761789, 6.166384367, 5.16515109, 6.06411806, 6.962905236, 6.961512655, 7.860120352, 6.858548328, 5.857176619, 4.856005183, 3.855033982, 2.854262976, 3.753692123, 3.752941385, 4.652190796, 3.651260358, 2.650530106, 2.65, 3.54947, 4.448760106, 5.347870354, 4.964611666, 4.963618744, 3.96262602, 3.863802384, 4.763029623, 3.762077017, 4.661324602, 5.560392337, 6.459280258, 7.357988402, 6.356516805, 6.355245501, 6.353974452, 7.252703657, 7.251253117, 7.226660644, 6.225215312, 7.123970269, 8.022545473999999, 8.920940965, 9.819156777, 10.717192946, 11.615049507, 10.612726497, 9.610603952, 10.508681831, 11.406580095, 12.304298779, 12.301837919, 12.299377552, 13.196917676, 14.094278292, 14.991459437, 13.988461145, 12.985663453, 12.898590764, 12.896011046, 12.893431844, 12.890853158, 11.888274987, 10.885897332, 10.883720153, 9.881543409000001, 9.879567099999999, 10.777591187, 10.775435668, 9.773280581, 8.771325924999999, 7.76957166, 6.768017746, 5.766664142, 6.665510809, 6.664177707, 6.662844871, 7.561512302, 8.460000000000001];
cost = [0.245598905, 0.217497505, 0.946270221, 0.0, 0.916947021, 0.19622295, 0.933746771, 0.0, 0.158667835, 0.894038271, 0.893121921, 0.165754275, 0.166059725, 0.0, 0.895137891, 1.013041591, 0.877543971, 0.0, 0.0, 0.0, 0.136247805, 0.0, 0.865142701, 0.866059051, 0.099126989, 1.411544594, 0.0, 0.0, 0.0, 0.0, 0.0, 0.898589074, 0.104956029, 0.491864834, 0.0, 0.0, 0.103766429, 1.408927474, 0.118178165, 0.118178165, 0.0, 0.0, 0.0, 0.0, 1.405358674, 0.0, 0.827450994, 1.408094754, 1.343856354, 1.414280674, 0.0, 0.100316589, 0.014006715, 0.741007821, 0.028118505, 0.0, 0.0, 0.149534441, 0.217161071, 0.946881121, 1.465671394, 1.466860994, 1.467455794, 0.0, 0.0, 1.461031954, 1.460437154, 1.462459474, 0.156703629, 0.056777229, 1.449016994, 1.428555874, 1.444258594, 0.0, 0.0, 0.0, 0.086279309, 0.089253309, 0.088896429, 0.0, 0.0, 0.108881709, 0.0, 0.111617789, 1.417254674, 0.110071309, 0.0, 0.0, 0.0, 0.0, 0.0, 0.920612421, 0.191839705, 0.168625505, 0.895260071, 0.896054241];
earn = [0.0, 0.0, 0.0, 0.312065126, 0.0, 0.0, 0.0, 0.0, 0.0, 0.0, 0.0, 0.0, 0.0, 0.32933633, 0.0, 0.0, 0.0, 0.351072176, 0.356763845, 0.361847812, 0.0, 0.392286113, 0.0, 0.0, 0.0, 0.0, 0.618598502, 0.626048051, 0.702679037, 0.728864492, 0.748019625, 0.0, 0.0, 0.0, 0.853423094, 0.829954853, 0.0, 0.0, 0.052845166, 0.034940506, -0.007525506, -0.017132747, -0.08578205999999999, 0.0, 0.0, -0.033626286, 0.0, 0.0, 0.0, 0.0, -0.038091634, 0.0, 0.0, 0.0, 0.0, 0.0, 0.003186118, 0.0, 0.0, 0.0, 0.0, 0.0, 0.0, 0.431665676, 0.770058969, 0.0, 0.0, 0.0, 0.0, 0.0, 0.0, 0.0, 0.0, 0.778165266, 0.793502496, 0.0, 0.0, 0.0, 0.0, 0.726800332, 0.6917429899999999, 0.0, 0.636464208, 0.0, 0.0, 0.0, 0.566441608, 0.5456377529999999, 0.55973959, 0.430065331, 0.38115439, 0.0, 0.0, 0.0, 0.0, 0.0];
total_cost = 42.142173428;
total_earn = 14.431211223;
