production = [0.0, 0.0, 0.0, 0.0, 0.0, 0.0, 0.0, 0.0, 0.0, 0.0, 0.0, 0.0, 0.0, 0.0, 0.0, 0.0, 0.0, 0.0, 0.0, 0.0, 0.0, 0.0, 0.0, 0.0003, 0.0045, 0.0, 0.0452, 0.0843, 0.11, 0.0, 0.0, 0.0, 0.631, 0.7712, 0.0, 0.0, 0.0, 1.184, 0.0, 1.362, 0.0, 0.0, 0.0, 0.0, 1.1018, 0.0, 0.0, 0.0, 0.0, 0.0, 0.0, 0.0, 0.0, 0.0, 0.3438, 0.0, 0.0, 1.3277, 0.0, 1.068, 0.0, 0.0, 0.7562, 0.0, 0.5952, 0.0, 0.3402, 0.1988, 0.132, 0.0, 0.0, 0.0, 0.0, 0.0, 0.0, 0.0, 0.0, 0.0, 0.0, 0.0, 0.0, 0.0, 0.0, 0.0, 0.0, 0.0, 0.0, 0.0, 0.0, 0.0, 0.0, 0.0, 0.0, 0.0, 0.0, 0.0];
buy = [1.402028, 1.356028, 0.355528, 1.312528, 1.307528, 0.129459692, 0.335028, 1.265328, 1.259728, 1.270028, 0.268528, 0.271328, 1.271828, 1.273528, 0.0, 1.464828, 0.0, 1.241328, 1.232028, 0.224028, 1.223028, 0.223528, 1.222728, 0.223928, 0.078828, 1.087228, 0.045328, 0.0, 0.977728, 0.0, 0.0, 0.084328, 0.457228, 0.0, 1.087028, 0.0, 1.087228, 0.0, 1.083028, 0.0, 1.082828, 1.087528, 0.083028, 1.088228, 0.0, 0.0, 1.089528, 1.084328, 0.0, 1.089528, 0.082828, 0.084328, 0.0, 1.336528, 0.0, 0.0, 1.409828, 0.051328, 0.0, 0.0, 0.0, 0.0, 0.0, 0.0, 0.0, 1.128828, 0.0, 0.0, 0.999728, 0.0, 0.118728, 1.119228, 1.120228, 1.119728, 0.120528, 1.076028, 0.0, 0.075028, 0.074728, 0.075028, 1.074728, 1.091528, 0.09332799999999999, 0.0, 0.434946292, 0.092528, 1.092528, 0.0, 0.092528, 1.257728, 0.0, 0.0, 0.0, 0.0, 0.0, 0.273328];
sell = [0.0, 0.0, 0.0, 0.0, 0.0, 0.0, 0.0, 0.0, 0.0, 0.0, 0.0, 0.0, 0.0, 0.0, 0.628172, 0.0, 0.656972, 0.0, 0.0, 0.0, 0.0, 0.0, 0.0, 0.0, 0.0, 0.0, 0.0, 0.897772, 0.0, 0.812772, 0.812472, 0.0, 0.0, 1.585872, 0.0, 0.813672, 0.0, 1.998972, 0.0, 2.179972, 0.0, 0.0, 0.0, 0.0, 1.72911647, 0.816172, 0.0, 0.0, 0.809472, 0.0, 0.0, 0.0, 0.813272, 0.0, 0.853972, 0.501672, 0.0, 0.0, 0.516972, 0.711472, 0.767272, 0.766272, 1.521972, 0.765772, 0.461972, 0.0, 1.111872, 0.968772, 0.0, 0.769772, 0.0, 0.0, 0.0, 0.0, 0.0, 0.0, 0.827472, 0.0, 0.0, 0.0, 0.0, 0.0, 0.0, 0.806172, 0.0, 0.0, 0.0, 0.808472, 0.0, 0.0, 0.584772, 0.586472, 0.585972, 0.623972, 0.627972, 0.0];
charge = [1.0, 1.0, 0.0, 1.0, 1.0, 0.0, 0.0, 1.0, 1.0, 1.0, 0.0, 0.0, 1.0, 1.0, 0.0, 1.0, 0.0, 1.0, 1.0, 0.0, 1.0, 0.0, 1.0, 0.0, 0.0, 1.0, 0.0, 0.0, 1.0, 0.0, 0.0, 0.0, 1.0, 0.0, 1.0, 0.0, 1.0, 0.0, 1.0, 0.0, 1.0, 1.0, 0.0, 1.0, 0.0, 0.0, 1.0, 1.0, 0.0, 1.0, 0.0, 0.0, 0.0, 1.0, 0.0, 0.0, 1.0, 1.0, 0.0, 0.0, 0.0, 0.0, 0.0, 0.0, 0.0, 1.0, 0.0, 0.0, 1.0, 0.0, 0.0, 1.0, 1.0, 1.0, 0.0, 1.0, 0.0, 0.0, 0.0, 0.0, 1.0, 1.0, 0.0, 0.0, 0.342918292, 0.0, 1.0, 0.0, 0.0, 1.0, 0.0, 0.0, 0.0, 0.0, 0.0, 0.0];
discharge = [0.0, 0.0, 0.0, 0.0, 0.0, 0.784853676, 0.0, 0.0, 0.0, 0.0, 0.0, 0.0, 0.0, 0.0, 1.0, 0.0, 1.0, 0.0, 0.0, 0.0, 0.0, 0.0, 0.0, 0.0, 0.0, 0.0, 0.0, 1.0, 0.0, 1.0, 1.0, 0.0, 0.0, 1.0, 0.0, 1.0, 0.0, 1.0, 0.0, 1.0, 0.0, 0.0, 0.0, 0.0, 0.788160522, 1.0, 0.0, 0.0, 1.0, 0.0, 0.0, 0.0, 1.0, 0.0, 1.0, 1.0, 0.0, 0.0, 1.0, 0.0, 1.0, 1.0, 1.0, 1.0, 0.0, 0.0, 1.0, 1.0, 0.0, 1.0, 0.0, 0.0, 0.0, 0.0, 0.0, 0.0, 1.0, 0.0, 0.0, 0.0, 0.0, 0.0, 0.0, 1.0, 0.0, 0.0, 0.0, 1.0, 0.0, 0.0, 1.0, 1.0, 1.0, 1.0, 1.0, 0.0];
soc = [5.759028, 6.657876194, 6.656544619, 7.55521331, 8.453702268000001, 7.667157851, 7.66562442, 8.564091295000001, 9.462378476, 10.360486001, 10.358413904, 10.356342221, 11.254270952, 12.152020098, 11.149589694, 12.047359776, 11.044950304, 11.942741314, 12.840352766, 12.837784695, 13.735217138, 13.732470095, 14.629723601, 14.626797656, 14.623872297, 15.520947522, 15.517843333, 14.514739764, 15.411836816, 14.408754449, 13.405872698, 13.403191523, 14.300510885, 13.297650783, 14.194991253, 13.192152254, 14.089513824, 13.086695921, 13.984078582, 12.981281766, 13.87868551, 14.775909773, 14.772954591, 15.67, 14.878705478, 13.875729737, 14.772954591, 15.67, 14.666866, 15.563932627, 15.56081984, 15.557707676, 14.554596135, 15.451685216, 14.448594879, 13.44570516, 14.343016018, 15.240147415, 14.237099386, 14.234251966, 13.231405116, 12.228758835, 11.226313083, 10.22406782, 10.222023007, 11.119978602, 10.117754606, 9.115731054999999, 10.013907909, 9.011905128, 9.010102746999999, 9.908300726, 10.806319066, 11.704157802, 11.70181697, 12.599476607, 11.596956712, 11.59463732, 11.592318393, 11.589999929, 12.487681929, 13.385184393, 13.382507356, 12.379830855, 12.685981351, 12.683444154, 13.580907466, 12.578191284, 12.575675646, 13.473160511, 12.470465879, 11.467971785, 10.465678191, 9.463585054999999, 8.461692338000001, 8.460000000000001];
cost = [0.974677071, 0.946575671, 0.217192055, 0.920001521, 0.916947021, 0.079086926, 0.204668605, 0.891167041, 0.887746001, 0.894038271, 0.164043755, 0.165754275, 0.895137891, 0.8961764209999999, 0.0, 1.013041591, 0.0, 0.8765054410000001, 0.870824071, 0.136858705, 0.865325971, 0.136553255, 0.865142701, 0.136797615, 0.093773789, 1.411544594, 0.053922189, 0.0, 1.281283394, 0.0, 0.0, 0.100316589, 0.662096594, 0.0, 1.411306674, 0.0, 1.411544594, 0.0, 1.406548274, 0.0, 1.406310354, 1.411901474, 0.09877010899999999, 1.412734194, 0.0, 0.0, 1.414280674, 1.408094754, 0.0, 1.414280674, 0.09853218900000001, 0.100316589, 0.0, 0.934663121, 0.0, 0.0, 0.979442091, 0.149534441, 0.0, 0.0, 0.0, 0.0, 0.0, 0.0, 0.0, 1.461031954, 0.0, 0.0, 1.307454594, 0.0, 0.141238829, 1.449611794, 1.450801394, 1.450206594, 0.143380109, 1.398221074, 0.0, 0.089253309, 0.088896429, 0.089253309, 1.396674594, 1.416659874, 0.111022989, 0.0, 0.557937563, 0.110071309, 1.417849474, 0.0, 0.056525355, 0.886524201, 0.0, 0.0, 0.0, 0.0, 0.0, 0.166976075];
earn = [0.0, 0.0, 0.0, 0.0, 0.0, 0.0, 0.0, 0.0, 0.0, 0.0, 0.0, 0.0, 0.0, 0.0, 0.331486364, 0.0, 0.347866674, 0.0, 0.0, 0.0, 0.0, 0.0, 0.0, 0.0, 0.0, 0.0, 0.0, 0.690925331, 0.0, 0.618519492, 0.589773425, 0.0, 0.0, 0.882854942, 0.0, 0.376811503, 0.0, 0.645468059, 0.0, 0.272060506, 0.0, 0.0, 0.0, 0.0, -0.044611205, -0.033626286, 0.0, 0.0, -0.037154765, 0.0, 0.0, 0.0, -0.018135966, 0.0, -0.007429556, -0.000250836, 0.0, 0.0, 0.010442834, 0.033581478, 0.242534679, 0.302370931, 0.753680534, 0.431665676, 0.261198969, 0.0, 0.751959034, 0.70061591, 0.0, 0.62105205, 0.0, 0.0, 0.0, 0.0, 0.0, 0.0, 0.829954416, 0.0, 0.0, 0.0, 0.0, 0.0, 0.0, 0.626556878, 0.0, 0.0, 0.0, 0.5456377529999999, 0.0, 0.0, 0.38115439, 0.374521019, 0.371271859, 0.381184495, 0.381241801, 0.0];
total_cost = 47.805050049;
total_earn = 12.61518239;
