production = [0.0, 0.0, 0.0, 0.0, 0.0, 0.0, 0.0, 0.0, 0.0, 0.0, 0.0, 0.0, 0.0, 0.0, 0.0, 0.0, 0.0, 0.0, 0.0, 0.0, 0.0, 0.0, 0.0, 0.0003, 0.0, 0.0283, 0.0, 0.0, 0.11, 0.145, 0.0, 0.4283, 0.0, 0.0, 0.0, 0.9785, 1.0675, 1.184, 0.0, 1.362, 0.0, 1.1013, 0.0, 1.1045, 0.0, 1.102, 0.4933, 0.0575, 0.0, 0.0592, 0.0525, 0.0473, 0.0, 0.0, 0.3438, 0.0, 0.0, 1.3277, 0.0, 1.068, 1.0217, 0.957, 0.0, 0.712, 0.5952, 0.0, 0.3402, 0.0, 0.0, 0.0825, 0.0, 0.0177, 0.0055, 0.0003, 0.0, 0.0, 0.0, 0.0, 0.0, 0.0, 0.0, 0.0, 0.0, 0.0, 0.0, 0.0, 0.0, 0.0, 0.0, 0.0, 0.0, 0.0, 0.0, 0.0, 0.0, 0.0];
buy = [1.402028, 0.0, 0.355528, 1.312528, 0.0, 1.835828, 1.335028, 0.0, 0.0, 0.270028, 1.268528, 1.271328, 0.0, 0.0, 0.0, 1.464828, 1.243028, 0.241328, 0.232028, 1.224028, 1.223028, 1.223528, 1.222728, 1.223928, 1.083328, 1.058928, 0.0, 1.086528, 0.977728, 0.942228, 0.08752799999999999, 0.0, 0.0, 1.085328, 0.0, 0.107828, 0.0, 0.0, 1.083028, 0.0, 1.082828, 0.0, 0.0, 0.0, 0.0, 0.0, 0.596228, 1.026828, 0.090528, 0.0, 0.0, 1.037028, 0.086728, 1.336528, 1.046028, 0.0, 0.0, 0.0, 0.0, 0.0, 0.0, 0.176728, 1.134228, 0.0, 0.538028, 0.128828, 0.0, 1.130028, 0.0, 0.047728, 1.118728, 0.0, 0.0, 0.0, 0.120528, 0.0, 0.0, 1.075028, 0.0, 0.0, 0.0, 0.0, 0.09332799999999999, 0.0, 0.0, 0.0, 1.092528, 0.0, 1.092528, 1.257728, 1.315228, 1.313528, 1.314028, 0.0, 1.272028, 1.273328];
sell = [0.0, 0.543972, 0.0, 0.0, 0.579889374, 0.0, 0.0, 0.634672, 0.640272, 0.0, 0.0, 0.0, 0.628172, 0.626472, 0.628172, 0.0, 0.0, 0.0, 0.0, 0.0, 0.0, 0.0, 0.0, 0.0, 0.0, 0.0, 0.809472, 0.0, 0.0, 0.0, 0.0, 1.243972, 0.811772, 0.0, 0.812972, 0.0, 1.880272, 0.098972, 0.0, 0.279972, 0.0, 1.913772, 0.816972, 0.016272, 0.817972, 0.018172, 0.0, 0.0, 0.0, 0.869672, 0.869672, 0.0, 0.0, 0.0, 0.0, 0.501672, 0.490172, 0.948672, 0.516972, 0.711472, 1.788972, 0.0, 0.0, 1.477772, 0.0, 0.0, 0.211872, 0.0, 0.768272, 0.0, 0.0, 0.798472, 0.785272, 0.780572, 0.0, 0.823972, 0.827472, 0.0, 0.825272, 0.824972, 0.581336148, 0.808472, 0.0, 0.806172, 0.807972, 0.807472, 0.0, 0.808472, 0.0, 0.0, 0.0, 0.0, 0.0, 0.623972, 0.0, 0.0];
charge = [1.0, 0.0, 0.0, 1.0, 0.0, 1.0, 1.0, 0.0, 0.0, 0.0, 1.0, 1.0, 0.0, 0.0, 0.0, 1.0, 1.0, 0.0, 0.0, 1.0, 1.0, 1.0, 1.0, 1.0, 1.0, 1.0, 0.0, 1.0, 1.0, 1.0, 0.0, 0.0, 0.0, 1.0, 0.0, 1.0, 0.0, 1.0, 1.0, 1.0, 1.0, 0.0, 0.0, 1.0, 0.0, 1.0, 1.0, 1.0, 0.0, 0.0, 0.0, 1.0, 0.0, 1.0, 1.0, 0.0, 0.0, 0.0, 0.0, 0.0, 0.0, 1.0, 1.0, 0.0, 1.0, 0.0, 0.0, 1.0, 0.0, 0.0, 1.0, 0.0, 0.0, 0.0, 0.0, 0.0, 0.0, 1.0, 0.0, 0.0, 0.0, 0.0, 0.0, 0.0, 0.0, 0.0, 1.0, 0.0, 1.0, 1.0, 1.0, 1.0, 1.0, 0.0, 1.0, 1.0];
discharge = [0.0, 1.0, 0.0, 0.0, 0.986019304, 0.0, 0.0, 1.0, 1.0, 0.0, 0.0, 0.0, 1.0, 1.0, 1.0, 0.0, 0.0, 0.0, 0.0, 0.0, 0.0, 0.0, 0.0, 0.0, 0.0, 0.0, 1.0, 0.0, 0.0, 0.0, 0.0, 1.0, 1.0, 0.0, 1.0, 0.0, 1.0, 0.0, 0.0, 0.0, 0.0, 1.0, 1.0, 0.0, 1.0, 0.0, 0.0, 0.0, 0.0, 1.0, 1.0, 0.0, 0.0, 0.0, 0.0, 1.0, 1.0, 0.0, 1.0, 0.0, 1.0, 0.0, 0.0, 1.0, 0.0, 0.0, 0.0, 0.0, 1.0, 0.0, 0.0, 1.0, 1.0, 1.0, 0.0, 1.0, 1.0, 0.0, 1.0, 1.0, 0.728960164, 1.0, 0.0, 1.0, 1.0, 1.0, 0.0, 1.0, 0.0, 0.0, 0.0, 0.0, 0.0, 1.0, 0.0, 0.0];
soc = [5.759028, 4.757876194, 4.756924619, 5.655973234, 4.668822735, 5.567888971, 6.466775393, 5.465482038, 4.464388941, 4.463496064, 5.362603364, 6.261530844, 5.260278538, 4.259226482, 3.258374637, 4.157722962, 5.056891417, 5.055880039, 5.054868863, 5.953857889, 6.852667117, 7.751296584, 8.649746325000001, 9.548016375, 10.446106772, 11.344017551, 10.341748747, 11.239680398, 12.137432461, 13.035004975, 13.032397974, 12.029791494, 11.027385536, 11.925180059, 10.922795023, 11.820610464, 10.818246342, 11.716082693, 12.613739476, 13.511216728, 14.408514485, 13.405632782, 12.402951655, 13.300471065, 12.297810971, 13.195351409, 14.092712338, 14.989893796, 14.986895817, 13.983898438, 12.981101658, 13.878505438, 13.875729737, 14.772954591, 15.67, 14.666866, 13.663932627, 13.66119984, 12.6584676, 12.655935907, 11.65340472, 12.551074039, 13.448563824, 12.445874111, 13.343384936, 13.340716259, 13.338048116, 14.235380506, 13.23253343, 13.229886924, 14.127240946, 13.124415498, 12.121790615, 11.119366257, 11.117142384, 10.114918955, 9.112895971, 10.011073392, 9.009071176999999, 8.007269363000001, 7.276707745, 6.275252404, 6.273997353, 5.272742554, 4.271688005, 3.270833668, 4.170179501, 3.169345465, 4.068711596, 4.967897854, 5.866904274, 6.765730893, 7.664377747, 6.662844871, 7.561512302, 8.460000000000001];
cost = [0.974677071, 0.0, 0.217192055, 0.920001521, 0.0, 1.239685491, 0.933746771, 0.0, 0.0, 0.164960105, 0.893121921, 0.894832441, 0.0, 0.0, 0.0, 1.013041591, 0.877543971, 0.147427275, 0.141745905, 0.8659368710000001, 0.865325971, 0.865631421, 0.865142701, 0.865875781, 1.406905154, 1.377878914, 0.0, 1.410711874, 1.281283394, 1.239052594, 0.104123309, 0.0, 0.0, 1.409284354, 0.0, 0.246450354, 0.0, 0.118178165, 1.406548274, 0.118178165, 1.406310354, 0.0, 0.0, 0.118178165, 0.0, 0.118178165, 0.827450994, 1.339692754, 0.107692109, 0.0, 0.0, 1.351826674, 0.052982135, 0.934663121, 0.757196671, 0.0, 0.0, 0.0, 0.0, 0.0, 0.0, 0.328413794, 1.467455794, 0.0, 0.758216274, 0.153253789, 0.0, 1.462459474, 0.0, 0.056777229, 1.449016994, 0.0, 0.0, 0.0, 0.143380109, 0.0, 0.0, 1.397031474, 0.0, 0.0, 0.0, 0.0, 0.111022989, 0.0, 0.0, 0.0, 1.417849474, 0.0, 0.785603521, 0.886524201, 0.9216509510000001, 0.920612421, 0.920917871, 0.0, 0.895260071, 0.896054241];
earn = [0.0, 0.289828282, 0.0, 0.0, 0.307863269, 0.0, 0.0, 0.330791046, 0.334478093, 0.0, 0.0, 0.0, 0.331297913, 0.32933633, 0.331486364, 0.0, 0.0, 0.0, 0.0, 0.0, 0.0, 0.0, 0.0, 0.0, 0.0, 0.0, 0.618598502, 0.0, 0.0, 0.0, 0.0, 0.813184496, 0.508006918, 0.0, 0.409575294, 0.0, 0.771475602, 0.031958059, 0.0, 0.034940506, 0.0, -0.032342747, -0.08578205999999999, -0.00177853, -0.021103678, -0.000748686, 0.0, 0.0, 0.0, -0.046614419, -0.038091634, 0.0, 0.0, 0.0, 0.0, -0.000250836, 0.003186118, 0.013850611, 0.010442834, 0.033581478, 0.565494049, 0.0, 0.0, 0.8330200760000001, 0.0, 0.0, 0.143289034, 0.0, 0.549775443, 0.0, 0.0, 0.741700641, 0.757630426, 0.778464456, 0.0, 0.84045144, 0.829954416, 0.0, 0.771134157, 0.726800332, 0.487275959, 0.6551857089999999, 0.0, 0.626556878, 0.60048479, 0.587839616, 0.0, 0.5456377529999999, 0.0, 0.0, 0.0, 0.0, 0.0, 0.381184495, 0.0, 0.0];
total_cost = 44.850155223;
total_earn = 16.699048795;
