production = [0.0, 0.0, 0.0, 0.0, 0.0, 0.0, 0.0, 0.0, 0.0, 0.0, 0.0, 0.0, 0.0, 0.0, 0.0, 0.0, 0.0, 0.0, 0.0, 0.0, 0.0, 0.0, 0.0, 0.0, 0.0045, 0.0283, 0.0, 0.0843, 0.11, 0.0, 0.0, 0.4283, 0.631, 0.7712, 0.0, 0.0, 1.0675, 0.0, 1.2873, 0.0, 1.4492, 1.087528, 0.0, 0.0, 1.1018, 0.0, 0.0, 0.0, 0.0602, 0.0, 0.0525, 0.0473, 0.0638, 0.0, 0.0, 0.0, 0.0, 1.3277, 1.221, 1.068, 0.0, 0.0, 0.7562, 0.0, 0.5952, 0.0, 0.0, 0.1988, 0.0, 0.0825, 0.0, 0.0177, 0.0, 0.0, 0.0, 0.0, 0.0, 0.0, 0.0, 0.0, 0.0, 0.0, 0.0, 0.0, 0.0, 0.0, 0.0, 0.0, 0.0, 0.0, 0.0, 0.0, 0.0, 0.0, 0.0, 0.0];
buy = [0.402028, 1.356028, 0.355528, 1.312528, 0.307528, 1.835828, 0.0, 1.265328, 0.259728, 0.0, 0.0, 1.271328, 1.271828, 0.0, 0.271828, 0.0, 1.243028, 0.241328, 1.232028, 0.224028, 0.0, 0.0, 0.222728, 0.224228, 0.0, 0.058928, 0.0, 1.002228, 0.0, 1.087228, 0.120106779, 0.0, 0.457228, 0.0, 0.0, 1.086328, 0.0, 1.085028, 0.0, 1.082028, 0.0, 0.0, 0.0, 1.088228, 0.0, 1.083828, 0.0, 0.084328, 1.030328, 1.089528, 0.0, 1.037028, 0.022928, 1.336528, 1.389828, 1.398328, 1.409828, 0.0, 0.0, 0.0, 1.132728, 1.133728, 0.0, 1.134228, 0.538028, 0.128828, 0.0, 0.0, 0.0, 0.0, 0.118728, 1.101528, 1.120228, 1.119728, 0.0, 0.0, 0.0, 0.909572874, 0.074728, 1.075028, 0.0, 0.0, 0.0, 0.09382799999999999, 0.0, 1.092528, 1.092528, 0.091528, 0.0, 1.257728, 0.315228, 1.313528, 0.314028, 1.276028, 1.272028, 1.273328];
sell = [0.0, 0.0, 0.0, 0.0, 0.0, 0.0, 0.564972, 0.0, 0.0, 0.629972, 0.631472, 0.0, 0.0, 0.626472, 0.0, 0.435172, 0.0, 0.0, 0.0, 0.0, 0.676972, 0.676472, 0.0, 0.0, 0.821172, 0.0, 0.809472, 0.0, 0.922272, 0.0, 0.0, 1.243972, 0.0, 0.685872, 0.812972, 0.0, 1.880272, 0.0, 1.8308149, 0.0, 2.266372, 0.0, 0.816972, 0.0, 1.019772, 0.0, 0.810472, 0.0, 0.0, 0.0, 0.869672, 0.0, 0.0, 0.0, 0.0, 0.0, 0.0, 1.848672, 0.8379720000000001, 1.611472, 0.0, 0.0, 1.521972, 0.0, 0.0, 0.0, 0.771672, 0.968772, 0.768272, 0.852272, 0.0, 0.0, 0.0, 0.0, 0.7794720000000001, 0.823972, 0.827472, 0.0, 0.0, 0.0, 0.825272, 0.808472, 0.8066719999999999, 0.0, 0.807972, 0.0, 0.0, 0.0, 0.338652871, 0.0, 0.0, 0.0, 0.0, 0.0, 0.0, 0.0];
charge = [0.0, 1.0, 0.0, 1.0, 0.0, 1.0, 0.0, 1.0, 0.0, 0.0, 0.0, 1.0, 1.0, 0.0, 0.0, 0.0, 1.0, 0.0, 1.0, 0.0, 0.0, 0.0, 0.0, 0.0, 0.0, 0.0, 0.0, 1.0, 0.0, 1.0, 0.032578779, 0.0, 1.0, 0.0, 0.0, 1.0, 0.0, 1.0, 0.0, 1.0, 0.0, 1.0, 0.0, 1.0, 0.0, 1.0, 0.0, 0.0, 1.0, 1.0, 0.0, 1.0, 0.0, 1.0, 1.0, 1.0, 1.0, 0.0, 0.0, 0.0, 1.0, 1.0, 0.0, 1.0, 1.0, 0.0, 0.0, 0.0, 0.0, 0.0, 0.0, 1.0, 1.0, 1.0, 0.0, 0.0, 0.0, 0.834544874, 0.0, 1.0, 0.0, 0.0, 0.0, 0.0, 0.0, 1.0, 1.0, 0.0, 0.0, 1.0, 0.0, 1.0, 0.0, 1.0, 1.0, 1.0];
discharge = [0.0, 0.0, 0.0, 0.0, 0.0, 0.0, 1.0, 0.0, 0.0, 1.0, 1.0, 0.0, 0.0, 1.0, 0.0, 1.0, 0.0, 0.0, 0.0, 0.0, 1.0, 1.0, 0.0, 0.0, 1.0, 0.0, 1.0, 0.0, 1.0, 0.0, 0.0, 1.0, 0.0, 0.0, 1.0, 0.0, 1.0, 0.0, 0.696158777, 0.0, 1.0, 0.0, 1.0, 0.0, 0.0, 0.0, 1.0, 0.0, 0.0, 0.0, 1.0, 0.0, 0.0, 0.0, 0.0, 0.0, 0.0, 1.0, 0.0, 1.0, 0.0, 0.0, 1.0, 0.0, 0.0, 0.0, 1.0, 1.0, 1.0, 1.0, 0.0, 0.0, 0.0, 0.0, 1.0, 1.0, 1.0, 0.0, 0.0, 0.0, 1.0, 1.0, 1.0, 0.0, 1.0, 0.0, 0.0, 0.0, 0.479089856, 0.0, 0.0, 0.0, 0.0, 0.0, 0.0, 0.0];
soc = [4.859028, 5.758056194, 5.756904583, 6.655753202, 6.654422052, 7.553091167, 6.551580549, 7.450270233, 7.448780179, 6.447290423, 5.446000965, 6.344911764, 7.243642782, 6.242194054, 6.240945615, 5.239697426, 6.138649486, 6.137421756, 7.036194272, 7.034787033, 6.033380076, 5.0321734, 5.031166965, 5.030160732, 4.029154699, 4.028348868, 3.027543199, 3.92693769, 2.926152303, 3.825567072, 3.85412286, 2.853352035, 3.752781365, 3.752030808, 2.751280402, 3.650730146, 2.65, 3.54947, 2.852601329, 3.752030808, 2.751280402, 3.650730146, 2.65, 3.54947, 3.548760106, 4.448050354, 3.447160744, 3.446471312, 4.345782017, 5.244912861, 4.243863879, 5.143015106, 5.141986503, 6.040958105, 6.939749914, 7.838361964, 8.736794291000001, 7.735046933, 7.733499923, 6.731953223, 7.630606833, 8.529080711000001, 7.527374895, 8.42586942, 9.324184246, 9.322319409, 8.320454945, 7.318790854, 6.317327096, 5.316063631, 5.315000418, 6.213937418, 7.112694631, 8.011272092, 7.009669837, 6.008267903, 5.00706625, 5.757155223, 5.756003792, 6.654852591, 5.653521621, 4.652390916, 3.651460438, 3.650730146, 2.65, 3.54947, 4.448760106, 4.447870354, 3.967890924, 4.867097345, 4.866123926, 5.765150701, 5.763997671, 6.662844871, 7.561512302, 8.460000000000001];
cost = [0.245598905, 0.946575671, 0.217192055, 0.920001521, 0.187868855, 1.239685491, 0.0, 0.891167041, 0.158667835, 0.0, 0.0, 0.894832441, 0.895137891, 0.0, 0.166059725, 0.0, 0.877543971, 0.147427275, 0.870824071, 0.136858705, 0.0, 0.0, 0.136064535, 0.136980885, 0.0, 0.070100749, 0.0, 1.310428594, 0.0, 1.411544594, 0.146729124, 0.0, 0.662096594, 0.0, 0.0, 1.410473954, 0.0, 1.408927474, 0.0, 1.405358674, 0.0, 0.118178165, 0.0, 1.412734194, 0.0, 1.407499954, 0.0, 0.100316589, 1.343856354, 1.414280674, 0.0, 1.351826674, 0.014006715, 0.934663121, 0.967224091, 0.972416741, 0.979442091, 0.0, 0.0, 0.0, 1.465671394, 1.466860994, 0.0, 1.467455794, 0.758216274, 0.153253789, 0.0, 0.0, 0.0, 0.0, 0.141238829, 1.428555874, 1.450801394, 1.450206594, 0.0, 0.0, 0.0, 1.180652873, 0.088896429, 1.397031474, 0.0, 0.0, 0.0, 0.111617789, 0.0, 1.417849474, 1.417849474, 0.108881709, 0.0, 0.886524201, 0.192572785, 0.920612421, 0.191839705, 0.897703671, 0.895260071, 0.896054241];
earn = [0.0, 0.0, 0.0, 0.0, 0.0, 0.0, 0.294293915, 0.0, 0.0, 0.329097373, 0.329817826, 0.0, 0.0, 0.32933633, 0.0, 0.229770816, 0.0, 0.0, 0.0, 0.0, 0.389123506, 0.392286113, 0.0, 0.0, 0.585413519, 0.0, 0.618598502, 0.0, 0.702679037, 0.0, 0.0, 0.813184496, 0.0, 0.381824942, 0.409575294, 0.0, 0.771475602, 0.0, 0.473631815, 0.0, -0.009972037, 0.0, -0.08578205999999999, 0.0, -0.026310118, 0.0, -0.038821609, 0.0, 0.0, 0.0, -0.038091634, 0.0, 0.0, 0.0, 0.0, 0.0, 0.0, 0.026990611, 0.016927034, 0.076061478, 0.0, 0.0, 0.753680534, 0.0, 0.0, 0.0, 0.521881774, 0.70061591, 0.549775443, 0.6876130499999999, 0.0, 0.0, 0.0, 0.0, 0.793502496, 0.84045144, 0.829954416, 0.0, 0.0, 0.0, 0.6917429899999999, 0.6551857089999999, 0.636464208, 0.0, 0.60048479, 0.0, 0.0, 0.0, 0.23475417, 0.0, 0.0, 0.0, 0.0, 0.0, 0.0, 0.0];
total_cost = 48.296199245;
total_earn = 15.467217683;
