production = [0.0, 0.0, 0.0, 0.0, 0.0, 0.0, 0.0, 0.0, 0.0, 0.0, 0.0, 0.0, 0.0, 0.0, 0.0, 0.0, 0.0, 0.0, 0.0, 0.0, 0.0, 0.0, 0.0, 0.0003, 0.0045, 0.0, 0.0452, 0.0, 0.0, 0.0, 0.218, 0.0, 0.0, 0.7712, 0.881, 0.9785, 0.0, 0.0, 0.0, 1.362, 1.4492, 0.0, 0.0, 0.0, 1.1018, 0.0, 0.0, 0.0575, 0.0602, 0.0, 0.0525, 0.0473, 0.0, 0.0, 0.0, 0.3775, 0.0, 1.3277, 0.0, 0.0, 0.0, 0.957, 0.7562, 0.712, 0.5952, 0.0, 0.0, 0.0, 0.0, 0.0, 0.0435, 0.0177, 0.0055, 0.0003, 0.0, 0.0, 0.0, 0.0, 0.0, 0.0, 0.0, 0.0, 0.0, 0.0, 0.0, 0.0, 0.0, 0.0, 0.0, 0.0, 0.0, 0.0, 0.0, 0.0, 0.0, 0.0];
buy = [1.402028, 1.356028, 1.355528, 1.312528, 1.307528, 0.0, 1.335028, 0.265328, 1.259728, 1.270028, 1.268528, 0.0, 1.271828, 1.273528, 1.271828, 0.464828, 0.51948255, 1.241328, 1.232028, 0.0, 0.223028, 0.223528, 0.0, 0.223928, 0.078828, 0.087228, 0.0, 0.0, 0.0, 0.0, 0.0, 1.084328, 1.088228, 0.0, 0.0, 0.107828, 1.087228, 0.08502800000000001, 1.083028, 0.0, 0.0, 1.087528, 1.083028, 0.0, 0.0, 1.083828, 0.089528, 0.032845972, 0.0, 0.0, 0.030328, 1.037028, 0.0, 1.336528, 1.389828, 0.0, 0.0, 0.051328, 1.383028, 0.356528, 0.0, 0.0, 0.0, 0.422228, 0.538028, 1.128828, 0.128328, 0.0, 0.0, 0.378243527, 0.075228, 0.101528, 1.114728, 1.119428, 0.0, 0.0, 0.430881877, 0.0, 0.074728, 1.075028, 1.074728, 1.091528, 0.0, 0.0, 0.092028, 0.0, 0.0, 0.0, 0.092528, 0.0, 0.0, 1.313528, 0.0, 1.276028, 0.0, 1.273328];
sell = [0.0, 0.0, 0.0, 0.0, 0.0, 0.06417200000000001, 0.0, 0.0, 0.0, 0.0, 0.0, 0.628672, 0.0, 0.0, 0.0, 0.0, 0.0, 0.0, 0.0, 0.675972, 0.0, 0.0, 0.677272, 0.0, 0.0, 0.0, 0.792248235, 0.813472, 0.812272, 0.812772, 0.130472, 0.0, 0.0, 0.685872, 1.693972, 0.0, 0.0, 0.0, 0.0, 0.279972, 2.266372, 0.0, 0.0, 0.811772, 0.019772, 0.0, 0.0, 0.0, 0.869672, 0.810472, 0.0, 0.0, 0.813272, 0.0, 0.0, 0.879172, 0.490172, 0.0, 0.0, 0.0, 0.0, 1.723272, 1.521972, 0.0, 0.0, 0.0, 0.0, 0.769972, 0.768272, 0.0, 0.0, 0.0, 0.0, 0.0, 0.7794720000000001, 0.823972, 0.0, 0.824972, 0.0, 0.0, 0.0, 0.0, 0.0, 0.806172, 0.0, 0.807472, 0.807472, 0.808472, 0.0, 0.642272, 0.584772, 0.0, 0.585972, 0.0, 0.627972, 0.0];
charge = [1.0, 1.0, 1.0, 1.0, 1.0, 0.0, 1.0, 0.0, 1.0, 1.0, 1.0, 0.0, 1.0, 1.0, 1.0, 0.0, 0.27645455, 1.0, 1.0, 0.0, 0.0, 0.0, 0.0, 0.0, 0.0, 0.0, 0.0, 0.0, 0.0, 0.0, 0.0, 1.0, 1.0, 0.0, 0.0, 1.0, 1.0, 0.0, 1.0, 1.0, 0.0, 1.0, 1.0, 0.0, 1.0, 1.0, 0.0, 0.006017972, 0.0, 0.0, 0.0, 1.0, 0.0, 1.0, 1.0, 0.0, 0.0, 1.0, 1.0, 0.0, 0.0, 0.0, 0.0, 1.0, 1.0, 1.0, 0.0, 0.0, 0.0, 0.248015527, 0.0, 0.0, 1.0, 1.0, 0.0, 0.0, 0.358353877, 0.0, 0.0, 1.0, 1.0, 1.0, 0.0, 0.0, 0.0, 0.0, 0.0, 0.0, 0.0, 0.0, 0.0, 1.0, 0.0, 1.0, 0.0, 1.0];
discharge = [0.0, 0.0, 0.0, 0.0, 0.0, 1.0, 0.0, 0.0, 0.0, 0.0, 0.0, 1.0, 0.0, 0.0, 0.0, 0.0, 0.0, 0.0, 0.0, 1.0, 0.0, 0.0, 1.0, 0.0, 0.0, 0.0, 0.930640261, 1.0, 1.0, 1.0, 0.0, 0.0, 0.0, 0.0, 1.0, 0.0, 0.0, 0.0, 0.0, 0.0, 1.0, 0.0, 0.0, 1.0, 0.0, 0.0, 0.0, 0.0, 1.0, 1.0, 0.0, 0.0, 1.0, 0.0, 0.0, 1.0, 1.0, 0.0, 0.0, 0.0, 0.147475556, 1.0, 1.0, 0.0, 0.0, 0.0, 0.0, 1.0, 1.0, 0.0, 0.0, 0.0, 0.0, 0.0, 1.0, 1.0, 0.0, 1.0, 0.0, 0.0, 0.0, 0.0, 0.103697778, 1.0, 0.0, 1.0, 1.0, 1.0, 0.0, 1.0, 1.0, 0.0, 1.0, 0.0, 1.0, 0.0];
soc = [5.759028, 6.657876194, 7.556544619, 8.455033309999999, 9.353342304, 8.351471634999999, 9.249801341, 9.247951381, 10.14610179, 11.04407257, 11.941863755, 10.939475383, 11.837287488, 12.73492003, 13.632373046, 13.629646571, 13.875729737, 14.772954591, 15.67, 14.666866, 14.663932627, 14.66099984, 13.65806764, 13.655336027, 13.65260496, 13.649874439, 12.716504202, 11.713960901, 10.711618109, 9.709475786, 9.707533891000001, 10.605592384, 11.503471265, 11.501170571, 10.498870337, 11.396770563, 12.294491209, 12.29203231, 13.189573904, 14.086935989, 13.084118602, 13.981501778, 14.878705478, 13.875729737, 14.772954591, 15.67, 15.666866, 15.669148802, 14.666014972, 13.663081769, 13.660349153, 14.557617083, 13.55470556, 14.451994618, 15.349104219, 14.346034399, 13.343165192, 14.240496559, 15.137648459, 15.13462093, 14.98411845, 13.981121626, 12.978325402, 13.875729737, 14.772954591, 15.67, 15.666866, 14.663732627, 13.66079988, 13.881281694, 13.878505438, 13.875729737, 14.772954591, 15.67, 14.666866, 13.663932627, 13.98371833, 12.980921586, 12.978325402, 13.875729737, 14.772954591, 15.67, 15.563168222, 14.560055589, 14.557143577, 13.554232149, 12.551521302, 11.549010998, 11.546701196, 10.544391856, 9.542282976999999, 10.440374521, 9.438286445999999, 10.336398788, 9.334331509, 10.232464642];
cost = [0.974677071, 0.946575671, 0.946270221, 0.920001521, 0.916947021, 0.0, 0.933746771, 0.162088875, 0.887746001, 0.894038271, 0.893121921, 0.0, 0.895137891, 0.8961764209999999, 0.895137891, 0.283963425, 0.350022781, 0.8765054410000001, 0.870824071, 0.0, 0.136247805, 0.136553255, 0.0, 0.136797615, 0.093773789, 0.103766429, 0.0, 0.0, 0.0, 0.0, 0.0, 1.408094754, 1.412734194, 0.0, 0.0, 0.246450354, 1.411544594, 0.101149309, 1.406548274, 0.118178165, 0.0, 1.411901474, 1.406548274, 0.0, 0.118178165, 1.407499954, 0.106502509, 0.039784762, 0.0, 0.0, 0.036078189, 1.351826674, 0.0, 0.934663121, 0.967224091, 0.0, 0.0, 0.149534441, 0.963069971, 0.217802955, 0.0, 0.0, 0.0, 0.620460594, 0.758216274, 1.461031954, 0.152658989, 0.0, 0.0, 0.479268519, 0.08949122900000001, 0.120777709, 1.444258594, 1.449849714, 0.0, 0.0, 0.554926685, 0.0, 0.088896429, 1.397031474, 1.396674594, 1.416659874, 0.0, 0.0, 0.109476509, 0.0, 0.0, 0.0, 0.056525355, 0.0, 0.0, 0.920612421, 0.0, 0.897703671, 0.0, 0.896054241];
earn = [0.0, 0.0, 0.0, 0.0, 0.0, 0.033696717, 0.0, 0.0, 0.0, 0.0, 0.0, 0.328229651, 0.0, 0.0, 0.0, 0.0, 0.0, 0.0, 0.0, 0.361847812, 0.0, 0.0, 0.40974956, 0.0, 0.0, 0.0, 0.605436101, 0.626048051, 0.618870037, 0.618519492, 0.09470962500000001, 0.0, 0.0, 0.381824942, 0.853423094, 0.0, 0.0, 0.0, 0.0, 0.034940506, -0.009972037, 0.0, 0.0, -0.08872668, -0.0005101180000000001, 0.0, 0.0, 0.0, -0.039917945, -0.043441299, 0.0, 0.0, -0.018135966, 0.0, 0.0, -0.000439586, 0.003186118, 0.0, 0.0, 0.0, 0.0, 0.680003131, 0.753680534, 0.0, 0.0, 0.0, 0.0, 0.55684375, 0.549775443, 0.0, 0.0, 0.0, 0.0, 0.0, 0.793502496, 0.84045144, 0.0, 0.796922952, 0.0, 0.0, 0.0, 0.0, 0.0, 0.626556878, 0.0, 0.587839616, 0.566441608, 0.5456377529999999, 0.0, 0.430065331, 0.38115439, 0.0, 0.371271859, 0.0, 0.381241801, 0.0];
total_cost = 43.676009206;
total_earn = 13.63072706;
