production = [0.0, 0.0, 0.0, 0.0, 0.0, 0.0, 0.0, 0.0, 0.0, 0.0, 0.0, 0.0, 0.0, 0.0, 0.0, 0.0, 0.0, 0.0, 0.0, 0.0, 0.0, 0.0, 0.0, 0.0003, 0.0045, 0.0283, 0.0452, 0.0843, 0.11, 0.145, 0.0, 0.4283, 0.631, 0.0, 0.881, 0.0, 0.0, 0.0, 1.2873, 1.362, 1.4492, 1.1013, 1.094, 1.1045, 1.1018, 0.0, 0.4933, 0.0, 0.0, 0.0, 0.0525, 0.0, 0.0638, 0.0, 0.3438, 0.3775, 1.39, 1.3277, 0.0, 1.068, 0.0, 0.133728, 0.7562, 0.0, 0.5952, 0.0, 0.0, 0.1988, 0.132, 0.0825, 0.0435, 0.0, 0.0055, 0.0, 0.0, 0.0, 0.0, 0.0, 0.0, 0.0, 0.0, 0.0, 0.0, 0.0, 0.0, 0.0, 0.0, 0.0, 0.0, 0.0, 0.0, 0.0, 0.0, 0.0, 0.0, 0.0];
buy = [1.402028, 0.0, 1.355528, 1.312528, 1.307528, 0.0, 1.335028, 0.265328, 1.259728, 1.270028, 1.268528, 0.271328, 0.0, 0.273528, 0.0, 0.0, 1.243028, 0.0, 0.0, 0.0, 0.223028, 1.223528, 0.0, 1.223928, 0.0, 0.0, 0.045328, 0.002228, 0.0, 0.0, 0.08752799999999999, 0.0, 0.0, 1.085328, 0.0, 1.086328, 1.087228, 0.08502800000000001, 0.0, 0.0, 0.0, 0.0, 0.0, 0.0, 0.0, 1.083828, 0.596228, 1.084328, 0.0, 1.089528, 1.030328, 1.084328, 1.022928, 0.336528, 0.046028, 0.0, 0.019828, 0.051328, 1.383028, 0.0, 0.132728, 0.0, 0.0, 0.0, 0.0, 0.0, 0.128328, 0.0, 0.0, 1.047728, 0.0, 1.119228, 1.114728, 0.0, 0.0, 0.076028, 0.0, 1.075028, 0.0, 1.075028, 1.074728, 0.091528, 0.0, 0.0, 0.0, 0.0, 0.0, 1.091528, 1.092528, 1.257728, 1.315228, 1.313528, 1.314028, 0.0, 1.272028, 0.0];
sell = [0.0, 0.543972, 0.0, 0.0, 0.0, 0.06417200000000001, 0.0, 0.0, 0.0, 0.0, 0.0, 0.0, 0.628172, 0.0, 0.628172, 0.435172, 0.0, 0.658672, 0.667972, 0.675972, 0.0, 0.0, 0.677272, 0.0, 0.821172, 0.222471541, 0.0, 0.0, 0.022272, 0.957772, 0.0, 0.0, 0.542772, 0.0, 1.693972, 0.0, 0.0, 0.0, 0.204272, 0.279972, 2.266372, 1.013772, 0.010972, 1.016272, 1.919772, 0.0, 0.0, 0.0, 0.809472, 0.0, 0.0, 0.0, 0.0, 0.0, 0.0, 0.879172, 0.0, 0.0, 0.0, 0.711472, 0.0, 0.0, 1.521972, 0.0, 1.361972, 0.771172, 0.0, 0.968772, 0.900272, 0.0, 0.8247719999999999, 0.0, 0.0, 0.780272, 0.7794720000000001, 0.0, 0.827472, 0.0, 0.825272, 0.0, 0.0, 0.0, 0.8066719999999999, 0.806172, 0.807972, 0.807472, 0.0, 0.0, 0.0, 0.0, 0.0, 0.0, 0.0, 0.623972, 0.0, 0.626672];
charge = [1.0, 0.0, 1.0, 1.0, 1.0, 0.0, 1.0, 0.0, 1.0, 1.0, 1.0, 0.0, 0.0, 0.0, 0.0, 0.0, 1.0, 0.0, 0.0, 0.0, 0.0, 1.0, 0.0, 1.0, 0.0, 0.0, 0.0, 0.0, 0.0, 0.0, 0.0, 0.343972, 0.0, 1.0, 0.0, 1.0, 1.0, 0.0, 1.0, 1.0, 0.0, 0.0, 1.0, 0.0, 0.0, 1.0, 1.0, 1.0, 0.0, 1.0, 1.0, 1.0, 1.0, 0.0, 0.0, 0.0, 1.0, 1.0, 1.0, 0.0, 0.0, 0.0, 0.0, 0.0, 0.0, 0.0, 0.0, 0.0, 0.0, 1.0, 0.0, 1.0, 1.0, 0.0, 0.0, 0.0, 0.0, 1.0, 0.0, 1.0, 1.0, 0.0, 0.0, 0.0, 0.0, 0.0, 0.0, 1.0, 1.0, 1.0, 1.0, 1.0, 1.0, 0.0, 1.0, 0.0];
discharge = [0.0, 1.0, 0.0, 0.0, 0.0, 1.0, 0.0, 0.0, 0.0, 0.0, 0.0, 0.0, 1.0, 0.0, 1.0, 1.0, 0.0, 1.0, 1.0, 1.0, 0.0, 0.0, 1.0, 0.0, 1.0, 0.312666157, 0.0, 0.0, 0.0, 1.0, 0.0, 0.0, 0.0, 0.0, 1.0, 0.0, 0.0, 0.0, 0.0, 0.0, 1.0, 0.0, 0.0, 0.0, 1.0, 0.0, 0.0, 0.0, 1.0, 0.0, 0.0, 0.0, 0.0, 0.0, 0.0, 1.0, 0.0, 0.0, 0.0, 0.0, 0.0, 0.0, 1.0, 0.149142222, 1.0, 1.0, 0.0, 1.0, 1.0, 0.0, 1.0, 0.0, 0.0, 1.0, 1.0, 0.0, 1.0, 0.0, 1.0, 0.0, 0.0, 0.0, 1.0, 1.0, 1.0, 1.0, 0.102808889, 0.0, 0.0, 0.0, 0.0, 0.0, 0.0, 1.0, 0.0, 1.0];
soc = [5.759028, 4.757876194, 5.656924619, 6.555793234, 7.454482076, 6.452991179, 7.351700581, 7.350230241, 8.248760194999999, 9.147110443000001, 10.045281021, 10.043271964, 9.04126331, 9.039455057, 8.037647165999999, 7.036039637, 7.934632429, 6.933045503, 5.931658893, 4.930472562, 4.929486467, 5.82850057, 4.82733487, 5.726369403, 4.725224129, 4.411612927, 4.410730605, 4.409848458, 4.408966489, 3.408084695, 3.407403078, 3.716296398, 3.715553139, 4.614810028, 3.613887066, 4.513164289, 5.412261656, 5.411179203, 6.310096967, 7.208834948, 6.207393181, 6.206151702, 7.104910472, 7.10348949, 6.102068792, 7.000848378, 7.899448209, 8.797868319000001, 7.796108745, 8.694549523999999, 9.592810613999999, 10.490892052, 11.388793873, 11.386516114, 11.384238811, 10.381961963, 11.279885571, 12.177629594, 13.075194068, 13.072579029, 13.069964513, 13.06735052, 12.06473705, 11.913181881, 10.910799244, 9.908617084999999, 9.906635360999999, 8.904654034, 7.902873103, 8.801292528999999, 7.79953227, 8.697972364, 9.596232769, 8.594313523, 7.59259466, 7.591076141, 6.589557926, 7.488240014, 6.486742366, 7.385445018, 8.283967928999999, 8.282311135, 7.280654673, 6.279198542, 5.277942702, 4.276887114, 4.173222847, 5.072388203, 5.971373725, 6.87017945, 7.768805415, 8.667251652999999, 9.565518203, 8.563605099, 9.461892378, 8.460000000000001];
cost = [0.974677071, 0.0, 0.946270221, 0.920001521, 0.916947021, 0.0, 0.933746771, 0.162088875, 0.887746001, 0.894038271, 0.893121921, 0.165754275, 0.0, 0.167098255, 0.0, 0.0, 0.877543971, 0.0, 0.0, 0.0, 0.136247805, 0.865631421, 0.0, 0.865875781, 0.0, 0.0, 0.053922189, 0.002650429, 0.0, 0.0, 0.104123309, 0.04064998, 0.0, 1.409284354, 0.0, 1.410473954, 1.411544594, 0.101149309, 0.118178165, 0.118178165, 0.0, 0.0, 0.118178165, 0.0, 0.0, 1.407499954, 0.827450994, 1.408094754, 0.0, 1.414280674, 1.343856354, 1.408094754, 0.743084881, 0.205584955, 0.028118505, 0.0, 0.130291091, 0.149534441, 0.963069971, 0.0, 0.157893229, 0.0, 0.0, 0.0, 0.0, 0.0, 0.152658989, 0.0, 0.0, 1.364555394, 0.0, 1.449611794, 1.444258594, 0.0, 0.0, 0.090442909, 0.0, 1.397031474, 0.0, 1.397031474, 1.396674594, 0.108881709, 0.0, 0.0, 0.0, 0.0, 0.0, 1.416659874, 0.785603521, 0.886524201, 0.9216509510000001, 0.920612421, 0.920917871, 0.0, 0.895260071, 0.0];
earn = [0.0, 0.289828282, 0.0, 0.0, 0.0, 0.033696717, 0.0, 0.0, 0.0, 0.0, 0.0, 0.0, 0.331297913, 0.0, 0.331486364, 0.229770816, 0.0, 0.351072176, 0.356763845, 0.361847812, 0.0, 0.0, 0.40974956, 0.0, 0.585413519, 0.167142869, 0.0, 0.0, 0.016969037, 0.728864492, 0.0, 0.0, 0.339666718, 0.0, 0.853423094, 0.0, 0.0, 0.0, 0.052845166, 0.034940506, -0.009972037, -0.017132747, -0.00115206, -0.11107853, -0.049530118, 0.0, 0.0, 0.0, -0.037154765, 0.0, 0.0, 0.0, 0.0, 0.0, 0.0, -0.000439586, 0.0, 0.0, 0.0, 0.033581478, 0.0, 0.0, 0.753680534, 0.0, 0.770058969, 0.456610941, 0.0, 0.70061591, 0.644234643, 0.0, 0.71491237, 0.0, 0.0, 0.778165266, 0.793502496, 0.0, 0.829954416, 0.0, 0.771134157, 0.0, 0.0, 0.0, 0.636464208, 0.626556878, 0.60048479, 0.587839616, 0.0, 0.0, 0.0, 0.0, 0.0, 0.0, 0.0, 0.381184495, 0.0, 0.36973648];
total_cost = 41.230352188;
total_earn = 15.697036691;
