production = [0.0, 0.0, 0.0, 0.0, 0.0, 0.0, 0.0, 0.0, 0.0, 0.0, 0.0, 0.0, 0.0, 0.0, 0.0, 0.0, 0.0, 0.0, 0.0, 0.0, 0.0, 0.0, 0.0, 0.0, 0.0045, 0.0283, 0.0452, 0.0, 0.11, 0.0, 0.0, 0.4283, 0.0, 0.0, 0.0, 0.9785, 0.0, 1.184, 1.2873, 1.082028, 1.4492, 0.0, 1.094, 0.0, 0.0, 1.083828, 0.0, 0.0, 0.0, 0.0592, 0.0, 0.0473, 0.0, 0.317, 0.0, 0.0, 0.0, 0.0, 0.0, 0.0, 1.0217, 0.0, 0.0, 0.712, 0.0, 0.128828, 0.3402, 0.0, 0.132, 0.0825, 0.0, 0.0177, 0.0, 0.0, 0.0, 0.0, 0.0, 0.0, 0.0, 0.0, 0.0, 0.0, 0.0, 0.0, 0.0, 0.0, 0.0, 0.0, 0.0, 0.0, 0.0, 0.0, 0.0, 0.0, 0.0, 0.0];
buy = [1.402028, 1.356028, 0.0, 1.312528, 0.0, 1.835828, 0.335028, 1.265328, 1.259728, 0.0, 0.268528, 0.271328, 0.0, 1.273528, 1.271828, 0.464828, 0.0, 1.241328, 1.232028, 1.224028, 1.223028, 0.0, 0.151236908, 1.224228, 0.0, 1.058928, 0.045328, 1.086528, 0.0, 0.087228, 0.0, 0.6560279999999999, 0.0, 1.085328, 0.08702799999999999, 0.0, 1.087228, 0.0, 0.0, 0.0, 0.0, 1.087528, 0.0, 0.0, 0.082028, 0.0, 0.0, 0.084328, 0.0, 1.030328, 1.082828, 0.037028, 1.086728, 0.0, 0.389828, 1.398328, 1.409828, 0.0, 0.0, 0.356528, 0.111028, 1.133728, 0.0, 0.422228, 0.0, 0.0, 0.0, 0.0, 0.83138135, 1.047728, 1.118728, 0.0, 1.120228, 1.119728, 0.0, 0.076028, 0.0, 0.075028, 0.0, 0.075028, 1.074728, 0.091528, 0.09332799999999999, 1.093828, 0.0, 0.092528, 0.0, 0.0, 0.092528, 0.257728, 0.315228, 0.0, 0.0, 0.0, 1.272028, 0.273328];
sell = [0.0, 0.0, 0.544472, 0.0, 0.592472, 0.0, 0.0, 0.0, 0.0, 0.629972, 0.0, 0.0, 0.628172, 0.0, 0.0, 0.0, 0.656972, 0.0, 0.0, 0.0, 0.0, 0.676472, 0.0, 0.0, 0.821172, 0.0, 0.0, 0.0, 0.922272, 0.0, 0.812472, 0.0, 0.811772, 0.0, 0.0, 1.792172, 0.0, 1.998972, 0.204272, 0.0, 0.366372, 0.0, 0.010972, 0.0, 0.0, 0.0, 0.810472, 0.0, 0.809472, 0.0, 0.0, 0.0, 0.0, 0.880472, 0.0, 0.0, 0.0, 0.520972, 0.516972, 0.0, 0.0, 0.0, 0.765772, 0.0, 0.766772, 0.0, 1.111872, 0.769972, 0.0, 0.0, 0.0, 0.798472, 0.0, 0.0, 0.7794720000000001, 0.0, 0.827472, 0.0, 0.825272, 0.0, 0.0, 0.0, 0.0, 0.0, 0.0, 0.0, 0.807472, 0.808472, 0.0, 0.0, 0.0, 0.586472, 0.585972, 0.623972, 0.0, 0.0];
charge = [1.0, 1.0, 0.0, 1.0, 0.0, 1.0, 0.0, 1.0, 1.0, 0.0, 0.0, 0.0, 0.0, 1.0, 1.0, 0.0, 0.0, 1.0, 1.0, 1.0, 1.0, 0.0, 0.0, 1.0, 0.0, 1.0, 0.0, 1.0, 0.0, 0.0, 0.0, 1.0, 0.0, 1.0, 0.0, 0.0, 1.0, 0.0, 1.0, 1.0, 1.0, 1.0, 1.0, 0.0, 0.0, 1.0, 0.0, 0.0, 0.0, 1.0, 1.0, 0.0, 1.0, 0.0, 0.0, 1.0, 1.0, 0.0, 0.0, 0.0, 1.0, 1.0, 0.0, 1.0, 0.0, 0.0, 0.0, 0.0, 0.83165335, 1.0, 1.0, 0.0, 1.0, 1.0, 0.0, 0.0, 0.0, 0.0, 0.0, 0.0, 1.0, 0.0, 0.0, 1.0, 0.0, 0.0, 0.0, 0.0, 0.0, 0.0, 0.0, 0.0, 0.0, 0.0, 1.0, 0.0];
discharge = [0.0, 0.0, 1.0, 0.0, 1.0, 0.0, 0.0, 0.0, 0.0, 1.0, 0.0, 0.0, 1.0, 0.0, 0.0, 0.0, 1.0, 0.0, 0.0, 0.0, 0.0, 1.0, 0.07943454699999999, 0.0, 1.0, 0.0, 0.0, 0.0, 1.0, 0.0, 1.0, 0.0, 1.0, 0.0, 0.0, 1.0, 0.0, 1.0, 0.0, 0.0, 0.0, 0.0, 0.0, 0.098031111, 0.0, 0.0, 1.0, 0.0, 1.0, 0.0, 0.0, 0.0, 0.0, 1.0, 0.0, 0.0, 0.0, 1.0, 1.0, 0.0, 0.0, 0.0, 1.0, 0.0, 1.0, 0.0, 1.0, 1.0, 0.0, 0.0, 0.0, 1.0, 0.0, 0.0, 1.0, 0.0, 1.0, 0.0, 1.0, 0.0, 0.0, 0.0, 0.0, 0.0, 0.102253333, 0.0, 1.0, 1.0, 0.0, 0.0, 0.0, 1.0, 1.0, 1.0, 0.0, 0.0];
soc = [5.759028, 6.657876194, 5.656544619, 6.55541331, 5.554102228, 6.452991407, 6.451700809, 7.350410469, 8.248940386999999, 7.247290599, 7.24584114, 7.244391972, 6.242943094, 7.141694505, 8.040266166, 8.038658113, 7.037050381, 7.935642971, 8.834055843, 9.732289032000001, 10.630342574, 9.628216504999999, 9.546856314999999, 10.444946943, 9.442857954000001, 10.340969382, 10.338901189, 11.236833408, 10.234586042, 10.232539124, 9.230492616999999, 10.128646518, 9.126620789, 10.024795465, 10.022790506, 9.020785947, 9.91898179, 8.916997994000001, 9.815214594, 10.713251551, 11.611108901, 12.508786679, 13.406284922, 13.305572554, 13.302911439, 14.200250857, 13.197410807, 13.194771325, 12.19213237, 13.089693944, 13.987076005, 13.98427859, 14.881481734, 13.878505438, 13.875729737, 14.772954591, 15.67, 14.666866, 13.663932627, 13.66119984, 14.5584676, 15.455555907, 14.452464796, 15.349574303, 14.346504388, 14.343635087, 13.34076636, 12.338098207, 13.084118602, 13.981501778, 14.878705478, 13.875729737, 14.772954591, 15.67, 14.666866, 14.663932627, 13.66099984, 13.65826764, 12.655535987, 12.65300488, 13.550474279, 13.547764184, 13.545054631, 14.44234562, 14.337203818, 14.334336377, 13.331469509, 12.328803216, 12.326337455, 12.323872187, 12.321407413, 11.318943132, 10.316679343, 9.314616007, 10.212753084, 10.210710533];
cost = [0.974677071, 0.946575671, 0.0, 0.920001521, 0.0, 1.239685491, 0.204668605, 0.891167041, 0.887746001, 0.0, 0.164043755, 0.165754275, 0.0, 0.8961764209999999, 0.895137891, 0.283963425, 0.0, 0.8765054410000001, 0.870824071, 0.8659368710000001, 0.865325971, 0.0, 0.092390627, 0.866059051, 0.0, 1.377878914, 0.053922189, 1.410711874, 0.0, 0.103766429, 0.0, 0.898589074, 0.0, 1.409284354, 0.103528509, 0.0, 1.411544594, 0.0, 0.118178165, 0.118178165, 0.118178165, 1.411901474, 0.118178165, 0.0, 0.097580509, 0.118178165, 0.0, 0.100316589, 0.0, 1.343856354, 1.406310354, 0.044048509, 0.782060301, 0.0, 0.238145925, 0.972416741, 0.979442091, 0.0, 0.0, 0.217802955, 0.250257074, 1.466860994, 0.0, 0.620460594, 0.0, 0.0, 0.0, 0.0, 1.087294521, 1.364555394, 1.449016994, 0.0, 1.450801394, 1.450206594, 0.0, 0.090442909, 0.0, 0.089253309, 0.0, 0.089253309, 1.396674594, 0.108881709, 0.111022989, 1.419395954, 0.0, 0.110071309, 0.0, 0.0, 0.056525355, 0.157446035, 0.192572785, 0.0, 0.0, 0.0, 0.895260071, 0.166976075];
earn = [0.0, 0.0, 0.290203576, 0.0, 0.314543385, 0.0, 0.0, 0.0, 0.0, 0.329097373, 0.0, 0.0, 0.331297913, 0.0, 0.0, 0.0, 0.347866674, 0.0, 0.0, 0.0, 0.0, 0.392286113, 0.0, 0.0, 0.585413519, 0.0, 0.0, 0.0, 0.702679037, 0.0, 0.589773425, 0.0, 0.508006918, 0.0, 0.0, 0.829954853, 0.0, 0.645468059, 0.052845166, 0.0, -0.001612037, 0.0, -0.00115206, 0.0, 0.0, 0.0, -0.038821609, 0.0, -0.037154765, 0.0, 0.0, 0.0, 0.0, -0.012502702, 0.0, 0.0, 0.0, 0.007606191, 0.010442834, 0.0, 0.0, 0.0, 0.379210294, 0.0, 0.433532889, 0.0, 0.751959034, 0.55684375, 0.0, 0.0, 0.0, 0.741700641, 0.0, 0.0, 0.793502496, 0.0, 0.829954416, 0.0, 0.771134157, 0.0, 0.0, 0.0, 0.0, 0.0, 0.0, 0.0, 0.566441608, 0.5456377529999999, 0.0, 0.0, 0.0, 0.374521019, 0.371271859, 0.381184495, 0.0, 0.0];
total_cost = 41.883867724;
total_earn = 13.343136273;
