production = [0.0, 0.0, 0.0, 0.0, 0.0, 0.0, 0.0, 0.0, 0.0, 0.0, 0.0, 0.0, 0.0, 0.0, 0.0, 0.0, 0.0, 0.0, 0.0, 0.0, 0.0, 0.0, 0.0, 0.0003, 0.0045, 0.0, 0.0452, 0.0, 0.11, 0.145, 0.218, 0.0, 0.0, 0.0, 0.881, 0.0, 1.0675, 1.184, 0.0, 0.0, 1.4492, 0.0, 0.0, 0.0, 0.0, 1.083828, 0.4933, 0.0575, 0.0, 0.0592, 0.0, 0.0, 0.0, 0.0, 0.3438, 0.0, 1.39, 0.0, 1.221, 1.068, 1.0217, 0.0, 0.7562, 0.712, 0.5952, 0.4165, 0.3402, 0.0, 0.132, 0.0, 0.0435, 0.0, 0.0, 0.0003, 0.0, 0.0, 0.0, 0.0, 0.0, 0.0, 0.0, 0.0, 0.0, 0.0, 0.0, 0.0, 0.0, 0.0, 0.0, 0.0, 0.0, 0.0, 0.0, 0.0, 0.0, 0.0];
buy = [1.402028, 1.356028, 0.355528, 0.0, 0.307528, 0.0, 1.335028, 0.0, 1.259728, 1.270028, 0.0, 0.271328, 0.0, 1.273528, 0.271828, 1.464828, 0.0, 1.241328, 0.0, 0.0, 1.223028, 0.223528, 0.0, 1.223928, 0.0, 0.0, 1.045328, 1.086528, 0.0, 0.0, 0.0, 1.084328, 1.088228, 0.0, 0.206028, 1.086328, 0.0, 0.0, 1.083028, 0.082028, 0.0, 0.08752799999999999, 0.0, 1.088228, 1.082028, 0.0, 0.596228, 0.0, 0.090528, 0.0, 1.082828, 1.084328, 0.086728, 1.336528, 1.046028, 0.398328, 0.019828, 1.379028, 0.0, 0.0, 0.0, 0.133728, 0.0, 0.422228, 0.0, 0.0, 0.7881280000000001, 1.130028, 0.0, 1.130228, 0.075228, 1.119228, 0.120228, 0.119428, 1.120528, 0.0, 1.072528, 0.0, 0.074728, 1.075028, 1.074728, 0.0, 1.093328, 1.093828, 0.092028, 1.092528, 0.0, 0.091528, 0.0, 0.257728, 1.315228, 0.0, 0.0, 0.0, 0.0, 0.0];
sell = [0.0, 0.0, 0.0, 0.587472, 0.0, 0.06417200000000001, 0.0, 0.191931533, 0.0, 0.0, 0.631472, 0.0, 0.0, 0.0, 0.0, 0.0, 0.656972, 0.0, 0.667972, 0.675972, 0.0, 0.0, 0.677272, 0.0, 0.821172, 0.812772, 0.0, 0.0, 0.922272, 0.957772, 1.030472, 0.0, 0.0, 0.814672, 0.0, 0.0, 1.880272, 1.098972, 0.0, 0.0, 2.266372, 0.0, 0.816972, 0.0, 0.0, 0.0, 0.0, 0.8731719999999999, 0.0, 0.869672, 0.0, 0.0, 0.0, 0.0, 0.0, 0.0, 0.0, 0.0, 0.8379720000000001, 1.611472, 1.788972, 0.0, 0.0, 0.0, 1.361972, 1.187672, 0.0, 0.0, 0.000272, 0.0, 0.0, 0.0, 0.0, 0.0, 0.0, 0.823972, 0.0, 0.824972, 0.0, 0.0, 0.0, 0.808472, 0.0, 0.0, 0.0, 0.0, 0.807472, 0.0, 0.807472, 0.0, 0.0, 0.586472, 0.585972, 0.623972, 0.627972, 0.626672];
charge = [1.0, 1.0, 0.0, 0.0, 0.0, 0.0, 1.0, 0.0, 1.0, 1.0, 0.0, 0.0, 0.0, 1.0, 0.0, 1.0, 0.0, 1.0, 0.0, 0.0, 1.0, 0.0, 0.0, 1.0, 0.0, 0.0, 1.0, 1.0, 0.0, 0.0, 0.0, 1.0, 1.0, 0.0, 1.0, 1.0, 0.0, 0.0, 1.0, 0.0, 0.0, 0.0, 0.0, 1.0, 1.0, 1.0, 1.0, 0.0, 0.0, 0.0, 1.0, 1.0, 0.0, 1.0, 1.0, 0.0, 1.0, 1.0, 0.0, 0.0, 0.0, 0.0, 0.621972, 1.0, 0.0, 0.0, 1.0, 1.0, 0.0, 1.0, 0.0, 1.0, 0.0, 0.0, 1.0, 0.0, 1.0, 0.0, 0.0, 1.0, 1.0, 0.0, 1.0, 1.0, 0.0, 1.0, 0.0, 0.0, 0.0, 0.0, 1.0, 0.0, 0.0, 0.0, 0.0, 0.0];
discharge = [0.0, 0.0, 0.0, 1.0, 0.0, 1.0, 0.0, 0.508066147, 0.0, 0.0, 1.0, 0.0, 0.302031111, 0.0, 0.0, 0.0, 1.0, 0.0, 1.0, 1.0, 0.0, 0.0, 1.0, 0.0, 1.0, 1.0, 0.0, 0.0, 1.0, 1.0, 1.0, 0.0, 0.0, 1.0, 0.0, 0.0, 1.0, 0.0, 0.0, 0.0, 1.0, 0.0, 1.0, 0.0, 0.0, 0.0, 0.0, 1.0, 0.0, 1.0, 0.0, 0.0, 0.0, 0.0, 0.0, 0.0, 0.0, 0.0, 0.0, 1.0, 1.0, 0.0, 0.0, 0.0, 1.0, 1.0, 0.0, 0.0, 0.0, 0.0, 0.0, 0.0, 0.0, 0.0, 0.0, 1.0, 0.0, 1.0, 0.0, 0.0, 0.0, 1.0, 0.0, 0.0, 0.0, 0.0, 1.0, 0.0, 1.0, 0.0, 0.0, 1.0, 1.0, 1.0, 1.0, 1.0];
soc = [5.759028, 6.657876194, 6.656544619, 5.65521331, 5.654082268, 4.652951451, 5.552020861, 5.042844309, 5.94183574, 6.840647373, 5.839279244, 5.838111388, 5.534912655, 6.433805672, 6.432518911, 7.331232407, 6.329766161, 7.228500207, 6.227054507, 5.225809096, 6.124763935, 6.123538982, 5.122314274, 6.021289811, 5.020085553, 4.019081536, 4.91827772, 5.817294064, 4.816130605, 3.815167379, 2.814404346, 3.713841465, 4.613098697, 3.612176077, 4.511453642, 5.410551351, 4.409469241, 4.408587347, 5.307705629, 5.306644088, 4.305582759, 4.304721643, 3.303860699, 4.203199926, 5.102359286, 6.001338815, 6.900138547, 5.898758519, 5.897578767, 4.896399252, 5.795419972, 6.694260888, 6.692922036, 7.591583451, 8.490065135, 8.488367122, 9.386669447999999, 10.284792114, 10.282735156, 9.280678609000001, 8.278822473, 8.277166708999999, 8.835286075000001, 9.733519018000001, 8.731572313999999, 7.729826, 8.628280035, 9.526554379, 9.524649068, 10.422744138, 10.420659589, 11.318575457, 11.316311742, 11.31404848, 12.21178567, 11.209343313, 12.107101444, 11.104680024, 11.102459088, 12.000238596, 12.897838548, 11.895258981, 12.792879929, 13.690321353, 13.687583289, 14.584845772, 13.581928803, 13.579212417, 12.576496574, 12.573981275, 13.471466479, 12.468772186, 11.466278431, 10.463985176, 9.461892378, 8.460000000000001];
cost = [0.974677071, 0.946575671, 0.217192055, 0.0, 0.187868855, 0.0, 0.933746771, 0.0, 0.887746001, 0.894038271, 0.0, 0.165754275, 0.0, 0.8961764209999999, 0.166059725, 1.013041591, 0.0, 0.8765054410000001, 0.0, 0.0, 0.865325971, 0.136553255, 0.0, 0.865875781, 0.0, 0.0, 1.361700354, 1.410711874, 0.0, 0.0, 0.0, 1.408094754, 1.412734194, 0.0, 0.363269074, 1.410473954, 0.0, 0.0, 1.406548274, 0.097580509, 0.0, 0.104123309, 0.0, 1.412734194, 1.405358674, 0.118178165, 0.827450994, 0.0, 0.107692109, 0.0, 1.406310354, 1.408094754, 0.052982135, 0.934663121, 0.757196671, 0.243338575, 0.130291091, 0.960626371, 0.0, 0.0, 0.0, 0.159082829, 0.07350350999999999, 0.620460594, 0.0, 0.0, 1.055735234, 1.462459474, 0.0, 1.462697394, 0.08949122900000001, 1.449611794, 0.143023229, 0.142071549, 1.451158274, 0.0, 1.394057474, 0.0, 0.088896429, 1.397031474, 1.396674594, 0.0, 1.418801154, 1.419395954, 0.109476509, 1.417849474, 0.0, 0.108881709, 0.0, 0.157446035, 0.9216509510000001, 0.0, 0.0, 0.0, 0.0, 0.0];
earn = [0.0, 0.0, 0.0, 0.312065126, 0.0, 0.033696717, 0.0, 0.100034715, 0.0, 0.0, 0.329817826, 0.0, 0.0, 0.0, 0.0, 0.0, 0.347866674, 0.0, 0.356763845, 0.361847812, 0.0, 0.0, 0.40974956, 0.0, 0.585413519, 0.6106356040000001, 0.0, 0.0, 0.702679037, 0.728864492, 0.748019625, 0.0, 0.0, 0.453527902, 0.0, 0.0, 0.771475602, 0.354858059, 0.0, 0.0, -0.009972037, 0.0, -0.08578205999999999, 0.0, 0.0, 0.0, 0.0, -0.043745917, 0.0, -0.046614419, 0.0, 0.0, 0.0, 0.0, 0.0, 0.0, 0.0, 0.0, 0.016927034, 0.076061478, 0.565494049, 0.0, 0.0, 0.0, 0.770058969, 0.703220591, 0.0, 0.0, 0.000194643, 0.0, 0.0, 0.0, 0.0, 0.0, 0.0, 0.84045144, 0.0, 0.796922952, 0.0, 0.0, 0.0, 0.6551857089999999, 0.0, 0.0, 0.0, 0.0, 0.566441608, 0.0, 0.55973959, 0.0, 0.0, 0.374521019, 0.371271859, 0.381184495, 0.381241801, 0.36973648];
total_cost = 46.706747525;
total_earn = 14.449855399;
