production = [0.0, 0.0, 0.0, 0.0, 0.0, 0.0, 0.0, 0.0, 0.0, 0.0, 0.0, 0.0, 0.0, 0.0, 0.0, 0.0, 0.0, 0.0, 0.0, 0.0, 0.0, 0.0, 0.0, 0.0003, 0.0, 0.0, 0.0452, 0.0, 0.0, 0.145, 0.218, 0.4283, 0.631, 0.7712, 0.881, 0.9785, 1.0675, 0.08502800000000001, 0.0, 1.362, 0.0, 0.0, 1.083028, 1.1045, 1.1018, 0.0, 0.4933, 0.0575, 0.0602, 0.0592, 0.0, 0.0, 0.0638, 0.0, 0.0, 0.3775, 1.39, 0.0, 0.0, 1.068, 0.0, 0.957, 0.0, 0.0, 0.5952, 0.0, 0.0, 0.0, 0.0, 0.0825, 0.0435, 0.0, 0.0, 0.0, 0.0, 0.0, 0.0, 0.0, 0.0, 0.0, 0.0, 0.0, 0.0, 0.0, 0.0, 0.0, 0.0, 0.0, 0.0, 0.0, 0.0, 0.0, 0.0, 0.0, 0.0, 0.0];
buy = [1.402028, 1.356028, 0.0, 1.312528, 0.0, 1.835828, 0.0, 1.265328, 0.0, 1.270028, 0.0, 0.0, 1.271828, 0.0, 1.271828, 0.464828, 1.243028, 1.241328, 1.232028, 0.0, 0.0, 0.0, 0.0, 0.223928, 0.0, 1.087228, 0.0, 1.086528, 0.0, 0.942228, 0.0, 0.0, 0.0, 0.0, 0.0, 0.0, 0.019728, 0.0, 1.083028, 0.0, 1.082828, 0.994087434, 0.0, 0.0, 0.0, 0.083828, 0.0, 0.026828, 1.030328, 1.030328, 0.082828, 1.084328, 0.022928, 1.336528, 1.389828, 0.0, 0.019828, 1.379028, 1.383028, 0.288528, 0.132728, 0.176728, 0.134228, 1.134228, 0.0, 0.0, 0.128328, 1.130028, 0.0, 1.047728, 1.075228, 1.119228, 0.0, 0.0, 1.120528, 0.0, 1.072528, 0.075028, 0.0, 1.075028, 1.074728, 1.091528, 0.0, 1.093828, 1.092028, 0.0, 1.092528, 0.0, 0.0, 1.257728, 1.315228, 0.0, 0.0, 0.0, 0.272028, 0.0];
sell = [0.0, 0.0, 0.544472, 0.0, 0.592472, 0.0, 0.564972, 0.0, 0.640272, 0.0, 0.631472, 0.628672, 0.0, 0.517879728, 0.0, 0.0, 0.0, 0.0, 0.0, 0.675972, 0.676972, 0.676472, 0.677272, 0.0, 0.816672, 0.0, 0.854672, 0.0, 0.812272, 0.0, 0.017171956, 1.243972, 0.540415738, 0.685872, 0.793972, 0.892172, 0.0, 0.0, 0.0, 2.179972, 0.0, 0.0, 0.0, 0.016272, 1.919772, 0.0, 1.303772, 0.0, 0.0, 0.0, 0.0, 0.0, 0.0, 0.0, 0.0, 0.879172, 0.0, 0.0, 0.0, 0.0, 0.0, 0.0, 0.0, 0.0, 1.361972, 0.771172, 0.0, 0.0, 0.768272, 0.0, 0.0, 0.0, 0.779772, 0.780272, 0.0, 0.823972, 0.0, 0.0, 0.825272, 0.0, 0.0, 0.0, 0.8066719999999999, 0.0, 0.0, 0.807472, 0.0, 0.522374926, 0.807472, 0.0, 0.0, 0.586472, 0.585972, 0.623972, 0.0, 0.626672];
charge = [1.0, 1.0, 0.0, 1.0, 0.0, 1.0, 0.0, 1.0, 0.0, 1.0, 0.0, 0.0, 1.0, 0.0, 1.0, 0.0, 1.0, 1.0, 1.0, 0.0, 0.0, 0.0, 0.0, 0.0, 0.0, 1.0, 0.0, 1.0, 0.0, 1.0, 0.113300044, 0.0, 0.002356262, 0.0, 0.0, 0.0, 1.0, 0.0, 1.0, 0.0, 1.0, 0.9065594340000001, 1.0, 1.0, 0.0, 0.0, 0.0, 0.0, 1.0, 1.0, 0.0, 1.0, 0.0, 1.0, 1.0, 0.0, 1.0, 1.0, 1.0, 1.0, 0.0, 1.0, 0.0, 1.0, 0.0, 0.0, 0.0, 1.0, 0.0, 1.0, 1.0, 1.0, 0.0, 0.0, 1.0, 0.0, 1.0, 0.0, 0.0, 1.0, 1.0, 1.0, 0.0, 1.0, 1.0, 0.0, 1.0, 0.0, 0.0, 1.0, 1.0, 0.0, 0.0, 0.0, 0.0, 0.0];
discharge = [0.0, 0.0, 1.0, 0.0, 1.0, 0.0, 1.0, 0.0, 1.0, 0.0, 1.0, 1.0, 0.0, 0.879341919, 0.0, 0.0, 0.0, 0.0, 0.0, 1.0, 1.0, 1.0, 1.0, 0.0, 1.0, 0.0, 1.0, 0.0, 1.0, 0.0, 0.0, 1.0, 0.0, 0.0, 0.0, 0.0, 0.0, 0.0, 0.0, 1.0, 0.0, 0.0, 0.0, 0.0, 1.0, 0.0, 1.0, 0.0, 0.0, 0.0, 0.0, 0.0, 0.0, 0.0, 0.0, 1.0, 0.0, 0.0, 0.0, 0.0, 0.0, 0.0, 0.0, 0.0, 1.0, 1.0, 0.0, 0.0, 1.0, 0.0, 0.0, 0.0, 1.0, 1.0, 0.0, 1.0, 0.0, 0.0, 1.0, 0.0, 0.0, 0.0, 1.0, 0.0, 0.0, 1.0, 0.0, 0.682114362, 1.0, 0.0, 0.0, 1.0, 1.0, 1.0, 0.0, 1.0];
soc = [5.759028, 6.657876194, 5.656544619, 6.55541331, 5.554102228, 6.452991407, 5.451700809, 6.350610469, 5.349340347, 6.248270479, 5.247020824, 4.24597142, 5.145122226, 4.264751282, 5.163898332, 5.162865552, 6.061832979, 6.960620612, 7.859228488, 6.857656643, 5.856285111, 4.855113854, 3.854142832, 3.853372003, 2.852601329, 3.752030808, 2.751280402, 3.650730146, 2.65, 3.54947, 3.650730146, 2.65, 2.651590636, 2.651060318, 2.650530106, 2.65, 3.54947, 3.548760106, 4.448050354, 3.447160744, 4.346471312, 5.161505508, 6.060473207, 6.959261112, 5.95786926, 5.956677686, 4.955486351, 4.954495254, 5.853504355, 6.752333654, 6.750983187, 7.64963299, 7.648103064, 8.546573443, 9.444864128000001, 8.442975155999999, 9.341286561, 10.239418303, 11.13737042, 12.035142945, 12.032735917, 12.93032937, 12.927743304, 13.825157755, 12.822392724, 11.819828245, 11.817464279, 12.715100787, 11.712557766, 12.610215255, 13.507693212, 14.404991673, 13.402110675, 12.399430253, 13.296950367, 12.294290977, 13.191832118, 13.189193752, 12.186555913, 13.084118602, 13.981501778, 14.878705478, 13.875729737, 14.772954591, 15.67, 14.666866, 15.563932627, 14.878705478, 13.875729737, 14.772954591, 15.67, 14.666866, 13.663932627, 12.66119984, 12.6586676, 11.656135867];
cost = [0.974677071, 0.946575671, 0.0, 0.920001521, 0.0, 1.239685491, 0.0, 0.891167041, 0.0, 0.894038271, 0.0, 0.0, 0.895137891, 0.0, 0.895137891, 0.283963425, 0.877543971, 0.8765054410000001, 0.870824071, 0.0, 0.0, 0.0, 0.0, 0.136797615, 0.0, 1.411544594, 0.0, 1.410711874, 0.0, 1.239052594, 0.013389591, 0.0, 0.000278459, 0.0, 0.0, 0.0, 0.141646594, 0.0, 1.406548274, 0.0, 1.406310354, 1.289701942, 0.118178165, 0.118178165, 0.0, 0.09972178900000001, 0.0, 0.031914589, 1.343856354, 1.343856354, 0.09853218900000001, 1.408094754, 0.014006715, 0.934663121, 0.967224091, 0.0, 0.130291091, 0.960626371, 0.963069971, 0.294439921, 0.157893229, 0.328413794, 0.159677629, 1.467455794, 0.0, 0.0, 0.152658989, 1.462459474, 0.0, 1.364555394, 1.397269394, 1.449611794, 0.0, 0.0, 1.451158274, 0.0, 1.394057474, 0.089253309, 0.0, 1.397031474, 1.396674594, 1.416659874, 0.0, 1.419395954, 1.417254674, 0.0, 1.417849474, 0.0, 0.0, 0.886524201, 0.9216509510000001, 0.0, 0.0, 0.0, 0.166181905, 0.0];
earn = [0.0, 0.0, 0.290203576, 0.0, 0.314543385, 0.0, 0.294293915, 0.0, 0.334478093, 0.0, 0.329817826, 0.328229651, 0.0, 0.272249373, 0.0, 0.0, 0.0, 0.0, 0.0, 0.361847812, 0.389123506, 0.392286113, 0.40974956, 0.0, 0.582205469, 0.0, 0.653140342, 0.0, 0.618870037, 0.0, 0.012465123, 0.813184496, 0.338192169, 0.381824942, 0.400003094, 0.413164853, 0.0, 0.0, 0.0, 0.272060506, 0.0, 0.0, 0.0, -0.00177853, -0.049530118, 0.0, -0.062450679, 0.0, 0.0, 0.0, 0.0, 0.0, 0.0, 0.0, 0.0, -0.000439586, 0.0, 0.0, 0.0, 0.0, 0.0, 0.0, 0.0, 0.0, 0.770058969, 0.456610941, 0.0, 0.0, 0.549775443, 0.0, 0.0, 0.0, 0.752324026, 0.778165266, 0.0, 0.84045144, 0.0, 0.0, 0.771134157, 0.0, 0.0, 0.0, 0.636464208, 0.0, 0.0, 0.587839616, 0.0, 0.352550838, 0.55973959, 0.0, 0.0, 0.374521019, 0.371271859, 0.381184495, 0.0, 0.36973648];
total_cost = 49.161580934;
total_earn = 16.639563273;
