production = [0.0, 0.0, 0.0, 0.0, 0.0, 0.0, 0.0, 0.0, 0.0, 0.0, 0.0, 0.0, 0.0, 0.0, 0.0, 0.0, 0.0, 0.0, 0.0, 0.0, 0.0, 0.0, 0.0, 0.0003, 0.0, 0.0, 0.0, 0.0843, 0.11, 0.0, 0.0, 0.0, 0.0, 0.0, 0.881, 0.0, 1.0675, 0.0, 0.0, 1.362, 0.0, 0.0, 0.0, 0.088228, 0.0, 0.0, 0.0, 0.0, 0.0602, 0.0, 0.0525, 0.0, 0.0, 0.0, 0.0, 0.0, 1.39, 1.3277, 0.0, 0.0, 1.0217, 0.0, 0.7562, 0.0, 0.5952, 0.4165, 0.0, 0.0, 0.0, 0.0825, 0.0435, 0.0, 0.0055, 0.0003, 0.0, 0.0, 0.0, 0.0, 0.0, 0.0, 0.0, 0.0, 0.0, 0.0, 0.0, 0.0, 0.0, 0.0, 0.0, 0.0, 0.0, 0.0, 0.0, 0.0, 0.0, 0.0];
buy = [0.402028, 1.356028, 1.355528, 0.0, 0.813956865, 1.835828, 1.335028, 1.265328, 1.259728, 1.270028, 0.0, 1.271328, 0.271828, 0.273528, 1.271828, 1.464828, 0.243028, 1.241328, 1.232028, 0.0, 0.223028, 1.223528, 0.222728, 1.223928, 0.0, 1.087228, 0.090528, 0.0, 0.0, 0.0, 0.0, 0.084328, 1.088228, 0.0, 0.0, 1.086328, 0.019728, 1.085028, 0.0, 0.0, 0.0, 1.087528, 1.083028, 0.0, 0.0, 1.083828, 0.089528, 1.084328, 0.0, 0.0, 1.030328, 0.0, 0.086728, 1.336528, 0.389828, 1.398328, 0.0, 0.0, 0.0, 0.0, 0.0, 1.133728, 0.378028, 0.134228, 0.0, 0.712328, 0.0, 0.0, 0.131728, 1.047728, 0.075228, 0.0, 1.114728, 0.0, 1.120528, 1.076028, 0.0, 1.075028, 0.074728, 0.0, 0.0, 1.091528, 0.09332799999999999, 0.0, 1.092028, 0.0, 0.0, 0.091528, 0.092528, 0.0, 0.315228, 0.0, 0.0, 1.276028, 0.0, 1.273328];
sell = [0.0, 0.0, 0.0, 0.587472, 0.0, 0.0, 0.0, 0.0, 0.0, 0.0, 0.631472, 0.0, 0.0, 0.0, 0.0, 0.0, 0.0, 0.0, 0.0, 0.675972, 0.0, 0.0, 0.0, 0.0, 0.0, 0.0, 0.0, 0.032796513, 0.922272, 0.812772, 0.812472, 0.0, 0.0, 0.814672, 1.693972, 0.0, 0.0, 0.0, 0.816972, 0.279972, 0.817172, 0.0, 0.0, 0.0, 0.817972, 0.0, 0.0, 0.0, 0.869672, 0.810472, 0.0, 0.815672, 0.0, 0.0, 0.0, 0.0, 1.880172, 1.848672, 0.516972, 0.543472, 0.888972, 0.0, 0.0, 0.0, 1.361972, 0.0, 0.771672, 0.769972, 0.0, 0.0, 0.0, 0.780772, 0.0, 0.780572, 0.0, 0.0, 0.827472, 0.0, 0.0, 0.189639795, 0.825272, 0.0, 0.0, 0.806172, 0.0, 0.807472, 0.807472, 0.0, 0.0, 0.642272, 0.0, 0.586472, 0.585972, 0.0, 0.0, 0.0];
charge = [0.0, 1.0, 1.0, 0.0, 0.506428865, 1.0, 1.0, 1.0, 1.0, 1.0, 0.0, 1.0, 0.0, 0.0, 1.0, 1.0, 0.0, 1.0, 1.0, 0.0, 0.0, 1.0, 0.0, 1.0, 0.0, 1.0, 0.0, 0.0, 0.0, 0.0, 0.0, 0.0, 1.0, 0.0, 0.0, 1.0, 1.0, 1.0, 0.0, 1.0, 0.0, 1.0, 1.0, 0.0, 0.0, 1.0, 0.0, 1.0, 0.0, 0.0, 1.0, 0.0, 0.0, 1.0, 0.0, 1.0, 0.0, 0.0, 0.0, 0.0, 0.0, 1.0, 1.0, 0.0, 0.0, 1.0, 0.0, 0.0, 0.0, 1.0, 0.0, 0.0, 1.0, 0.0, 1.0, 1.0, 0.0, 1.0, 0.0, 0.0, 0.0, 1.0, 0.0, 0.0, 1.0, 0.0, 0.0, 0.0, 0.0, 0.0, 0.0, 0.0, 0.0, 1.0, 0.0, 1.0];
discharge = [0.0, 0.0, 0.0, 1.0, 0.0, 0.0, 0.0, 0.0, 0.0, 0.0, 1.0, 0.0, 0.0, 0.0, 0.0, 0.0, 0.0, 0.0, 0.0, 1.0, 0.0, 0.0, 0.0, 0.0, 0.092586667, 0.0, 0.0, 0.038916125, 1.0, 1.0, 1.0, 0.0, 0.0, 1.0, 1.0, 0.0, 0.0, 0.0, 1.0, 0.0, 1.0, 0.0, 0.0, 0.0, 1.0, 0.0, 0.0, 0.0, 1.0, 1.0, 0.0, 1.0, 0.0, 0.0, 0.0, 0.0, 1.0, 1.0, 1.0, 1.0, 0.0, 0.0, 0.0, 0.0, 1.0, 0.0, 1.0, 1.0, 0.0, 0.0, 0.0, 1.0, 0.0, 1.0, 0.0, 0.0, 1.0, 0.0, 0.0, 0.294075328, 1.0, 0.0, 0.0, 1.0, 0.0, 1.0, 1.0, 0.0, 0.0, 1.0, 0.0, 1.0, 1.0, 0.0, 0.302253333, 0.0];
soc = [4.859028, 5.758056194, 6.656904583, 5.655573202, 6.110228066, 7.00900602, 7.907604219, 8.806022698, 9.704261494000001, 10.602320641, 9.600200177, 10.498280137, 10.496180481, 10.494081245, 11.391982429, 12.289704032, 12.287246091, 13.184788642, 14.082151684, 13.079335254, 13.076719387, 13.974104043, 13.971309222, 14.868514961, 14.772954591, 15.67, 15.666866, 15.624816501, 14.621691538, 13.6187672, 12.616043446, 12.613520238, 13.510997534, 12.508295334, 11.505793675, 12.403492516, 13.301011818, 14.198351615, 13.195511945, 14.092872843, 13.090054268, 13.987436257, 14.88463877, 14.881661842, 13.87868551, 14.775909773, 14.772954591, 15.67, 14.666866, 13.663932627, 14.56119984, 13.5582876, 13.555575943, 14.452864828, 14.449974255, 15.34708426, 14.344014843, 13.34114604, 12.338477811, 11.336010115, 11.333742913, 12.231476165, 13.129029869, 13.126404063, 12.123778783, 13.021354027, 12.018749756, 11.016346006, 11.014142737, 11.911939908, 11.90955752, 10.907175609, 11.804994174, 10.802633175, 11.700472648, 12.598132554, 11.595612927, 12.493293805, 12.490795146, 12.194221659, 11.191782815, 12.089544458, 12.087126549, 11.084709124, 11.982492182, 10.980095684, 9.977899664000001, 9.975904084, 9.973908904, 8.971914121999999, 8.970119738999999, 7.968325715, 6.96673205, 7.865338704, 7.561512302, 8.460000000000001];
cost = [0.245598905, 0.946575671, 0.946270221, 0.0, 0.557095083, 1.239685491, 0.933746771, 0.891167041, 0.887746001, 0.894038271, 0.0, 0.894832441, 0.166059725, 0.167098255, 0.895137891, 1.013041591, 0.148465805, 0.8765054410000001, 0.870824071, 0.0, 0.136247805, 0.865631421, 0.136064535, 0.865875781, 0.0, 1.411544594, 0.107692109, 0.0, 0.0, 0.0, 0.0, 0.100316589, 1.412734194, 0.0, 0.0, 1.410473954, 0.141646594, 1.408927474, 0.0, 0.118178165, 0.0, 1.411901474, 1.406548274, 0.0, 0.0, 1.407499954, 0.106502509, 1.408094754, 0.0, 0.0, 1.343856354, 0.0, 0.052982135, 0.934663121, 0.238145925, 0.972416741, 0.0, 0.0, 0.0, 0.0, 0.0, 1.466860994, 0.567880274, 0.159677629, 0.0, 0.965563554, 0.0, 0.0, 0.156703629, 1.364555394, 0.08949122900000001, 0.0, 1.444258594, 0.0, 1.451158274, 1.398221074, 0.0, 1.397031474, 0.088896429, 0.0, 0.0, 1.416659874, 0.111022989, 0.0, 1.417254674, 0.0, 0.0, 0.108881709, 0.056525355, 0.0, 0.192572785, 0.0, 0.0, 0.897703671, 0.0, 0.896054241];
earn = [0.0, 0.0, 0.0, 0.312065126, 0.0, 0.0, 0.0, 0.0, 0.0, 0.0, 0.329817826, 0.0, 0.0, 0.0, 0.0, 0.0, 0.0, 0.0, 0.0, 0.361847812, 0.0, 0.0, 0.0, 0.0, 0.0, 0.0, 0.0, 0.025240196, 0.702679037, 0.618519492, 0.589773425, 0.0, 0.0, 0.453527902, 0.853423094, 0.0, 0.0, 0.0, 0.211350656, 0.034940506, -0.003595557, 0.0, 0.0, 0.0, -0.021103678, 0.0, 0.0, 0.0, -0.039917945, -0.043441299, 0.0, -0.014437394, 0.0, 0.0, 0.0, 0.0, 0.012221118, 0.026990611, 0.010442834, 0.025651878, 0.281004049, 0.0, 0.0, 0.0, 0.770058969, 0.0, 0.521881774, 0.55684375, 0.0, 0.0, 0.0, 0.725259111, 0.0, 0.778464456, 0.0, 0.0, 0.829954416, 0.0, 0.0, 0.16707266, 0.6917429899999999, 0.0, 0.0, 0.626556878, 0.0, 0.587839616, 0.566441608, 0.0, 0.0, 0.430065331, 0.0, 0.374521019, 0.371271859, 0.0, 0.0, 0.0];
total_cost = 45.618806974;
total_earn = 12.724974127;
