production = [0.0, 0.0, 0.0, 0.0, 0.0, 0.0, 0.0, 0.0, 0.0, 0.0, 0.0, 0.0, 0.0, 0.0, 0.0, 0.0, 0.0, 0.0, 0.0, 0.0, 0.0, 0.0, 0.0, 0.0, 0.0045, 0.0283, 0.0452, 0.0, 0.11, 0.145, 0.0, 0.0, 0.0, 0.7712, 0.0, 0.0, 0.0, 0.0, 1.2873, 0.0, 1.4492, 1.1013, 0.0, 1.1045, 1.1018, 0.0, 0.0, 0.0, 0.0602, 0.0, 0.0, 0.0, 0.0, 0.0, 0.0, 0.3775, 0.0, 1.3277, 0.0, 0.0, 1.0217, 0.957, 0.0, 0.0, 0.5952, 0.0, 0.0, 0.1988, 0.132, 0.0825, 0.0, 0.0, 0.0055, 0.0003, 0.0, 0.0, 0.0, 0.0, 0.0, 0.0, 0.0, 0.0, 0.0, 0.0, 0.0, 0.0, 0.0, 0.0, 0.0, 0.0, 0.0, 0.0, 0.0, 0.0, 0.0, 0.0];
buy = [0.402028, 0.0, 0.0, 1.194769133, 0.0, 1.835828, 1.335028, 1.265328, 0.0, 1.270028, 0.0, 1.271328, 0.0, 1.273528, 0.271828, 1.464828, 0.0, 1.241328, 1.232028, 0.224028, 0.0, 0.223528, 1.222728, 0.478235595, 0.0, 1.058928, 0.0, 0.0, 0.0, 0.0, 0.08752799999999999, 1.084328, 0.0, 0.0, 1.087028, 0.086328, 1.087228, 1.085028, 0.0, 1.082028, 0.0, 0.0, 0.083028, 0.0, 0.0, 1.083828, 1.089528, 1.084328, 1.030328, 1.089528, 0.0, 1.084328, 0.086728, 1.336528, 0.0, 1.020828, 0.0, 0.051328, 0.0, 0.356528, 0.0, 0.176728, 0.0, 0.0, 0.0, 0.128828, 0.0, 0.0, 0.999728, 0.0, 1.118728, 0.0, 1.114728, 1.119428, 1.120528, 0.686764594, 1.072528, 1.075028, 0.0, 0.0, 0.0, 0.091528, 0.0, 1.093828, 0.092028, 1.092528, 1.092528, 1.091528, 0.0, 1.257728, 0.0, 1.313528, 0.0, 1.276028, 0.0, 0.273328];
sell = [0.0, 0.543972, 0.544472, 0.0, 0.592472, 0.0, 0.0, 0.0, 0.640272, 0.0, 0.631472, 0.0, 0.628172, 0.0, 0.0, 0.0, 0.656972, 0.0, 0.0, 0.0, 0.676972, 0.0, 0.0, 0.0, 0.821172, 0.0, 0.854672, 0.813472, 0.922272, 0.957772, 0.0, 0.0, 0.811772, 0.685872, 0.0, 0.0, 0.0, 0.0, 2.104272, 0.0, 2.266372, 1.013772, 0.0, 0.30050559, 1.919772, 0.0, 0.0, 0.0, 0.0, 0.0, 0.817172, 0.0, 0.0, 0.0, 0.510172, 0.0, 0.490172, 0.0, 0.516972, 0.0, 1.788972, 0.0, 0.765772, 0.765772, 1.361972, 0.0, 0.771672, 0.968772, 0.0, 0.852272, 0.0, 0.780772, 0.0, 0.0, 0.0, 0.0, 0.0, 0.0, 0.825272, 0.824972, 0.825272, 0.0, 0.0, 0.0, 0.0, 0.0, 0.0, 0.0, 0.0, 0.0, 0.584772, 0.0, 0.585972, 0.0, 0.0, 0.0];
charge = [0.0, 0.0, 0.0, 0.882241133, 0.0, 1.0, 1.0, 1.0, 0.0, 1.0, 0.0, 1.0, 0.0, 1.0, 0.0, 1.0, 0.0, 1.0, 1.0, 0.0, 0.0, 0.0, 1.0, 0.254007595, 0.0, 1.0, 0.0, 0.0, 0.0, 0.0, 0.0, 1.0, 0.0, 0.0, 1.0, 0.0, 1.0, 1.0, 0.0, 1.0, 0.0, 0.0, 0.0, 0.71576641, 0.0, 1.0, 1.0, 1.0, 1.0, 1.0, 0.0, 1.0, 0.0, 1.0, 0.0, 1.0, 0.0, 1.0, 0.0, 0.0, 0.0, 1.0, 0.0, 0.0, 0.0, 0.0, 0.0, 0.0, 1.0, 0.0, 1.0, 0.0, 1.0, 1.0, 1.0, 0.610736594, 1.0, 1.0, 0.0, 0.0, 0.0, 0.0, 0.0, 1.0, 0.0, 1.0, 1.0, 1.0, 0.0, 1.0, 0.0, 1.0, 0.0, 1.0, 0.0, 0.0];
discharge = [0.0, 1.0, 1.0, 0.0, 1.0, 0.0, 0.0, 0.0, 1.0, 0.0, 1.0, 0.0, 1.0, 0.0, 0.0, 0.0, 1.0, 0.0, 0.0, 0.0, 1.0, 0.0, 0.0, 0.0, 1.0, 0.0, 1.0, 1.0, 1.0, 1.0, 0.0, 0.0, 1.0, 0.0, 0.0, 0.0, 0.0, 0.0, 1.0, 0.0, 1.0, 0.0, 0.0, 0.0, 1.0, 0.0, 0.0, 0.0, 0.0, 0.0, 1.0, 0.0, 0.0, 0.0, 1.0, 0.0, 1.0, 0.0, 1.0, 0.0, 1.0, 0.0, 1.0, 1.0, 1.0, 0.0, 1.0, 1.0, 0.0, 1.0, 0.0, 1.0, 0.0, 0.0, 0.0, 0.0, 0.0, 0.0, 1.0, 1.0, 1.0, 0.0, 0.103697778, 0.0, 0.0, 0.0, 0.0, 0.0, 0.102808889, 0.0, 1.0, 0.0, 1.0, 0.0, 0.302253333, 0.0];
soc = [4.859028, 3.858056194, 2.857284583, 3.650730146, 2.65, 3.54947, 4.448760106, 5.347870354, 4.34680078, 5.24593142, 4.244882233, 5.144033257, 4.14300445, 5.042175849, 5.041167414, 5.940159181, 4.938971149, 5.837983355, 6.736815758, 6.735468395, 5.734121301, 5.732974477, 6.631827882, 6.859108352, 5.85773653, 6.756564983, 5.75521367, 4.754062627, 3.753111815, 2.752361192, 2.75181072, 3.651260358, 2.650530106, 2.65, 3.54947, 3.548760106, 4.448050354, 5.347160744, 4.346091312, 5.245222093, 4.244173049, 4.243324214, 4.24247555, 4.885816824, 3.88483966, 4.784062692, 5.68310588, 6.581969259, 7.480652865, 8.379156734, 7.377480903, 8.276005407, 8.274350205999999, 9.172695335, 8.170860795999999, 9.069226624000001, 8.067412779, 8.965799296, 7.964006137, 7.962413335, 6.960820853, 7.859428688, 6.857856803, 5.856485231, 4.855313934, 4.854342872, 3.853372003, 2.852601329, 3.752030808, 2.751280402, 3.650730146, 2.65, 3.54947, 4.448760106, 5.347870354, 5.896463715, 6.795284422, 7.693925365, 6.69238658, 5.691048103, 4.689909893, 4.688971911, 4.584336339, 5.483419472, 5.482322788, 6.381226323, 7.279950078, 8.178494088000001, 8.074049499999999, 8.97243469, 7.970640203, 8.869046075, 7.867272266, 8.765698812, 8.461692338000001, 8.460000000000001];
cost = [0.245598905, 0.0, 0.0, 0.8341461019999999, 0.0, 1.239685491, 0.933746771, 0.891167041, 0.0, 0.894038271, 0.0, 0.894832441, 0.0, 0.8961764209999999, 0.166059725, 1.013041591, 0.0, 0.8765054410000001, 0.870824071, 0.136858705, 0.0, 0.136553255, 0.865142701, 0.322172277, 0.0, 1.377878914, 0.0, 0.0, 0.0, 0.0, 0.104123309, 1.408094754, 0.0, 0.0, 1.411306674, 0.102695789, 1.411544594, 1.408927474, 0.0, 1.405358674, 0.0, 0.0, 0.09877010899999999, 0.084587961, 0.0, 1.407499954, 1.414280674, 1.408094754, 1.343856354, 1.414280674, 0.0, 1.408094754, 0.052982135, 0.934663121, 0.0, 0.741801991, 0.0, 0.149534441, 0.0, 0.217802955, 0.0, 0.328413794, 0.0, 0.0, 0.0, 0.153253789, 0.0, 0.0, 1.307454594, 0.0, 1.449016994, 0.0, 1.444258594, 1.449849714, 1.451158274, 0.889150891, 1.394057474, 1.397031474, 0.0, 0.0, 0.0, 0.108881709, 0.0, 1.419395954, 0.109476509, 1.417849474, 1.417849474, 1.416659874, 0.0, 0.886524201, 0.0, 0.920612421, 0.0, 0.897703671, 0.0, 0.166976075];
earn = [0.0, 0.289828282, 0.290203576, 0.0, 0.314543385, 0.0, 0.0, 0.0, 0.334478093, 0.0, 0.329817826, 0.0, 0.331297913, 0.0, 0.0, 0.0, 0.347866674, 0.0, 0.0, 0.0, 0.389123506, 0.0, 0.0, 0.0, 0.585413519, 0.0, 0.653140342, 0.626048051, 0.702679037, 0.728864492, 0.0, 0.0, 0.508006918, 0.381824942, 0.0, 0.0, 0.0, 0.0, 0.544375166, 0.0, -0.009972037, -0.017132747, 0.0, -0.032845261, -0.049530118, 0.0, 0.0, 0.0, 0.0, 0.0, -0.035792134, 0.0, 0.0, 0.0, -0.004438496, 0.0, 0.003186118, 0.0, 0.010442834, 0.0, 0.565494049, 0.0, 0.379210294, 0.431665676, 0.770058969, 0.0, 0.521881774, 0.70061591, 0.0, 0.6876130499999999, 0.0, 0.725259111, 0.0, 0.0, 0.0, 0.0, 0.0, 0.0, 0.771134157, 0.726800332, 0.6917429899999999, 0.0, 0.0, 0.0, 0.0, 0.0, 0.0, 0.0, 0.0, 0.0, 0.38115439, 0.0, 0.371271859, 0.0, 0.0, 0.0];
total_cost = 50.548304221;
total_earn = 14.945332442;
