production = [0.0, 0.0, 0.0, 0.0, 0.0, 0.0, 0.0, 0.0, 0.0, 0.0, 0.0, 0.0, 0.0, 0.0, 0.0, 0.0, 0.0, 0.0, 0.0, 0.0, 0.0, 0.0, 0.0, 0.0003, 0.0045, 0.0, 0.0452, 0.0843, 0.11, 0.0, 0.218, 0.4283, 0.631, 0.7712, 0.881, 0.0, 0.0, 1.184, 0.0, 0.0, 0.0, 1.1013, 1.094, 0.0, 1.1018, 0.0, 0.4933, 0.0, 0.0, 0.0, 0.0525, 0.0, 0.0, 0.317, 0.0, 0.0, 0.0, 1.3277, 1.221, 1.068, 0.0, 0.0, 0.7562, 0.0, 0.5952, 0.0, 0.0, 0.0, 0.0, 0.0, 0.0435, 0.0, 0.0055, 0.0003, 0.0, 0.0, 0.0, 0.0, 0.0, 0.0, 0.0, 0.0, 0.0, 0.0, 0.0, 0.0, 0.0, 0.0, 0.0, 0.0, 0.0, 0.0, 0.0, 0.0, 0.0, 0.0];
buy = [0.0, 1.356028, 1.355528, 1.312528, 1.293480828, 1.835828, 1.335028, 0.265328, 0.0, 1.270028, 0.268528, 1.271328, 1.271828, 0.273528, 1.271828, 1.464828, 1.243028, 1.241328, 1.232028, 0.0, 0.223028, 0.0, 0.0, 0.0, 1.078828, 0.087228, 0.0, 0.0, 0.0, 1.087228, 0.869528, 0.6560279999999999, 0.0, 0.314128, 0.206028, 1.086328, 0.0, 0.0, 1.083028, 0.0, 0.0, 0.0, 0.0, 1.088228, 0.0, 0.0, 0.0, 0.084328, 0.0, 1.089528, 0.0, 1.084328, 0.086728, 0.0, 0.389828, 0.398328, 0.409828, 0.0, 0.0, 0.0, 1.132728, 0.133728, 0.378028, 0.0, 0.538028, 0.0, 1.128328, 1.130028, 0.0, 1.130228, 0.075228, 1.119228, 0.0, 0.0, 0.0, 0.076028, 1.072528, 0.0, 1.074728, 0.075028, 1.074728, 1.091528, 1.093328, 0.09382799999999999, 0.0, 1.092528, 0.092528, 0.0, 0.0, 0.257728, 0.315228, 1.313528, 0.0, 1.276028, 1.272028, 1.273328];
sell = [0.497972, 0.0, 0.0, 0.0, 0.0, 0.0, 0.0, 0.0, 0.640272, 0.0, 0.0, 0.0, 0.0, 0.0, 0.0, 0.0, 0.0, 0.0, 0.0, 0.675972, 0.0, 0.676472, 0.677272, 0.676072, 0.0, 0.0, 0.854672, 0.897772, 0.022272, 0.0, 0.0, 0.0, 0.542772, 0.0, 0.0, 0.0, 0.812772, 1.098972, 0.0, 0.817972, 0.525833498, 0.013772, 1.010972, 0.0, 1.919772, 0.816172, 1.303772, 0.0, 0.809472, 0.0, 0.869672, 0.0, 0.0, 0.880472, 0.0, 0.0, 0.0, 0.948672, 0.0, 1.611472, 0.0, 0.0, 0.0, 0.765772, 0.0, 0.771172, 0.0, 0.0, 0.768272, 0.0, 0.0, 0.0, 0.785272, 0.780572, 0.7794720000000001, 0.0, 0.0, 0.824972, 0.0, 0.0, 0.0, 0.0, 0.0, 0.0, 0.807972, 0.0, 0.0, 0.808472, 0.807472, 0.0, 0.0, 0.0, 0.585972, 0.0, 0.0, 0.0];
charge = [0.0, 1.0, 1.0, 1.0, 0.9859528279999999, 1.0, 1.0, 0.0, 0.0, 1.0, 0.0, 1.0, 1.0, 0.0, 1.0, 1.0, 1.0, 1.0, 1.0, 0.0, 0.0, 0.0, 0.0, 0.0, 1.0, 0.0, 0.0, 0.0, 0.0, 1.0, 1.0, 1.0, 0.0, 1.0, 1.0, 1.0, 0.0, 0.0, 1.0, 0.0, 0.0, 1.0, 0.0, 1.0, 0.0, 0.0, 0.0, 0.0, 0.0, 1.0, 0.0, 1.0, 0.0, 0.0, 0.0, 0.0, 0.0, 0.0, 0.8379720000000001, 0.0, 1.0, 0.0, 1.0, 0.0, 1.0, 0.0, 1.0, 1.0, 0.0, 1.0, 0.0, 1.0, 0.0, 0.0, 0.0, 0.0, 1.0, 0.0, 1.0, 0.0, 1.0, 1.0, 1.0, 0.0, 0.0, 1.0, 0.0, 0.0, 0.0, 0.0, 0.0, 1.0, 0.0, 1.0, 1.0, 1.0];
discharge = [1.0, 0.0, 0.0, 0.0, 0.0, 0.0, 0.0, 0.0, 1.0, 0.0, 0.0, 0.0, 0.0, 0.0, 0.0, 0.0, 0.0, 0.0, 0.0, 1.0, 0.0, 1.0, 1.0, 1.0, 0.0, 0.0, 1.0, 1.0, 0.0, 0.0, 0.0, 0.0, 0.0, 0.0, 0.0, 0.0, 1.0, 0.0, 0.0, 1.0, 0.676290553, 0.0, 0.0, 0.0, 1.0, 1.0, 1.0, 0.0, 1.0, 0.0, 1.0, 0.0, 0.0, 1.0, 0.0, 0.0, 0.0, 0.0, 0.0, 1.0, 0.0, 0.0, 0.0, 1.0, 0.0, 1.0, 0.0, 0.0, 1.0, 0.0, 0.0, 0.0, 1.0, 1.0, 1.0, 0.0, 0.0, 1.0, 0.0, 0.0, 0.0, 0.0, 0.0, 0.0, 1.0, 0.0, 0.0, 1.0, 1.0, 0.0, 0.0, 0.0, 1.0, 0.0, 0.0, 0.0];
soc = [3.859028, 4.758256194, 5.657304543, 6.556173082, 7.442219393, 8.340730948999999, 9.239062802999999, 9.23721499, 8.235367546999999, 9.133720474, 9.131893729, 10.030067351, 10.928061337, 10.925875725, 11.82369055, 12.721325812, 13.618781547, 14.51605779, 15.413154579, 14.410071948, 14.407189933, 13.404308495, 12.401627634, 11.399147308, 12.296867479, 12.294408105, 11.291949224, 10.289690834, 10.287632896, 11.185575369, 12.083338254, 12.980921586, 12.978325402, 13.875729737, 14.772954591, 15.67, 14.666866, 14.663932627, 15.56099984, 14.55788764, 13.87868551, 14.775909773, 14.772954591, 15.67, 14.666866, 13.663932627, 12.66119984, 12.6586676, 11.656135867, 12.55380464, 11.551293879, 12.44898362, 12.446493823, 11.444004524, 11.441715724, 11.43942738, 11.437139495, 11.434852067, 12.186739897, 11.184302549, 12.082065688, 12.079649275, 12.977233345, 11.974637898, 12.872242971, 11.869668522, 12.767294589, 13.66474113, 12.662008181, 13.55947578, 13.556763885, 14.454052532, 13.451161721, 12.448471489, 11.445981795, 11.443692598, 12.34140386, 11.338935579, 12.236667792, 12.234220458, 13.131773614, 14.02914726, 14.92634143, 14.923356162, 13.920371491, 14.817587416, 14.814623899, 13.811660974, 12.808898642, 12.806336862, 12.803775595, 13.70121484, 12.698474597, 13.595934902, 14.493215715, 15.390317072];
cost = [0.0, 0.946575671, 0.946270221, 0.920001521, 0.906705534, 1.239685491, 0.933746771, 0.162088875, 0.0, 0.894038271, 0.164043755, 0.894832441, 0.895137891, 0.167098255, 0.895137891, 1.013041591, 0.877543971, 0.8765054410000001, 0.870824071, 0.0, 0.136247805, 0.0, 0.0, 0.0, 1.401551954, 0.103766429, 0.0, 0.0, 0.0, 1.411544594, 1.152568674, 0.898589074, 0.0, 0.491864834, 0.363269074, 1.410473954, 0.0, 0.0, 1.406548274, 0.0, 0.0, 0.118178165, 0.0, 1.412734194, 0.0, 0.0, 0.0, 0.100316589, 0.0, 1.414280674, 0.0, 1.408094754, 0.052982135, 0.0, 0.238145925, 0.243338575, 0.250363925, 0.0, 0.099029994, 0.0, 1.465671394, 0.159082829, 0.567880274, 0.0, 0.758216274, 0.0, 1.460437154, 1.462459474, 0.0, 1.462697394, 0.08949122900000001, 1.449611794, 0.0, 0.0, 0.0, 0.090442909, 1.394057474, 0.0, 1.396674594, 0.089253309, 1.396674594, 1.416659874, 1.418801154, 0.111617789, 0.0, 1.417849474, 0.110071309, 0.0, 0.0, 0.157446035, 0.192572785, 0.920612421, 0.0, 0.897703671, 0.895260071, 0.896054241];
earn = [0.273038048, 0.0, 0.0, 0.0, 0.0, 0.0, 0.0, 0.0, 0.334478093, 0.0, 0.0, 0.0, 0.0, 0.0, 0.0, 0.0, 0.0, 0.0, 0.0, 0.361847812, 0.0, 0.392286113, 0.40974956, 0.431063507, 0.0, 0.0, 0.653140342, 0.690925331, 0.016969037, 0.0, 0.0, 0.0, 0.339666718, 0.0, 0.0, 0.0, 0.333480352, 0.354858059, 0.0, 0.102082906, -0.002313667, -0.000232747, -0.10615206, 0.0, -0.049530118, -0.033626286, -0.062450679, 0.0, -0.037154765, 0.0, -0.038091634, 0.0, 0.0, -0.012502702, 0.0, 0.0, 0.0, 0.013850611, 0.0, 0.076061478, 0.0, 0.0, 0.0, 0.431665676, 0.0, 0.456610941, 0.0, 0.0, 0.549775443, 0.0, 0.0, 0.0, 0.757630426, 0.778464456, 0.793502496, 0.0, 0.0, 0.796922952, 0.0, 0.0, 0.0, 0.0, 0.0, 0.0, 0.60048479, 0.0, 0.0, 0.5456377529999999, 0.55973959, 0.0, 0.0, 0.0, 0.371271859, 0.0, 0.0, 0.0];
total_cost = 49.394466777;
total_earn = 11.083149691;
