production = [0.0, 0.0, 0.0, 0.0, 0.0, 0.0, 0.0, 0.0, 0.0, 0.0, 0.0, 0.0, 0.0, 0.0, 0.0, 0.0, 0.0, 0.0, 0.0, 0.0, 0.0, 0.0, 0.0, 0.0003, 0.0045, 0.0283, 0.0, 0.0, 0.11, 0.145, 0.0, 0.4283, 0.0, 0.7712, 0.0, 0.9785, 1.0675, 1.184, 0.0, 1.362, 1.4492, 0.08752799999999999, 0.0, 1.1045, 1.1018, 1.102, 0.0, 0.0, 0.0, 0.0592, 0.0525, 0.0, 0.0, 0.0, 0.3438, 0.0, 1.39, 0.0, 0.0, 0.0, 1.0217, 0.957, 0.0, 0.712, 0.5952, 0.0, 0.0, 0.1988, 0.0, 0.0, 0.0, 0.0, 0.0055, 0.0, 0.0, 0.0, 0.0, 0.0, 0.0, 0.0, 0.0, 0.0, 0.0, 0.0, 0.0, 0.0, 0.0, 0.0, 0.0, 0.0, 0.0, 0.0, 0.0, 0.0, 0.0, 0.0];
buy = [1.402028, 1.356028, 1.355528, 0.0, 1.307528, 0.835828, 0.0, 0.265328, 1.259728, 1.270028, 0.0, 1.271328, 1.271828, 0.0, 1.271828, 1.464828, 0.0, 1.241328, 0.0, 0.0, 1.223028, 0.0, 1.222728, 0.223928, 1.078828, 1.058928, 1.090528, 1.086528, 0.977728, 0.0, 1.087528, 0.0, 0.408745587, 0.314128, 0.08702799999999999, 0.0, 0.019728, 0.0, 1.083028, 0.0, 0.0, 0.0, 0.0, 0.0, 0.0, 0.0, 0.0, 1.084328, 1.090528, 1.030328, 0.0, 0.0, 0.086728, 0.336528, 1.046028, 0.0, 0.0, 1.164570091, 1.383028, 0.0, 0.0, 0.0, 0.134228, 0.422228, 0.538028, 0.0, 0.0, 0.9312279999999999, 0.0, 0.0, 0.0, 0.0, 0.0, 0.119728, 1.120528, 1.076028, 0.072528, 0.0, 0.074728, 0.0, 0.0, 1.091528, 1.093328, 0.0, 0.0, 0.0, 1.092528, 1.091528, 1.092528, 1.257728, 0.315228, 0.313528, 1.314028, 0.0, 1.272028, 0.0];
sell = [0.0, 0.0, 0.0, 0.587472, 0.0, 0.0, 0.564972, 0.0, 0.0, 0.0, 0.631472, 0.0, 0.0, 0.626472, 0.0, 0.0, 0.656972, 0.0, 0.667972, 0.675972, 0.0, 0.676472, 0.0, 0.0, 0.0, 0.0, 0.0, 0.0, 0.0, 0.957772, 0.0, 1.243972, 0.0, 0.0, 0.0, 1.792172, 0.0, 1.098972, 0.0, 0.279972, 0.366372, 0.0, 0.816972, 1.016272, 1.919772, 1.918172, 0.810472, 0.0, 0.0, 0.0, 0.869672, 0.815672, 0.0, 0.0, 0.0, 0.501672, 0.980172, 0.0, 0.0, 0.543472, 1.788972, 0.823272, 0.0, 0.0, 0.0, 0.771172, 0.771672, 0.0, 0.768272, 0.769772, 0.781272, 0.780772, 0.785272, 0.0, 0.0, 0.0, 0.0, 0.824972, 0.0, 0.824972, 0.825272, 0.0, 0.0, 0.806172, 0.807972, 0.807472, 0.0, 0.0, 0.0, 0.0, 0.0, 0.0, 0.0, 0.623972, 0.0, 0.626672];
charge = [1.0, 1.0, 1.0, 0.0, 1.0, 0.0, 0.0, 0.0, 1.0, 1.0, 0.0, 1.0, 1.0, 0.0, 1.0, 1.0, 0.0, 1.0, 0.0, 0.0, 1.0, 0.0, 1.0, 0.0, 1.0, 1.0, 1.0, 1.0, 1.0, 0.0, 1.0, 0.0, 0.320517587, 1.0, 0.0, 0.0, 1.0, 0.0, 1.0, 1.0, 1.0, 0.0, 0.0, 0.0, 0.0, 0.0, 0.0, 1.0, 1.0, 1.0, 0.0, 0.0, 0.0, 0.0, 1.0, 0.0, 0.0, 0.7855420910000001, 1.0, 0.0, 0.0, 0.0, 0.0, 1.0, 1.0, 0.0, 0.0, 1.0, 0.0, 0.0, 0.0, 0.0, 0.0, 0.0, 1.0, 1.0, 0.0, 0.0, 0.0, 0.0, 0.0, 1.0, 1.0, 0.0, 0.0, 0.0, 1.0, 1.0, 1.0, 1.0, 0.0, 0.0, 1.0, 0.0, 1.0, 0.0];
discharge = [0.0, 0.0, 0.0, 1.0, 0.0, 0.0, 1.0, 0.0, 0.0, 0.0, 1.0, 0.0, 0.0, 1.0, 0.0, 0.0, 1.0, 0.0, 1.0, 1.0, 0.0, 1.0, 0.0, 0.0, 0.0, 0.0, 0.0, 0.0, 0.0, 1.0, 0.0, 1.0, 0.0, 0.0, 0.0, 1.0, 0.0, 0.0, 0.0, 0.0, 0.0, 0.0, 1.0, 0.0, 1.0, 1.0, 1.0, 0.0, 0.0, 0.0, 1.0, 1.0, 0.0, 0.0, 0.0, 1.0, 0.0, 0.0, 0.0, 1.0, 1.0, 0.0, 0.0, 0.0, 0.0, 1.0, 1.0, 0.0, 1.0, 1.0, 1.0, 1.0, 1.0, 0.0, 0.0, 0.0, 0.0, 1.0, 0.0, 1.0, 1.0, 0.0, 0.0, 1.0, 1.0, 1.0, 0.0, 0.0, 0.0, 0.0, 0.0, 0.0, 0.0, 1.0, 0.0, 1.0];
soc = [5.759028, 6.657876194, 7.556544619, 6.55503331, 7.453722304, 7.452231559, 6.450741113, 6.449450965, 7.348161074, 8.246691441999999, 7.245042104, 8.143593095, 9.041964376999999, 8.040155984, 8.938547953, 9.836760243000001, 8.834792890999999, 9.733025933, 8.731079327, 7.729333112, 8.627787245, 7.626061687, 8.524536475, 8.522831568000001, 9.421127001, 10.319242776, 11.217178928, 12.114935492, 13.012512505, 12.009910002, 12.90750802, 11.904926519, 12.191011362, 13.08857316, 13.085955445, 12.083338254, 12.980921586, 12.978325402, 13.875729737, 14.772954591, 15.67, 15.666866, 14.663732627, 14.66079988, 13.65786772, 12.655136147, 11.65260512, 12.550274599, 13.447764544, 14.345074991, 13.342205976, 12.339537534, 12.337069627, 12.334602213, 13.232135293, 12.229488866, 12.227042968, 12.931585441, 13.828999124, 12.826233324, 11.823668078, 11.821303344, 11.818939083, 12.716575295, 13.61403198, 12.611309174, 11.608786912, 12.506465155, 11.503963862, 10.501663069, 9.499562736, 8.497662824000001, 7.495963291, 7.494464099, 8.392965206, 9.291286613, 9.289428355, 8.28757047, 8.285912956000001, 7.284255773, 6.282798922, 7.181542362, 8.080106054, 7.078490032, 6.077074334, 5.07585892, 5.974843748, 6.873648779, 7.772274049, 8.670719593999999, 8.668985450999999, 8.667251652999999, 9.565518203, 8.563605099, 9.461892378, 8.460000000000001];
cost = [0.974677071, 0.946575671, 0.946270221, 0.0, 0.916947021, 0.5106073249999999, 0.0, 0.162088875, 0.887746001, 0.894038271, 0.0, 0.894832441, 0.895137891, 0.0, 0.895137891, 1.013041591, 0.0, 0.8765054410000001, 0.0, 0.0, 0.865325971, 0.0, 0.865142701, 0.136797615, 1.401551954, 1.377878914, 1.415470274, 1.410711874, 1.281283394, 0.0, 1.411901474, 0.0, 0.524121931, 0.491864834, 0.103528509, 0.0, 0.141646594, 0.0, 1.406548274, 0.118178165, 0.118178165, 0.0, 0.0, 0.0, 0.0, 0.0, 0.0, 1.408094754, 1.415470274, 1.343856354, 0.0, 0.0, 0.052982135, 0.205584955, 0.757196671, 0.0, 0.0, 0.804269792, 0.963069971, 0.0, 0.0, 0.0, 0.159677629, 0.620460594, 0.758216274, 0.0, 0.0, 1.225966994, 0.0, 0.0, 0.0, 0.0, 0.0, 0.142428429, 1.451158274, 1.398221074, 0.086279309, 0.0, 0.088896429, 0.0, 0.0, 1.416659874, 1.418801154, 0.0, 0.0, 0.0, 1.417849474, 1.416659874, 0.785603521, 0.886524201, 0.192572785, 0.191534255, 0.920917871, 0.0, 0.895260071, 0.0];
earn = [0.0, 0.0, 0.0, 0.312065126, 0.0, 0.0, 0.294293915, 0.0, 0.0, 0.0, 0.329817826, 0.0, 0.0, 0.32933633, 0.0, 0.0, 0.347866674, 0.0, 0.356763845, 0.361847812, 0.0, 0.392286113, 0.0, 0.0, 0.0, 0.0, 0.0, 0.0, 0.0, 0.728864492, 0.0, 0.813184496, 0.0, 0.0, 0.0, 0.829954853, 0.0, 0.354858059, 0.0, 0.034940506, -0.001612037, 0.0, -0.08578205999999999, -0.11107853, -0.049530118, -0.079028686, -0.038821609, 0.0, 0.0, 0.0, -0.038091634, -0.014437394, 0.0, 0.0, 0.0, -0.000250836, 0.006371118, 0.0, 0.0, 0.025651878, 0.565494049, 0.324863131, 0.0, 0.0, 0.0, 0.456610941, 0.521881774, 0.0, 0.549775443, 0.62105205, 0.67720657, 0.725259111, 0.757630426, 0.0, 0.0, 0.0, 0.0, 0.796922952, 0.0, 0.726800332, 0.6917429899999999, 0.0, 0.0, 0.626556878, 0.60048479, 0.587839616, 0.0, 0.0, 0.0, 0.0, 0.0, 0.0, 0.0, 0.381184495, 0.0, 0.36973648];
total_cost = 46.307949344;
total_earn = 15.080512168;
