production = [0.0, 0.0, 0.0, 0.0, 0.0, 0.0, 0.0, 0.0, 0.0, 0.0, 0.0, 0.0, 0.0, 0.0, 0.0, 0.0, 0.0, 0.0, 0.0, 0.0, 0.0, 0.0, 0.0, 0.0, 0.0, 0.0283, 0.0, 0.0, 0.0, 0.145, 0.218, 0.4283, 0.0, 0.0, 0.881, 0.0, 1.0675, 1.184, 0.0, 0.0, 1.4492, 1.1013, 1.094, 0.0, 0.0, 1.102, 0.0, 0.0575, 0.0, 0.0, 0.0, 0.0, 0.0638, 0.317, 0.0, 0.0, 0.0, 1.3277, 0.0, 1.068, 1.0217, 0.957, 0.7562, 0.0, 0.0, 0.0, 0.0, 0.1988, 0.132, 0.0, 0.0, 0.0, 0.0, 0.0, 0.0, 0.0, 0.0, 0.0, 0.0, 0.0, 0.0, 0.0, 0.0, 0.0, 0.0, 0.0, 0.0, 0.0, 0.0, 0.0, 0.0, 0.0, 0.0, 0.0, 0.0, 0.0];
buy = [0.402028, 0.356028, 1.196663305, 1.312528, 0.0, 1.835828, 0.0, 0.0, 1.259728, 0.270028, 1.268528, 1.271328, 0.0, 0.273528, 1.271828, 1.464828, 1.243028, 0.0, 0.0, 1.224028, 1.223028, 0.0, 1.222728, 0.224228, 0.0, 1.058928, 0.090528, 1.086528, 1.087728, 0.0, 0.869528, 0.0, 0.0, 1.085328, 0.206028, 0.086328, 0.0, 0.0, 0.083028, 1.082028, 0.0, 0.0, 0.0, 1.088228, 1.082028, 0.0, 1.089528, 0.026828, 0.0, 1.089528, 0.0, 0.084328, 1.022928, 0.0, 0.0, 1.398328, 0.0, 0.051328, 0.383028, 0.0, 0.0, 0.0, 0.378028, 1.134228, 1.133228, 0.128828, 1.128328, 0.0, 0.999728, 0.130228, 0.118728, 0.119228, 0.0, 0.119728, 0.0, 0.0, 0.0, 0.075028, 0.074728, 0.075028, 0.0, 0.091528, 1.093328, 0.09382799999999999, 0.0, 0.0, 1.092528, 0.0, 1.092528, 1.257728, 1.315228, 0.313528, 1.314028, 0.276028, 0.272028, 1.273328];
sell = [0.0, 0.0, 0.0, 0.0, 0.592472, 0.0, 0.564972, 0.634672, 0.0, 0.0, 0.0, 0.0, 0.0, 0.0, 0.0, 0.0, 0.0, 0.658672, 0.667972, 0.0, 0.0, 0.676472, 0.0, 0.0, 0.816672, 0.0, 0.0, 0.0, 0.0, 0.057772, 0.0, 1.243972, 0.811772, 0.0, 0.0, 0.0, 1.880272, 1.998972, 0.0, 0.0, 2.266372, 1.013772, 1.910972, 0.0, 0.0, 1.918172, 0.0, 0.0, 0.809472, 0.0, 0.817172, 0.0, 0.0, 0.880472, 0.510172, 0.0, 0.490172, 0.0, 0.0, 0.711472, 1.788972, 1.723272, 0.0, 0.0, 0.0, 0.0, 0.0, 0.968772, 0.0, 0.0, 0.0, 0.0, 0.779772, 0.0, 0.7794720000000001, 0.823972, 0.827472, 0.0, 0.0, 0.0, 0.825272, 0.0, 0.0, 0.0, 0.807972, 0.807472, 0.0, 0.808472, 0.0, 0.0, 0.0, 0.0, 0.0, 0.0, 0.0, 0.0];
charge = [0.0, 0.0, 0.841135305, 1.0, 0.0, 1.0, 0.0, 0.0, 1.0, 0.0, 1.0, 1.0, 0.0, 0.0, 1.0, 1.0, 1.0, 0.0, 0.0, 1.0, 1.0, 0.0, 1.0, 0.0, 0.0, 1.0, 0.0, 1.0, 1.0, 0.0, 1.0, 0.0, 0.0, 1.0, 1.0, 0.0, 0.0, 0.0, 0.0, 1.0, 0.0, 0.0, 0.0, 1.0, 1.0, 0.0, 1.0, 0.0, 0.0, 1.0, 0.0, 0.0, 1.0, 0.0, 0.0, 1.0, 0.0, 1.0, 0.0, 0.0, 0.0, 0.0, 1.0, 1.0, 1.0, 0.0, 1.0, 0.0, 1.0, 0.0, 0.0, 0.0, 0.0, 0.0, 0.0, 0.0, 0.0, 0.0, 0.0, 0.0, 0.0, 0.0, 1.0, 0.0, 0.0, 0.0, 1.0, 0.0, 1.0, 1.0, 1.0, 0.0, 1.0, 0.0, 0.0, 1.0];
discharge = [0.0, 0.0, 0.0, 0.0, 1.0, 0.0, 1.0, 1.0, 0.0, 0.0, 0.0, 0.0, 0.302031111, 0.0, 0.0, 0.0, 0.0, 1.0, 1.0, 0.0, 0.0, 1.0, 0.0, 0.0, 1.0, 0.0, 0.0, 0.0, 0.0, 0.0, 0.0, 1.0, 1.0, 0.0, 0.0, 0.0, 1.0, 1.0, 0.0, 0.0, 1.0, 0.0, 1.0, 0.0, 0.0, 1.0, 0.0, 0.0, 1.0, 0.0, 1.0, 0.0, 0.0, 1.0, 1.0, 0.0, 1.0, 0.0, 0.0, 0.0, 1.0, 1.0, 0.0, 0.0, 0.0, 0.0, 0.0, 1.0, 0.0, 0.0, 0.0, 0.0, 1.0, 0.0, 1.0, 1.0, 1.0, 0.0, 0.0, 0.0, 1.0, 0.0, 0.0, 0.0, 1.0, 1.0, 0.0, 1.0, 0.0, 0.0, 0.0, 0.0, 0.0, 0.0, 0.0, 0.0];
soc = [4.859028, 4.858056194, 5.614106358, 6.512983537, 5.51168094, 6.410578604, 5.409296488, 4.408214629, 5.307332986, 5.306271519, 6.205210265, 7.103969223, 6.800517318, 6.799157214, 7.697797383, 8.596257823, 9.494538572, 8.492639664, 7.490941136, 8.389442947999999, 9.287765059, 8.285907505999999, 9.184250325000001, 9.182413475000001, 8.180576992000001, 9.078940877000001, 9.077125089000001, 9.975309663999999, 10.873314602, 10.871139939, 11.768965711, 10.766611918, 9.764458595000001, 10.662505704, 11.560373202, 11.558061128, 10.555749516, 9.553638365999999, 9.551727637999999, 10.449817292, 9.447727328999999, 9.445837783, 8.443948616, 9.342259825999999, 10.240391374, 9.238343296, 10.136495627, 10.134468328, 9.132441435, 10.030614946, 9.028608823000001, 9.026803101, 9.924997741, 8.923012741000001, 7.921228139, 8.819643893, 7.817879964, 8.716316387999999, 8.714573124999999, 8.71283021, 7.711087644, 6.709545427, 7.608203518, 8.506681877, 9.404980541, 9.403099545, 10.301218925, 9.299158681, 10.197298849, 10.195259389, 10.193220338, 10.191181693, 9.189143457, 9.187305628000001, 8.185468167, 7.183831074, 6.182394307, 6.181157829, 6.179921597, 6.178685613, 5.177449876, 5.176414386, 6.075379103, 6.074164027, 5.072949194, 4.071934604, 4.971120217, 3.970125993, 4.869331968, 5.768358102, 6.66720443, 6.665870989, 7.564537815, 7.563024907, 7.561512302, 8.460000000000001];
cost = [0.245598905, 0.217497505, 0.83044544, 0.920001521, 0.0, 1.239685491, 0.0, 0.0, 0.887746001, 0.164960105, 0.893121921, 0.894832441, 0.0, 0.167098255, 0.895137891, 1.013041591, 0.877543971, 0.0, 0.0, 0.8659368710000001, 0.865325971, 0.0, 0.865142701, 0.136980885, 0.0, 1.377878914, 0.107692109, 1.410711874, 1.412139394, 0.0, 1.152568674, 0.0, 0.0, 1.409284354, 0.363269074, 0.102695789, 0.0, 0.0, 0.09877010899999999, 1.405358674, 0.0, 0.0, 0.0, 1.412734194, 1.405358674, 0.0, 1.414280674, 0.031914589, 0.0, 1.414280674, 0.0, 0.100316589, 0.743084881, 0.0, 0.0, 0.972416741, 0.0, 0.149534441, 0.233991805, 0.0, 0.0, 0.0, 0.567880274, 1.467455794, 1.466266194, 0.153253789, 1.460437154, 0.0, 1.307454594, 0.154919229, 0.141238829, 0.141833629, 0.0, 0.142428429, 0.0, 0.0, 0.0, 0.089253309, 0.088896429, 0.089253309, 0.0, 0.108881709, 1.418801154, 0.111617789, 0.0, 0.0, 1.417849474, 0.0, 0.785603521, 0.886524201, 0.9216509510000001, 0.191534255, 0.920917871, 0.168625505, 0.166181905, 0.896054241];
earn = [0.0, 0.0, 0.0, 0.0, 0.314543385, 0.0, 0.294293915, 0.330791046, 0.0, 0.0, 0.0, 0.0, 0.0, 0.0, 0.0, 0.0, 0.0, 0.351072176, 0.356763845, 0.0, 0.0, 0.392286113, 0.0, 0.0, 0.582205469, 0.0, 0.0, 0.0, 0.0, 0.043964492, 0.0, 0.813184496, 0.508006918, 0.0, 0.0, 0.0, 0.771475602, 0.645468059, 0.0, 0.0, -0.009972037, -0.017132747, -0.20065206, 0.0, 0.0, -0.079028686, 0.0, 0.0, -0.037154765, 0.0, -0.035792134, 0.0, 0.0, -0.012502702, -0.004438496, 0.0, 0.003186118, 0.0, 0.0, 0.033581478, 0.565494049, 0.680003131, 0.0, 0.0, 0.0, 0.0, 0.0, 0.70061591, 0.0, 0.0, 0.0, 0.0, 0.752324026, 0.0, 0.793502496, 0.84045144, 0.829954416, 0.0, 0.0, 0.0, 0.6917429899999999, 0.0, 0.0, 0.0, 0.60048479, 0.587839616, 0.0, 0.5456377529999999, 0.0, 0.0, 0.0, 0.0, 0.0, 0.0, 0.0, 0.0];
total_cost = 43.963193226;
total_earn = 12.632200102;
