production = [0.0, 0.0, 0.0, 0.0, 0.0, 0.0, 0.0, 0.0, 0.0, 0.0, 0.0, 0.0, 0.0, 0.0, 0.0, 0.0, 0.0, 0.0, 0.0, 0.0, 0.0, 0.0, 0.0, 0.0, 0.0045, 0.0, 0.0, 0.0843, 0.11, 0.145, 0.0, 0.4283, 0.0, 0.0, 0.881, 0.0, 0.0, 0.0, 0.0, 1.362, 0.0, 0.0, 1.094, 0.0, 0.0, 0.0, 0.0, 0.0, 0.0, 0.0592, 0.0, 0.0473, 0.0638, 0.317, 0.3438, 0.0, 1.39, 0.0, 1.221, 1.068, 1.0217, 0.0, 0.0, 0.712, 0.0, 0.0, 0.0, 0.1988, 0.0, 0.0825, 0.0, 0.0, 0.0, 0.0003, 0.0, 0.0, 0.0, 0.0, 0.0, 0.0, 0.0, 0.0, 0.0, 0.0, 0.0, 0.0, 0.0, 0.0, 0.0, 0.0, 0.0, 0.0, 0.0, 0.0, 0.0, 0.0];
buy = [0.0, 1.356028, 1.355528, 1.312528, 0.0, 1.835828, 1.335028, 0.0, 1.259728, 1.270028, 0.0, 0.0, 0.0, 0.273528, 1.271828, 1.464828, 1.243028, 0.241328, 0.0, 1.224028, 0.0, 0.223528, 0.0, 1.224228, 0.0, 0.0, 1.090528, 0.002228, 0.0, 0.942228, 0.08752799999999999, 0.6560279999999999, 1.088228, 1.085328, 0.0, 0.0, 0.0, 0.08502800000000001, 1.083028, 0.0, 1.082828, 0.08752799999999999, 0.0, 0.0, 0.082028, 0.0, 0.0, 0.0, 0.0, 1.030328, 0.0, 0.0, 0.0, 1.019528, 0.0, 0.398328, 0.019828, 1.379028, 0.162028, 0.288528, 0.111028, 0.0, 0.0, 0.422228, 1.133228, 1.128828, 0.0, 0.9312279999999999, 0.131728, 1.047728, 0.0, 0.0, 1.120228, 0.119428, 1.120528, 0.0, 1.072528, 0.0, 0.074728, 1.075028, 1.074728, 1.091528, 0.0, 0.0, 0.0, 0.092528, 1.092528, 1.057506708, 1.092528, 0.257728, 0.0, 1.313528, 0.0, 0.0, 0.272028, 1.273328];
sell = [0.497972, 0.0, 0.0, 0.0, 0.592472, 0.0, 0.0, 0.634672, 0.0, 0.0, 0.631472, 0.628672, 0.628172, 0.0, 0.0, 0.0, 0.0, 0.0, 0.667972, 0.0, 0.676972, 0.0, 0.677272, 0.0, 0.821172, 0.812772, 0.0, 0.0, 0.022272, 0.0, 0.0, 0.0, 0.0, 0.0, 1.639883788, 0.813672, 0.812772, 0.0, 0.0, 0.279972, 0.0, 0.0, 0.010972, 0.811772, 0.0, 0.816172, 0.810472, 0.815672, 0.809472, 0.0, 0.817172, 0.862972, 0.877072, 0.0, 0.762379, 0.0, 0.0, 0.0, 0.0, 0.0, 0.0, 0.766272, 0.765772, 0.0, 0.0, 0.0, 0.771672, 0.0, 0.0, 0.0, 0.781272, 0.780772, 0.0, 0.0, 0.0, 0.823972, 0.0, 0.824972, 0.0, 0.0, 0.0, 0.0, 0.8066719999999999, 0.806172, 0.807972, 0.0, 0.0, 0.0, 0.0, 0.0, 0.584772, 0.0, 0.585972, 0.623972, 0.0, 0.0];
charge = [0.0, 1.0, 1.0, 1.0, 0.0, 1.0, 1.0, 0.0, 1.0, 1.0, 0.0, 0.0, 0.0, 0.0, 1.0, 1.0, 1.0, 0.0, 0.0, 1.0, 0.0, 0.0, 0.0, 1.0, 0.0, 0.0, 1.0, 0.0, 0.0, 1.0, 0.0, 1.0, 1.0, 1.0, 0.0, 0.0, 0.0, 0.0, 1.0, 1.0, 1.0, 0.0, 1.0, 0.0, 0.0, 0.0, 0.0, 0.0, 0.0, 1.0, 0.0, 0.0, 0.0, 1.0, 0.0, 0.0, 1.0, 1.0, 1.0, 1.0, 1.0, 0.0, 0.0, 1.0, 1.0, 1.0, 0.0, 1.0, 0.0, 1.0, 0.0, 0.0, 1.0, 0.0, 1.0, 0.0, 1.0, 0.0, 0.0, 1.0, 1.0, 1.0, 0.0, 0.0, 0.0, 0.0, 1.0, 0.965978708, 1.0, 0.0, 0.0, 1.0, 0.0, 0.0, 0.0, 1.0];
discharge = [1.0, 0.0, 0.0, 0.0, 1.0, 0.0, 0.0, 1.0, 0.0, 0.0, 1.0, 1.0, 1.0, 0.0, 0.0, 0.0, 0.0, 0.0, 1.0, 0.0, 1.0, 0.0, 1.0, 0.0, 1.0, 1.0, 0.0, 0.0, 0.0, 0.0, 0.0, 0.0, 0.0, 0.0, 0.939901987, 1.0, 1.0, 0.0, 0.0, 0.0, 0.0, 0.0, 0.0, 1.0, 0.0, 1.0, 1.0, 1.0, 1.0, 0.0, 1.0, 1.0, 1.0, 0.0, 0.89823, 0.0, 0.0, 0.0, 0.0, 0.0, 0.0, 1.0, 1.0, 0.0, 0.0, 0.0, 1.0, 0.0, 0.0, 0.0, 1.0, 1.0, 0.0, 0.0, 0.0, 1.0, 0.0, 1.0, 0.0, 0.0, 0.0, 0.0, 1.0, 1.0, 1.0, 0.0, 0.0, 0.0, 0.0, 0.0, 1.0, 0.0, 1.0, 1.0, 0.0, 0.0];
soc = [3.859028, 4.758256194, 5.657304543, 6.556173082, 5.554861848, 6.453750875, 7.352460125, 6.350989633, 7.249719435, 8.148269491000001, 7.146639837, 6.145210509, 5.143981467, 5.142952671, 6.04192408, 6.940715696, 7.839327553, 7.837759687, 6.836192135, 7.734824897, 6.733277932, 6.731931276, 5.73058489, 6.629438773, 5.628112885, 4.626987262, 5.526061865, 5.524956653, 5.523851661, 6.422746891, 6.421462342, 7.320178049, 8.218714014, 9.117070270999999, 8.17534487, 7.173709801, 6.172275059, 6.171040604, 7.069806396, 7.968392434, 8.866798756, 8.865025396, 9.763252391, 8.761299741, 8.759547481, 7.757795571, 6.756244012, 5.754892763, 4.753741785, 5.652791036, 4.651660478, 3.650730146, 2.65, 3.54947, 2.650530106, 2.65, 3.54947, 4.448760106, 5.347870354, 6.24680078, 7.14555142, 6.144122309, 5.142893485, 6.041864906, 6.940656533, 7.839268402, 6.837700548, 7.736333008, 7.734785742, 8.633238784, 7.631512137, 6.629985834, 7.528659837, 7.527154105, 8.425648674, 7.423963545, 8.322478752, 7.320814256, 7.319350093, 8.217886223000001, 9.116242646, 10.014419398, 9.012416514, 8.010614029999999, 7.009011908, 7.007610105, 7.906208583, 8.774008178000001, 9.672253377000001, 9.670318926, 8.668384862, 9.566651185, 8.564737855000001, 7.563024907, 7.561512302, 8.460000000000001];
cost = [0.0, 0.946575671, 0.946270221, 0.920001521, 0.0, 1.239685491, 0.933746771, 0.0, 0.887746001, 0.894038271, 0.0, 0.0, 0.0, 0.167098255, 0.895137891, 1.013041591, 0.877543971, 0.147427275, 0.0, 0.8659368710000001, 0.0, 0.136553255, 0.0, 0.866059051, 0.0, 0.0, 1.415470274, 0.002650429, 0.0, 1.239052594, 0.104123309, 0.898589074, 1.412734194, 1.409284354, 0.0, 0.0, 0.0, 0.101149309, 1.406548274, 0.118178165, 1.406310354, 0.104123309, 0.118178165, 0.0, 0.097580509, 0.0, 0.0, 0.0, 0.0, 1.343856354, 0.0, 0.0, 0.0, 0.741007821, 0.0, 0.243338575, 0.130291091, 0.960626371, 0.217161071, 0.294439921, 0.250257074, 0.0, 0.0, 0.620460594, 1.466266194, 1.461031954, 0.0, 1.225966994, 0.156703629, 1.364555394, 0.0, 0.0, 1.450801394, 0.142071549, 1.451158274, 0.0, 1.394057474, 0.0, 0.088896429, 1.397031474, 1.396674594, 1.416659874, 0.0, 0.0, 0.0, 0.110071309, 1.417849474, 1.372167571, 0.785603521, 0.157446035, 0.0, 0.920612421, 0.0, 0.0, 0.166181905, 0.896054241];
earn = [0.273038048, 0.0, 0.0, 0.0, 0.314543385, 0.0, 0.0, 0.330791046, 0.0, 0.0, 0.329817826, 0.328229651, 0.331297913, 0.0, 0.0, 0.0, 0.0, 0.0, 0.356763845, 0.0, 0.389123506, 0.0, 0.40974956, 0.0, 0.585413519, 0.6106356040000001, 0.0, 0.0, 0.016969037, 0.0, 0.0, 0.0, 0.0, 0.0, 0.826173453, 0.376811503, 0.333480352, 0.0, 0.0, 0.034940506, 0.0, 0.0, -0.00115206, -0.08872668, 0.0, -0.033626286, -0.038821609, -0.040865167, -0.037154765, 0.0, -0.035792134, -0.015274604, -0.019558706, 0.0, -0.006632697, 0.0, 0.0, 0.0, 0.0, 0.0, 0.0, 0.302370931, 0.379210294, 0.0, 0.0, 0.0, 0.521881774, 0.0, 0.0, 0.0, 0.67720657, 0.725259111, 0.0, 0.0, 0.0, 0.84045144, 0.0, 0.796922952, 0.0, 0.0, 0.0, 0.0, 0.636464208, 0.626556878, 0.60048479, 0.0, 0.0, 0.0, 0.0, 0.0, 0.38115439, 0.0, 0.371271859, 0.381184495, 0.0, 0.0];
total_cost = 46.610134992;
total_earn = 12.770593736;
