production = [0.0, 0.0, 0.0, 0.0, 0.0, 0.0, 0.0, 0.0, 0.0, 0.0, 0.0, 0.0, 0.0, 0.0, 0.0, 0.0, 0.0, 0.0, 0.0, 0.0, 0.0, 0.0, 0.0, 0.0003, 0.0, 0.0283, 0.0, 0.0843, 0.0, 0.0, 0.218, 0.4283, 0.0, 0.0, 0.881, 0.9785, 1.0675, 1.184, 1.2873, 1.362, 0.0, 0.0, 1.094, 1.1045, 0.0, 0.0, 0.0, 0.0575, 0.0602, 0.0, 0.0525, 0.0473, 0.0, 0.317, 0.0, 0.3775, 1.39, 0.0, 1.221, 1.068, 1.0217, 0.957, 0.0, 0.0, 0.0, 0.4165, 0.0, 0.1988, 0.0, 0.0825, 0.0435, 0.0177, 0.0055, 0.0003, 0.0, 0.0, 0.0, 0.0, 0.0, 0.0, 0.0, 0.0, 0.0, 0.0, 0.0, 0.0, 0.0, 0.0, 0.0, 0.0, 0.0, 0.0, 0.0, 0.0, 0.0, 0.0];
buy = [0.0, 1.356028, 1.355528, 1.312528, 0.307528, 1.835828, 0.0, 0.0, 0.259728, 0.0, 0.0, 0.271328, 0.271828, 0.0, 1.271828, 0.0, 1.243028, 0.0, 1.232028, 1.224028, 1.223028, 0.812070533, 0.0, 1.223928, 1.083328, 1.058928, 0.0, 0.0, 0.087728, 0.0, 0.869528, 0.0, 1.088228, 0.0, 0.0, 0.107828, 0.019728, 0.0, 0.0, 0.0, 0.082828, 1.087528, 0.0, 0.0, 0.082028, 0.083828, 0.089528, 1.026828, 1.030328, 1.089528, 1.030328, 1.037028, 0.0, 1.019528, 0.0, 0.0, 0.0, 1.379028, 0.162028, 0.288528, 0.111028, 0.0, 0.0, 0.0, 1.133228, 0.0, 1.128328, 0.0, 0.131728, 0.047728, 0.0, 1.101528, 0.114728, 1.119428, 0.0, 1.076028, 0.0, 0.0, 0.0, 1.075028, 0.0, 1.091528, 1.093328, 1.093828, 1.092028, 0.092528, 1.092528, 0.091528, 0.0, 0.0, 1.315228, 0.0, 0.0, 0.0, 1.272028, 0.273328];
sell = [0.497972, 0.0, 0.0, 0.0, 0.0, 0.0, 0.564972, 0.267959534, 0.0, 0.629972, 0.631472, 0.0, 0.0, 0.626472, 0.0, 0.435172, 0.0, 0.658672, 0.0, 0.0, 0.0, 0.0, 0.677272, 0.0, 0.0, 0.0, 0.809472, 0.897772, 0.0, 0.812772, 0.0, 1.243972, 0.0, 0.814672, 1.693972, 0.0, 0.0, 1.998972, 2.104272, 0.279972, 0.0, 0.0, 1.010972, 0.016272, 0.0, 0.0, 0.0, 0.0, 0.0, 0.0, 0.0, 0.0, 0.813272, 0.0, 0.510172, 0.879172, 1.880172, 0.0, 0.0, 0.0, 0.0, 0.823272, 0.765772, 0.765772, 0.0, 0.287672, 0.0, 0.968772, 0.0, 0.0, 0.8247719999999999, 0.0, 0.0, 0.0, 0.7794720000000001, 0.0, 0.827472, 0.824972, 0.825272, 0.0, 0.825272, 0.0, 0.0, 0.0, 0.0, 0.0, 0.0, 0.0, 0.807472, 0.642272, 0.0, 0.586472, 0.585972, 0.623972, 0.0, 0.0];
charge = [0.0, 1.0, 1.0, 1.0, 0.0, 1.0, 0.0, 0.0, 0.0, 0.0, 0.0, 0.0, 0.0, 0.0, 1.0, 0.0, 1.0, 0.0, 1.0, 1.0, 1.0, 0.588542533, 0.0, 1.0, 1.0, 1.0, 0.0, 0.0, 0.0, 0.0, 1.0, 0.0, 1.0, 0.0, 0.0, 1.0, 1.0, 0.0, 0.0, 1.0, 0.0, 1.0, 0.0, 1.0, 0.0, 0.0, 0.0, 1.0, 1.0, 1.0, 1.0, 1.0, 0.0, 1.0, 0.0, 0.0, 0.0, 1.0, 1.0, 1.0, 1.0, 0.0, 0.0, 0.0, 1.0, 0.0, 1.0, 0.0, 0.0, 0.0, 0.0, 1.0, 0.0, 1.0, 0.0, 1.0, 0.0, 0.0, 0.0, 1.0, 0.0, 1.0, 1.0, 1.0, 1.0, 0.0, 1.0, 0.0, 0.0, 0.0, 1.0, 0.0, 0.0, 0.0, 1.0, 0.0];
discharge = [1.0, 0.0, 0.0, 0.0, 0.0, 0.0, 1.0, 0.592541705, 0.0, 1.0, 1.0, 0.0, 0.0, 1.0, 0.0, 1.0, 0.0, 1.0, 0.0, 0.0, 0.0, 0.0, 1.0, 0.0, 0.0, 0.0, 1.0, 1.0, 0.0, 1.0, 0.0, 1.0, 0.0, 1.0, 1.0, 0.0, 0.0, 1.0, 1.0, 0.0, 0.0, 0.0, 0.0, 0.0, 0.0, 0.0, 0.0, 0.0, 0.0, 0.0, 0.0, 0.0, 1.0, 0.0, 1.0, 1.0, 1.0, 0.0, 0.0, 0.0, 0.0, 0.0, 1.0, 1.0, 0.0, 0.0, 0.0, 1.0, 0.0, 0.0, 1.0, 0.0, 0.0, 0.0, 1.0, 0.0, 1.0, 1.0, 1.0, 0.0, 1.0, 0.0, 0.0, 0.0, 0.0, 0.0, 0.0, 0.0, 1.0, 1.0, 0.0, 1.0, 1.0, 1.0, 0.0, 0.0];
soc = [3.859028, 4.758256194, 5.657304543, 6.556173082, 6.554861848, 7.453550875, 6.452060165, 5.858228048, 5.857056403, 4.855884991, 3.854913814, 3.854142832, 3.853372003, 2.852601329, 3.752030808, 2.751280402, 3.650730146, 2.65, 3.54947, 4.448760106, 5.347870354, 5.87648906, 4.875313762, 5.774338699, 6.673183831, 7.571849195, 6.570334825, 5.569020758, 5.567906954, 4.566793372, 5.465880014, 4.464786838, 5.36389388, 4.362821101, 3.361948537, 4.261276147, 5.160423892, 4.159391807, 3.158559929, 4.057928217, 4.057116631, 4.956305208, 4.955313947, 5.854322884, 5.85315202, 5.851981389, 5.850810993, 6.749640831, 7.648290903, 8.546761245000001, 9.445051892, 10.343162882, 9.341094248999999, 10.23922603, 9.237178184999999, 8.235330749999999, 7.233683683, 8.132236947000001, 9.030610499, 9.928804377000001, 10.826818616, 10.824653253, 9.822488322, 8.820523824, 9.71875972, 9.716815968000001, 10.614872604, 9.61274963, 9.61082708, 9.608904915, 8.606983134, 9.505261737, 9.503360685000001, 10.401460012, 9.399379720000001, 10.297499845, 9.295440344999999, 8.293581257, 7.29192254, 8.190464156000001, 7.188826063, 8.087388298, 8.985770820000001, 9.883973665999999, 10.781996871, 10.779840472, 11.677684504, 11.675348967, 10.673013897, 9.670879294000001, 10.568945118, 9.566831328999999, 8.564917962999999, 7.563204979, 8.461692338000001, 8.460000000000001];
cost = [0.0, 0.946575671, 0.946270221, 0.920001521, 0.187868855, 1.239685491, 0.0, 0.0, 0.158667835, 0.0, 0.0, 0.165754275, 0.166059725, 0.0, 0.895137891, 0.0, 0.877543971, 0.0, 0.870824071, 0.8659368710000001, 0.865325971, 0.565646765, 0.0, 0.865875781, 1.406905154, 1.377878914, 0.0, 0.0, 0.104361229, 0.0, 1.152568674, 0.0, 1.412734194, 0.0, 0.0, 0.246450354, 0.141646594, 0.0, 0.0, 0.118178165, 0.09853218900000001, 1.411901474, 0.0, 0.118178165, 0.097580509, 0.09972178900000001, 0.106502509, 1.339692754, 1.343856354, 1.414280674, 1.343856354, 1.351826674, 0.0, 0.741007821, 0.0, 0.0, 0.0, 0.960626371, 0.217161071, 0.294439921, 0.250257074, 0.0, 0.0, 0.0, 1.466266194, 0.0, 1.460437154, 0.0, 0.156703629, 0.056777229, 0.0, 1.428555874, 0.136480429, 1.449849714, 0.0, 1.398221074, 0.0, 0.0, 0.0, 1.397031474, 0.0, 1.416659874, 1.418801154, 1.419395954, 1.417254674, 0.110071309, 1.417849474, 0.108881709, 0.0, 0.0, 0.9216509510000001, 0.0, 0.0, 0.0, 0.895260071, 0.166976075];
earn = [0.273038048, 0.0, 0.0, 0.0, 0.0, 0.0, 0.294293915, 0.139660509, 0.0, 0.329097373, 0.329817826, 0.0, 0.0, 0.32933633, 0.0, 0.229770816, 0.0, 0.351072176, 0.0, 0.0, 0.0, 0.0, 0.40974956, 0.0, 0.0, 0.0, 0.618598502, 0.690925331, 0.0, 0.618519492, 0.0, 0.813184496, 0.0, 0.453527902, 0.853423094, 0.0, 0.0, 0.645468059, 0.544375166, 0.034940506, 0.0, 0.0, -0.10615206, -0.00177853, 0.0, 0.0, 0.0, 0.0, 0.0, 0.0, 0.0, 0.0, -0.018135966, 0.0, -0.004438496, -0.000439586, 0.012221118, 0.0, 0.0, 0.0, 0.0, 0.324863131, 0.379210294, 0.431665676, 0.0, 0.170330591, 0.0, 0.70061591, 0.0, 0.0, 0.71491237, 0.0, 0.0, 0.0, 0.793502496, 0.0, 0.829954416, 0.796922952, 0.771134157, 0.0, 0.6917429899999999, 0.0, 0.0, 0.0, 0.0, 0.0, 0.0, 0.0, 0.55973959, 0.430065331, 0.0, 0.374521019, 0.371271859, 0.381184495, 0.0, 0.0];
total_cost = 45.930443911;
total_earn = 16.561712861;
