production = [0.0, 0.0, 0.0, 0.0, 0.0, 0.0, 0.0, 0.0, 0.0, 0.0, 0.0, 0.0, 0.0, 0.0, 0.0, 0.0, 0.0, 0.0, 0.0, 0.0, 0.0, 0.0, 0.0, 0.0003, 0.0, 0.0283, 0.0, 0.0843, 0.11, 0.0, 0.218, 0.4283, 0.631, 0.0, 0.881, 0.9785, 0.0, 0.0, 1.2873, 0.0, 0.0, 1.1013, 0.0, 1.1045, 1.1018, 1.102, 0.4933, 0.0575, 0.0, 0.0, 0.0, 0.0, 0.0638, 0.0, 0.3438, 0.0, 0.0, 0.0, 1.221, 0.0, 0.0, 0.0, 0.0, 0.0, 0.0, 0.4165, 0.3402, 0.1988, 0.132, 0.0825, 0.0, 0.0177, 0.0055, 0.0, 0.0, 0.0, 0.0, 0.0, 0.0, 0.0, 0.0, 0.0, 0.0, 0.0, 0.0, 0.0, 0.0, 0.0, 0.0, 0.0, 0.0, 0.0, 0.0, 0.0, 0.0, 0.0];
buy = [0.0, 0.0, 1.355528, 0.0, 1.307528, 1.835828, 1.335028, 0.046311233, 1.259728, 0.270028, 1.268528, 0.0, 1.271828, 0.273528, 1.271828, 1.464828, 1.243028, 1.241328, 0.232028, 1.224028, 1.223028, 0.0, 0.0, 1.223928, 1.083328, 1.058928, 1.090528, 1.002228, 0.977728, 0.0, 0.0, 0.0, 0.457228, 0.0, 0.206028, 0.107828, 0.0, 1.085028, 0.0, 0.085510222, 0.082828, 0.0, 0.083028, 0.0, 0.0, 0.0, 0.0, 0.0, 1.090528, 0.0, 1.082828, 0.084328, 0.0, 1.336528, 0.046028, 1.398328, 0.0, 0.0, 0.0, 0.356528, 1.132728, 1.133728, 1.134228, 0.134228, 0.133228, 0.0, 0.7881280000000001, 0.0, 0.999728, 1.047728, 0.118728, 0.0, 1.082180471, 0.119728, 0.0, 0.0, 1.072528, 0.075028, 0.0, 0.075028, 0.0, 0.091528, 1.093328, 0.0, 0.0, 1.092528, 0.092528, 1.091528, 0.0, 0.257728, 1.315228, 1.313528, 0.314028, 0.276028, 1.272028, 1.273328];
sell = [0.497972, 0.543972, 0.0, 0.587472, 0.0, 0.0, 0.0, 0.0, 0.0, 0.0, 0.0, 0.628672, 0.0, 0.0, 0.0, 0.0, 0.0, 0.0, 0.0, 0.0, 0.0, 0.676472, 0.677272, 0.0, 0.0, 0.0, 0.0, 0.0, 0.0, 0.337045071, 1.030472, 1.243972, 0.0, 0.814672, 0.0, 0.0, 0.812772, 0.0, 0.204272, 0.0, 0.0, 1.913772, 0.0, 1.016272, 0.019772, 1.918172, 1.303772, 0.8731719999999999, 0.0, 0.810472, 0.0, 0.0, 0.877072, 0.0, 0.0, 0.0, 0.490172, 0.520972, 1.737972, 0.0, 0.0, 0.0, 0.0, 0.0, 0.0, 0.287672, 0.0, 0.805339459, 0.0, 0.0, 0.0, 0.798472, 0.0, 0.0, 0.7794720000000001, 0.823972, 0.0, 0.0, 0.825272, 0.0, 0.825272, 0.0, 0.0, 0.806172, 0.807972, 0.0, 0.0, 0.0, 0.807472, 0.0, 0.0, 0.0, 0.0, 0.0, 0.0, 0.0];
charge = [0.0, 0.0, 1.0, 0.0, 1.0, 1.0, 1.0, 0.0, 1.0, 0.0, 1.0, 0.0, 1.0, 0.0, 1.0, 1.0, 1.0, 1.0, 0.0, 1.0, 1.0, 0.0, 0.0, 1.0, 1.0, 1.0, 1.0, 1.0, 1.0, 0.0, 0.0, 0.0, 1.0, 0.0, 1.0, 1.0, 0.0, 1.0, 1.0, 0.003482222, 0.0, 0.0, 0.0, 0.0, 1.0, 0.0, 0.0, 0.0, 1.0, 0.0, 1.0, 0.0, 0.0, 1.0, 0.0, 1.0, 0.0, 0.0, 0.0, 0.0, 1.0, 1.0, 1.0, 0.0, 0.0, 0.0, 1.0, 0.0, 1.0, 1.0, 0.0, 0.0, 0.967452471, 0.0, 0.0, 0.0, 1.0, 0.0, 0.0, 0.0, 0.0, 0.0, 1.0, 0.0, 0.0, 1.0, 0.0, 1.0, 0.0, 0.0, 1.0, 1.0, 0.0, 0.0, 1.0, 1.0];
discharge = [1.0, 1.0, 0.0, 1.0, 0.0, 0.0, 0.0, 0.243351963, 0.0, 0.0, 0.0, 1.0, 0.0, 0.0, 0.0, 0.0, 0.0, 0.0, 0.0, 0.0, 0.0, 1.0, 1.0, 0.0, 0.0, 0.0, 0.0, 0.0, 0.0, 0.471414523, 1.0, 1.0, 0.0, 1.0, 0.0, 0.0, 1.0, 0.0, 0.0, 0.0, 0.0, 1.0, 0.0, 0.0, 0.0, 1.0, 1.0, 1.0, 0.0, 1.0, 0.0, 0.0, 1.0, 0.0, 0.0, 0.0, 1.0, 1.0, 1.0, 0.0, 0.0, 0.0, 0.0, 0.0, 0.0, 0.0, 0.0, 0.818408288, 0.0, 0.0, 0.0, 1.0, 0.0, 0.0, 1.0, 1.0, 0.0, 0.0, 1.0, 0.0, 1.0, 0.0, 0.0, 1.0, 1.0, 0.0, 0.0, 0.0, 1.0, 0.0, 0.0, 0.0, 0.0, 0.0, 0.0, 0.0];
soc = [3.859028, 2.858256194, 3.757684543, 2.756933006, 3.65638162, 4.555650343, 5.454739213, 5.210296302, 6.109254243, 6.108032392, 7.006810786, 6.005409423, 6.904208342, 6.9028275, 7.801446934, 8.699886644999999, 9.598146668, 10.496227038, 10.494127793, 11.392028967, 12.289750562, 11.287292611, 10.285035153, 11.182978146, 12.08074155, 12.978325402, 13.875729737, 14.772954591, 15.67, 15.195451477, 14.192412386, 13.189573904, 14.086935989, 13.084118602, 13.981501778, 14.878705478, 13.875729737, 14.772954591, 15.67, 15.67, 15.666866, 14.663732627, 14.66079988, 14.65786772, 15.554936147, 14.55182516, 13.548914794, 12.546205012, 13.443695771, 12.441007031, 13.33851883, 13.335851126, 12.333183956, 13.230717319, 13.228071176, 14.125425561, 13.122600476, 12.119975956, 11.117551961, 11.115328451, 12.013105385, 12.910702764, 13.808120623, 13.805358999, 13.802597927, 13.799837408, 14.69707744, 13.875729737, 14.772954591, 15.67, 15.666866, 14.663732627, 15.531507104, 15.528400802, 14.525295122, 13.522390063, 14.419685585, 14.416801648, 13.413918288, 13.411235504, 12.408553257, 12.406071546, 13.303590332, 12.300929614, 11.298469428, 12.196209734, 12.193770492, 13.091331738, 12.088713472, 12.086295729, 12.98387847, 13.881281694, 13.878505438, 13.875729737, 14.772954591, 15.67];
cost = [0.0, 0.0, 0.946270221, 0.0, 0.916947021, 1.239685491, 0.933746771, 0.028291532, 0.887746001, 0.164960105, 0.893121921, 0.0, 0.895137891, 0.167098255, 0.895137891, 1.013041591, 0.877543971, 0.8765054410000001, 0.141745905, 0.8659368710000001, 0.865325971, 0.0, 0.0, 0.865875781, 1.406905154, 1.377878914, 1.415470274, 1.310428594, 1.281283394, 0.0, 0.0, 0.0, 0.662096594, 0.0, 0.363269074, 0.246450354, 0.0, 1.408927474, 0.118178165, 0.102134483, 0.09853218900000001, 0.0, 0.09877010899999999, 0.0, 0.118178165, 0.0, 0.0, 0.0, 1.415470274, 0.0, 1.406310354, 0.100316589, 0.0, 0.934663121, 0.028118505, 0.972416741, 0.0, 0.0, 0.0, 0.217802955, 1.465671394, 1.466860994, 1.467455794, 0.159677629, 0.158488029, 0.0, 1.055735234, 0.0, 1.307454594, 1.364555394, 0.141238829, 0.0, 1.401693646, 0.142428429, 0.0, 0.0, 1.394057474, 0.089253309, 0.0, 0.089253309, 0.0, 0.108881709, 1.418801154, 0.0, 0.0, 1.417849474, 0.110071309, 1.416659874, 0.0, 0.157446035, 0.9216509510000001, 0.920612421, 0.191839705, 0.168625505, 0.895260071, 0.896054241];
earn = [0.273038048, 0.289828282, 0.0, 0.312065126, 0.0, 0.0, 0.0, 0.0, 0.0, 0.0, 0.0, 0.328229651, 0.0, 0.0, 0.0, 0.0, 0.0, 0.0, 0.0, 0.0, 0.0, 0.392286113, 0.40974956, 0.0, 0.0, 0.0, 0.0, 0.0, 0.0, 0.256491299, 0.748019625, 0.813184496, 0.0, 0.453527902, 0.0, 0.0, 0.333480352, 0.0, 0.052845166, 0.0, 0.0, -0.032342747, 0.0, -0.11107853, -0.0005101180000000001, -0.079028686, -0.062450679, -0.043745917, 0.0, -0.043441299, 0.0, 0.0, -0.019558706, 0.0, 0.0, 0.0, 0.003186118, 0.007606191, 0.035107034, 0.0, 0.0, 0.0, 0.0, 0.0, 0.0, 0.170330591, 0.0, 0.582421497, 0.0, 0.0, 0.0, 0.741700641, 0.0, 0.0, 0.793502496, 0.84045144, 0.0, 0.0, 0.771134157, 0.0, 0.6917429899999999, 0.0, 0.0, 0.626556878, 0.60048479, 0.0, 0.0, 0.0, 0.55973959, 0.0, 0.0, 0.0, 0.0, 0.0, 0.0, 0.0];
total_cost = 48.885296611;
total_earn = 10.694553354;
