production = [0.0, 0.0, 0.0, 0.0, 0.0, 0.0, 0.0, 0.0, 0.0, 0.0, 0.0, 0.0, 0.0, 0.0, 0.0, 0.0, 0.0, 0.0, 0.0, 0.0, 0.0, 0.0, 0.0, 0.0003, 0.0045, 0.0, 0.0452, 0.0, 0.0, 0.145, 0.218, 0.0, 0.631, 0.7712, 0.0, 0.9785, 0.0, 1.184, 0.0, 1.362, 1.4492, 0.0, 0.0, 1.1045, 0.0, 1.102, 0.089528, 0.0575, 0.0, 0.0, 0.0, 0.0473, 0.0, 0.0, 0.3438, 0.0, 1.39, 1.3277, 0.0, 1.068, 1.0217, 0.957, 0.7562, 0.712, 0.0, 0.128828, 0.3402, 0.0, 0.132, 0.0, 0.0, 0.0177, 0.0, 0.0003, 0.0, 0.0, 0.0, 0.0, 0.0, 0.0, 0.0, 0.0, 0.0, 0.0, 0.0, 0.0, 0.0, 0.0, 0.0, 0.0, 0.0, 0.0, 0.0, 0.0, 0.0, 0.0];
buy = [0.402028, 1.356028, 0.0, 0.312528, 1.307528, 0.835828, 1.335028, 0.0, 0.259728, 1.270028, 0.0, 1.271328, 0.271828, 0.0, 1.271828, 0.464828, 0.0, 0.0, 0.232028, 0.402084705, 0.223028, 0.223528, 1.222728, 0.0, 0.078828, 1.087228, 1.045328, 0.0, 0.087728, 0.0, 0.869528, 0.084328, 0.457228, 0.314128, 1.087028, 0.0, 1.087228, 0.0, 1.083028, 0.0, 0.0, 1.087528, 0.0, 0.0, 0.082028, 0.0, 0.0, 0.026828, 1.090528, 0.089528, 0.0, 1.037028, 0.086728, 0.0, 1.046028, 0.398328, 0.0, 0.0, 1.383028, 0.0, 0.0, 0.0, 0.0, 0.0, 1.133228, 0.0, 0.0, 1.130028, 0.0, 0.130228, 0.118728, 0.0, 0.120228, 1.119428, 0.0, 0.076028, 0.072528, 1.075028, 1.074728, 0.0, 0.074728, 1.091528, 1.093328, 1.093828, 1.092028, 1.092528, 0.092528, 0.091528, 1.092528, 0.0, 0.0, 1.313528, 1.314028, 1.276028, 1.272028, 0.0];
sell = [0.0, 0.0, 0.544472, 0.0, 0.0, 0.0, 0.0, 0.634672, 0.0, 0.0, 0.631472, 0.0, 0.0, 0.626472, 0.0, 0.0, 0.656972, 0.658672, 0.0, 0.0, 0.0, 0.0, 0.0, 0.676072, 0.0, 0.0, 0.0, 0.813472, 0.0, 0.057772, 0.0, 0.0, 0.0, 0.0, 0.0, 1.792172, 0.0, 0.098972, 0.0, 0.279972, 0.366372, 0.0, 0.816972, 0.016272, 0.0, 1.918172, 0.0, 0.0, 0.0, 0.0, 0.817172, 0.0, 0.0, 0.563472, 0.0, 0.0, 1.880172, 1.848672, 0.0, 1.611472, 1.788972, 1.723272, 0.621972, 1.477772, 0.0, 0.0, 0.211872, 0.0, 0.900272, 0.0, 0.0, 0.798472, 0.0, 0.0, 0.7794720000000001, 0.0, 0.0, 0.0, 0.0, 0.824972, 0.0, 0.0, 0.0, 0.0, 0.0, 0.0, 0.0, 0.0, 0.0, 0.0, 0.584772, 0.0, 0.0, 0.0, 0.0, 0.626672];
charge = [0.0, 1.0, 0.0, 0.0, 1.0, 0.0, 1.0, 0.0, 0.0, 1.0, 0.0, 1.0, 0.0, 0.0, 1.0, 0.0, 0.0, 0.0, 0.0, 0.178056705, 0.0, 0.0, 1.0, 0.0, 0.0, 1.0, 1.0, 0.0, 0.0, 0.0, 1.0, 0.0, 1.0, 1.0, 1.0, 0.0, 1.0, 1.0, 1.0, 1.0, 1.0, 1.0, 0.0, 1.0, 0.0, 0.0, 0.0, 0.0, 1.0, 0.0, 0.0, 1.0, 0.0, 0.0, 1.0, 0.0, 0.0, 0.0, 1.0, 0.0, 0.0, 0.0, 0.0, 0.0, 1.0, 0.0, 0.0, 1.0, 0.0, 0.0, 0.0, 0.0, 0.0, 1.0, 0.0, 0.0, 0.0, 1.0, 1.0, 0.0, 0.0, 1.0, 1.0, 1.0, 1.0, 1.0, 0.0, 0.0, 1.0, 0.0, 0.0, 1.0, 1.0, 1.0, 1.0, 0.0];
discharge = [0.0, 0.0, 1.0, 0.0, 0.0, 0.0, 0.0, 1.0, 0.0, 0.0, 1.0, 0.0, 0.0, 1.0, 0.0, 0.0, 1.0, 1.0, 0.0, 0.0, 0.0, 0.0, 0.0, 1.0, 0.0, 0.0, 0.0, 1.0, 0.0, 0.0, 0.0, 0.0, 0.0, 0.0, 0.0, 1.0, 0.0, 0.0, 0.0, 0.0, 0.0, 0.0, 1.0, 0.0, 0.0, 1.0, 0.0, 0.0, 0.0, 0.0, 1.0, 0.0, 0.0, 1.0, 0.0, 0.0, 1.0, 1.0, 0.0, 1.0, 1.0, 1.0, 0.0, 1.0, 0.0, 0.0, 0.0, 0.0, 1.0, 0.0, 0.0, 1.0, 0.0, 0.0, 1.0, 0.0, 0.0, 0.0, 0.0, 1.0, 0.0, 0.0, 0.0, 0.0, 0.0, 0.0, 0.0, 0.0, 0.0, 0.286364444, 1.0, 0.0, 0.0, 0.0, 0.0, 1.0];
soc = [4.859028, 5.758056194, 4.756904583, 4.755953202, 5.655002012, 5.653871011, 6.552740237, 5.551429689, 5.550319403, 6.449209339, 5.447919497, 6.346829913, 6.345560547, 5.344291435, 6.243222577, 6.241973932, 5.240725538, 4.239677393, 4.238829457, 4.398232725, 4.397353079, 4.396473608, 5.295594314, 4.294535195, 4.293676288, 5.192817552, 6.091778989, 5.090560633, 5.089542521, 5.088524612, 5.987506908, 5.986309406, 6.885112144, 7.783735122, 8.682178374999999, 7.680441939, 8.578905851, 9.477190070000001, 10.375294632, 11.273219573, 12.170964929, 13.068530736, 12.06591703, 12.963503846, 12.960911145, 11.958318963, 11.955927299, 11.953536114, 12.851145407, 12.848575178, 11.846005463, 12.743636262, 12.741087534, 11.738539317, 12.636191609, 12.633664371, 11.631137638, 10.62881141, 11.526685648, 10.524380311, 9.522275434999999, 8.520370979999999, 8.518666905, 7.516963172, 8.415459779000001, 8.413776687, 8.412093931999999, 9.310411513, 8.308549430999999, 8.306887721000001, 8.305226343999999, 7.303565298, 7.302104585, 8.200644164, 7.199004036, 7.197564235, 7.196124722, 8.094685497, 8.993066560000001, 7.991267947, 7.989669693, 8.888071759000001, 9.786294144999999, 10.684336886, 11.582200018, 12.479883578, 12.477387602, 12.474892124, 13.372397146, 13.083358222, 12.08074155, 12.978325402, 13.875729737, 14.772954591, 15.67, 14.666866];
cost = [0.245598905, 0.946575671, 0.0, 0.190923355, 0.916947021, 0.5106073249999999, 0.933746771, 0.0, 0.158667835, 0.894038271, 0.0, 0.894832441, 0.166059725, 0.0, 0.895137891, 0.283963425, 0.0, 0.0, 0.141745905, 0.266675961, 0.136247805, 0.136553255, 0.865142701, 0.0, 0.093773789, 1.411544594, 1.361700354, 0.0, 0.104361229, 0.0, 1.152568674, 0.100316589, 0.662096594, 0.491864834, 1.411306674, 0.0, 1.411544594, 0.118178165, 1.406548274, 0.118178165, 0.118178165, 1.411901474, 0.0, 0.118178165, 0.097580509, 0.0, 0.0, 0.031914589, 1.415470274, 0.106502509, 0.0, 1.351826674, 0.052982135, 0.0, 0.757196671, 0.243338575, 0.0, 0.0, 0.963069971, 0.0, 0.0, 0.0, 0.0, 0.0, 1.466266194, 0.0, 0.0, 1.462459474, 0.0, 0.154919229, 0.141238829, 0.0, 0.143023229, 1.449849714, 0.0, 0.090442909, 0.086279309, 1.397031474, 1.396674594, 0.0, 0.088896429, 1.416659874, 1.418801154, 1.419395954, 1.417254674, 1.417849474, 0.110071309, 0.108881709, 0.785603521, 0.0, 0.0, 0.920612421, 0.920917871, 0.897703671, 0.895260071, 0.0];
earn = [0.0, 0.0, 0.290203576, 0.0, 0.0, 0.0, 0.0, 0.330791046, 0.0, 0.0, 0.329817826, 0.0, 0.0, 0.32933633, 0.0, 0.0, 0.347866674, 0.351072176, 0.0, 0.0, 0.0, 0.0, 0.0, 0.431063507, 0.0, 0.0, 0.0, 0.626048051, 0.0, 0.043964492, 0.0, 0.0, 0.0, 0.0, 0.0, 0.829954853, 0.0, 0.031958059, 0.0, 0.034940506, -0.001612037, 0.0, -0.08578205999999999, -0.00177853, 0.0, -0.079028686, 0.0, 0.0, 0.0, 0.0, -0.035792134, 0.0, 0.0, -0.008001302, 0.0, 0.0, 0.012221118, 0.026990611, 0.0, 0.076061478, 0.565494049, 0.680003131, 0.308000534, 0.8330200760000001, 0.0, 0.0, 0.143289034, 0.0, 0.644234643, 0.0, 0.0, 0.741700641, 0.0, 0.0, 0.793502496, 0.0, 0.0, 0.0, 0.0, 0.726800332, 0.0, 0.0, 0.0, 0.0, 0.0, 0.0, 0.0, 0.0, 0.0, 0.0, 0.38115439, 0.0, 0.0, 0.0, 0.0, 0.36973648];
total_cost = 44.70167959;
total_earn = 10.067231362;
