production = [0.0, 0.0, 0.0, 0.0, 0.0, 0.0, 0.0, 0.0, 0.0, 0.0, 0.0, 0.0, 0.0, 0.0, 0.0, 0.0, 0.0, 0.0, 0.0, 0.0, 0.0, 0.0, 0.0, 0.0, 0.0045, 0.0283, 0.0452, 0.0, 0.0, 0.145, 0.0, 0.0, 0.631, 0.7712, 0.0, 0.0, 0.0, 1.184, 1.2873, 1.362, 0.082828, 0.0, 0.083028, 1.088228, 0.0, 1.102, 0.0, 0.0575, 0.0, 0.0, 0.0, 0.0, 0.0638, 0.0, 0.3438, 0.3775, 0.0, 1.3277, 0.0, 0.0, 1.0217, 0.957, 0.7562, 0.712, 0.0, 0.0, 0.3402, 0.0, 0.132, 0.0825, 0.0, 0.0177, 0.0055, 0.0003, 0.0, 0.0, 0.0, 0.0, 0.0, 0.0, 0.0, 0.0, 0.0, 0.0, 0.0, 0.0, 0.0, 0.0, 0.0, 0.0, 0.0, 0.0, 0.0, 0.0, 0.0, 0.0];
buy = [0.402028, 0.0, 0.0, 1.312528, 0.0, 1.835828, 1.335028, 0.265328, 1.259728, 1.270028, 1.268528, 0.271328, 1.271828, 1.273528, 0.0, 0.0, 0.0, 0.0, 1.232028, 0.224028, 0.0, 0.0, 1.222728, 0.224228, 0.0, 0.0, 1.045328, 1.086528, 0.087728, 0.0, 1.087528, 1.084328, 0.457228, 0.314128, 1.087028, 1.086328, 0.0, 0.0, 0.0, 0.0, 0.0, 1.087528, 0.0, 0.0, 0.082028, 0.0, 0.089528, 0.026828, 0.0, 0.0, 0.236483892, 0.0, 0.0, 0.0, 0.0, 1.020828, 0.0, 0.0, 1.383028, 0.0, 0.0, 0.176728, 0.0, 0.0, 1.133228, 1.128828, 0.7881280000000001, 0.0, 0.0, 1.047728, 0.118728, 1.101528, 1.114728, 0.119428, 1.120528, 0.076028, 1.072528, 1.075028, 1.074728, 1.075028, 1.074728, 0.0, 1.093328, 1.093828, 0.092028, 1.092528, 1.092528, 0.0, 0.0, 1.257728, 0.0, 0.0, 0.0, 0.0, 0.272028, 1.273328];
sell = [0.0, 0.543972, 0.544472, 0.0, 0.592472, 0.0, 0.0, 0.0, 0.0, 0.0, 0.0, 0.0, 0.0, 0.0, 0.628172, 0.435172, 0.656972, 0.658672, 0.0, 0.0, 0.676972, 0.676472, 0.0, 0.0, 0.821172, 0.841072, 0.0, 0.0, 0.0, 0.957772, 0.0, 0.0, 0.0, 0.0, 0.0, 0.0, 0.812772, 0.098972, 0.204272, 1.279972, 0.0, 0.0, 0.0, 0.0, 0.0, 0.018172, 0.0, 0.0, 0.809472, 0.810472, 0.0, 0.815672, 0.877072, 0.563472, 0.853972, 0.0, 0.490172, 1.848672, 0.0, 0.543472, 1.788972, 0.0, 1.521972, 1.477772, 0.0, 0.0, 0.0, 0.769972, 0.0, 0.0, 0.0, 0.0, 0.0, 0.0, 0.0, 0.0, 0.0, 0.0, 0.0, 0.0, 0.0, 0.808472, 0.0, 0.0, 0.0, 0.0, 0.0, 0.808472, 0.807472, 0.0, 0.584772, 0.586472, 0.585972, 0.623972, 0.0, 0.0];
charge = [0.0, 0.0, 0.0, 1.0, 0.0, 1.0, 1.0, 0.0, 1.0, 1.0, 1.0, 0.0, 1.0, 1.0, 0.0, 0.0, 0.0, 0.0, 1.0, 0.0, 0.0, 0.0, 1.0, 0.0, 0.0, 0.0, 1.0, 1.0, 0.0, 0.0, 1.0, 1.0, 1.0, 1.0, 1.0, 1.0, 0.0, 1.0, 1.0, 0.0, 0.0, 1.0, 0.0, 1.0, 0.0, 1.0, 0.0, 0.0, 0.0, 0.0, 0.153655892, 0.0, 0.0, 0.0, 0.0, 1.0, 0.0, 0.0, 1.0, 0.0, 0.0, 1.0, 0.0, 0.0, 1.0, 1.0, 1.0, 0.0, 0.000272, 1.0, 0.0, 1.0, 1.0, 0.0, 1.0, 0.0, 1.0, 1.0, 1.0, 1.0, 1.0, 0.0, 1.0, 1.0, 0.0, 1.0, 1.0, 0.0, 0.0, 1.0, 0.0, 0.0, 0.0, 0.0, 0.0, 1.0];
discharge = [0.0, 1.0, 1.0, 0.0, 1.0, 0.0, 0.0, 0.0, 0.0, 0.0, 0.0, 0.0, 0.0, 0.0, 1.0, 1.0, 1.0, 1.0, 0.0, 0.0, 1.0, 1.0, 0.0, 0.0, 1.0, 1.0, 0.0, 0.0, 0.0, 1.0, 0.0, 0.0, 0.0, 0.0, 0.0, 0.0, 1.0, 0.0, 0.0, 0.0, 0.0, 0.0, 0.0, 0.0, 0.0, 0.0, 0.0, 0.0, 1.0, 1.0, 0.0, 1.0, 1.0, 1.0, 1.0, 0.0, 1.0, 1.0, 0.0, 1.0, 1.0, 0.0, 1.0, 1.0, 0.0, 0.0, 0.0, 1.0, 0.0, 0.0, 0.0, 0.0, 0.0, 0.0, 0.0, 0.0, 0.0, 0.0, 0.0, 0.0, 0.0, 1.0, 0.0, 0.0, 0.0, 0.0, 0.0, 1.0, 1.0, 0.0, 1.0, 1.0, 1.0, 1.0, 0.0, 0.0];
soc = [4.859028, 3.858056194, 2.857284583, 3.756713126, 2.755961784, 3.655410591, 4.554679509, 4.553768573, 5.45285782, 6.351767248, 7.250496895, 7.249046795, 8.147596986, 9.045967466, 8.044158273000001, 7.042549441, 6.041140931, 5.039932703, 5.938924717, 5.937736932, 4.936549384, 3.935562074, 4.834774962, 4.833808007, 3.832841245, 2.832074677, 3.731508262, 4.630761961, 4.629835808, 3.628909841, 4.528184059, 5.427278422, 6.326192967, 7.224927728, 8.123482742, 9.021858046, 8.020053674, 8.918449664000001, 9.816665973999999, 9.81470264, 9.8127397, 10.710777152, 10.708634996, 11.606493269, 11.604171971, 12.501851136, 12.499350766, 12.496850896, 11.494351526, 10.492052656, 10.628244548, 9.626118899, 8.624193675000001, 7.622468836, 6.620944342, 7.519620154, 6.518116229, 5.516812606, 6.415709244, 5.414426102, 4.413343217, 5.312460548, 4.311398056, 3.310535776, 4.209873669, 5.109031694, 6.008009888, 5.006808286, 5.006051724, 5.905050514, 5.903869504, 6.80268873, 7.701328192, 7.699787927, 8.598247969000001, 8.596528319999999, 9.494809013999999, 10.392910052, 11.29083147, 12.188573304, 13.086135589, 12.083518362, 12.981101658, 13.878505438, 13.875729737, 14.772954591, 15.67, 14.666866, 13.663932627, 14.56119984, 13.5582876, 12.555575943, 11.553064828, 10.550754215, 10.548644064, 11.446534335];
cost = [0.245598905, 0.0, 0.0, 0.920001521, 0.0, 1.239685491, 0.933746771, 0.162088875, 0.887746001, 0.894038271, 0.893121921, 0.165754275, 0.895137891, 0.8961764209999999, 0.0, 0.0, 0.0, 0.0, 0.870824071, 0.136858705, 0.0, 0.0, 0.865142701, 0.136980885, 0.0, 0.0, 1.361700354, 1.410711874, 0.104361229, 0.0, 1.411901474, 1.408094754, 0.662096594, 0.491864834, 1.411306674, 1.410473954, 0.0, 0.118178165, 0.118178165, 0.0, 0.0, 1.411901474, 0.0, 0.118178165, 0.097580509, 0.118178165, 0.106502509, 0.031914589, 0.0, 0.0, 0.299480009, 0.0, 0.0, 0.0, 0.0, 0.741801991, 0.0, 0.0, 0.963069971, 0.0, 0.0, 0.328413794, 0.0, 0.0, 1.466266194, 1.461031954, 1.055735234, 0.0, 3.2144e-05, 1.364555394, 0.141238829, 1.428555874, 1.444258594, 0.142071549, 1.451158274, 0.090442909, 1.394057474, 1.397031474, 1.396674594, 1.397031474, 1.396674594, 0.0, 1.418801154, 1.419395954, 0.109476509, 1.417849474, 1.417849474, 0.0, 0.0, 0.886524201, 0.0, 0.0, 0.0, 0.0, 0.166181905, 0.896054241];
earn = [0.0, 0.289828282, 0.290203576, 0.0, 0.314543385, 0.0, 0.0, 0.0, 0.0, 0.0, 0.0, 0.0, 0.0, 0.0, 0.331486364, 0.229770816, 0.347866674, 0.351072176, 0.0, 0.0, 0.389123506, 0.392286113, 0.0, 0.0, 0.585413519, 0.631897394, 0.0, 0.0, 0.0, 0.728864492, 0.0, 0.0, 0.0, 0.0, 0.0, 0.0, 0.333480352, 0.031958059, 0.052845166, 0.159740506, 0.0, 0.0, 0.0, 0.0, 0.0, -0.000748686, 0.0, 0.0, -0.037154765, -0.043441299, 0.0, -0.014437394, -0.019558706, -0.008001302, -0.007429556, 0.0, 0.003186118, 0.026990611, 0.0, 0.025651878, 0.565494049, 0.0, 0.753680534, 0.8330200760000001, 0.0, 0.0, 0.0, 0.55684375, 0.0, 0.0, 0.0, 0.0, 0.0, 0.0, 0.0, 0.0, 0.0, 0.0, 0.0, 0.0, 0.0, 0.6551857089999999, 0.0, 0.0, 0.0, 0.0, 0.0, 0.5456377529999999, 0.55973959, 0.0, 0.38115439, 0.374521019, 0.371271859, 0.381184495, 0.0, 0.0];
total_cost = 49.027741424;
total_earn = 11.363170502;
