production = [0.0, 0.0, 0.0, 0.0, 0.0, 0.0, 0.0, 0.0, 0.0, 0.0, 0.0, 0.0, 0.0, 0.0, 0.0, 0.0, 0.0, 0.0, 0.0, 0.0, 0.0, 0.0, 0.0, 0.0, 0.0045, 0.0, 0.0, 0.0, 0.0, 0.0, 0.0, 0.4283, 0.0, 0.7712, 0.0, 0.0, 1.0675, 0.0, 0.0, 1.362, 0.0, 0.0, 0.0, 0.0, 1.1018, 0.0, 0.0, 0.0575, 0.0, 0.0592, 0.0525, 0.0, 0.0638, 0.0, 0.0, 0.3775, 0.0, 1.3277, 1.221, 1.068, 1.0217, 0.957, 0.0, 0.0, 0.5952, 0.4165, 0.0, 0.0, 0.0, 0.0, 0.0435, 0.0, 0.0055, 0.0003, 0.0, 0.0, 0.0, 0.0, 0.0, 0.0, 0.0, 0.0, 0.0, 0.0, 0.0, 0.0, 0.0, 0.0, 0.0, 0.0, 0.0, 0.0, 0.0, 0.0, 0.0, 0.0];
buy = [1.402028, 0.0, 1.355528, 0.312528, 0.09706018299999999, 1.835828, 0.0, 0.0, 1.259728, 0.0, 0.268528, 1.271328, 0.0, 1.273528, 0.0, 1.464828, 0.0, 0.0, 0.0, 0.224616889, 1.223028, 0.792832559, 1.222728, 0.0, 1.078828, 1.087228, 0.090528, 0.0, 0.087728, 0.087228, 0.0, 0.6560279999999999, 0.0, 0.0, 1.087028, 1.086328, 0.0, 0.0, 0.083028, 0.0, 0.0, 1.087528, 0.0, 1.088228, 0.0, 1.083828, 0.0, 0.026828, 0.090528, 0.0, 1.030328, 1.084328, 0.022928, 0.336528, 0.389828, 1.020828, 1.409828, 0.051328, 0.0, 0.288528, 0.0, 0.0, 1.134228, 1.134228, 0.538028, 0.0, 1.128328, 0.130028, 1.131728, 0.130228, 0.0, 0.0, 0.0, 0.0, 0.0, 1.076028, 0.0, 0.0, 0.074728, 0.0, 0.0, 0.091528, 1.093328, 1.093828, 0.0, 1.092528, 0.092528, 1.091528, 1.092528, 0.257728, 1.315228, 0.313528, 1.314028, 1.276028, 0.0, 0.273328];
sell = [0.0, 0.543972, 0.0, 0.0, 0.0, 0.0, 0.564972, 0.634672, 0.0, 0.629972, 0.0, 0.0, 0.628172, 0.0, 0.628172, 0.0, 0.656972, 0.658672, 0.0, 0.0, 0.0, 0.0, 0.0, 0.675772, 0.0, 0.0, 0.0, 0.813472, 0.0, 0.0, 0.812472, 0.0, 0.811772, 1.585872, 0.0, 0.0, 1.880272, 0.449579935, 0.0, 0.279972, 0.817172, 0.0, 0.816972, 0.0, 0.019772, 0.0, 0.810472, 0.0, 0.0, 0.869672, 0.0, 0.0, 0.0, 0.0, 0.0, 0.0, 0.0, 0.0, 1.737972, 0.0, 0.888972, 1.723272, 0.0, 0.0, 0.0, 0.953421483, 0.0, 0.0, 0.0, 0.0, 0.8247719999999999, 0.780772, 0.785272, 0.780572, 0.7794720000000001, 0.0, 0.827472, 0.824972, 0.0, 0.0, 0.825272, 0.0, 0.0, 0.0, 0.807972, 0.0, 0.0, 0.0, 0.0, 0.0, 0.0, 0.0, 0.0, 0.0, 0.627972, 0.0];
charge = [1.0, 0.0, 1.0, 0.0, 0.0, 1.0, 0.0, 0.0, 1.0, 0.0, 0.0, 1.0, 0.0, 1.0, 0.0, 1.0, 0.0, 0.0, 0.0, 0.000588889, 1.0, 0.569304559, 1.0, 0.0, 1.0, 1.0, 0.0, 0.0, 0.0, 0.0, 0.0, 1.0, 0.0, 0.0, 1.0, 1.0, 0.0, 0.0, 0.0, 1.0, 0.0, 1.0, 0.0, 1.0, 1.0, 1.0, 0.0, 0.0, 0.0, 0.0, 1.0, 1.0, 0.0, 0.0, 0.0, 1.0, 1.0, 1.0, 0.0, 1.0, 0.0, 0.0, 1.0, 1.0, 1.0, 0.0, 1.0, 0.0, 1.0, 0.0, 0.0, 0.0, 0.0, 0.0, 0.0, 1.0, 0.0, 0.0, 0.0, 0.0, 0.0, 0.0, 1.0, 1.0, 0.0, 1.0, 0.0, 1.0, 1.0, 0.0, 1.0, 0.0, 1.0, 1.0, 0.0, 0.0];
discharge = [0.0, 1.0, 0.0, 0.0, 0.23385313, 0.0, 1.0, 1.0, 0.0, 1.0, 0.0, 0.0, 1.0, 0.0, 1.0, 0.0, 1.0, 1.0, 0.257808889, 0.0, 0.0, 0.0, 0.0, 1.0, 0.0, 0.0, 0.0, 1.0, 0.0, 0.0, 1.0, 0.0, 1.0, 1.0, 0.0, 0.0, 1.0, 0.594008817, 0.0, 0.0, 1.0, 0.0, 1.0, 0.0, 0.0, 0.0, 1.0, 0.0, 0.0, 1.0, 0.0, 0.0, 0.0, 0.0, 0.0, 0.0, 0.0, 0.0, 1.0, 0.0, 0.0, 1.0, 0.0, 0.0, 0.0, 0.739721647, 0.0, 0.0, 0.0, 0.0, 1.0, 1.0, 1.0, 1.0, 1.0, 0.0, 1.0, 1.0, 0.0, 0.083364444, 1.0, 0.0, 0.0, 0.0, 1.0, 0.0, 0.0, 0.0, 0.0, 0.0, 0.0, 0.0, 0.0, 0.0, 1.0, 0.0];
soc = [5.759028, 4.757876194, 5.656924619, 5.655793234, 5.420808945, 6.319724783, 5.318460839, 4.317397146, 5.216533667, 4.21549036, 4.214647262, 5.113804333, 4.112781572, 5.011959015, 4.010956624, 4.910154432, 3.909172401, 2.908390567, 2.65, 2.65, 3.54947, 4.061134209, 4.960321982, 3.959329918, 4.858538052, 5.757566344, 5.756414831, 4.755263548, 4.754312495, 4.753361633, 3.75241096, 4.651660478, 3.650730146, 2.65, 3.54947, 4.448760106, 3.447870354, 2.853171963, 2.852601329, 3.752030808, 2.751280402, 3.650730146, 2.65, 3.54947, 4.448760106, 5.347870354, 4.34680078, 4.34593142, 4.345062233, 3.344193221, 4.243524382, 5.142675678, 5.141647142, 5.140618813, 5.139590689, 6.038562771, 6.937355058, 7.835967587, 6.834400394, 7.733033514, 7.731486907, 6.72994061, 7.628594622, 8.527068903, 9.425363489, 8.683756769, 9.582020017, 9.580103613, 10.478187593, 10.476091955, 9.473996737, 8.472101937, 7.470407517, 6.468913436, 5.467619653, 6.366526129, 5.365252824, 4.364179773, 4.363306937, 4.279069831, 3.278214017, 3.277558375, 4.176902863, 5.076067482, 4.075052269, 4.974237258, 4.973242411, 5.872247762, 6.771073313, 6.769719098, 7.668365154, 7.666831481, 8.565298114999999, 9.463585054999999, 8.461692338000001, 8.460000000000001];
cost = [0.974677071, 0.0, 0.946270221, 0.190923355, 0.059294066, 1.239685491, 0.0, 0.0, 0.887746001, 0.0, 0.164043755, 0.894832441, 0.0, 0.8961764209999999, 0.0, 1.013041591, 0.0, 0.0, 0.0, 0.137288051, 0.865325971, 0.551620778, 0.865142701, 0.0, 1.401551954, 1.411544594, 0.107692109, 0.0, 0.104361229, 0.103766429, 0.0, 0.898589074, 0.0, 0.0, 1.411306674, 1.410473954, 0.0, 0.0, 0.09877010899999999, 0.118178165, 0.0, 1.411901474, 0.0, 1.412734194, 0.118178165, 1.407499954, 0.0, 0.031914589, 0.107692109, 0.0, 1.343856354, 1.408094754, 0.014006715, 0.205584955, 0.238145925, 0.741801991, 0.979442091, 0.149534441, 0.0, 0.294439921, 0.0, 0.0, 1.467455794, 1.467455794, 0.758216274, 0.0, 1.460437154, 0.154681309, 1.464481794, 0.154919229, 0.0, 0.0, 0.0, 0.0, 0.0, 1.398221074, 0.0, 0.0, 0.088896429, 0.0, 0.0, 0.108881709, 1.418801154, 1.419395954, 0.0, 1.417849474, 0.110071309, 1.416659874, 0.785603521, 0.157446035, 0.9216509510000001, 0.191534255, 0.920917871, 0.897703671, 0.0, 0.166976075];
earn = [0.0, 0.289828282, 0.0, 0.0, 0.0, 0.0, 0.294293915, 0.330791046, 0.0, 0.329097373, 0.0, 0.0, 0.331297913, 0.0, 0.331486364, 0.0, 0.347866674, 0.351072176, 0.0, 0.0, 0.0, 0.0, 0.0, 0.430872227, 0.0, 0.0, 0.0, 0.626048051, 0.0, 0.0, 0.589773425, 0.0, 0.508006918, 0.882854942, 0.0, 0.0, 0.771475602, 0.145169361, 0.0, 0.034940506, -0.003595557, 0.0, -0.08578205999999999, 0.0, -0.0005101180000000001, 0.0, -0.038821609, 0.0, 0.0, -0.046614419, 0.0, 0.0, 0.0, 0.0, 0.0, 0.0, 0.0, 0.0, 0.035107034, 0.0, 0.281004049, 0.680003131, 0.0, 0.0, 0.0, 0.56452086, 0.0, 0.0, 0.0, 0.0, 0.71491237, 0.725259111, 0.757630426, 0.778464456, 0.793502496, 0.0, 0.829954416, 0.796922952, 0.0, 0.0, 0.6917429899999999, 0.0, 0.0, 0.0, 0.60048479, 0.0, 0.0, 0.0, 0.0, 0.0, 0.0, 0.0, 0.0, 0.0, 0.381241801, 0.0];
total_cost = 44.965386539;
total_earn = 15.050301894;
