production = [0: 0.0, 1: 0.0, 2: 0.0, 3: 0.0, 4: 0.0, 5: 0.0, 6: 0.0, 7: 0.0, 8: 0.0, 9: 0.0, 10: 0.0, 11: 0.0, 12: 0.0, 13: 0.0, 14: 0.0, 15: 0.0, 16: 0.0, 17: 0.0, 18: 0.0, 19: 0.0, 20: 0.0, 21: 0.0, 22: 0.0, 23: 0.0, 24: 0.0, 25: 0.0005, 26: 0.0, 27: 0.0073, 28: 0.023, 29: 0.0, 30: 0.0, 31: 0.0, 32: 0.208, 33: 0.0, 34: 0.0, 35: 0.0, 36: 0.0, 37: 0.0, 38: 0.5155, 39: 0.7502, 40: 0.6655, 41: 0.0, 42: 0.0, 43: 2.0145, 44: 1.0043, 45: 0.0, 46: 0.0, 47: 0.0, 48: 0.0, 49: 0.8393, 50: 1.0237, 51: 0.7392, 52: 0.0, 53: 0.3043, 54: 0.0, 55: 0.4655, 56: 0.3765, 57: 0.0, 58: 0.0, 59: 0.596, 60: 0.264, 61: 0.0, 62: 0.8708, 63: 0.826, 64: 0.0, 65: 0.0, 66: 0.0, 67: 0.0, 68: 0.447, 69: 0.5135, 70: 0.0, 71: 0.0, 72: 0.0, 73: 0.1608, 74: 0.0, 75: 0.0592, 76: 0.0318, 77: 0.0, 78: 0.0, 79: 0.0, 80: 0.0003, 81: 0.0, 82: 0.0, 83: 0.0, 84: 0.0, 85: 0.0, 86: 0.0, 87: 0.0, 88: 0.0, 89: 0.0, 90: 0.0, 91: 0.0, 92: 0.0, 93: 0.0, 94: 0.0, 95: 0.0];
buy = [0: 0.0, 1: 0.378916667, 2: 0.0, 3: 1.313116667, 4: 0.307616667, 5: 0.0, 6: 1.255916667, 7: 1.263416667, 8: 1.263616667, 9: 0.231116667, 10: 1.220416667, 11: 0.220916667, 12: 1.230616667, 13: 1.230116667, 14: 0.0, 15: 0.0, 16: 0.0, 17: 0.0, 18: 1.232416667, 19: 0.230616667, 20: 1.222916667, 21: 0.0, 22: 1.232116667, 23: 1.231916667, 24: 1.228916667, 25: 0.0, 26: 0.0, 27: 0.0, 28: 0.0, 29: 1.082116667, 30: 1.081916667, 31: 1.081116667, 32: 0.0, 33: 0.0, 34: 0.0, 35: 0.0, 36: 0.09091666700000001, 37: 0.099416667, 38: 0.5844166669999999, 39: 0.348216667, 40: 0.426416667, 41: 1.092116667, 42: 0.103216667, 43: 0.0, 44: 0.087316667, 45: 0.0, 46: 1.095416667, 47: 0.100916667, 48: 1.099416667, 49: 0.0, 50: 0.06821666699999999, 51: 0.0, 52: 0.09861666700000001, 53: 0.795316667, 54: 0.09291666699999999, 55: 0.627216667, 56: 0.0, 57: 1.800416667, 58: 0.0, 59: 1.211216667, 60: 1.164616667, 61: 0.0, 62: 0.0, 63: 0.0, 64: 1.095416667, 65: 0.094916667, 66: 0.0, 67: 0.100216667, 68: 0.0, 69: 0.0, 70: 0.09141666699999999, 71: 0.09861666700000001, 72: 0.0, 73: 0.939916667, 74: 0.093716667, 75: 1.033716667, 76: 0.0, 77: 0.091116667, 78: 1.088916667, 79: 0.0, 80: 0.0, 81: 1.088416667, 82: 0.090116667, 83: 1.090416667, 84: 0.0, 85: 1.097416667, 86: 1.106116667, 87: 1.107616667, 88: 0.0, 89: 0.09961666700000001, 90: 0.0, 91: 0.107116667, 92: 1.110916667, 93: 0.268916667, 94: 1.414916667, 95: 0.422116667];
sell = [0: 0.524383333, 1: 0.0, 2: 0.5435833329999999, 3: 0.0, 4: 0.0, 5: 0.0, 6: 0.0, 7: 0.0, 8: 0.0, 9: 0.0, 10: 0.0, 11: 0.0, 12: 0.0, 13: 0.0, 14: 0.669383333, 15: 0.677383333, 16: 0.426659389, 17: 0.6675833329999999, 18: 0.0, 19: 0.0, 20: 0.0, 21: 0.676883333, 22: 0.0, 23: 0.0, 24: 0.0, 25: 0.680583333, 26: 0.680083333, 27: 0.818383333, 28: 0.835083333, 29: 0.0, 30: 0.0, 31: 0.0, 32: 0.118883333, 33: 0.8117833330000001, 34: 0.811383333, 35: 0.808583333, 36: 0.0, 37: 0.0, 38: 0.0, 39: 0.0, 40: 0.0, 41: 0.0, 42: 0.0, 43: 2.811083333, 44: 0.0, 45: 0.805283333, 46: 0.0, 47: 0.0, 48: 0.0, 49: 1.647383333, 50: 0.0, 51: 0.639783333, 52: 0.0, 53: 0.0, 54: 0.0, 55: 0.0, 56: 0.285583333, 57: 0.0, 58: 0.076083333, 59: 0.0, 60: 0.0, 61: 0.451383333, 62: 1.318883333, 63: 0.372583333, 64: 0.0, 65: 0.0, 66: 0.796783333, 67: 0.0, 68: 0.0, 69: 0.419283333, 70: 0.0, 71: 0.0, 72: 0.798583333, 73: 0.0, 74: 0.0, 75: 0.0, 76: 0.841883333, 77: 0.0, 78: 0.0, 79: 0.818083333, 80: 0.818383333, 81: 0.0, 82: 0.0, 83: 0.0, 84: 0.803083333, 85: 0.0, 86: 0.0, 87: 0.0, 88: 0.7895833330000001, 89: 0.0, 90: 0.799583333, 91: 0.0, 92: 0.0, 93: 0.0, 94: 0.0, 95: 0.0];
charge = [0: 0.0, 1: 0.0, 2: 0.0, 3: 1.0, 4: 0.0, 5: 0.0, 6: 1.0, 7: 1.0, 8: 1.0, 9: 0.0, 10: 1.0, 11: 0.0, 12: 1.0, 13: 1.0, 14: 0.0, 15: 0.0, 16: 0.0, 17: 0.0, 18: 1.0, 19: 0.0, 20: 1.0, 21: 0.0, 22: 1.0, 23: 1.0, 24: 1.0, 25: 0.0, 26: 0.0, 27: 0.0, 28: 0.0, 29: 1.0, 30: 1.0, 31: 1.0, 32: 0.0, 33: 0.0, 34: 0.0, 35: 0.0, 36: 0.0, 37: 0.0, 38: 1.0, 39: 1.0, 40: 1.0, 41: 1.0, 42: 0.0, 43: 0.0, 44: 1.0, 45: 0.0, 46: 1.0, 47: 0.0, 48: 1.0, 49: 0.0, 50: 1.0, 51: 0.0, 52: 0.0, 53: 1.0, 54: 0.0, 55: 1.0, 56: 0.0, 57: 1.0, 58: 0.0, 59: 1.0, 60: 1.0, 61: 0.0, 62: 0.0, 63: 0.0, 64: 1.0, 65: 0.0, 66: 0.0, 67: 0.0, 68: 0.346083333, 69: 0.0, 70: 0.0, 71: 0.0, 72: 0.0, 73: 1.0, 74: 0.0, 75: 1.0, 76: 0.0, 77: 0.0, 78: 1.0, 79: 0.0, 80: 0.0, 81: 1.0, 82: 0.0, 83: 1.0, 84: 0.0, 85: 1.0, 86: 1.0, 87: 1.0, 88: 0.0, 89: 0.0, 90: 0.0, 91: 0.0, 92: 1.0, 93: 0.0, 94: 1.0, 95: 0.0];
discharge = [0: 1.0, 1: 0.0, 2: 1.0, 3: 0.0, 4: 0.0, 5: 0.332351852, 6: 0.0, 7: 0.0, 8: 0.0, 9: 0.0, 10: 0.0, 11: 0.0, 12: 0.0, 13: 0.0, 14: 1.0, 15: 1.0, 16: 0.721751173, 17: 1.0, 18: 0.0, 19: 0.0, 20: 0.0, 21: 1.0, 22: 0.0, 23: 0.0, 24: 0.0, 25: 1.0, 26: 1.0, 27: 1.0, 28: 1.0, 29: 0.0, 30: 0.0, 31: 0.0, 32: 0.0, 33: 1.0, 34: 1.0, 35: 1.0, 36: 0.0, 37: 0.0, 38: 0.0, 39: 0.0, 40: 0.0, 41: 0.0, 42: 0.0, 43: 1.0, 44: 0.0, 45: 1.0, 46: 0.0, 47: 0.0, 48: 0.0, 49: 1.0, 50: 0.0, 51: 0.0, 52: 0.0, 53: 0.0, 54: 0.0, 55: 0.0, 56: 0.0, 57: 0.0, 58: 1.0, 59: 0.0, 60: 0.0, 61: 1.0, 62: 1.0, 63: 0.0, 64: 0.0, 65: 0.0, 66: 1.0, 67: 0.0, 68: 0.0, 69: 0.0, 70: 0.0, 71: 0.0, 72: 1.0, 73: 0.0, 74: 0.0, 75: 0.0, 76: 1.0, 77: 0.0, 78: 0.0, 79: 1.0, 80: 1.0, 81: 0.0, 82: 0.0, 83: 0.0, 84: 1.0, 85: 0.0, 86: 0.0, 87: 0.0, 88: 1.0, 89: 0.0, 90: 1.0, 91: 0.0, 92: 0.0, 93: 0.0, 94: 0.0, 95: 0.0];
soc = [0: 7.308338, 1: 7.306876332, 2: 6.305414957, 3: 7.204153874, 4: 7.202713043, 5: 6.868920649, 6: 7.767546865, 7: 8.665993354999999, 8: 9.564260157, 9: 9.562347304999999, 10: 10.460434835, 11: 10.458342748, 12: 11.35625108, 13: 12.25397983, 14: 11.251529034, 15: 10.249278728, 16: 9.525477699, 17: 8.523572603, 18: 9.421867889, 19: 9.419983515, 20: 10.318099518, 21: 9.316035898000001, 22: 10.214172691, 23: 11.112129857, 24: 12.009907431, 25: 11.007505449, 26: 10.005303948, 27: 9.003302887, 28: 8.001502227, 29: 8.899901926, 30: 9.798121946, 31: 10.696162322, 32: 10.694023089, 33: 9.691884284, 34: 8.689945908, 35: 7.688207918, 36: 7.686670277, 37: 7.685132943, 38: 8.583595916, 39: 9.481879197, 40: 10.379982821, 41: 11.277906825, 42: 11.275651243, 43: 10.273396113, 44: 11.171341434, 45: 10.169107165, 46: 11.067073344, 47: 11.064859929, 48: 11.962646957, 49: 10.960254428, 50: 11.858062377, 51: 11.855690765, 52: 11.853319626, 53: 12.750948963, 54: 12.748398773, 55: 13.645849093, 56: 13.643119923, 57: 14.540391299, 58: 13.537483221, 59: 14.434775724, 60: 15.331888769, 61: 14.328822391, 62: 13.325956627, 63: 13.323291436, 64: 14.220626777, 65: 14.217782652, 66: 13.214939095, 67: 13.212296108, 68: 13.521128648, 69: 13.518424423, 70: 13.515720738, 71: 13.513017594, 72: 12.51031499, 73: 13.407812927, 74: 13.405131364, 75: 14.302450338, 76: 13.299589848, 77: 13.29692993, 78: 14.194270544, 79: 13.19143169, 80: 12.188793404, 81: 13.086355645, 82: 13.083738374, 83: 13.981121626, 84: 12.978325402, 85: 13.875729737, 86: 14.772954591, 87: 15.67, 88: 14.666866, 89: 14.663932627, 90: 13.66099984, 91: 13.65826764, 92: 14.555535987, 93: 14.55262488, 94: 15.449714355, 95: 15.446624412];
cost = [0: 0.0, 1: 0.231480192, 2: 0.0, 3: 0.920361137, 4: 0.187923022, 5: 0.0, 6: 0.885417657, 7: 0.889999407, 8: 0.890121587, 9: 0.141189172, 10: 0.863730707, 11: 0.134957992, 12: 0.869961887, 13: 0.8696564369999999, 14: 0.0, 15: 0.0, 16: 0.0, 17: 0.0, 18: 0.871061507, 19: 0.140883722, 20: 0.865257957, 21: 0.0, 22: 0.870878237, 23: 0.870756057, 24: 1.580097432, 25: 0.0, 26: 0.0, 27: 0.0, 28: 0.0, 29: 1.405464152, 30: 1.405226232, 31: 1.404274552, 32: 0.0, 33: 0.0, 34: 0.0, 35: 0.0, 36: 0.108154467, 37: 0.118266067, 38: 0.813400232, 39: 0.532416712, 40: 0.625443432, 41: 1.417360152, 42: 0.122786547, 43: 0.0, 44: 0.222050072, 45: 0.0, 46: 1.421285832, 47: 0.120050467, 48: 1.426044232, 49: 0.0, 50: 0.199328712, 51: 0.0, 52: 0.060244922, 53: 0.604037117, 54: 0.056762792, 55: 0.501344827, 56: 0.0, 57: 1.218052707, 58: 0.0, 59: 0.858110427, 60: 1.503606152, 61: 0.0, 62: 0.0, 63: 0.0, 64: 1.421285832, 65: 0.112912867, 66: 0.0, 67: 0.119217747, 68: 0.040899493, 69: 0.0, 70: 0.108749267, 71: 0.117314387, 72: 0.0, 73: 1.236303032, 74: 0.111485347, 75: 1.347887512, 76: 0.0, 77: 0.108392387, 78: 1.413553432, 79: 0.0, 80: 0.0, 81: 1.412958632, 82: 0.107202787, 83: 1.415337832, 84: 0.0, 85: 1.423665032, 86: 1.434014552, 87: 1.435798952, 88: 0.0, 89: 0.060855822, 90: 0.0, 91: 0.065437572, 92: 0.796837157, 93: 0.164281192, 94: 0.9825507570000001, 95: 0.257871072];
earn = [0: 0.318615313, 1: 0.0, 2: 0.309625067, 3: 0.0, 4: 0.0, 5: 0.0, 6: 0.0, 7: 0.0, 8: 0.0, 9: 0.0, 10: 0.0, 11: 0.0, 12: 0.0, 13: 0.0, 14: 0.366955943, 15: 0.371544758, 16: 0.235686647, 17: 0.371176333, 18: 0.0, 19: 0.0, 20: 0.0, 21: 0.379866927, 22: 0.0, 23: 0.0, 24: 0.0, 25: 0.517107217, 26: 0.565625308, 27: 0.738181767, 28: 0.766690008, 29: 0.0, 30: 0.0, 31: 0.0, 32: 0.111298577, 33: 0.729793217, 34: 0.675557763, 35: 0.6346570580000001, 36: 0.0, 37: 0.0, 38: 0.0, 39: 0.0, 40: 0.0, 41: 0.0, 42: 0.0, 43: 1.7338762, 44: 0.0, 45: 0.450475497, 46: 0.0, 47: 0.0, 48: 0.0, 49: 0.916933563, 50: 0.0, 51: 0.346698588, 52: 0.0, 53: 0.0, 54: 0.0, 55: 0.0, 56: 0.141592217, 57: 0.0, 58: 0.039068792, 59: 0.0, 60: 0.0, 61: 0.230927713, 62: 0.6891165420000001, 63: 0.206746492, 64: 0.0, 65: 0.0, 66: 0.465480823, 67: 0.0, 68: 0.0, 69: 0.257020683, 70: 0.0, 71: 0.0, 72: 0.58600045, 73: 0.0, 74: 0.0, 75: 0.0, 76: 0.775290362, 77: 0.0, 78: 0.0, 79: 0.820537583, 80: 0.792276905, 81: 0.0, 82: 0.0, 83: 0.0, 84: 0.65965265, 85: 0.0, 86: 0.0, 87: 0.0, 88: 0.64477375, 89: 0.0, 90: 0.623834917, 91: 0.0, 92: 0.0, 93: 0.0, 94: 0.0, 95: 0.0];
total_cost = 43.922257571;
total_earn = 17.47268563;
