production = [0: 0.0, 1: 0.0, 2: 0.0, 3: 0.0, 4: 0.0, 5: 0.0, 6: 0.0, 7: 0.0, 8: 0.0, 9: 0.0, 10: 0.0, 11: 0.0, 12: 0.0, 13: 0.0, 14: 0.0, 15: 0.0, 16: 0.0, 17: 0.0, 18: 0.0, 19: 0.0, 20: 0.0, 21: 0.0, 22: 0.0, 23: 0.0, 24: 0.0, 25: 0.0, 26: 0.0, 27: 0.0073, 28: 0.0, 29: 0.0558, 30: 0.082, 31: 0.0, 32: 0.0, 33: 0.0, 34: 0.379, 35: 0.0, 36: 0.385, 37: 0.6048, 38: 0.0, 39: 0.7502, 40: 0.6655, 41: 0.0, 42: 0.0, 43: 2.0145, 44: 0.0, 45: 1.9385, 46: 0.0, 47: 0.0, 48: 0.852, 49: 0.8393, 50: 0.0, 51: 0.7392, 52: 0.0, 53: 0.0, 54: 0.0, 55: 0.0, 56: 0.3765, 57: 0.2467, 58: 0.0, 59: 0.596, 60: 0.264, 61: 0.0, 62: 0.8708, 63: 0.0, 64: 0.5985, 65: 0.585, 66: 0.6248, 67: 1.21, 68: 0.0, 69: 0.0, 70: 0.0, 71: 0.285, 72: 0.0, 73: 0.1608, 74: 0.118, 75: 0.0592, 76: 0.0318, 77: 0.006, 78: 0.0018, 79: 0.0, 80: 0.0003, 81: 0.0, 82: 0.0, 83: 0.0, 84: 0.0, 85: 0.0, 86: 0.0, 87: 0.0, 88: 0.0, 89: 0.0, 90: 0.0, 91: 0.0, 92: 0.0, 93: 0.0, 94: 0.0, 95: 0.0];
buy = [0: 1.375616667, 1: 0.0, 2: 0.0, 3: 1.313116667, 4: 1.307616667, 5: 0.0, 6: 1.255916667, 7: 1.263416667, 8: 1.263616667, 9: 0.231116667, 10: 0.220416667, 11: 0.220916667, 12: 0.230616667, 13: 0.0, 14: 0.0, 15: 0.0, 16: 0.0, 17: 1.232416667, 18: 0.0, 19: 1.230616667, 20: 0.0, 21: 0.223116667, 22: 1.232116667, 23: 0.231916667, 24: 1.228916667, 25: 0.0, 26: 1.219916667, 27: 1.081616667, 28: 0.087916667, 29: 1.026316667, 30: 0.0, 31: 1.081116667, 32: 0.0, 33: 0.0, 34: 0.0, 35: 1.091416667, 36: 0.0, 37: 0.0, 38: 1.099916667, 39: 0.348216667, 40: 0.426416667, 41: 0.092116667, 42: 0.0, 43: 0.0, 44: 0.0, 45: 0.0, 46: 0.0, 47: 1.100916667, 48: 0.0, 49: 0.0, 50: 0.0, 51: 0.0, 52: 1.098616667, 53: 0.09961666700000001, 54: 0.0, 55: 1.092716667, 56: 0.7144166669999999, 57: 0.0, 58: 0.0, 59: 0.211216667, 60: 1.164616667, 61: 1.448616667, 62: 0.0, 63: 1.453416667, 64: 0.0, 65: 0.0, 66: 0.0, 67: 0.0, 68: 1.100916667, 69: 1.094216667, 70: 1.091416667, 71: 0.0, 72: 0.0, 73: 0.939916667, 74: 0.0, 75: 0.0, 76: 1.058116667, 77: 0.0, 78: 1.087116667, 79: 0.081916667, 80: 1.081616667, 81: 0.0, 82: 0.090116667, 83: 0.09041666700000001, 84: 0.0, 85: 0.097416667, 86: 1.106116667, 87: 1.107616667, 88: 0.110416667, 89: 1.099616667, 90: 1.100416667, 91: 0.0, 92: 1.110916667, 93: 1.268916667, 94: 0.414916667, 95: 1.422116667];
sell = [0: 0.0, 1: 0.521083333, 2: 0.5435833329999999, 3: 0.0, 4: 0.0, 5: 0.0, 6: 0.0, 7: 0.0, 8: 0.0, 9: 0.0, 10: 0.0, 11: 0.0, 12: 0.0, 13: 0.669883333, 14: 0.669383333, 15: 0.617891325, 16: 0.677083333, 17: 0.0, 18: 0.6675833329999999, 19: 0.0, 20: 0.677083333, 21: 0.0, 22: 0.0, 23: 0.0, 24: 0.0, 25: 0.680083333, 26: 0.0, 27: 0.0, 28: 0.0, 29: 0.0, 30: 0.900083333, 31: 0.0, 32: 0.810883333, 33: 0.8117833330000001, 34: 1.190383333, 35: 0.0, 36: 1.194083333, 37: 1.405383333, 38: 0.0, 39: 0.0, 40: 0.0, 41: 0.0, 42: 0.796783333, 43: 2.811083333, 44: 0.808383333, 45: 0.843783333, 46: 0.804583333, 47: 0.0, 48: 1.652583333, 49: 1.647383333, 50: 0.808083333, 51: 1.539783333, 52: 0.0, 53: 0.0, 54: 0.807083333, 55: 0.0, 56: 0.0, 57: 0.346283333, 58: 0.076083333, 59: 0.0, 60: 0.0, 61: 0.0, 62: 0.418883333, 63: 0.0, 64: 1.403083333, 65: 0.490083333, 66: 0.521583333, 67: 1.109783333, 68: 0.0, 69: 0.0, 70: 0.0, 71: 1.086383333, 72: 0.0, 73: 0.0, 74: 0.024283333, 75: 0.866283333, 76: 0.0, 77: 0.814883333, 78: 0.0, 79: 0.0, 80: 0.0, 81: 0.811583333, 82: 0.0, 83: 0.0, 84: 0.803083333, 85: 0.0, 86: 0.0, 87: 0.0, 88: 0.0, 89: 0.0, 90: 0.0, 91: 0.792883333, 92: 0.0, 93: 0.0, 94: 0.0, 95: 0.0];
charge = [0: 1.0, 1: 0.0, 2: 0.0, 3: 1.0, 4: 1.0, 5: 0.0, 6: 1.0, 7: 1.0, 8: 1.0, 9: 0.0, 10: 0.0, 11: 0.0, 12: 0.0, 13: 0.0, 14: 0.0, 15: 0.0, 16: 0.0, 17: 1.0, 18: 0.0, 19: 1.0, 20: 0.0, 21: 0.0, 22: 1.0, 23: 0.0, 24: 1.0, 25: 0.0, 26: 1.0, 27: 1.0, 28: 0.0, 29: 1.0, 30: 0.0, 31: 1.0, 32: 0.0, 33: 0.0, 34: 0.0, 35: 1.0, 36: 0.0, 37: 0.0, 38: 1.0, 39: 1.0, 40: 1.0, 41: 0.0, 42: 0.0, 43: 0.0, 44: 0.0, 45: 1.0, 46: 0.0, 47: 1.0, 48: 0.0, 49: 0.0, 50: 0.0, 51: 0.0, 52: 1.0, 53: 0.0, 54: 0.0, 55: 1.0, 56: 1.0, 57: 0.0, 58: 0.0, 59: 0.0, 60: 1.0, 61: 1.0, 62: 0.0, 63: 1.0, 64: 0.0, 65: 0.0, 66: 0.0, 67: 0.0, 68: 1.0, 69: 1.0, 70: 1.0, 71: 0.0, 72: 0.0, 73: 1.0, 74: 0.0, 75: 0.0, 76: 1.0, 77: 0.0, 78: 1.0, 79: 0.0, 80: 1.0, 81: 0.0, 82: 0.0, 83: 0.0, 84: 0.0, 85: 0.0, 86: 1.0, 87: 1.0, 88: 0.0, 89: 1.0, 90: 1.0, 91: 0.0, 92: 1.0, 93: 1.0, 94: 0.0, 95: 1.0];
discharge = [0: 0.0, 1: 1.0, 2: 1.0, 3: 0.0, 4: 0.0, 5: 0.332351852, 6: 0.0, 7: 0.0, 8: 0.0, 9: 0.0, 10: 0.0, 11: 0.0, 12: 0.0, 13: 1.0, 14: 1.0, 15: 0.933897769, 16: 1.0, 17: 0.0, 18: 1.0, 19: 0.0, 20: 1.0, 21: 0.0, 22: 0.0, 23: 0.0, 24: 0.0, 25: 1.0, 26: 0.0, 27: 0.0, 28: 0.0, 29: 0.0, 30: 1.0, 31: 0.0, 32: 1.0, 33: 1.0, 34: 1.0, 35: 0.0, 36: 1.0, 37: 1.0, 38: 0.0, 39: 0.0, 40: 0.0, 41: 0.0, 42: 1.0, 43: 1.0, 44: 1.0, 45: 0.0, 46: 1.0, 47: 0.0, 48: 1.0, 49: 1.0, 50: 1.0, 51: 1.0, 52: 0.0, 53: 0.0, 54: 1.0, 55: 0.0, 56: 0.0, 57: 1.0, 58: 1.0, 59: 0.0, 60: 0.0, 61: 0.0, 62: 0.0, 63: 0.0, 64: 1.0, 65: 0.0, 66: 0.0, 67: 0.0, 68: 0.0, 69: 0.0, 70: 0.0, 71: 1.0, 72: 0.112685185, 73: 0.0, 74: 0.0, 75: 1.0, 76: 0.0, 77: 1.0, 78: 0.0, 79: 0.0, 80: 0.0, 81: 1.0, 82: 0.0, 83: 0.0, 84: 1.0, 85: 0.0, 86: 0.0, 87: 0.0, 88: 0.0, 89: 0.0, 90: 0.0, 91: 1.0, 92: 0.0, 93: 0.0, 94: 0.0, 95: 0.0];
soc = [0: 9.208337999999999, 1: 8.206496332, 2: 7.204855033, 3: 8.103414062000001, 4: 9.001793379, 5: 8.667641168999999, 6: 9.565907641000001, 7: 10.463994459, 8: 11.36190166, 9: 11.35962928, 10: 11.357357354, 11: 11.355085882, 12: 11.352814865, 13: 10.350544302, 14: 9.348474192999999, 15: 8.41270673, 16: 7.411024188, 17: 8.309541984000001, 18: 7.307880075, 19: 8.206418499, 20: 7.204777216, 21: 7.20333626, 22: 8.101895593, 23: 8.100275214, 24: 8.998655159, 25: 7.996855428, 26: 8.895256056999999, 27: 9.793477005, 28: 9.791518310000001, 29: 10.689560006, 30: 9.687422094, 31: 10.58548461, 32: 9.583367513000001, 33: 8.581450839, 34: 7.579734549, 35: 8.478218602, 36: 7.476522959, 37: 6.475027654, 38: 7.373732649, 39: 8.272257902, 40: 9.17060345, 41: 9.16876933, 42: 8.166935576, 43: 7.165302189, 44: 6.163869128, 45: 7.062636354, 46: 6.061223827, 47: 6.960011582, 48: 5.95861958, 49: 4.957427856, 50: 3.956436371, 51: 2.955645083, 52: 3.855053954, 53: 3.854282944, 54: 2.853512087, 55: 3.752941385, 56: 4.652190796, 57: 3.651260358, 58: 2.650530106, 59: 2.65, 60: 3.54947, 61: 4.448760106, 62: 4.447870354, 63: 5.34698078, 64: 4.345911384, 65: 4.345042201, 66: 4.344173193, 67: 4.343304358, 68: 5.242435698, 69: 6.14138721, 70: 7.040158933, 71: 6.038750901, 72: 5.924857966, 73: 6.823672994, 74: 6.82230826, 75: 5.820943798, 76: 6.719779609, 77: 5.718435653, 78: 6.617291966, 79: 6.615968508, 80: 7.514645314, 81: 6.513142385, 82: 6.511839757, 83: 6.510537389, 84: 5.509235281, 85: 5.508133434, 86: 6.407031807, 87: 7.305750401, 88: 7.304289251, 89: 8.202828393000001, 90: 9.101187827, 91: 8.09936759, 92: 8.997747715999999, 93: 9.895948167, 94: 9.893968977, 95: 10.791990183];
cost = [0: 0.9585423870000001, 1: 0.0, 2: 0.0, 3: 0.920361137, 4: 0.917001187, 5: 0.0, 6: 0.885417657, 7: 0.889999407, 8: 0.890121587, 9: 0.141189172, 10: 0.134652542, 11: 0.134957992, 12: 0.140883722, 13: 0.0, 14: 0.0, 15: 0.0, 16: 0.0, 17: 0.871061507, 18: 0.0, 19: 0.869961887, 20: 0.0, 21: 0.136301972, 22: 0.870878237, 23: 0.141677892, 24: 1.580097432, 25: 0.0, 26: 1.569391032, 27: 1.404869352, 28: 0.104585667, 29: 1.339084472, 30: 0.0, 31: 1.404274552, 32: 0.0, 33: 0.0, 34: 0.0, 35: 1.416527432, 36: 0.0, 37: 0.0, 38: 1.426639032, 39: 0.532416712, 40: 0.625443432, 41: 0.109581987, 42: 0.0, 43: 0.0, 44: 0.0, 45: 0.118178165, 46: 0.0, 47: 1.427828632, 48: 0.0, 49: 0.0, 50: 0.0, 51: 0.0, 52: 0.789323087, 53: 0.060855822, 54: 0.0, 55: 0.785718777, 56: 0.5546153069999999, 57: 0.0, 58: 0.0, 59: 0.129032262, 60: 1.503606152, 61: 1.841452552, 62: 0.0, 63: 1.847162632, 64: 0.0, 65: 0.0, 66: 0.0, 67: 0.0, 68: 1.427828632, 69: 1.419858312, 70: 1.416527432, 71: 0.0, 72: 0.0, 73: 1.236303032, 74: 0.0, 75: 0.0, 76: 1.376913752, 77: 0.0, 78: 1.411412152, 79: 0.097448067, 80: 1.404869352, 81: 0.0, 82: 0.107202787, 83: 0.107559667, 84: 0.0, 85: 0.115886867, 86: 1.434014552, 87: 1.435798952, 88: 0.06745354200000001, 89: 0.7899339869999999, 90: 0.7904227069999999, 91: 0.0, 92: 0.796837157, 93: 0.893359357, 94: 0.253472592, 95: 0.986949237];
earn = [0: 0.0, 1: 0.29983135, 2: 0.309625067, 3: 0.0, 4: 0.0, 5: 0.0, 6: 0.0, 7: 0.0, 8: 0.0, 9: 0.0, 10: 0.0, 11: 0.0, 12: 0.0, 13: 0.365287382, 14: 0.366955943, 15: 0.338913392, 16: 0.374020833, 17: 0.0, 18: 0.368706275, 19: 0.0, 20: 0.377270833, 21: 0.0, 22: 0.0, 23: 0.0, 24: 0.0, 25: 0.516727317, 26: 0.0, 27: 0.0, 28: 0.0, 29: 0.0, 30: 0.842838033, 31: 0.0, 32: 0.7591489769999999, 33: 0.729793217, 34: 0.991113163, 35: 0.0, 36: 0.965535783, 37: 1.043778202, 38: 0.0, 39: 0.0, 40: 0.0, 41: 0.0, 42: 0.505638703, 43: 1.7338762, 44: 0.471610837, 45: 0.472012397, 46: 0.470037583, 47: 0.0, 48: 0.926768733, 49: 0.916933563, 50: 0.4450923, 51: 0.834408588, 52: 0.0, 53: 0.0, 54: 0.394502333, 55: 0.0, 56: 0.0, 57: 0.172552985, 58: 0.039068792, 59: 0.0, 60: 0.0, 61: 0.0, 62: 0.218866542, 63: 0.0, 64: 0.737600908, 65: 0.271849225, 66: 0.304708983, 67: 0.671640873, 68: 0.0, 69: 0.0, 70: 0.0, 71: 0.730375515, 72: 0.0, 73: 0.0, 74: 0.01991719, 75: 0.696838313, 76: 0.0, 77: 0.793125948, 78: 0.0, 79: 0.0, 80: 0.0, 81: 0.771572275, 82: 0.0, 83: 0.0, 84: 0.65965265, 85: 0.0, 86: 0.0, 87: 0.0, 88: 0.0, 89: 0.0, 90: 0.0, 91: 0.6134538349999999, 92: 0.0, 93: 0.0, 94: 0.0, 95: 0.0];
total_cost = 47.043744908;
total_earn = 22.52165104;
