production = [0: 0.0, 1: 0.0, 2: 0.0, 3: 0.0, 4: 0.0, 5: 0.0, 6: 0.0, 7: 0.0, 8: 0.0, 9: 0.0, 10: 0.0, 11: 0.0, 12: 0.0, 13: 0.0, 14: 0.0, 15: 0.0, 16: 0.0, 17: 0.0, 18: 0.0, 19: 0.0, 20: 0.0, 21: 0.0, 22: 0.0, 23: 0.0, 24: 0.0, 25: 0.0005, 26: 0.0, 27: 0.0073, 28: 0.0, 29: 0.0, 30: 0.082, 31: 0.1062, 32: 0.0, 33: 0.0, 34: 0.379, 35: 0.0, 36: 0.385, 37: 0.6048, 38: 0.0, 39: 0.7502, 40: 0.0, 41: 0.724, 42: 1.1715, 43: 0.0, 44: 1.0043, 45: 0.0, 46: 1.9252, 47: 2.3258, 48: 0.852, 49: 0.0, 50: 0.0, 51: 0.0, 52: 0.0, 53: 0.3043, 54: 0.4532, 55: 0.0, 56: 0.3765, 57: 0.2467, 58: 0.0, 59: 0.0, 60: 0.0, 61: 0.5643, 62: 0.8708, 63: 0.0, 64: 0.0, 65: 0.585, 66: 0.0, 67: 1.21, 68: 0.0, 69: 0.0, 70: 0.2338, 71: 0.285, 72: 0.0, 73: 0.1608, 74: 0.0, 75: 0.0592, 76: 0.0318, 77: 0.0, 78: 0.0, 79: 0.0, 80: 0.0003, 81: 0.0, 82: 0.0, 83: 0.0, 84: 0.0, 85: 0.0, 86: 0.0, 87: 0.0, 88: 0.0, 89: 0.0, 90: 0.0, 91: 0.0, 92: 0.0, 93: 0.0, 94: 0.0, 95: 0.0];
buy = [0: 1.375616667, 1: 0.0, 2: 0.474521764, 3: 0.0, 4: 0.0, 5: 1.299116667, 6: 1.255916667, 7: 0.0, 8: 0.0, 9: 0.0, 10: 1.220416667, 11: 0.0, 12: 1.230616667, 13: 0.0, 14: 0.0, 15: 0.0, 16: 1.222916667, 17: 0.0, 18: 0.232416667, 19: 1.230616667, 20: 0.222916667, 21: 0.223116667, 22: 1.232116667, 23: 1.231916667, 24: 1.228916667, 25: 1.219416667, 26: 0.219916667, 27: 0.0, 28: 0.0, 29: 0.0, 30: 0.0, 31: 0.0, 32: 0.089116667, 33: 1.088216667, 34: 0.0, 35: 0.09141666699999999, 36: 0.705916667, 37: 0.0, 38: 0.099916667, 39: 0.0, 40: 0.09191666699999999, 41: 0.368116667, 42: 0.0, 43: 1.103416667, 44: 0.087316667, 45: 0.094716667, 46: 0.0, 47: 0.0, 48: 0.247416667, 49: 0.0, 50: 1.091916667, 51: 0.099416667, 52: 1.098616667, 53: 0.0, 54: 0.0, 55: 0.0, 56: 0.7144166669999999, 57: 0.0, 58: 0.823916667, 59: 0.0, 60: 0.92442329, 61: 0.884316667, 62: 0.0, 63: 0.0, 64: 0.095416667, 65: 0.509916667, 66: 1.103216667, 67: 0.0, 68: 0.100916667, 69: 0.0, 70: 0.0, 71: 0.0, 72: 0.0, 73: 0.0, 74: 1.093716667, 75: 0.0, 76: 1.058116667, 77: 0.091116667, 78: 0.088916667, 79: 1.081916667, 80: 1.081616667, 81: 1.088416667, 82: 1.090116667, 83: 0.09041666700000001, 84: 0.0, 85: 0.0, 86: 0.106116667, 87: 0.107616667, 88: 0.0, 89: 1.099616667, 90: 0.0, 91: 1.107116667, 92: 0.110916667, 93: 1.268916667, 94: 1.414916667, 95: 1.422116667];
sell = [0: 0.0, 1: 0.0, 2: 0.0, 3: 0.586883333, 4: 0.592383333, 5: 0.0, 6: 0.0, 7: 0.636583333, 8: 0.6363833330000001, 9: 0.668883333, 10: 0.0, 11: 0.679083333, 12: 0.0, 13: 0.669883333, 14: 0.669383333, 15: 0.677383333, 16: 0.0, 17: 0.6675833329999999, 18: 0.0, 19: 0.0, 20: 0.0, 21: 0.0, 22: 0.0, 23: 0.0, 24: 0.0, 25: 0.0, 26: 0.0, 27: 0.818383333, 28: 0.812083333, 29: 0.817883333, 30: 0.900083333, 31: 0.925083333, 32: 0.0, 33: 0.0, 34: 1.190383333, 35: 0.0, 36: 0.0, 37: 0.505383333, 38: 0.0, 39: 1.551783333, 40: 0.0, 41: 0.0, 42: 0.068283333, 43: 0.0, 44: 0.0, 45: 0.0, 46: 0.829783333, 47: 1.224883333, 48: 0.0, 49: 0.808083333, 50: 0.0, 51: 0.0, 52: 0.0, 53: 1.104683333, 54: 0.360283333, 55: 0.807283333, 56: 0.0, 57: 0.346283333, 58: 0.0, 59: 0.092783333, 60: 0.0, 61: 0.0, 62: 1.318883333, 63: 0.446583333, 64: 0.0, 65: 0.0, 66: 0.0, 67: 2.009783333, 68: 0.0, 69: 0.805783333, 70: 1.042383333, 71: 0.186383333, 72: 0.798583333, 73: 0.960083333, 74: 0.0, 75: 0.866283333, 76: 0.0, 77: 0.0, 78: 0.0, 79: 0.0, 80: 0.0, 81: 0.0, 82: 0.0, 83: 0.0, 84: 0.803083333, 85: 0.802583333, 86: 0.0, 87: 0.0, 88: 0.7895833330000001, 89: 0.0, 90: 0.799583333, 91: 0.0, 92: 0.0, 93: 0.0, 94: 0.0, 95: 0.0];
charge = [0: 1.0, 1: 0.0, 2: 0.118105098, 3: 0.0, 4: 0.0, 5: 1.0, 6: 1.0, 7: 0.0, 8: 0.0, 9: 0.0, 10: 1.0, 11: 0.0, 12: 1.0, 13: 0.0, 14: 0.0, 15: 0.0, 16: 1.0, 17: 0.0, 18: 0.0, 19: 1.0, 20: 0.0, 21: 0.0, 22: 1.0, 23: 1.0, 24: 1.0, 25: 1.0, 26: 0.0, 27: 0.0, 28: 0.0, 29: 0.0, 30: 0.0, 31: 0.0, 32: 0.0, 33: 1.0, 34: 0.0, 35: 0.0, 36: 1.0, 37: 0.0, 38: 0.0, 39: 0.0, 40: 0.0, 41: 1.0, 42: 1.0, 43: 1.0, 44: 1.0, 45: 0.0, 46: 1.0, 47: 1.0, 48: 1.0, 49: 0.0, 50: 1.0, 51: 0.0, 52: 1.0, 53: 0.0, 54: 0.0, 55: 0.0, 56: 1.0, 57: 0.0, 58: 0.0, 59: 0.0, 60: 0.495806624, 61: 1.0, 62: 0.0, 63: 0.0, 64: 0.0, 65: 1.0, 66: 1.0, 67: 0.0, 68: 0.0, 69: 0.0, 70: 0.0, 71: 0.0, 72: 0.0, 73: 0.0, 74: 1.0, 75: 0.0, 76: 1.0, 77: 0.0, 78: 0.0, 79: 1.0, 80: 1.0, 81: 1.0, 82: 1.0, 83: 0.0, 84: 0.0, 85: 0.0, 86: 0.0, 87: 0.0, 88: 0.0, 89: 1.0, 90: 0.0, 91: 1.0, 92: 0.0, 93: 1.0, 94: 1.0, 95: 1.0];
discharge = [0: 0.0, 1: 0.421018519, 2: 0.0, 3: 1.0, 4: 1.0, 5: 0.0, 6: 0.0, 7: 1.0, 8: 1.0, 9: 1.0, 10: 0.0, 11: 1.0, 12: 0.0, 13: 1.0, 14: 1.0, 15: 1.0, 16: 0.0, 17: 1.0, 18: 0.0, 19: 0.0, 20: 0.0, 21: 0.0, 22: 0.0, 23: 0.0, 24: 0.0, 25: 0.0, 26: 0.0, 27: 1.0, 28: 1.0, 29: 1.0, 30: 1.0, 31: 1.0, 32: 0.0, 33: 0.0, 34: 1.0, 35: 0.0, 36: 0.0, 37: 0.0, 38: 0.0, 39: 1.0, 40: 0.0, 41: 0.0, 42: 0.0, 43: 0.0, 44: 0.0, 45: 0.0, 46: 0.0, 47: 0.0, 48: 0.0, 49: 1.0, 50: 0.0, 51: 0.0, 52: 0.0, 53: 1.0, 54: 0.0, 55: 1.0, 56: 0.0, 57: 1.0, 58: 0.0, 59: 1.0, 60: 0.0, 61: 0.0, 62: 1.0, 63: 1.0, 64: 0.0, 65: 0.0, 66: 0.0, 67: 1.0, 68: 0.0, 69: 1.0, 70: 1.0, 71: 0.0, 72: 1.0, 73: 1.0, 74: 0.0, 75: 1.0, 76: 0.0, 77: 0.0, 78: 0.0, 79: 0.0, 80: 0.0, 81: 0.0, 82: 0.0, 83: 0.0, 84: 1.0, 85: 1.0, 86: 0.0, 87: 0.0, 88: 1.0, 89: 0.0, 90: 1.0, 91: 0.0, 92: 0.0, 93: 0.0, 94: 0.0, 95: 0.0];
soc = [0: 9.208337999999999, 1: 8.785477814, 2: 8.890015306, 3: 7.888237303, 4: 6.886659656, 5: 7.785282324, 6: 8.683725267, 7: 7.681988522, 8: 6.680452124, 9: 5.679116034, 10: 6.577980211, 11: 5.576664615, 12: 6.475549282, 13: 5.474254172, 14: 4.473159321, 15: 3.472264689, 16: 4.371570236, 17: 3.370695922, 18: 3.370021783, 19: 4.269347779, 20: 4.268493909, 21: 4.26764021, 22: 5.166786682, 23: 6.065753325, 24: 6.964540174, 25: 7.863147266, 26: 7.861574637, 27: 6.860002322, 28: 5.858630321, 29: 4.857458595, 30: 3.856487104, 31: 2.855715806, 32: 2.855144663, 33: 3.754573634, 34: 2.753822719, 35: 2.753271955, 36: 3.652721301, 37: 3.651990756, 38: 3.651260358, 39: 2.650530106, 40: 2.65, 41: 3.54947, 42: 4.448760106, 43: 5.347870354, 44: 6.24680078, 45: 6.24555142, 46: 7.144302309, 47: 8.042873449, 48: 8.941264874, 49: 7.939476621, 50: 8.837888725999999, 51: 8.836121148, 52: 9.734353924000001, 53: 8.732407052999999, 54: 8.730660572, 55: 7.72891444, 56: 8.627368657, 57: 7.625643183, 58: 7.624118054, 59: 6.622593231, 60: 7.067494674, 61: 7.966081175, 62: 6.964487958, 63: 5.963095061, 64: 5.961902442, 65: 6.860710061, 66: 7.759337919, 67: 6.757786052, 68: 6.756434495, 69: 5.755083208, 70: 4.753932191, 71: 4.752981405, 72: 3.752030808, 73: 2.751280402, 74: 3.650730146, 75: 2.65, 76: 3.54947, 77: 3.548760106, 78: 3.548050354, 79: 4.447340744, 80: 5.346451276, 81: 6.245381986, 82: 7.144132909, 83: 7.142704083, 84: 6.141275542, 85: 5.140047287, 86: 5.139019277, 87: 5.137991473, 88: 4.136963875, 89: 5.036136482, 90: 4.035129255, 91: 4.934322229, 92: 4.933335365, 93: 5.832348698, 94: 6.731182228, 95: 7.629835991];
cost = [0: 0.9585423870000001, 1: 0.0, 2: 0.303842789, 3: 0.0, 4: 0.0, 5: 0.911808537, 6: 0.885417657, 7: 0.0, 8: 0.0, 9: 0.0, 10: 0.863730707, 11: 0.0, 12: 0.869961887, 13: 0.0, 14: 0.0, 15: 0.0, 16: 0.865257957, 17: 0.0, 18: 0.141983342, 19: 0.869961887, 20: 0.136179792, 21: 0.136301972, 22: 0.870878237, 23: 0.870756057, 24: 1.580097432, 25: 1.568796232, 26: 0.261612867, 27: 0.0, 28: 0.0, 29: 0.0, 30: 0.0, 31: 0.0, 32: 0.106013187, 33: 1.412720712, 34: 0.0, 35: 0.108749267, 36: 0.957936508, 37: 0.0, 38: 0.118860867, 39: 0.0, 40: 0.109344067, 41: 0.556089752, 42: 0.118178165, 43: 1.430802632, 44: 0.222050072, 45: 0.112674947, 46: 0.118178165, 47: 0.118178165, 48: 0.412505032, 49: 0.0, 50: 1.417122232, 51: 0.118266067, 52: 0.789323087, 53: 0.0, 54: 0.0, 55: 0.0, 56: 0.5546153069999999, 57: 0.0, 58: 0.503330692, 59: 0.0, 60: 1.158287463, 61: 1.170161272, 62: 0.0, 63: 0.0, 64: 0.113507667, 65: 0.724775032, 66: 1.430564712, 67: 0.0, 68: 0.120050467, 69: 0.0, 70: 0.0, 71: 0.0, 72: 0.0, 73: 0.0, 74: 1.419263512, 75: 0.0, 76: 1.376913752, 77: 0.108392387, 78: 0.105775267, 79: 1.405226232, 80: 1.404869352, 81: 1.412958632, 82: 1.414980952, 83: 0.107559667, 84: 0.0, 85: 0.0, 86: 0.126236387, 87: 0.128020787, 88: 0.0, 89: 0.7899339869999999, 90: 0.0, 91: 0.794515737, 92: 0.067758992, 93: 0.893359357, 94: 0.9825507570000001, 95: 0.986949237];
earn = [0: 0.0, 1: 0.0, 2: 0.0, 3: 0.330884823, 4: 0.325396825, 5: 0.0, 6: 0.0, 7: 0.352285217, 8: 0.348165322, 9: 0.364073198, 10: 0.0, 11: 0.371526492, 12: 0.0, 13: 0.365287382, 14: 0.366955943, 15: 0.371544758, 16: 0.0, 17: 0.371176333, 18: 0.0, 19: 0.0, 20: 0.0, 21: 0.0, 22: 0.0, 23: 0.0, 24: 0.0, 25: 0.0, 26: 0.0, 27: 0.738181767, 28: 0.745573708, 29: 0.770200735, 30: 0.842838033, 31: 0.850799142, 32: 0.0, 33: 0.0, 34: 0.991113163, 35: 0.0, 36: 0.0, 37: 0.375348202, 38: 0.0, 39: 1.053816062, 40: 0.0, 41: 0.0, 42: 0.043332603, 43: 0.0, 44: 0.0, 45: 0.0, 46: 0.484759423, 47: 0.702103127, 48: 0.0, 49: 0.449779183, 50: 0.0, 51: 0.0, 52: 0.0, 53: 0.607907238, 54: 0.176106493, 55: 0.382087202, 56: 0.0, 57: 0.172552985, 58: 0.0, 59: 0.047421562, 60: 0.0, 61: 0.0, 62: 0.6891165420000001, 63: 0.247809092, 64: 0.0, 65: 0.0, 66: 0.0, 67: 1.216320873, 68: 0.0, 69: 0.493945183, 70: 0.64794548, 71: 0.125305515, 72: 0.58600045, 73: 0.742336433, 74: 0.0, 75: 0.696838313, 76: 0.0, 77: 0.0, 78: 0.0, 79: 0.0, 80: 0.0, 81: 0.0, 82: 0.0, 83: 0.0, 84: 0.65965265, 85: 0.6879744330000001, 86: 0.0, 87: 0.0, 88: 0.64477375, 89: 0.0, 90: 0.623834917, 91: 0.0, 92: 0.0, 93: 0.0, 94: 0.0, 95: 0.0];
total_cost = 39.622680391;
total_earn = 21.063069893;
% _objective = 18.559610498;