production = [0: 0.0, 1: 0.0, 2: 0.0, 3: 0.0, 4: 0.0, 5: 0.0, 6: 0.0, 7: 0.0, 8: 0.0, 9: 0.0, 10: 0.0, 11: 0.0, 12: 0.0, 13: 0.0, 14: 0.0, 15: 0.0, 16: 0.0, 17: 0.0, 18: 0.0, 19: 0.0, 20: 0.0, 21: 0.0, 22: 0.0, 23: 6e-06, 24: 0.000453, 25: 0.01801, 26: 0.039418, 27: 0.101839, 28: 0.095489, 29: 0.053472, 30: 0.039936, 31: 0.045077, 32: 0.053421, 33: 0.120225, 34: 0.048655, 35: 0.019603, 36: 0.275551, 37: 0.259348, 38: 0.296323, 39: 0.480383, 40: 0.099454, 41: 0.483074, 42: 0.57034, 43: 0.400333, 44: 0.223747, 45: 0.441941, 46: 0.271228, 47: 0.366064, 48: 0.317092, 49: 0.09754699999999999, 50: 0.188584, 51: 0.283451, 52: 0.048999, 53: 0.193889, 54: 0.209468, 55: 0.005263, 56: 0.03892, 57: 0.008455000000000001, 58: 0.151948, 59: 0.199677, 60: 0.001306, 61: 0.05598, 62: 0.050739, 63: 0.067812, 64: 0.00711, 65: 0.004166, 66: 0.033546, 67: 0.124183, 68: 0.074292, 69: 0.033583, 70: 0.002981, 71: 0.001311, 72: 0.0, 73: 0.0, 74: 0.0, 75: 0.0, 76: 0.0, 77: 0.0, 78: 0.0, 79: 0.0, 80: 0.0, 81: 0.0, 82: 0.0, 83: 0.0, 84: 0.0, 85: 0.0, 86: 0.0, 87: 0.0, 88: 0.0, 89: 0.0, 90: 0.0, 91: 0.0, 92: 0.0, 93: 0.0, 94: 0.0, 95: 0.0];
buy = [0: 844.60707, 1: 747.899571, 2: 867.775449, 3: 853.303466, 4: 696.0632450000001, 5: 585.888933, 6: 8.904835, 7: 596.9380650000001, 8: 995.774326, 9: 737.449024, 10: 647.6023290000001, 11: 587.1271850000001, 12: 624.291266, 13: 944.818989, 14: 3.77717, 15: 607.038248, 16: 895.124054, 17: 235.03826, 18: 416.756563, 19: 324.231683, 20: 723.861085, 21: 865.211822, 22: 104.040174, 23: 119.182472, 24: 835.887981, 25: 392.414591, 26: 646.697805, 27: 105.624884, 28: 601.817452, 29: 62.046868, 30: 440.869483, 31: 732.602297, 32: 333.600842, 33: 19.158982, 34: 7.16796, 35: 624.574516, 36: 457.433681, 37: 978.9656220000001, 38: 775.302847, 39: 979.329345, 40: 209.639515, 41: 780.901961, 42: 95.271417, 43: 438.94028, 44: 451.460708, 45: 200.913865, 46: 875.3804709999999, 47: 618.013649, 48: 533.240505, 49: 111.646517, 50: 313.605521, 51: 345.703649, 52: 692.445996, 53: 629.023463, 54: 515.23323, 55: 336.476578, 56: 269.098415, 57: 286.128148, 58: 941.2370539999999, 59: 936.461202, 60: 429.485989, 61: 116.131499, 62: 30.038304, 63: 719.306148, 64: 720.260681, 65: 600.375853, 66: 85.718518, 67: 804.434678, 68: 202.55617, 69: 30.777085, 70: 972.94429, 71: 351.678319, 72: 968.489501, 73: 103.572276, 74: 865.185838, 75: 248.682843, 76: 692.412627, 77: 523.341004, 78: 988.844191, 79: 295.825941, 80: 242.796838, 81: 742.066404, 82: 789.051577, 83: 543.4418020000001, 84: 180.810584, 85: 52.08238, 86: 740.568577, 87: 64.130753, 88: 977.901923, 89: 16.19804, 90: 603.031527, 91: 133.769304, 92: 54.154619, 93: 462.08929, 94: 182.759349, 95: 208.508314];
sell = [0: 3.64349, 1: 2.949281, 2: 2.579981, 3: 3.800267, 4: 3.814088, 5: 0.051091, 6: 2.975673, 7: 1.242714, 8: 0.172957, 9: 2.226588, 10: 0.491463, 11: 2.548693, 12: 1.889259, 13: 0.210817, 14: 1.789633, 15: 0.989467, 16: 3.850026, 17: 0.9303169999999999, 18: 3.110778, 19: 2.992957, 20: 0.96071, 21: 2.688501, 22: 2.69893, 23: 3.180605, 24: 0.989158, 25: 1.969798, 26: 0.607222, 27: 3.770811, 28: 0.688056, 29: 1.789083, 30: 1.073499, 31: 0.292271, 32: 2.8541, 33: 0.385572, 34: 0.985244, 35: 3.892011, 36: 2.20355, 37: 2.049151, 38: 2.199256, 39: 3.593033, 40: 2.523722, 41: 2.016192, 42: 1.644188, 43: 0.648447, 44: 0.44296, 45: 0.937477, 46: 1.377422, 47: 2.401814, 48: 1.13812, 49: 3.277908, 50: 3.18406, 51: 2.617607, 52: 1.260458, 53: 0.563696, 54: 2.704466, 55: 1.054973, 56: 0.602956, 57: 0.597543, 58: 1.615339, 59: 1.394157, 60: 3.269786, 61: 3.528404, 62: 3.943983, 63: 2.153709, 64: 2.679043, 65: 0.268158, 66: 3.691515, 67: 2.956172, 68: 1.144163, 69: 3.066261, 70: 0.5660500000000001, 71: 3.404862, 72: 0.7577390000000001, 73: 3.481342, 74: 3.595598, 75: 0.09099599999999999, 76: 1.248322, 77: 1.597791, 78: 0.786025, 79: 1.966665, 80: 0.894939, 81: 0.323535, 82: 1.682859, 83: 0.538309, 84: 3.863683, 85: 1.559415, 86: 1.807087, 87: 0.836652, 88: 1.395339, 89: 1.53481, 90: 3.02855, 91: 1.477182, 92: 1.730265, 93: 1.799439, 94: 0.83251, 95: 1.373236];
charge = [0: 0.361094, 1: 0.8943990000000001, 2: 0.447046, 3: 0.747436, 4: 0.606448, 5: 0.510234, 6: 0.104301, 7: 0.122504, 8: 0.469504, 9: 0.764453, 10: 0.495699, 11: 0.761405, 12: 0.697926, 13: 0.07937900000000001, 14: 0.270991, 15: 0.941201, 16: 0.213484, 17: 0.802118, 18: 0.15621, 19: 0.8933219999999999, 20: 0.6619930000000001, 21: 0.467999, 22: 0.641896, 23: 0.047244, 24: 0.990773, 25: 0.80749, 26: 0.69876, 27: 0.349893, 28: 0.883175, 29: 0.508888, 30: 0.229627, 31: 0.47473, 32: 0.199867, 33: 0.83324, 34: 0.462051, 35: 0.927298, 36: 0.723692, 37: 0.15566, 38: 0.867792, 39: 0.859594, 40: 0.577169, 41: 0.603866, 42: 0.75705, 43: 0.652057, 44: 0.005484, 45: 0.861889, 46: 0.742664, 47: 0.456375, 48: 0.917648, 49: 0.219523, 50: 0.678514, 51: 0.313377, 52: 0.256267, 53: 0.197011, 54: 0.993804, 55: 0.832707, 56: 0.240416, 57: 0.052871, 58: 0.292208, 59: 0.277648, 60: 0.738332, 61: 0.317128, 62: 0.020783, 63: 0.183137, 64: 0.830217, 65: 0.657957, 66: 0.416602, 67: 0.569813, 68: 0.274329, 69: 0.548221, 70: 0.249925, 71: 0.418165, 72: 0.222061, 73: 0.841121, 74: 0.156683, 75: 0.618441, 76: 0.201004, 77: 0.9440190000000001, 78: 0.047052, 79: 0.060456, 80: 0.780383, 81: 0.762645, 82: 0.646519, 83: 0.340012, 84: 0.364949, 85: 0.44188, 86: 0.160519, 87: 0.733249, 88: 0.650303, 89: 0.299161, 90: 0.560541, 91: 0.59781, 92: 0.424233, 93: 0.514985, 94: 0.405474, 95: 0.12226];
discharge = [0: 0.332419, 1: 0.968371, 2: 0.999729, 3: 0.314807, 4: 0.165388, 5: 0.475361, 6: 0.275037, 7: 0.955891, 8: 0.049661, 9: 0.332897, 10: 0.757556, 11: 0.596259, 12: 0.149134, 13: 0.00767, 14: 0.688376, 15: 0.214102, 16: 0.315007, 17: 0.568791, 18: 0.7407010000000001, 19: 0.670847, 20: 0.040744, 21: 0.085897, 22: 0.667994, 23: 0.6763670000000001, 24: 0.004916, 25: 0.23566, 26: 0.197978, 27: 0.64402, 28: 0.908353, 29: 0.012586, 30: 0.127478, 31: 0.783787, 32: 0.892709, 33: 0.276816, 34: 0.238959, 35: 0.649317, 36: 0.569764, 37: 0.520393, 38: 0.973404, 39: 0.518648, 40: 0.52703, 41: 0.180531, 42: 0.872538, 43: 0.476019, 44: 0.947665, 45: 0.423822, 46: 0.829113, 47: 0.198239, 48: 0.299322, 49: 0.550689, 50: 0.6535, 51: 0.654187, 52: 0.9452970000000001, 53: 0.256901, 54: 0.8828009999999999, 55: 0.713801, 56: 0.933803, 57: 0.141947, 58: 0.467115, 59: 0.635374, 60: 0.9556519999999999, 61: 0.010538, 62: 0.495257, 63: 0.270975, 64: 0.950044, 65: 0.368044, 66: 0.35506, 67: 0.973141, 68: 0.189091, 69: 0.916752, 70: 0.414185, 71: 0.95436, 72: 0.704307, 73: 0.025794, 74: 0.586941, 75: 0.455691, 76: 0.850425, 77: 0.986541, 78: 0.67336, 79: 0.366452, 80: 0.139594, 81: 0.581856, 82: 0.00606, 83: 0.599556, 84: 0.893139, 85: 0.819913, 86: 0.81038, 87: 0.547356, 88: 0.883152, 89: 0.700155, 90: 0.7871359999999999, 91: 0.6883010000000001, 92: 0.01499, 93: 0.8398099999999999, 94: 0.998376, 95: 0.884053];
soc = [0: 8.992194, 1: 7.349455, 2: 8.913228999999999, 3: 5.34037, 4: 13.56826, 5: 12.289113, 6: 6.007373, 7: 10.792465, 8: 6.944096, 9: 7.840379, 10: 2.7555, 11: 8.79541, 12: 14.685099, 13: 9.308335, 14: 10.869174, 15: 9.101512, 16: 7.675946, 17: 5.713066, 18: 15.47905, 19: 3.731929, 20: 8.715538, 21: 8.152526, 22: 3.327853, 23: 2.662307, 24: 5.536819, 25: 11.180707, 26: 2.875116, 27: 10.594086, 28: 12.024203, 29: 8.699089000000001, 30: 7.383845, 31: 8.151926, 32: 8.671637, 33: 5.638891, 34: 9.761818999999999, 35: 13.098408, 36: 7.821728, 37: 10.46698, 38: 6.155167, 39: 8.828522, 40: 5.37004, 41: 6.606074, 42: 4.452112, 43: 13.893177, 44: 5.612329, 45: 9.207395999999999, 46: 8.594462999999999, 47: 13.90354, 48: 10.046232, 49: 6.881781, 50: 7.904288, 51: 14.29683, 52: 8.703649, 53: 4.312062, 54: 3.331231, 55: 13.42667, 56: 2.82979, 57: 15.166103, 58: 3.294222, 59: 11.78614, 60: 12.68186, 61: 13.81317, 62: 8.566907, 63: 6.048324, 64: 4.092667, 65: 3.070883, 66: 3.183811, 67: 3.159409, 68: 11.529378, 69: 6.870838, 70: 12.977667, 71: 12.448034, 72: 9.213592, 73: 5.328064, 74: 14.404175, 75: 13.799416, 76: 8.482158, 77: 6.650032, 78: 2.949577, 79: 10.056218, 80: 5.376684, 81: 14.965311, 82: 11.309478, 83: 9.584535000000001, 84: 9.275484000000001, 85: 9.10557, 86: 11.235764, 87: 6.997559, 88: 11.215718, 89: 13.32573, 90: 5.97796, 91: 9.31386, 92: 11.194019, 93: 9.0656, 94: 14.809029, 95: 14.455487];
cost = [0: 277.862449, 1: 597.444586, 2: 207.915247, 3: 238.452276, 4: 142.041901, 5: 156.821148, 6: 26.026542, 7: 25.618353, 8: 597.8761479999999, 9: 500.65268, 10: 411.75953, 11: 505.620101, 12: 587.092352, 13: 521.719694, 14: 18.362685, 15: 239.868818, 16: 463.248407, 17: 147.878588, 18: 3.371781, 19: 91.636619, 20: 155.908565, 21: 456.033146, 22: 610.132889, 23: 501.207192, 24: 53.509329, 25: 1015.827123, 26: 113.206137, 27: 98.869513, 28: 1089.663965, 29: 1021.204996, 30: 678.276601, 31: 995.7481289999999, 32: 1151.529228, 33: 995.217132, 34: 429.086842, 35: 363.675045, 36: 100.419667, 37: 219.642762, 38: 148.594452, 39: 1092.943096, 40: 361.730799, 41: 604.7726730000001, 42: 246.248978, 43: 604.259625, 44: 593.034564, 45: 771.459921, 46: 845.166376, 47: 948.471263, 48: 765.991728, 49: 1102.910996, 50: 966.033415, 51: 189.769807, 52: 264.988746, 53: 539.52619, 54: 544.862826, 55: 91.38940700000001, 56: 154.526832, 57: 273.561085, 58: 170.206654, 59: 21.416637, 60: 383.227545, 61: 1066.412237, 62: 652.371659, 63: 780.784346, 64: 447.4098, 65: 108.524656, 66: 824.936033, 67: 228.747919, 68: 345.639653, 69: 356.384408, 70: 51.298973, 71: 791.619503, 72: 449.642337, 73: 468.81803, 74: 1175.515152, 75: 601.098221, 76: 23.455049, 77: 47.434662, 78: 828.437514, 79: 1068.055785, 80: 778.9071279999999, 81: 829.027954, 82: 1172.565665, 83: 1035.189129, 84: 410.134491, 85: 11.243321, 86: 1020.877066, 87: 892.200324, 88: 107.410942, 89: 36.822426, 90: 59.892848, 91: 123.682436, 92: 294.252839, 93: 530.9290999999999, 94: 194.253601, 95: 148.581931];
earn = [0: 0.951721, 1: 1.192787, 2: 1.519456, 3: 1.843624, 4: 1.873661, 5: 0.709898, 6: 0.210187, 7: 1.946334, 8: 0.6658269999999999, 9: 2.106914, 10: 0.7437589999999999, 11: 0.417867, 12: 2.107997, 13: 2.237432, 14: 2.351706, 15: 1.023355, 16: 1.781465, 17: 1.002907, 18: 2.766953, 19: 0.560698, 20: 1.061342, 21: 0.619044, 22: 3.001889, 23: 1.659658, 24: 2.769311, 25: 0.146669, 26: 0.857793, 27: 0.249716, 28: 2.08325, 29: 1.913629, 30: 2.049209, 31: 2.047124, 32: 2.570698, 33: 0.02388, 34: 0.784253, 35: 2.050605, 36: 1.528225, 37: 0.608724, 38: 2.371632, 39: 1.266496, 40: 1.625312, 41: 1.069005, 42: 0.885737, 43: 0.6939, 44: 0.832932, 45: 0.288003, 46: 1.62394, 47: 0.169592, 48: 0.0462, 49: 1.243679, 50: 1.412386, 51: 1.580872, 52: 1.830683, 53: 0.330865, 54: 2.053447, 55: 1.186474, 56: 1.440385, 57: 2.244313, 58: 0.373976, 59: 1.417872, 60: 2.153163, 61: 0.470756, 62: 1.23438, 63: 1.877683, 64: 1.722593, 65: 0.677887, 66: 1.92911, 67: 2.23671, 68: 2.982072, 69: 3.122722, 70: 1.682517, 71: 0.532544, 72: 3.102854, 73: 4.331337, 74: 2.119163, 75: 3.393062, 76: 2.097723, 77: 0.54727, 78: 1.498686, 79: 0.748225, 80: 0.9399729999999999, 81: 2.323796, 82: 0.739754, 83: 3.063161, 84: 0.528211, 85: 0.418418, 86: 0.576969, 87: 2.511283, 88: 0.213844, 89: 0.453197, 90: 2.48642, 91: 2.734592, 92: 1.455443, 93: 2.684935, 94: 0.805065, 95: 0.889714];
total_cost = 44.20578708747848;
total_earn = 23.09550400701565;
