production = [0: 0.0, 1: 0.0, 2: 0.0, 3: 0.0, 4: 0.0, 5: 0.0, 6: 0.0, 7: 0.0, 8: 0.0, 9: 0.0, 10: 0.0, 11: 0.0, 12: 0.0, 13: 0.0, 14: 0.0, 15: 0.0, 16: 0.0, 17: 0.0, 18: 0.0, 19: 0.0, 20: 0.0, 21: 0.0, 22: 0.0, 23: 0.000133, 24: 0.000399, 25: 0.010068, 26: 0.014023, 27: 0.106652, 28: 0.009409000000000001, 29: 0.000382, 30: 0.060794, 31: 0.064148, 32: 0.061581, 33: 0.132264, 34: 0.08418200000000001, 35: 0.276923, 36: 0.242499, 37: 0.263126, 38: 0.276774, 39: 0.091553, 40: 0.122497, 41: 0.13044, 42: 0.166616, 43: 0.181644, 44: 0.168315, 45: 0.233491, 46: 0.238887, 47: 0.153276, 48: 0.140159, 49: 0.359828, 50: 0.122626, 51: 0.013698, 52: 0.021013, 53: 0.021313, 54: 0.108379, 55: 0.196214, 56: 0.06716800000000001, 57: 0.07688399999999999, 58: 0.036201, 59: 0.140434, 60: 0.129564, 61: 0.139755, 62: 0.024482, 63: 0.06331100000000001, 64: 0.035009, 65: 0.091402, 66: 0.111605, 67: 0.007579, 68: 0.026917, 69: 0.01132, 70: 0.001876, 71: 0.000969, 72: 0.0, 73: 0.0, 74: 0.0, 75: 0.0, 76: 0.0, 77: 0.0, 78: 0.0, 79: 0.0, 80: 0.0, 81: 0.0, 82: 0.0, 83: 0.0, 84: 0.0, 85: 0.0, 86: 0.0, 87: 0.0, 88: 0.0, 89: 0.0, 90: 0.0, 91: 0.0, 92: 0.0, 93: 0.0, 94: 0.0, 95: 0.0];
buy = [0: 306.790855, 1: 823.479504, 2: 198.124221, 3: 248.29041, 4: 726.494118, 5: 600.547715, 6: 386.82122, 7: 410.537815, 8: 81.71801000000001, 9: 737.2427259999999, 10: 227.485326, 11: 699.836273, 12: 668.33827, 13: 92.204386, 14: 69.84198600000001, 15: 769.591955, 16: 729.817812, 17: 458.126291, 18: 484.397966, 19: 325.880018, 20: 499.155999, 21: 426.361509, 22: 194.050146, 23: 743.681242, 24: 312.804195, 25: 909.811586, 26: 842.308116, 27: 570.98151, 28: 809.795396, 29: 611.5266329999999, 30: 136.209095, 31: 811.14482, 32: 258.127568, 33: 995.875375, 34: 779.5672080000001, 35: 732.021521, 36: 565.378642, 37: 656.423722, 38: 499.02554, 39: 128.888617, 40: 968.838077, 41: 706.221712, 42: 407.49537, 43: 93.553776, 44: 237.52236, 45: 929.415177, 46: 489.326909, 47: 912.967982, 48: 811.304296, 49: 763.258902, 50: 773.185906, 51: 771.848766, 52: 161.269791, 53: 801.063293, 54: 723.960268, 55: 850.709472, 56: 798.080225, 57: 878.152968, 58: 457.353081, 59: 759.759269, 60: 650.714309, 61: 424.100975, 62: 75.515854, 63: 705.8747980000001, 64: 476.757124, 65: 794.791079, 66: 621.369155, 67: 197.676678, 68: 827.579611, 69: 302.469122, 70: 938.915156, 71: 682.104819, 72: 510.762775, 73: 965.854926, 74: 509.502398, 75: 738.884443, 76: 15.129413, 77: 557.547249, 78: 692.009892, 79: 2.830074, 80: 625.314298, 81: 501.123688, 82: 982.226494, 83: 176.529039, 84: 961.84016, 85: 227.8731, 86: 500.82516, 87: 851.0843139999999, 88: 541.857337, 89: 202.870482, 90: 981.125727, 91: 430.451274, 92: 19.073128, 93: 558.8338220000001, 94: 856.404575, 95: 236.557008];
sell = [0: 3.851717, 1: 0.091959, 2: 3.325169, 3: 3.132556, 4: 3.637248, 5: 0.615456, 6: 2.16416, 7: 2.031224, 8: 0.075796, 9: 2.490712, 10: 1.255671, 11: 2.215755, 12: 0.223219, 13: 2.245527, 14: 0.071488, 15: 2.08686, 16: 1.679007, 17: 2.031725, 18: 2.972548, 19: 3.619243, 20: 2.291945, 21: 2.77841, 22: 3.870474, 23: 1.21223, 24: 1.570705, 25: 1.30249, 26: 1.440708, 27: 3.50862, 28: 2.561531, 29: 3.372543, 30: 2.037905, 31: 1.659487, 32: 3.897042, 33: 0.9144640000000001, 34: 1.342026, 35: 1.460775, 36: 1.177702, 37: 3.33345, 38: 0.588232, 39: 2.607149, 40: 3.25758, 41: 1.085658, 42: 0.159804, 43: 2.185499, 44: 3.340361, 45: 3.472109, 46: 2.875883, 47: 1.614661, 48: 1.942471, 49: 2.245797, 50: 2.868879, 51: 0.997847, 52: 2.279482, 53: 1.998871, 54: 1.663782, 55: 1.340427, 56: 2.062622, 57: 3.387876, 58: 0.131655, 59: 1.495234, 60: 2.968636, 61: 2.734554, 62: 0.066354, 63: 2.19285, 64: 3.388294, 65: 0.171142, 66: 3.373773, 67: 3.696671, 68: 0.438076, 69: 1.305922, 70: 2.950308, 71: 2.598575, 72: 0.703555, 73: 2.445824, 74: 1.777152, 75: 2.190002, 76: 3.897643, 77: 2.534471, 78: 1.321012, 79: 0.284192, 80: 0.791415, 81: 1.773457, 82: 3.78268, 83: 2.087968, 84: 2.604168, 85: 3.86198, 86: 1.861585, 87: 0.258794, 88: 3.125929, 89: 0.08162999999999999, 90: 3.349048, 91: 0.760899, 92: 1.13022, 93: 2.45356, 94: 3.310657, 95: 0.504875];
charge = [0: 0.601328, 1: 0.016593, 2: 0.819598, 3: 0.102565, 4: 0.63015, 5: 0.883462, 6: 0.352943, 7: 0.379159, 8: 0.160682, 9: 0.149206, 10: 0.230286, 11: 0.393279, 12: 0.18455, 13: 0.988343, 14: 0.835713, 15: 0.317741, 16: 0.352725, 17: 0.911934, 18: 0.607217, 19: 0.187871, 20: 0.539239, 21: 0.245764, 22: 0.02173, 23: 0.885115, 24: 0.554987, 25: 0.074144, 26: 0.844106, 27: 0.188045, 28: 0.590112, 29: 0.527224, 30: 0.134082, 31: 0.150801, 32: 0.685869, 33: 0.691867, 34: 0.154292, 35: 0.512558, 36: 0.841879, 37: 0.105807, 38: 0.863797, 39: 0.367348, 40: 0.605667, 41: 0.626925, 42: 0.884946, 43: 0.699618, 44: 0.763748, 45: 0.274598, 46: 0.568462, 47: 0.048731, 48: 0.8668709999999999, 49: 0.515359, 50: 0.003145, 51: 0.623556, 52: 0.41986, 53: 0.971853, 54: 0.652618, 55: 0.552145, 56: 0.804683, 57: 0.009162999999999999, 58: 0.194831, 59: 0.9544280000000001, 60: 0.967719, 61: 0.7, 62: 0.19393, 63: 0.62954, 64: 0.738247, 65: 0.374522, 66: 0.622875, 67: 0.562574, 68: 0.227502, 69: 0.804495, 70: 0.8889590000000001, 71: 0.062399, 72: 0.9518799999999999, 73: 0.444199, 74: 0.151782, 75: 0.613183, 76: 0.019063, 77: 0.906339, 78: 0.653685, 79: 0.395678, 80: 0.129615, 81: 0.068913, 82: 0.77882, 83: 0.568378, 84: 0.5053339999999999, 85: 0.659393, 86: 0.097792, 87: 0.694975, 88: 0.815712, 89: 0.441146, 90: 0.475127, 91: 0.527446, 92: 0.916837, 93: 0.498238, 94: 0.422727, 95: 0.798742];
discharge = [0: 0.924611, 1: 0.821296, 2: 0.278323, 3: 0.131084, 4: 0.963681, 5: 0.566307, 6: 0.10408, 7: 0.385628, 8: 0.022273, 9: 0.110221, 10: 0.489699, 11: 0.24172, 12: 0.025172, 13: 0.761116, 14: 0.884306, 15: 0.279356, 16: 0.9929210000000001, 17: 0.4327, 18: 0.694149, 19: 0.352572, 20: 0.835181, 21: 0.780895, 22: 0.75668, 23: 0.649222, 24: 0.462902, 25: 0.064503, 26: 0.203033, 27: 0.365726, 28: 0.818595, 29: 0.646024, 30: 0.211042, 31: 0.619023, 32: 0.03786, 33: 0.746492, 34: 0.457035, 35: 0.548072, 36: 0.784257, 37: 0.840415, 38: 0.154979, 39: 0.414934, 40: 0.47958, 41: 0.514779, 42: 0.736007, 43: 0.740762, 44: 0.7709279999999999, 45: 0.539629, 46: 0.322645, 47: 0.6317, 48: 0.255908, 49: 0.227845, 50: 0.315486, 51: 0.867959, 52: 0.470307, 53: 0.920578, 54: 0.881274, 55: 0.565629, 56: 0.5282, 57: 0.477771, 58: 0.318743, 59: 0.374345, 60: 0.762135, 61: 0.974676, 62: 0.282004, 63: 0.922662, 64: 0.7916069999999999, 65: 0.459528, 66: 0.234548, 67: 0.160893, 68: 0.991636, 69: 0.136472, 70: 0.976876, 71: 0.914102, 72: 0.288156, 73: 0.192656, 74: 0.288016, 75: 0.245474, 76: 0.368111, 77: 0.786945, 78: 0.198338, 79: 0.601835, 80: 0.633564, 81: 0.091727, 82: 0.6819730000000001, 83: 0.634525, 84: 0.236709, 85: 0.051265, 86: 0.865676, 87: 0.290644, 88: 0.781402, 89: 0.905548, 90: 0.209848, 91: 0.432788, 92: 0.263356, 93: 0.738572, 94: 0.321726, 95: 0.450663];
soc = [0: 8.680605, 1: 7.801981, 2: 11.763391, 3: 8.921035, 4: 13.178874, 5: 11.159223, 6: 11.607618, 7: 2.757429, 8: 6.787167, 9: 4.326852, 10: 15.163962, 11: 7.056746, 12: 3.649258, 13: 14.971774, 14: 8.705171, 15: 10.507845, 16: 11.490562, 17: 3.001471, 18: 14.660814, 19: 3.57513, 20: 11.836673, 21: 13.964958, 22: 13.547018, 23: 11.135059, 24: 9.964464, 25: 9.619674, 26: 3.977675, 27: 4.807916, 28: 4.783481, 29: 12.316976, 30: 8.105154000000001, 31: 4.235978, 32: 15.179392, 33: 8.818690999999999, 34: 11.552032, 35: 7.823465, 36: 3.241148, 37: 12.590472, 38: 11.589873, 39: 11.127806, 40: 12.963009, 41: 12.490149, 42: 8.586950999999999, 43: 5.736684, 44: 9.667415999999999, 45: 8.901695, 46: 5.619601, 47: 6.418714, 48: 7.140348, 49: 10.620196, 50: 9.917846000000001, 51: 6.168806, 52: 2.710411, 53: 13.80521, 54: 13.996428, 55: 10.448194, 56: 13.547484, 57: 3.216725, 58: 8.788905, 59: 11.761906, 60: 4.51898, 61: 10.859997, 62: 14.792257, 63: 9.350987999999999, 64: 11.662928, 65: 6.018705, 66: 10.251425, 67: 6.936209, 68: 5.436472, 69: 14.906274, 70: 9.875085, 71: 9.339867999999999, 72: 5.06697, 73: 15.054083, 74: 3.263903, 75: 8.843226, 76: 2.660387, 77: 4.488425, 78: 14.165095, 79: 5.319918, 80: 6.474586, 81: 9.729737, 82: 10.839169, 83: 15.243613, 84: 3.092351, 85: 8.611857000000001, 86: 12.132984, 87: 8.888833999999999, 88: 8.446209, 89: 7.053667, 90: 6.08963, 91: 4.782653, 92: 10.945898, 93: 4.981816, 94: 7.176895, 95: 12.691869];
cost = [0: 388.327463, 1: 130.941947, 2: 110.637772, 3: 512.51085, 4: 310.982067, 5: 83.675719, 6: 141.00897, 7: 136.920504, 8: 499.36295, 9: 72.514618, 10: 542.320783, 11: 506.322384, 12: 593.608338, 13: 275.13818, 14: 584.0726079999999, 15: 153.65955, 16: 462.177925, 17: 90.447957, 18: 203.357734, 19: 8.312624, 20: 592.367251, 21: 594.064732, 22: 343.248196, 23: 593.040884, 24: 756.233284, 25: 584.5074969999999, 26: 1105.492622, 27: 78.225683, 28: 559.360082, 29: 112.791785, 30: 732.237383, 31: 881.48614, 32: 532.621335, 33: 1012.351472, 34: 1075.248061, 35: 380.854806, 36: 994.392741, 37: 684.38267, 38: 972.000262, 39: 387.36429, 40: 383.679432, 41: 549.1297949999999, 42: 1036.660411, 43: 276.936995, 44: 223.831389, 45: 604.660771, 46: 36.561372, 47: 904.068658, 48: 460.455043, 49: 117.358484, 50: 1137.918942, 51: 86.375016, 52: 293.944477, 53: 462.045796, 54: 546.402387, 55: 22.729514, 56: 575.131812, 57: 538.088984, 58: 152.078121, 59: 511.257185, 60: 1025.407218, 61: 345.378545, 62: 867.113101, 63: 348.807349, 64: 1088.049734, 65: 203.6935, 66: 777.812821, 67: 149.375707, 68: 9.305641, 69: 67.80103099999999, 70: 318.081486, 71: 1124.362894, 72: 147.740232, 73: 702.485738, 74: 847.204686, 75: 999.836489, 76: 220.817281, 77: 338.114111, 78: 928.436476, 79: 28.580047, 80: 839.208562, 81: 179.367413, 82: 1174.821686, 83: 1066.749829, 84: 379.454695, 85: 937.86437, 86: 165.24524, 87: 10.559921, 88: 361.386228, 89: 240.275825, 90: 493.428036, 91: 98.087913, 92: 383.140526, 93: 272.062888, 94: 285.480125, 95: 270.410493];
earn = [0: 2.520001, 1: 1.386474, 2: 0.0108, 3: 1.923934, 4: 2.055646, 5: 1.281201, 6: 1.146458, 7: 2.491803, 8: 0.477954, 9: 2.508819, 10: 1.580274, 11: 2.453448, 12: 0.64766, 13: 0.301116, 14: 2.305324, 15: 1.891174, 16: 1.595065, 17: 1.766309, 18: 2.346125, 19: 2.632195, 20: 1.038034, 21: 1.254695, 22: 3.256278, 23: 0.119862, 24: 1.829261, 25: 3.11583, 26: 0.395645, 27: 0.607551, 28: 0.790139, 29: 2.616224, 30: 0.082362, 31: 0.6753, 32: 2.121341, 33: 3.42384, 34: 2.007577, 35: 1.617225, 36: 0.460592, 37: 1.071137, 38: 0.776869, 39: 0.511208, 40: 2.064637, 41: 1.848699, 42: 0.7935140000000001, 43: 1.488405, 44: 2.202454, 45: 1.306367, 46: 1.377928, 47: 0.117518, 48: 1.645794, 49: 1.208991, 50: 1.383323, 51: 1.694268, 52: 1.914124, 53: 1.496294, 54: 1.983051, 55: 0.385881, 56: 1.56386, 57: 2.06289, 58: 1.071744, 59: 0.12583, 60: 1.939791, 61: 1.554661, 62: 0.088155, 63: 0.028895, 64: 1.390122, 65: 0.842012, 66: 2.79745, 67: 0.910392, 68: 1.959593, 69: 2.725495, 70: 3.81586, 71: 1.524474, 72: 3.674782, 73: 2.125089, 74: 4.616397, 75: 4.242697, 76: 0.685696, 77: 1.785143, 78: 2.693204, 79: 1.840622, 80: 0.9887550000000001, 81: 3.520799, 82: 3.447588, 83: 3.194826, 84: 3.060869, 85: 0.453676, 86: 0.200748, 87: 1.754685, 88: 3.038526, 89: 0.8121429999999999, 90: 0.29803, 91: 2.50137, 92: 0.836376, 93: 2.395957, 94: 1.865983, 95: 2.846223];
total_cost = 43.59829702552967;
total_earn = 27.11943928668727;
