production = [0: 0.0, 1: 0.0, 2: 0.0, 3: 0.0, 4: 0.0, 5: 0.0, 6: 0.0, 7: 0.0, 8: 0.0, 9: 0.0, 10: 0.0, 11: 0.0, 12: 0.0, 13: 0.0, 14: 0.0, 15: 0.0, 16: 0.0, 17: 0.0, 18: 0.0, 19: 0.0, 20: 0.0, 21: 0.0, 22: 0.0, 23: 4e-05, 24: 0.000184, 25: 0.03677, 26: 0.005149, 27: 0.111033, 28: 0.042846, 29: 0.051719, 30: 0.128963, 31: 0.12173, 32: 0.043214, 33: 0.003714, 34: 0.190227, 35: 0.161464, 36: 0.08794, 37: 0.000195, 38: 0.132401, 39: 0.250642, 40: 0.347189, 41: 0.054536, 42: 0.274151, 43: 0.219699, 44: 0.13183, 45: 0.355316, 46: 0.269407, 47: 0.360295, 48: 0.02337, 49: 0.329788, 50: 0.191902, 51: 0.070631, 52: 0.027339, 53: 0.250255, 54: 0.184216, 55: 0.11479, 56: 0.121362, 57: 0.048693, 58: 0.09578399999999999, 59: 0.056254, 60: 0.006223, 61: 0.005898, 62: 0.059386, 63: 0.005, 64: 0.175827, 65: 0.098523, 66: 0.112402, 67: 0.119595, 68: 0.019517, 69: 0.001419, 70: 0.002545, 71: 0.002916, 72: 0.0, 73: 0.0, 74: 0.0, 75: 0.0, 76: 0.0, 77: 0.0, 78: 0.0, 79: 0.0, 80: 0.0, 81: 0.0, 82: 0.0, 83: 0.0, 84: 0.0, 85: 0.0, 86: 0.0, 87: 0.0, 88: 0.0, 89: 0.0, 90: 0.0, 91: 0.0, 92: 0.0, 93: 0.0, 94: 0.0, 95: 0.0];
buy = [0: 22.180745, 1: 723.830681, 2: 137.614354, 3: 746.350588, 4: 278.759441, 5: 649.6898210000001, 6: 529.006212, 7: 717.224344, 8: 496.281621, 9: 606.874067, 10: 783.748064, 11: 396.635104, 12: 187.032408, 13: 344.588308, 14: 15.927194, 15: 404.657092, 16: 917.523019, 17: 164.203661, 18: 390.60517, 19: 644.016045, 20: 986.496726, 21: 107.483804, 22: 644.175927, 23: 579.2296260000001, 24: 390.501668, 25: 430.180687, 26: 982.694763, 27: 305.350157, 28: 184.114824, 29: 26.697614, 30: 672.425796, 31: 673.07624, 32: 668.755927, 33: 330.847646, 34: 604.771125, 35: 712.960208, 36: 164.08131, 37: 21.016026, 38: 193.254275, 39: 49.250615, 40: 146.094875, 41: 766.103687, 42: 298.618564, 43: 771.189374, 44: 231.111213, 45: 73.45635, 46: 557.137259, 47: 162.40669, 48: 826.11082, 49: 229.506807, 50: 272.541223, 51: 700.154536, 52: 50.414452, 53: 718.7843350000001, 54: 608.580326, 55: 259.794927, 56: 101.631157, 57: 72.45742, 58: 230.620165, 59: 490.043932, 60: 859.8213929999999, 61: 471.729277, 62: 722.094916, 63: 850.488822, 64: 299.050394, 65: 68.900285, 66: 432.389357, 67: 727.701552, 68: 838.21866, 69: 609.433341, 70: 435.023141, 71: 654.196278, 72: 357.329921, 73: 437.407746, 74: 641.223785, 75: 323.942065, 76: 43.471176, 77: 13.337395, 78: 110.65998, 79: 504.891028, 80: 371.400874, 81: 812.072573, 82: 661.781779, 83: 143.095698, 84: 105.732901, 85: 446.137353, 86: 32.514508, 87: 875.575528, 88: 253.710636, 89: 907.963226, 90: 708.5487890000001, 91: 891.944228, 92: 90.469036, 93: 734.05397, 94: 375.510003, 95: 175.230023];
sell = [0: 3.753354, 1: 1.773886, 2: 2.577754, 3: 0.5093220000000001, 4: 1.387695, 5: 0.254889, 6: 3.184404, 7: 1.205521, 8: 2.309744, 9: 2.998086, 10: 3.460625, 11: 1.726277, 12: 2.058991, 13: 2.078394, 14: 2.398845, 15: 0.844373, 16: 0.453802, 17: 2.001571, 18: 3.542228, 19: 2.711438, 20: 2.183856, 21: 1.83195, 22: 3.992611, 23: 1.49531, 24: 3.021834, 25: 1.274399, 26: 3.453329, 27: 3.528886, 28: 0.558488, 29: 1.281307, 30: 3.992537, 31: 1.401637, 32: 3.132878, 33: 1.914928, 34: 3.50694, 35: 2.356741, 36: 0.398121, 37: 3.02485, 38: 1.726336, 39: 1.908339, 40: 3.269365, 41: 2.890826, 42: 1.615018, 43: 3.616939, 44: 1.730304, 45: 3.521476, 46: 3.136706, 47: 0.447167, 48: 0.096278, 49: 3.63184, 50: 1.880017, 51: 0.529635, 52: 3.822833, 53: 1.488334, 54: 2.026812, 55: 3.992995, 56: 3.305402, 57: 0.382033, 58: 2.435419, 59: 3.309927, 60: 3.101238, 61: 1.12789, 62: 3.212801, 63: 0.639688, 64: 2.991688, 65: 0.6902700000000001, 66: 0.003498, 67: 1.625422, 68: 3.039365, 69: 0.721023, 70: 1.212896, 71: 3.688527, 72: 1.262534, 73: 2.744887, 74: 3.488225, 75: 1.209977, 76: 0.656911, 77: 3.720191, 78: 3.008091, 79: 1.151046, 80: 2.522759, 81: 0.754815, 82: 1.145457, 83: 0.307445, 84: 2.925613, 85: 1.544661, 86: 1.278979, 87: 1.240691, 88: 0.94983, 89: 0.095349, 90: 1.521447, 91: 3.788942, 92: 2.058588, 93: 3.824218, 94: 3.317693, 95: 3.954997];
charge = [0: 0.29029, 1: 0.944666, 2: 0.037339, 3: 0.820231, 4: 0.98459, 5: 0.6948800000000001, 6: 0.549777, 7: 0.054682, 8: 0.437742, 9: 0.5155, 10: 0.790292, 11: 0.949684, 12: 0.454398, 13: 0.054768, 14: 0.598842, 15: 0.063251, 16: 0.35846, 17: 0.16734, 18: 0.956525, 19: 0.129973, 20: 0.647145, 21: 0.03013, 22: 0.414776, 23: 0.495216, 24: 0.164984, 25: 0.198986, 26: 0.321704, 27: 0.32284, 28: 0.735291, 29: 0.105544, 30: 0.28519, 31: 0.693653, 32: 0.434752, 33: 0.10914, 34: 0.723485, 35: 0.268417, 36: 0.446957, 37: 0.623107, 38: 0.177805, 39: 0.978997, 40: 0.366795, 41: 0.907294, 42: 0.95945, 43: 0.5497379999999999, 44: 0.238166, 45: 0.63112, 46: 0.159225, 47: 0.259419, 48: 0.11715, 49: 0.83385, 50: 0.862911, 51: 0.189587, 52: 0.723872, 53: 0.7902400000000001, 54: 0.079497, 55: 0.271423, 56: 0.788121, 57: 0.527112, 58: 0.854905, 59: 0.444417, 60: 0.313579, 61: 0.429208, 62: 0.275908, 63: 0.952489, 64: 0.366999, 65: 0.530148, 66: 0.8501339999999999, 67: 0.891218, 68: 0.482835, 69: 0.717141, 70: 0.6331870000000001, 71: 0.945903, 72: 0.162051, 73: 0.81019, 74: 0.136924, 75: 0.592755, 76: 0.027074, 77: 0.222283, 78: 0.592917, 79: 0.556662, 80: 0.588468, 81: 0.963094, 82: 0.981829, 83: 0.00405, 84: 0.179528, 85: 0.273135, 86: 0.646139, 87: 0.916179, 88: 0.264881, 89: 0.467041, 90: 0.341245, 91: 0.527456, 92: 0.037384, 93: 0.989488, 94: 0.121185, 95: 0.413968];
discharge = [0: 0.445288, 1: 0.017923, 2: 0.309521, 3: 0.986031, 4: 0.599649, 5: 0.582403, 6: 0.966567, 7: 0.438076, 8: 0.708954, 9: 0.061503, 10: 0.963614, 11: 0.220823, 12: 0.416438, 13: 0.8134400000000001, 14: 0.149338, 15: 0.020672, 16: 0.601747, 17: 0.425178, 18: 0.613042, 19: 0.161228, 20: 0.081515, 21: 0.362257, 22: 0.637085, 23: 0.56864, 24: 0.639321, 25: 0.109362, 26: 0.702442, 27: 0.489755, 28: 0.640993, 29: 0.988171, 30: 0.472575, 31: 0.8792990000000001, 32: 0.071936, 33: 0.376991, 34: 0.161362, 35: 0.872273, 36: 0.407264, 37: 0.324675, 38: 0.79133, 39: 0.58197, 40: 0.881247, 41: 0.997893, 42: 0.9749679999999999, 43: 0.071572, 44: 0.073576, 45: 0.101881, 46: 0.904649, 47: 0.497738, 48: 0.81614, 49: 0.77071, 50: 0.829802, 51: 0.7224159999999999, 52: 0.718248, 53: 0.003748, 54: 0.490568, 55: 0.478954, 56: 0.6877220000000001, 57: 0.926855, 58: 0.42161, 59: 0.132562, 60: 0.40739, 61: 0.795939, 62: 0.662247, 63: 0.279698, 64: 0.406457, 65: 0.405391, 66: 0.992618, 67: 0.978935, 68: 0.9608100000000001, 69: 0.448677, 70: 0.370309, 71: 0.53103, 72: 0.135815, 73: 0.709805, 74: 0.639347, 75: 0.353901, 76: 0.398491, 77: 0.119663, 78: 0.902834, 79: 0.520853, 80: 0.140024, 81: 0.279802, 82: 0.60919, 83: 0.35426, 84: 0.465513, 85: 0.696422, 86: 0.904453, 87: 0.481878, 88: 0.962541, 89: 0.477708, 90: 0.949615, 91: 0.150843, 92: 0.485761, 93: 0.6328510000000001, 94: 0.802098, 95: 0.436011];
soc = [0: 10.14812, 1: 10.155461, 2: 7.569926, 3: 9.726255, 4: 8.993656, 5: 5.17887, 6: 12.763469, 7: 11.547301, 8: 13.45559, 9: 3.725781, 10: 10.755203, 11: 6.82354, 12: 8.15143, 13: 5.864885, 14: 15.160746, 15: 10.705433, 16: 13.925458, 17: 15.6134, 18: 3.643167, 19: 8.264521999999999, 20: 10.512059, 21: 5.500254, 22: 7.872128, 23: 8.794019, 24: 8.111302999999999, 25: 14.951068, 26: 3.484613, 27: 11.924133, 28: 11.581095, 29: 6.917376, 30: 10.920139, 31: 4.387285, 32: 6.282758, 33: 15.655041, 34: 7.925508, 35: 7.733582, 36: 7.454775, 37: 8.747259, 38: 6.368007, 39: 10.19328, 40: 12.3284, 41: 13.11687, 42: 5.710717, 43: 8.976701, 44: 5.572892, 45: 12.977722, 46: 10.431308, 47: 6.706524, 48: 5.792171, 49: 11.803073, 50: 9.727809000000001, 51: 14.523485, 52: 8.898327999999999, 53: 15.479436, 54: 9.07202, 55: 13.763948, 56: 9.039391999999999, 57: 12.096418, 58: 11.374836, 59: 11.195879, 60: 12.018657, 61: 14.628548, 62: 6.737185, 63: 5.530999, 64: 14.260946, 65: 9.888547000000001, 66: 3.487926, 67: 9.207261000000001, 68: 9.642412999999999, 69: 6.743539, 70: 9.631536000000001, 71: 8.405132999999999, 72: 5.773405, 73: 9.106593, 74: 10.981093, 75: 6.817983, 76: 5.225091, 77: 4.80272, 78: 10.556908, 79: 6.007386, 80: 4.366153, 81: 12.772514, 82: 5.520945, 83: 6.983589, 84: 13.971003, 85: 8.664324000000001, 86: 9.680026, 87: 5.799837, 88: 8.323836999999999, 89: 3.362801, 90: 6.306811, 91: 6.798962, 92: 9.021229999999999, 93: 11.483991, 94: 7.127315, 95: 11.682946];
cost = [0: 263.686616, 1: 315.398183, 2: 12.182466, 3: 460.09855, 4: 462.755183, 5: 538.48734, 6: 141.39008, 7: 271.257102, 8: 229.10358, 9: 451.895225, 10: 83.57675399999999, 11: 496.270082, 12: 379.969717, 13: 339.666564, 14: 308.989024, 15: 295.21631, 16: 610.384155, 17: 471.12002, 18: 192.286975, 19: 320.391873, 20: 581.757131, 21: 9.57959, 22: 557.210853, 23: 208.19764, 24: 1124.496028, 25: 373.838505, 26: 281.85297, 27: 701.939648, 28: 991.212238, 29: 718.980665, 30: 342.250518, 31: 1086.261472, 32: 277.13469, 33: 648.863222, 34: 1133.7228, 35: 24.7166, 36: 100.095306, 37: 282.512704, 38: 1109.823116, 39: 606.421205, 40: 693.9007779999999, 41: 1003.442546, 42: 370.58339, 43: 450.915881, 44: 965.792813, 45: 434.860841, 46: 867.6368, 47: 471.588526, 48: 77.13581600000001, 49: 1009.963174, 50: 467.703064, 51: 1104.384331, 52: 186.14201, 53: 291.181202, 54: 285.739885, 55: 226.721123, 56: 533.345365, 57: 69.845501, 58: 245.625449, 59: 181.367465, 60: 1052.41171, 61: 1066.336265, 62: 392.588355, 63: 453.03382, 64: 553.223441, 65: 674.181816, 66: 917.939587, 67: 806.916399, 68: 727.446133, 69: 961.855858, 70: 901.986327, 71: 347.397178, 72: 955.5034900000001, 73: 989.375503, 74: 572.8873620000001, 75: 413.441765, 76: 817.720127, 77: 197.103446, 78: 1071.990071, 79: 812.763337, 80: 507.361366, 81: 183.852012, 82: 415.01576, 83: 286.729741, 84: 1153.774438, 85: 851.4050999999999, 86: 18.005165, 87: 941.424797, 88: 265.513572, 89: 586.007101, 90: 546.679399, 91: 36.199445, 92: 604.772012, 93: 537.99362, 94: 388.508425, 95: 451.242575];
earn = [0: 2.288589, 1: 2.662756, 2: 2.180584, 3: 0.042615, 4: 1.957347, 5: 1.568954, 6: 0.218379, 7: 0.989896, 8: 0.968214, 9: 0.925397, 10: 1.66297, 11: 2.622242, 12: 1.514133, 13: 2.688514, 14: 0.427833, 15: 1.575262, 16: 0.902685, 17: 1.768157, 18: 2.107222, 19: 1.965363, 20: 2.75431, 21: 2.643633, 22: 3.321737, 23: 2.400871, 24: 3.582231, 25: 1.547281, 26: 0.884848, 27: 0.305629, 28: 1.782419, 29: 0.314671, 30: 0.15433, 31: 1.644185, 32: 3.443121, 33: 1.354047, 34: 3.251215, 35: 1.840489, 36: 2.704065, 37: 1.667876, 38: 2.272606, 39: 0.6549199999999999, 40: 2.322063, 41: 1.59581, 42: 1.202123, 43: 0.928445, 44: 1.96108, 45: 0.755753, 46: 0.320939, 47: 0.629135, 48: 0.447307, 49: 1.56152, 50: 0.545469, 51: 2.077682, 52: 0.763578, 53: 1.134907, 54: 0.750529, 55: 2.266757, 56: 0.480737, 57: 0.743773, 58: 2.577591, 59: 2.466313, 60: 2.414168, 61: 1.627169, 62: 0.77632, 63: 2.898033, 64: 0.390793, 65: 0.270851, 66: 0.46578, 67: 1.38811, 68: 0.615379, 69: 0.686904, 70: 0.2064, 71: 2.67847, 72: 2.125826, 73: 1.564944, 74: 4.881845, 75: 1.577382, 76: 2.766138, 77: 0.509869, 78: 1.952522, 79: 2.053226, 80: 3.768997, 81: 2.31345, 82: 1.403831, 83: 1.648105, 84: 1.515019, 85: 3.086725, 86: 1.647693, 87: 2.582324, 88: 1.317876, 89: 2.689071, 90: 0.6967370000000001, 91: 1.218904, 92: 0.468703, 93: 1.203563, 94: 2.627724, 95: 2.601301];
total_cost = 49.52978808015604;
total_earn = 26.04711826500001;
