production = [0: 0.0, 1: 0.0, 2: 0.0, 3: 0.0, 4: 0.0, 5: 0.0, 6: 0.0, 7: 0.0, 8: 0.0, 9: 0.0, 10: 0.0, 11: 0.0, 12: 0.0, 13: 0.0, 14: 0.0, 15: 0.0, 16: 0.0, 17: 0.0, 18: 0.0, 19: 0.0, 20: 0.0, 21: 0.0, 22: 0.0, 23: 0.000252, 24: 0.000388, 25: 0.025588, 26: 0.07389, 27: 0.059233, 28: 0.038171, 29: 0.045833, 30: 0.128751, 31: 0.024773, 32: 0.07292700000000001, 33: 0.089439, 34: 0.07885399999999999, 35: 0.223243, 36: 0.136508, 37: 0.016197, 38: 0.164928, 39: 0.26772, 40: 0.184656, 41: 0.370922, 42: 0.050382, 43: 0.07485799999999999, 44: 0.290275, 45: 0.057077, 46: 0.26501, 47: 0.155703, 48: 0.325295, 49: 0.132733, 50: 0.229028, 51: 0.144988, 52: 0.126954, 53: 0.030257, 54: 0.081929, 55: 0.129247, 56: 0.107585, 57: 0.051435, 58: 0.163746, 59: 0.179072, 60: 0.117574, 61: 0.062663, 62: 0.055653, 63: 0.072115, 64: 0.091747, 65: 0.192999, 66: 0.121917, 67: 0.11862, 68: 0.025819, 69: 0.03689, 70: 0.005431, 71: 0.001911, 72: 0.0, 73: 0.0, 74: 0.0, 75: 0.0, 76: 0.0, 77: 0.0, 78: 0.0, 79: 0.0, 80: 0.0, 81: 0.0, 82: 0.0, 83: 0.0, 84: 0.0, 85: 0.0, 86: 0.0, 87: 0.0, 88: 0.0, 89: 0.0, 90: 0.0, 91: 0.0, 92: 0.0, 93: 0.0, 94: 0.0, 95: 0.0];
buy = [0: 415.215754, 1: 628.3966, 2: 377.372317, 3: 907.569093, 4: 919.514755, 5: 788.823544, 6: 867.947528, 7: 124.274073, 8: 803.310255, 9: 298.926376, 10: 936.814254, 11: 219.720948, 12: 632.127941, 13: 655.879936, 14: 412.407838, 15: 410.328524, 16: 570.947351, 17: 825.594667, 18: 587.620118, 19: 394.293898, 20: 301.012752, 21: 938.679763, 22: 117.239728, 23: 265.969368, 24: 943.0079019999999, 25: 597.195662, 26: 968.982211, 27: 541.682934, 28: 801.02719, 29: 308.338832, 30: 839.1935580000001, 31: 568.267278, 32: 314.632762, 33: 652.706912, 34: 888.292017, 35: 901.794651, 36: 243.507034, 37: 234.772882, 38: 331.522524, 39: 952.300522, 40: 981.316269, 41: 120.052939, 42: 652.670259, 43: 285.101407, 44: 437.409253, 45: 452.875528, 46: 256.581688, 47: 192.092742, 48: 159.424194, 49: 68.36759600000001, 50: 736.485629, 51: 38.013219, 52: 923.892215, 53: 893.26761, 54: 659.308366, 55: 82.94145399999999, 56: 300.00456, 57: 780.670044, 58: 232.9672, 59: 239.571503, 60: 275.415151, 61: 831.137607, 62: 509.774532, 63: 561.774508, 64: 214.090935, 65: 152.563309, 66: 500.147079, 67: 852.398295, 68: 313.287027, 69: 190.716214, 70: 758.910352, 71: 305.750895, 72: 693.315412, 73: 446.676769, 74: 308.369777, 75: 609.81166, 76: 634.562908, 77: 843.855957, 78: 399.802177, 79: 612.993669, 80: 205.898152, 81: 608.3034290000001, 82: 704.538402, 83: 198.354138, 84: 166.332492, 85: 803.240173, 86: 992.215361, 87: 965.411667, 88: 758.010007, 89: 197.876168, 90: 958.77664, 91: 220.291325, 92: 889.61909, 93: 829.795475, 94: 763.375551, 95: 221.619263];
sell = [0: 0.037132, 1: 3.66792, 2: 0.955973, 3: 3.246795, 4: 0.451307, 5: 3.765226, 6: 3.898594, 7: 2.724365, 8: 0.703421, 9: 1.574881, 10: 3.497473, 11: 2.014714, 12: 2.774529, 13: 1.192111, 14: 1.602976, 15: 0.419864, 16: 3.265162, 17: 2.525082, 18: 3.587731, 19: 0.864557, 20: 0.568971, 21: 3.540685, 22: 2.426839, 23: 3.317922, 24: 3.065579, 25: 2.703843, 26: 1.807519, 27: 2.705829, 28: 0.248711, 29: 2.579714, 30: 2.637676, 31: 3.012542, 32: 3.693607, 33: 1.0626, 34: 2.580853, 35: 1.928658, 36: 0.800284, 37: 2.270688, 38: 0.218615, 39: 3.750485, 40: 0.047168, 41: 1.289394, 42: 3.878277, 43: 2.177228, 44: 2.716929, 45: 1.564219, 46: 3.537166, 47: 0.09156599999999999, 48: 1.427891, 49: 0.40562, 50: 0.405429, 51: 3.223198, 52: 3.676749, 53: 3.924394, 54: 2.823082, 55: 0.039261, 56: 3.41602, 57: 0.342942, 58: 0.5794010000000001, 59: 0.382155, 60: 1.325558, 61: 0.8099769999999999, 62: 3.753042, 63: 2.141939, 64: 3.854555, 65: 0.783042, 66: 2.485705, 67: 1.02082, 68: 1.852788, 69: 0.233582, 70: 1.819915, 71: 3.144893, 72: 0.79599, 73: 0.739735, 74: 0.204521, 75: 1.672191, 76: 3.782168, 77: 0.574048, 78: 2.541235, 79: 3.866228, 80: 1.410591, 81: 2.949232, 82: 1.876607, 83: 1.267132, 84: 2.413384, 85: 0.593089, 86: 2.187592, 87: 2.160628, 88: 0.319634, 89: 0.887714, 90: 0.073874, 91: 0.61042, 92: 2.492767, 93: 3.419631, 94: 0.98533, 95: 1.392666];
charge = [0: 0.590152, 1: 0.917137, 2: 0.389175, 3: 0.829667, 4: 0.927547, 5: 0.979397, 6: 0.767279, 7: 0.900679, 8: 0.456541, 9: 0.893689, 10: 0.896608, 11: 0.091485, 12: 0.864202, 13: 0.862698, 14: 0.041278, 15: 0.925364, 16: 0.602168, 17: 0.266085, 18: 0.9109660000000001, 19: 0.303479, 20: 0.411054, 21: 0.603984, 22: 0.129017, 23: 0.646133, 24: 0.138369, 25: 0.061817, 26: 0.511313, 27: 0.647022, 28: 0.74738, 29: 0.793529, 30: 0.878213, 31: 0.764154, 32: 0.725552, 33: 0.431538, 34: 0.800962, 35: 0.184654, 36: 0.249056, 37: 0.670631, 38: 0.864079, 39: 0.635982, 40: 0.424802, 41: 0.368369, 42: 0.240066, 43: 0.384482, 44: 0.095944, 45: 0.864503, 46: 0.894676, 47: 0.835196, 48: 0.624982, 49: 0.5922809999999999, 50: 0.567404, 51: 0.219903, 52: 0.106529, 53: 0.753698, 54: 0.649089, 55: 0.720665, 56: 0.854865, 57: 0.46838, 58: 0.272087, 59: 0.859619, 60: 0.475703, 61: 0.6370980000000001, 62: 0.6587150000000001, 63: 0.391364, 64: 0.988707, 65: 0.585358, 66: 0.415723, 67: 0.916809, 68: 0.122313, 69: 0.179321, 70: 0.248574, 71: 0.226675, 72: 0.825209, 73: 0.781875, 74: 0.8026180000000001, 75: 0.796831, 76: 0.026697, 77: 0.359392, 78: 0.274518, 79: 0.714274, 80: 0.189543, 81: 0.702028, 82: 0.279303, 83: 0.52501, 84: 0.575022, 85: 0.294683, 86: 0.8682839999999999, 87: 0.29891, 88: 0.170262, 89: 0.82316, 90: 0.285726, 91: 0.053084, 92: 0.587398, 93: 0.463295, 94: 0.18787, 95: 0.365048];
discharge = [0: 0.297305, 1: 0.932298, 2: 0.778685, 3: 0.51142, 4: 0.015424, 5: 0.323303, 6: 0.503114, 7: 0.834215, 8: 0.791469, 9: 0.389376, 10: 0.124398, 11: 0.878069, 12: 0.679402, 13: 0.885989, 14: 0.157059, 15: 0.549056, 16: 0.534749, 17: 0.371828, 18: 0.673683, 19: 0.484214, 20: 0.214481, 21: 0.020623, 22: 0.949097, 23: 0.702306, 24: 0.046744, 25: 0.7493610000000001, 26: 0.818005, 27: 0.669836, 28: 0.771165, 29: 0.554894, 30: 0.6261330000000001, 31: 0.07921, 32: 0.106273, 33: 0.980276, 34: 0.096377, 35: 0.458167, 36: 0.329742, 37: 0.896087, 38: 0.456857, 39: 0.472446, 40: 0.95159, 41: 0.646393, 42: 0.296365, 43: 0.361051, 44: 0.143509, 45: 0.899977, 46: 0.600465, 47: 0.310367, 48: 0.495411, 49: 0.135694, 50: 0.8881790000000001, 51: 0.107913, 52: 0.383485, 53: 0.404912, 54: 0.554153, 55: 0.89542, 56: 0.11456, 57: 0.962063, 58: 0.579815, 59: 0.072794, 60: 0.033814, 61: 0.50753, 62: 0.861964, 63: 0.042591, 64: 0.794359, 65: 0.366594, 66: 0.201881, 67: 0.471476, 68: 0.677446, 69: 0.624575, 70: 0.926663, 71: 0.239702, 72: 0.998048, 73: 0.011821, 74: 0.264473, 75: 0.8184630000000001, 76: 0.6478699999999999, 77: 0.099564, 78: 0.784583, 79: 0.467507, 80: 0.022343, 81: 0.464726, 82: 0.124676, 83: 0.733642, 84: 0.915091, 85: 0.466635, 86: 0.744331, 87: 0.386062, 88: 0.431324, 89: 0.893431, 90: 0.613101, 91: 0.399568, 92: 0.335427, 93: 0.343905, 94: 0.7466, 95: 0.650221];
soc = [0: 8.448993, 1: 8.436132000000001, 2: 7.487351, 3: 5.776635, 4: 9.752205, 5: 5.666354, 6: 10.50913, 7: 9.776596, 8: 11.490645, 9: 13.945665, 10: 7.471429, 11: 8.350504000000001, 12: 9.381529, 13: 9.690388, 14: 8.520963, 15: 4.241716, 16: 11.135061, 17: 11.673531, 18: 8.240781, 19: 14.226958, 20: 9.361663, 21: 13.945463, 22: 3.741899, 23: 3.124706, 24: 5.553295, 25: 8.760941000000001, 26: 4.637968, 27: 5.99942, 28: 4.180207, 29: 6.984128, 30: 12.47492, 31: 15.565811, 32: 10.332925, 33: 13.967026, 34: 8.608412, 35: 8.223445, 36: 7.067494, 37: 15.582353, 38: 6.308602, 39: 15.343047, 40: 6.399319, 41: 6.302605, 42: 15.170852, 43: 3.608032, 44: 13.844896, 45: 4.497945, 46: 14.730138, 47: 9.322912000000001, 48: 9.072065, 49: 9.080776999999999, 50: 10.195629, 51: 12.262489, 52: 5.935077, 53: 3.916498, 54: 12.617735, 55: 13.977247, 56: 6.053914, 57: 4.803184, 58: 11.071427, 59: 8.285439999999999, 60: 8.421763, 61: 6.951314, 62: 6.341686, 63: 15.400163, 64: 5.108141, 65: 7.883971, 66: 11.760563, 67: 11.585707, 68: 11.143896, 69: 12.06725, 70: 6.169577, 71: 12.690249, 72: 12.430931, 73: 13.371399, 74: 8.474028000000001, 75: 5.528987, 76: 5.455978, 77: 5.433853, 78: 13.956785, 79: 9.223976, 80: 5.107384, 81: 5.937707, 82: 3.363657, 83: 9.275150999999999, 84: 13.529088, 85: 10.484033, 86: 11.879088, 87: 15.384671, 88: 14.366071, 89: 13.01779, 90: 12.193018, 91: 12.935063, 92: 13.77167, 93: 12.453703, 94: 13.711962, 95: 4.769018];
cost = [0: 596.1813560000001, 1: 289.868532, 2: 580.020433, 3: 484.69351, 4: 128.38016, 5: 559.145518, 6: 425.499892, 7: 337.258872, 8: 152.425154, 9: 375.055432, 10: 209.307743, 11: 81.670698, 12: 478.948437, 13: 523.035654, 14: 188.04326, 15: 512.951819, 16: 432.497318, 17: 49.927424, 18: 311.254521, 19: 545.715063, 20: 592.723917, 21: 491.663746, 22: 546.678757, 23: 119.4556, 24: 383.308249, 25: 700.4408979999999, 26: 366.514329, 27: 545.374358, 28: 127.186935, 29: 569.157701, 30: 485.359889, 31: 337.850619, 32: 517.228557, 33: 1059.091956, 34: 823.810966, 35: 405.544496, 36: 267.280682, 37: 567.393941, 38: 875.978015, 39: 335.977383, 40: 661.0261829999999, 41: 906.987331, 42: 1098.863, 43: 272.221476, 44: 1062.14246, 45: 536.3645289999999, 46: 196.501795, 47: 690.960144, 48: 681.888267, 49: 328.755367, 50: 568.755325, 51: 253.226372, 52: 526.597702, 53: 258.730155, 54: 150.414328, 55: 139.965778, 56: 541.5799050000001, 57: 281.091893, 58: 42.956388, 59: 344.46162, 60: 925.4387379999999, 61: 736.60563, 62: 567.968917, 63: 877.218305, 64: 126.972412, 65: 702.035815, 66: 204.957686, 67: 992.910172, 68: 67.701188, 69: 439.934403, 70: 507.342907, 71: 208.524842, 72: 713.733891, 73: 690.540481, 74: 849.290755, 75: 283.742918, 76: 1083.929782, 77: 183.515541, 78: 87.696451, 79: 772.833838, 80: 754.697767, 81: 49.706046, 82: 374.156834, 83: 816.750587, 84: 124.788616, 85: 968.982894, 86: 728.823154, 87: 296.008887, 88: 518.441659, 89: 452.332741, 90: 388.159857, 91: 596.37528, 92: 252.243891, 93: 579.127847, 94: 456.552977, 95: 378.326551];
earn = [0: 0.301406, 1: 1.618293, 2: 1.570749, 3: 0.585906, 4: 1.007906, 5: 1.02369, 6: 2.263188, 7: 1.777681, 8: 2.341065, 9: 2.375965, 10: 0.033422, 11: 1.833098, 12: 2.848477, 13: 1.27853, 14: 2.899242, 15: 1.072032, 16: 1.903109, 17: 2.171214, 18: 2.417102, 19: 1.729315, 20: 2.561385, 21: 2.290501, 22: 0.846373, 23: 2.625211, 24: 2.961352, 25: 2.925316, 26: 0.547656, 27: 0.078177, 28: 1.137925, 29: 1.034809, 30: 3.264157, 31: 0.776667, 32: 0.838286, 33: 2.849023, 34: 2.704014, 35: 1.547277, 36: 3.305354, 37: 0.947895, 38: 2.508495, 39: 0.434537, 40: 2.166293, 41: 2.188341, 42: 0.126534, 43: 1.172189, 44: 1.128138, 45: 0.607697, 46: 0.513122, 47: 0.367489, 48: 1.583048, 49: 1.782881, 50: 2.065611, 51: 1.188996, 52: 1.834012, 53: 1.096486, 54: 0.392545, 55: 1.889142, 56: 0.771022, 57: 0.23506, 58: 0.952994, 59: 1.021783, 60: 0.461583, 61: 0.282738, 62: 1.600549, 63: 1.385019, 64: 0.060803, 65: 0.695203, 66: 2.287395, 67: 2.879286, 68: 0.787284, 69: 0.598867, 70: 2.285339, 71: 0.102141, 72: 1.567797, 73: 1.165343, 74: 4.149966, 75: 1.46579, 76: 1.076771, 77: 2.984248, 78: 2.637329, 79: 0.066209, 80: 0.692641, 81: 2.519645, 82: 2.443806, 83: 0.090126, 84: 2.240442, 85: 2.703174, 86: 0.258103, 87: 0.495464, 88: 3.085328, 89: 1.042867, 90: 0.257307, 91: 1.419528, 92: 2.263697, 93: 1.52099, 94: 1.288371, 95: 1.344464];
total_cost = 44.55658151806632;
total_earn = 27.49341956753823;
