production = [0: 0.0, 1: 0.0, 2: 0.0, 3: 0.0, 4: 0.0, 5: 0.0, 6: 0.0, 7: 0.0, 8: 0.0, 9: 0.0, 10: 0.0, 11: 0.0, 12: 0.0, 13: 0.0, 14: 0.0, 15: 0.0, 16: 0.0, 17: 0.0, 18: 0.0, 19: 0.0, 20: 0.0, 21: 0.0, 22: 0.0, 23: 8.6e-05, 24: 0.000259, 25: 0.036793, 26: 0.053507, 27: 0.143003, 28: 0.033311, 29: 0.045387, 30: 0.004539, 31: 0.02966, 32: 0.049569, 33: 0.013124, 34: 0.162174, 35: 0.113011, 36: 0.021856, 37: 0.126285, 38: 0.375412, 39: 0.313396, 40: 0.417752, 41: 0.09470199999999999, 42: 0.493921, 43: 0.473696, 44: 0.084204, 45: 0.120991, 46: 0.102828, 47: 0.311276, 48: 0.134184, 49: 0.333462, 50: 0.319129, 51: 0.092427, 52: 0.296646, 53: 0.083588, 54: 0.160771, 55: 0.140575, 56: 0.013324, 57: 0.148265, 58: 0.050149, 59: 0.182315, 60: 0.207578, 61: 0.08368100000000001, 62: 0.076141, 63: 0.02993, 64: 0.033338, 65: 0.009268, 66: 0.162419, 67: 0.017881, 68: 0.023858, 69: 0.006953, 70: 0.008229, 71: 0.001255, 72: 0.0, 73: 0.0, 74: 0.0, 75: 0.0, 76: 0.0, 77: 0.0, 78: 0.0, 79: 0.0, 80: 0.0, 81: 0.0, 82: 0.0, 83: 0.0, 84: 0.0, 85: 0.0, 86: 0.0, 87: 0.0, 88: 0.0, 89: 0.0, 90: 0.0, 91: 0.0, 92: 0.0, 93: 0.0, 94: 0.0, 95: 0.0];
buy = [0: 916.169929, 1: 796.225112, 2: 704.642002, 3: 888.09824, 4: 398.458553, 5: 489.524863, 6: 373.50751, 7: 262.10177, 8: 590.740637, 9: 309.741343, 10: 294.541534, 11: 275.37695, 12: 819.480636, 13: 827.975146, 14: 265.27739, 15: 391.754969, 16: 411.01844, 17: 596.071081, 18: 580.382447, 19: 76.57863, 20: 819.267167, 21: 871.104544, 22: 677.278125, 23: 149.08065, 24: 702.856572, 25: 212.949432, 26: 564.031355, 27: 873.120777, 28: 548.739372, 29: 258.155323, 30: 436.814022, 31: 202.935108, 32: 893.687979, 33: 553.776083, 34: 703.157658, 35: 182.111328, 36: 529.5698619999999, 37: 234.155073, 38: 899.7864039999999, 39: 690.23822, 40: 370.589989, 41: 957.597075, 42: 495.544661, 43: 2.114477, 44: 494.614111, 45: 55.47554, 46: 477.069051, 47: 187.071476, 48: 319.361378, 49: 852.093944, 50: 388.693698, 51: 699.5310040000001, 52: 7.346695, 53: 76.71262299999999, 54: 792.7402080000001, 55: 317.99042, 56: 781.017551, 57: 829.42534, 58: 706.656918, 59: 701.095311, 60: 616.001116, 61: 681.1340719999999, 62: 524.057395, 63: 255.648442, 64: 627.616113, 65: 839.117927, 66: 66.932462, 67: 161.743852, 68: 59.594602, 69: 368.397737, 70: 860.928693, 71: 185.154152, 72: 538.606236, 73: 276.588202, 74: 188.73251, 75: 931.370704, 76: 891.707331, 77: 684.264401, 78: 862.368326, 79: 353.76714, 80: 241.617504, 81: 398.607321, 82: 362.256368, 83: 233.194707, 84: 855.81537, 85: 695.885532, 86: 825.581676, 87: 422.602396, 88: 531.345406, 89: 816.051711, 90: 716.696466, 91: 228.848408, 92: 813.0462690000001, 93: 574.028627, 94: 108.600783, 95: 419.912474];
sell = [0: 3.360855, 1: 0.146107, 2: 2.436729, 3: 3.935247, 4: 3.012322, 5: 2.195709, 6: 2.907611, 7: 1.153953, 8: 2.733085, 9: 2.885424, 10: 0.220788, 11: 1.916466, 12: 2.389882, 13: 0.022741, 14: 2.545799, 15: 1.63853, 16: 3.233552, 17: 1.05991, 18: 2.336989, 19: 3.80176, 20: 0.183626, 21: 2.54154, 22: 0.530161, 23: 3.703109, 24: 1.721068, 25: 2.314182, 26: 2.298657, 27: 2.840375, 28: 2.872318, 29: 2.263564, 30: 3.837877, 31: 3.281004, 32: 0.664936, 33: 0.467004, 34: 0.319357, 35: 2.588483, 36: 1.065367, 37: 1.634265, 38: 1.532263, 39: 0.944045, 40: 0.143853, 41: 0.188592, 42: 2.693376, 43: 2.646019, 44: 0.79393, 45: 2.85026, 46: 2.302076, 47: 0.32291, 48: 3.338123, 49: 1.243908, 50: 2.405057, 51: 1.717393, 52: 1.896311, 53: 1.680397, 54: 0.199681, 55: 2.681769, 56: 1.757, 57: 0.307735, 58: 3.708095, 59: 1.556264, 60: 2.317498, 61: 3.440415, 62: 1.479961, 63: 2.966334, 64: 0.196501, 65: 3.530895, 66: 0.809765, 67: 1.931055, 68: 0.974175, 69: 3.792064, 70: 0.953382, 71: 2.812004, 72: 0.590985, 73: 3.125158, 74: 1.276133, 75: 0.228947, 76: 3.122282, 77: 3.247755, 78: 0.640413, 79: 1.708789, 80: 0.236562, 81: 2.519397, 82: 0.295736, 83: 0.7344309999999999, 84: 1.529098, 85: 1.974797, 86: 2.540509, 87: 3.43197, 88: 2.098214, 89: 0.513716, 90: 0.374457, 91: 2.174654, 92: 2.65345, 93: 2.540963, 94: 2.222414, 95: 1.395649];
charge = [0: 0.165334, 1: 0.400304, 2: 0.438289, 3: 0.895614, 4: 0.4486, 5: 0.254921, 6: 0.9941, 7: 0.395091, 8: 0.197546, 9: 0.686018, 10: 0.402992, 11: 0.442338, 12: 0.88123, 13: 0.57887, 14: 0.05701, 15: 0.48694, 16: 0.09027399999999999, 17: 0.324281, 18: 0.332033, 19: 0.429881, 20: 0.034411, 21: 0.484193, 22: 0.226217, 23: 0.7972399999999999, 24: 0.5495989999999999, 25: 0.478226, 26: 0.010041, 27: 0.593278, 28: 0.461418, 29: 0.996079, 30: 0.543561, 31: 0.124997, 32: 0.591757, 33: 0.733776, 34: 0.418434, 35: 0.471046, 36: 0.779305, 37: 0.949264, 38: 0.890857, 39: 0.5612009999999999, 40: 0.01127, 41: 0.899909, 42: 0.493511, 43: 0.450659, 44: 0.041548, 45: 0.254868, 46: 0.179626, 47: 0.071724, 48: 0.459102, 49: 0.638715, 50: 0.029107, 51: 0.184179, 52: 0.425304, 53: 0.472721, 54: 0.315555, 55: 0.344586, 56: 0.175047, 57: 0.378606, 58: 0.669756, 59: 0.374883, 60: 0.973647, 61: 0.738416, 62: 0.578958, 63: 0.13205, 64: 0.155396, 65: 0.280708, 66: 0.433403, 67: 0.949709, 68: 0.210176, 69: 0.432136, 70: 0.353251, 71: 0.93799, 72: 0.95612, 73: 0.403693, 74: 0.292559, 75: 0.560375, 76: 0.833598, 77: 0.098319, 78: 0.746735, 79: 0.343077, 80: 0.873526, 81: 0.373916, 82: 0.616335, 83: 0.807675, 84: 0.405842, 85: 0.710661, 86: 0.322892, 87: 0.357362, 88: 0.021855, 89: 0.059546, 90: 0.130118, 91: 0.008737999999999999, 92: 0.8152779999999999, 93: 0.991147, 94: 0.06636300000000001, 95: 0.7445580000000001];
discharge = [0: 0.832581, 1: 0.932185, 2: 0.714827, 3: 0.981406, 4: 0.9184, 5: 0.7771, 6: 0.441514, 7: 0.24822, 8: 0.307248, 9: 0.06451800000000001, 10: 0.819192, 11: 0.226085, 12: 0.022542, 13: 0.082038, 14: 0.582714, 15: 0.749654, 16: 0.562111, 17: 0.7858849999999999, 18: 0.229129, 19: 0.8444199999999999, 20: 0.784671, 21: 0.251546, 22: 0.595799, 23: 0.116548, 24: 0.783233, 25: 0.205914, 26: 0.882522, 27: 0.6967, 28: 0.920611, 29: 0.06729499999999999, 30: 0.090431, 31: 0.519984, 32: 0.628943, 33: 0.55249, 34: 0.345696, 35: 0.053252, 36: 0.152466, 37: 0.243992, 38: 0.77611, 39: 0.122362, 40: 0.275112, 41: 0.882472, 42: 0.520766, 43: 0.517856, 44: 0.960083, 45: 0.935362, 46: 0.222403, 47: 0.157277, 48: 0.958009, 49: 0.671821, 50: 0.478993, 51: 0.562115, 52: 0.424461, 53: 0.447477, 54: 0.9049779999999999, 55: 0.151657, 56: 0.689066, 57: 0.057378, 58: 0.810741, 59: 0.610355, 60: 0.779605, 61: 0.002317, 62: 0.715607, 63: 0.741723, 64: 0.702721, 65: 0.338704, 66: 0.187222, 67: 0.266635, 68: 0.249535, 69: 0.758256, 70: 0.344953, 71: 0.404507, 72: 0.098717, 73: 0.124621, 74: 0.947227, 75: 0.828874, 76: 0.901169, 77: 0.223158, 78: 0.086774, 79: 0.054722, 80: 0.220233, 81: 0.109535, 82: 0.198433, 83: 0.820705, 84: 0.06668499999999999, 85: 0.377958, 86: 0.626972, 87: 0.86997, 88: 0.326366, 89: 0.826493, 90: 0.968827, 91: 0.280303, 92: 0.299968, 93: 0.37858, 94: 0.297712, 95: 0.83653];
soc = [0: 9.416031, 1: 10.370862, 2: 7.133308, 3: 9.790146, 4: 7.75429, 5: 12.060878, 6: 4.583187, 7: 11.741713, 8: 7.488921, 9: 4.335178, 10: 7.130239, 11: 7.173095, 12: 9.432492999999999, 13: 10.285214, 14: 3.791535, 15: 3.791887, 16: 13.065571, 17: 4.435719, 18: 5.518324, 19: 9.665224, 20: 15.413631, 21: 11.284759, 22: 7.222954, 23: 8.981521000000001, 24: 12.040511, 25: 8.151743, 26: 15.21185, 27: 12.857299, 28: 3.045837, 29: 3.625541, 30: 14.644929, 31: 15.147605, 32: 14.721759, 33: 2.987467, 34: 10.490734, 35: 8.041164999999999, 36: 7.500809, 37: 6.665169, 38: 6.420515, 39: 4.436953, 40: 15.014298, 41: 12.353091, 42: 4.747632, 43: 13.222813, 44: 3.193348, 45: 8.881933999999999, 46: 8.250997999999999, 47: 8.159917, 48: 15.210798, 49: 12.551282, 50: 4.308461, 51: 3.727536, 52: 11.660344, 53: 10.272663, 54: 9.667998000000001, 55: 7.735272, 56: 13.56596, 57: 12.278602, 58: 7.947846, 59: 14.918418, 60: 15.543292, 61: 9.600228, 62: 10.568293, 63: 4.261915, 64: 11.116975, 65: 8.387435999999999, 66: 13.669645, 67: 7.780837, 68: 14.2988, 69: 11.698866, 70: 12.597226, 71: 15.297172, 72: 10.725844, 73: 5.683533, 74: 4.004462, 75: 7.426125, 76: 13.096725, 77: 6.406492, 78: 13.941769, 79: 9.249523, 80: 12.362708, 81: 11.046362, 82: 4.959356, 83: 15.214624, 84: 12.690209, 85: 6.881889, 86: 4.586292, 87: 2.742946, 88: 7.418411, 89: 10.785941, 90: 5.166583, 91: 12.157684, 92: 6.900769, 93: 13.761092, 94: 9.563226, 95: 15.470474];
cost = [0: 475.726311, 1: 67.184135, 2: 269.685542, 3: 282.398044, 4: 460.471925, 5: 397.018164, 6: 610.33746, 7: 200.206403, 8: 340.204567, 9: 107.423123, 10: 530.957609, 11: 385.603124, 12: 170.84813, 13: 426.831518, 14: 39.3731, 15: 262.392255, 16: 160.772522, 17: 16.736938, 18: 367.368736, 19: 160.107941, 20: 57.751821, 21: 61.830786, 22: 167.816918, 23: 128.044024, 24: 441.527835, 25: 506.644977, 26: 92.13225300000001, 27: 507.08946, 28: 352.991148, 29: 805.006368, 30: 645.2176920000001, 31: 295.302926, 32: 1158.984608, 33: 1102.621734, 34: 23.778324, 35: 1089.825732, 36: 1036.532048, 37: 896.827535, 38: 288.495762, 39: 399.124378, 40: 473.075985, 41: 95.021536, 42: 135.361941, 43: 955.835115, 44: 424.1558, 45: 900.671237, 46: 991.418382, 47: 829.312957, 48: 457.082788, 49: 140.527818, 50: 8.072471, 51: 215.75412, 52: 0.181243, 53: 53.783805, 54: 291.092248, 55: 472.926494, 56: 391.18635, 57: 583.20107, 58: 565.0802619999999, 59: 202.711659, 60: 644.533159, 61: 862.7947370000001, 62: 931.770629, 63: 255.119221, 64: 9.740345, 65: 997.270652, 66: 104.311953, 67: 1120.600199, 68: 570.687277, 69: 608.6891879999999, 70: 187.000913, 71: 428.503403, 72: 637.264772, 73: 1077.203138, 74: 411.548824, 75: 397.087001, 76: 584.834357, 77: 188.926156, 78: 1140.857528, 79: 252.713542, 80: 1177.92262, 81: 862.528223, 82: 937.720185, 83: 1086.22578, 84: 991.636179, 85: 25.294097, 86: 54.777992, 87: 874.4567039999999, 88: 544.384687, 89: 175.870833, 90: 83.416421, 91: 525.432087, 92: 498.058542, 93: 598.8576, 94: 55.060936, 95: 602.911022];
earn = [0: 0.06356100000000001, 1: 2.926029, 2: 0.892405, 3: 0.317206, 4: 1.149264, 5: 2.624774, 6: 0.574551, 7: 1.029198, 8: 1.311705, 9: 2.550616, 10: 0.684087, 11: 1.037546, 12: 2.532306, 13: 0.050799, 14: 0.838152, 15: 0.475497, 16: 1.217311, 17: 0.6408779999999999, 18: 0.916149, 19: 2.323144, 20: 1.442916, 21: 1.971314, 22: 0.897278, 23: 2.713192, 24: 2.100925, 25: 3.21526, 26: 1.709623, 27: 0.297529, 28: 1.758001, 29: 0.310868, 30: 0.229592, 31: 1.345339, 32: 2.317845, 33: 2.633665, 34: 1.29646, 35: 1.405248, 36: 1.065079, 37: 0.209089, 38: 0.242454, 39: 0.30156, 40: 0.965988, 41: 0.858151, 42: 0.828978, 43: 0.270699, 44: 0.396921, 45: 0.11639, 46: 1.34122, 47: 1.384168, 48: 2.037427, 49: 1.051053, 50: 0.429994, 51: 1.795417, 52: 1.903593, 53: 2.258342, 54: 2.221531, 55: 1.576295, 56: 0.896556, 57: 1.011481, 58: 1.84438, 59: 1.927974, 60: 0.234729, 61: 0.138383, 62: 1.123471, 63: 0.7258289999999999, 64: 1.325015, 65: 1.531961, 66: 2.963083, 67: 0.898787, 68: 1.784519, 69: 0.974285, 70: 0.989641, 71: 3.979882, 72: 3.279324, 73: 0.402788, 74: 4.474349, 75: 4.198066, 76: 0.818068, 77: 4.169856, 78: 3.670442, 79: 3.239362, 80: 2.616635, 81: 3.314876, 82: 1.273936, 83: 2.320905, 84: 1.836758, 85: 1.997824, 86: 0.545938, 87: 0.274784, 88: 2.623093, 89: 0.905639, 90: 0.79503, 91: 2.318583, 92: 1.936857, 93: 3.086127, 94: 2.80623, 95: 1.817288];
total_cost = 43.59829702552967;
total_earn = 27.11943928668727;
