open = [1, 1, 1, 1, 1, 1, 1, 1];
satisfied = 
[| 0.0,    0.0, 0.0, 0.25,         0.0,      0.0, 0.0,    1.0, 0.0,    0.0, 0.0, 1.0
 | 0.0,    0.0, 0.0, 0.75,         0.0,      0.0, 0.0,    0.0, 1.0,    0.0, 0.0, 0.0
 | 0.0,    0.0, 0.0,  0.0, 0.222322222, 0.119928, 1.0,    0.0, 1.0,    0.0, 0.0, 1.0
 | 1.0,    0.0, 0.0,  0.0,         0.0, 0.080264, 0.0, 0.3326, 1.0,    1.0, 0.0, 0.0
 | 0.0,    1.0, 0.0,  0.0, 0.722222222,      0.0, 0.0,    0.0, 0.0,    0.0, 0.0, 0.0
 | 1.0, 0.0001, 1.0,  1.0,         0.0, 0.199908, 0.0,    0.0, 0.0, 0.0001, 1.0, 0.0
 | 0.0,    0.0, 0.0,  1.0, 0.055555556,      0.0, 0.0,    1.0, 0.0,    0.0, 1.0, 0.0
 | 0.0,    0.0, 1.0,  0.0,         0.0,      0.6, 1.0,    1.0, 1.0,    0.0, 1.0, 0.0
 |];
