open = [1, 1, 1, 1, 1, 1, 1, 1];
satisfied = 
[|         0.0,      0.0,    0.0, 0.0,         0.0,    0.0, 0.0,    0.0, 0.0,         0.0, 0.916666667, 1.0
 |         0.0,      0.0, 0.4501, 1.0,         0.0,    0.0, 0.0,    0.0, 0.0, 0.272545455,         0.0, 0.0
 |         1.0,      0.0,   0.55, 0.0,         0.0,    0.0, 0.0,    0.0, 1.0,         0.0,         0.0, 0.0
 |         1.0,      0.0,    0.0, 1.0, 0.611111111,    0.0, 0.0,    0.0, 0.0,         1.0,         0.0, 0.0
 |         0.0,      0.5,    0.0, 0.0,         0.0,    0.0, 1.0,    0.0, 0.0,         0.0,         0.0, 1.0
 |         0.0,      1.0,    0.0, 1.0,         1.0, 0.0001, 0.0,    0.0, 1.0, 0.727045455,         0.0, 0.0
 | 0.066666667,      0.0,    0.0, 0.0,         0.0,    0.0, 0.0,    1.0, 0.0,         1.0,         0.0, 1.0
 |         1.0, 0.999825,    0.0, 1.0,         0.0,    1.0, 1.0, 0.0001, 0.0,         0.0, 0.083433333, 1.0
 |];
