open = [1, 1, 1, 1, 1, 1, 1, 1];
satisfied = 
[|         0.0, 0.5,  0.0, 0.0,         0.0, 0.0,                0.0, 0.0, 1.0, 0.0,         0.0, 0.0
 |         0.0, 0.0,  0.0, 0.0,         0.0, 0.0,                0.0, 1.0, 0.0, 0.0, 0.916666667, 0.0
 |         0.0, 1.0,  1.0, 0.0,         0.0, 0.0, 0.6998799999999999, 0.0, 0.0, 0.0, 0.083433333, 0.0
 | 0.933333333, 1.0,  0.0, 1.0,         0.0, 0.0,                0.0, 0.0, 0.0, 1.0,         0.0, 0.0
 | 0.133213333, 0.0,  0.0, 0.0, 0.777877778, 0.0,                0.0, 0.0, 0.0, 0.0,         0.0, 1.0
 |         1.0, 0.0, 0.15, 1.0,         0.0, 1.0,                0.0, 1.0, 0.0, 0.0,         0.0, 0.0
 |         1.0, 0.0,  0.0, 0.0, 0.222222222, 0.0,                0.0, 0.0, 0.0, 1.0,         0.0, 0.0
 |         0.0, 0.0,  1.0, 0.0,         0.0, 1.0,                1.0, 0.0, 1.0, 0.0,         0.0, 1.0
 |];
