open = [1, 1, 1, 1, 1, 1, 1, 1];
satisfied = 
[|    0.0,    0.0,    0.0, 1.0,         0.0,    0.0, 0.0, 0.111111111,         0.0, 1.0,         0.0, 0.0
 |    0.0,    0.0,    0.0, 0.0,         0.0,    0.0, 0.0,         0.0, 0.785714286, 0.0,         0.0, 1.0
 |    0.0,    0.0,    0.0, 1.0,         0.0,    0.0, 1.0,         1.0, 0.285714286, 0.0,         0.0, 1.0
 | 0.7332,    0.0, 0.5501, 0.0,         0.0,    0.0, 0.0,         0.0,         0.0, 1.0,         1.0, 0.0
 | 0.2669,    0.0,    0.0, 1.0, 0.222027778,    0.0, 0.0,         1.0,         0.0, 0.0,         0.0, 0.0
 |    0.0,    0.0,   0.45, 1.0,         0.0,    1.0, 0.0,         1.0,         0.0, 0.0,         0.0, 1.0
 |    0.0, 0.0001,    0.0, 0.0,         0.0,    0.0, 1.0,         1.0,         0.0, 0.0, 0.916566667, 0.0
 |    0.0,    1.0,    0.0, 0.0,         1.0, 0.0001, 1.0,         0.0,         1.0, 0.0,         1.0, 0.0
 |];
