open = [1, 1, 1, 1, 1, 1, 1, 1];
satisfied = 
[| 0.0, 0.0, 0.0, 0.0,         0.0,    0.0,     0.0, 0.0,    0.0,         0.0, 0.916666667, 1.0
 | 0.2, 0.0, 0.0, 1.0,         0.0,    0.0,     0.0, 0.0,    0.0,         0.0,         0.0, 1.0
 | 1.0, 1.0, 0.0, 0.0,         0.0,    0.0, 0.80035, 0.0,    0.0, 0.454227273,         0.0, 0.0
 | 0.0, 0.0, 0.0, 1.0, 0.777777778,    0.0,     0.0, 0.0,    1.0,         0.0,         0.0, 1.0
 | 0.0, 0.0, 0.0, 0.0,         0.0, 0.5601, 0.19975, 1.0,    0.0,         0.0,         0.0, 0.0
 | 0.0, 1.0, 1.0, 1.0,         0.0,   0.44,     0.0, 1.0,    0.0,         0.0,         0.0, 0.0
 | 0.0, 0.0, 0.0, 1.0,         0.0,    0.0,     0.0, 1.0, 0.0001, 0.090781818,         1.0, 0.0
 | 0.0, 0.0, 1.0, 1.0, 0.222322222,    0.0,     0.0, 1.0,    0.0, 0.455090909,         1.0, 1.0
 |];
