open = [1, 1, 1, 1, 1, 1, 1, 1];
satisfied = 
[|         0.0, 0.0,    0.0, 0.0,    0.0,      0.8, 0.0,                0.0,    0.0, 0.0,    0.0, 0.0
 |         0.0, 1.0,    0.0, 1.0,    0.0,      0.0, 0.0,                0.0,    0.0, 0.0,    0.0, 0.0
 |         0.0, 1.0,    0.0, 0.0,    0.0,      0.0, 0.0,        0.888733333, 0.0001, 1.0,    0.0, 1.0
 | 0.133933333, 1.0,    0.0, 1.0,    1.0,      0.0, 0.0, 0.5545555559999999,    0.0, 0.0,    0.0, 0.0
 | 0.866166667, 0.0, 0.0001, 0.0,    0.0,  0.12022, 0.0,                1.0,    0.0, 0.0,    0.0, 0.0
 |         0.0, 0.0,    1.0, 0.0, 0.0001, 0.039928, 1.0,                1.0,    0.0, 1.0,    0.0, 1.0
 |         0.0, 0.0,    0.0, 1.0,    0.0, 0.039952, 1.0,                0.0,    0.0, 1.0, 0.0001, 0.0
 |         0.0, 1.0,    0.0, 1.0,    0.0,      0.0, 0.0,                0.0,    1.0, 1.0,    1.0, 0.0
 |];
