open = [1, 1, 1, 1, 1, 1, 1, 1];
satisfied = 
[|         0.0, 0.0,      0.0, 1.0, 0.0,    0.0, 0.0,         0.0, 0.857064286, 0.0001,  0.0, 0.0
 | 0.133333333, 0.0,      0.0, 0.0, 0.0,    0.0, 0.0,         1.0,         0.0,    0.0,  0.0, 1.0
 |         0.0, 0.0,      1.0, 1.0, 0.0,    0.0, 0.0,         0.0,         0.0,    0.0, 0.25, 1.0
 | 0.866766667, 1.0, 0.099925, 0.0, 0.0,    0.0, 0.0,         1.0,         0.0,    0.0,  0.0, 1.0
 |         0.0, 0.0,     0.15, 0.0, 0.0,    0.0, 1.0,         0.0,         0.0,    0.0,  1.0, 0.0
 |         0.0, 0.0,      0.0, 0.0, 1.0, 0.0001, 1.0, 0.999722222,         1.0,    0.0,  0.0, 1.0
 |         0.0, 0.0,     0.35, 0.0, 0.0,    0.0, 0.0,         0.0,         1.0,    0.0,  0.0, 1.0
 |         0.0, 1.0,     0.25, 0.0, 1.0,    1.0, 0.0,         1.0,         0.0,    1.0,  0.0, 0.0
 |];
