open = [1, 1, 1, 1, 1, 1, 1, 1];
satisfied = 
[|    0.0, 0.0,      0.0,       0.0,    0.0,  0.0, 0.0,    0.0,    0.0, 1.0,    0.0, 1.0
 |    0.0, 0.0, 0.300175, 0.4995625,    0.0,  0.0, 1.0,    0.0,    0.0, 0.0,    0.0, 0.0
 |    0.0, 1.0,      0.0,       0.0,    0.0,  0.0, 1.0,    0.0,    0.0, 0.0,   0.75, 1.0
 |    1.0, 1.0,      0.0,       0.0, 0.0001,  0.0, 1.0,    0.0, 0.0001, 0.0, 0.6664, 0.0
 |    0.0, 0.0,      0.0,       0.0,    0.0, 0.16, 1.0,    0.0,    0.0, 1.0,    0.0, 0.0
 | 0.0001, 0.0, 0.699925,       0.0,    0.0,  1.0, 0.0,    1.0,    0.0, 0.0,    1.0, 0.0
 |    0.0, 1.0,      0.0,       1.0,    0.0,  0.0, 0.1,    0.0,    0.0, 0.0,    0.0, 1.0
 |    0.0, 0.0,      0.0,       0.0,    1.0,  0.0, 0.0, 0.0001,    1.0, 1.0,    0.0, 1.0
 |];
