open = [1, 1, 1, 1, 1, 1, 1, 1];
satisfied = 
[|    0.0, 0.0,    0.0,     0.0,         0.0,      0.0, 0.0,    0.0, 1.0, 0.545454545,    0.0, 0.0
 |    0.0, 0.0,    0.0,     0.0, 0.555555556,      0.0, 1.0,    0.0, 0.0,         0.0,    0.0, 0.0
 |    0.0, 0.0,    0.0,     1.0,         0.0,      0.0, 0.9,    1.0, 1.0,         0.0,    0.0, 0.0
 |    1.0, 0.0,    0.0,     0.0,         0.0,     0.84, 0.0,    0.0, 0.0,         0.0,    0.0, 1.0
 |    0.0, 0.0,    0.0,     1.0,         0.0,      0.0, 0.0,    0.0, 0.0, 0.727272727,    0.0, 1.0
 |    0.0, 0.0,    1.0,     0.0, 0.444544444, 0.799928, 0.0,    0.0, 0.0,         0.0,    1.0, 0.0
 |    0.0, 1.0, 0.0001, 0.87475,         0.0,      0.0, 0.0,    0.0, 0.0,         1.0,    0.0, 0.0
 | 0.0001, 1.0,    0.0,     1.0,         0.0, 0.639856, 1.0, 0.0001, 1.0,         1.0, 0.0001, 1.0
 |];
