open = [1, 1, 1, 1, 1, 1, 1, 1];
satisfied = 
[| 0.533333333,    1.0,     0.0, 0.0,         0.0,    0.0, 0.0,         0.0,         0.0,         0.0,    0.0, 0.0
 |         0.0,    0.0,     0.0, 0.0,         0.0,    0.0, 0.0,         0.0,         0.0, 0.999890909, 0.0001, 1.0
 |         0.0,    0.0,     0.0, 0.0,         0.0,    1.0, 0.0, 0.333333333,         0.0,         0.0,    1.0, 0.0
 |         1.0,    0.0,     0.0, 1.0,         0.0,    0.0, 1.0,         0.0,         0.0,         1.0,    0.0, 0.0
 |         1.0,    0.0,     0.0, 0.0, 0.055555556,    0.0, 0.0,         1.0,         0.0,         0.0,    0.0, 0.0
 |         0.0,    0.0,     0.0, 1.0,         1.0,    0.0, 1.0,         1.0,         1.0,         0.0,    0.0, 0.0
 |         1.0, 0.0001, 0.24994, 0.0,         0.0,    0.0, 1.0,         0.0,         0.0,         0.0,    0.0, 0.0
 |         0.0,    0.0, 0.75016, 1.0,         1.0, 0.0001, 0.0,         1.0, 0.713878571,         1.0,    0.0, 1.0
 |];
