open = [1, 1, 1, 1, 1, 1, 1, 1];
satisfied = 
[|     0.0,    0.0,    0.0, 0.0,         0.0,    0.0,    0.0,    0.0,    0.0, 1.0, 0.0,         1.0
 | 0.73308,    0.0, 0.0001, 1.0, 0.055655556,    0.0,    0.0,    0.0,    0.0, 0.0, 0.0,         0.0
 |     0.0,    0.0,    0.0, 1.0,         0.0,    0.0, 0.8001,    0.0, 0.9285, 1.0, 0.0,         0.0
 |     0.0,    0.0,    0.0, 1.0,         0.0,    0.0,    0.2,    1.0,    1.0, 0.0, 1.0,         0.0
 | 0.86642, 0.0001,    0.0, 0.0,         0.0, 0.0001,    0.0,    0.0,    0.0, 0.0, 1.0,         0.0
 |     0.0,    0.0,    1.0, 0.0, 0.944444444,    0.0,    0.0,    0.0,    1.0, 0.0, 0.0,         1.0
 |     0.0,    0.0,    0.0, 1.0,         0.0,    0.0,    0.0,    0.0,    1.0, 0.0, 0.0, 0.888888889
 |     0.0,    1.0,    0.0, 0.0,         0.0,    1.0,    0.0, 0.0001,    0.0, 0.0, 0.0,         1.0
 |];
