open = [1, 1, 1, 1, 1, 1, 1, 1];
satisfied = 
[|         0.0,    0.0, 0.0, 0.0,         0.5,    0.0, 0.0, 0.0,    0.0,         1.0,    0.0, 0.0
 |         0.0, 0.0001, 0.0, 1.0,         0.0,    0.0, 0.0, 1.0,    0.0,         0.0, 0.2499, 0.0
 |         1.0,    0.0, 0.0, 1.0,         0.0,    0.0, 0.0, 0.0,    1.0, 0.272727273,    0.0, 0.0
 | 0.933333333,    0.0, 0.0, 0.0,         0.0,    0.0, 1.0, 0.0,    0.0,         0.0,    1.0, 1.0
 |         1.0,    0.0, 0.5, 0.0,         0.0,    0.0, 0.0, 0.0,    0.0,         0.0,    0.0, 0.0
 |         0.0,    0.0, 0.0, 1.0,         1.0,    0.0, 0.0, 1.0,    0.0, 0.363636364,    1.0, 1.0
 | 0.133073333,    0.0, 0.0, 0.0,         0.0, 0.0001, 1.0, 1.0, 0.0001,         0.0,    0.0, 1.0
 |         0.0,    1.0, 1.0, 0.0, 0.111111111,    1.0, 0.0, 0.0,    0.0,         0.0,    1.0, 1.0
 |];
