open = [1, 1, 1, 1, 1, 1, 1, 1];
satisfied = 
[| 0.0, 0.5,     0.0,    0.0,         0.0,    0.0, 0.0, 0.0,         1.0,         0.0,    0.0, 0.0
 | 0.0, 0.0,     0.0,    0.0,         0.0,    0.0, 0.0, 1.0,         0.0, 0.181818182,    0.0, 1.0
 | 0.0, 0.0,     1.0,    1.0, 0.166666667,    0.0, 0.0, 0.0,         0.0,         0.0,    0.0, 1.0
 | 1.0, 1.0,     0.0, 0.3744,         0.0,    0.0, 0.0, 1.0,         0.0, 0.545781818, 0.0001, 0.0
 | 0.0, 1.0,     0.0,    0.0,         0.0, 0.0001, 1.0, 0.0,         0.0,      0.2725,    0.0, 0.0
 | 0.0, 1.0,    0.35,    1.0,         0.0,    0.0, 1.0, 0.0,         1.0,         0.0,    0.0, 1.0
 | 0.0, 0.0,     0.0,    1.0,         0.0,    0.0, 0.0, 1.0, 0.928571429,         0.0,    0.0, 0.0
 | 1.0, 0.0, 0.19991,    0.0, 0.833433333,    1.0, 0.0, 1.0,         0.0,         0.0,    1.0, 0.0
 |];
