open = [1, 1, 1, 1, 1, 1, 1, 1];
satisfied = 
[|    0.0,    0.0, 0.55,    0.0,         0.0, 0.0,    0.0, 0.0,         0.0,         0.0,         0.0, 1.0
 | 0.0001,    0.0,  0.0,    0.0,         0.0, 0.0,    1.0, 0.0,         0.0,         0.0, 0.833208333, 0.0
 |    0.0,    0.0,  0.0, 0.0001, 0.444666667, 0.0,    0.0, 0.0, 0.642514286,         1.0,         1.0, 0.0
 |    0.0,    0.0,  1.0,    0.0,         0.0, 1.0,    0.0, 0.0,         0.0,         0.0,         0.0, 0.0
 |    0.0, 0.0001,  0.0,    1.0, 0.444377778, 0.0,    0.0, 0.0,         0.0,         0.0,         0.0, 1.0
 |    0.0,    0.0,  1.0,    0.0,         0.0, 1.0,    0.0, 1.0,         0.0, 0.545454545,         0.0, 0.0
 |    0.0,    1.0,  0.0,    0.0,         0.0, 0.0,    0.0, 0.0, 0.428571429,         0.0,         1.0, 0.0
 |    1.0,    0.0,  1.0,    0.0, 0.111055556, 1.0, 0.0001, 1.0,         0.0,         0.0,         0.0, 1.0
 |];
