open = [1, 1, 1, 1, 1, 1, 1, 1];
satisfied = 
[|         0.0, 1.0,    0.0, 0.0,         0.0,    0.0, 0.0, 0.0,         0.0, 0.727272727, 0.0, 0.0
 |         0.0, 0.0,    0.0, 1.0, 0.666666667,    0.0, 0.0, 0.0,         0.0,         0.0, 0.0, 0.0
 | 0.266546667, 0.0,    0.0, 1.0, 0.333433333,    0.0, 1.0, 0.0,         0.0,         0.0, 1.0, 0.0
 |         0.0, 0.0,    1.0, 0.0,         0.0,    0.0, 0.0, 0.0,         1.0,         1.0, 0.0, 0.0
 | 0.466666667, 0.0,    0.0, 0.0,         0.0,    0.0, 0.0, 1.0,         0.0,         0.0, 0.0, 1.0
 |         0.0, 1.0, 0.0001, 1.0,         0.0, 0.5601, 1.0, 1.0, 0.499678571,         0.0, 0.0, 0.0
 |         0.0, 0.0,    0.0, 0.0,         0.0,   0.44, 1.0, 0.0,         0.0,         0.0, 0.0, 1.0
 |         1.0, 0.0,    0.0, 1.0,         0.0,    0.0, 0.0, 1.0,         1.0,         1.0, 1.0, 1.0
 |];
