open = [1, 1, 1, 1, 1, 1, 1, 1];
satisfied = 
[|     0.0, 0.0001,  0.0, 0.0,         0.0,    0.0, 0.0,         0.0,         0.0,    0.0, 0.916566667, 1.0
 |     0.0,    0.0,  0.0, 1.0, 0.055555556,    0.0, 0.0,         0.0,         0.0,    1.0,         0.0, 0.0
 |     0.0,    0.0,  0.0, 0.0,         1.0, 0.0001, 1.0,         0.0, 0.214028571, 0.0001,         0.0, 1.0
 | 0.13294,    0.0,  0.0, 1.0,         0.0,    0.0, 1.0, 0.222322222, 0.786071429,    0.0,         1.0, 0.0
 |     1.0,    0.0,  0.0, 0.0,         0.0,    0.0, 1.0,         0.0,         0.0,    0.0,         0.0, 0.0
 |     0.0,    1.0,  1.0, 0.0,         0.0,    0.0, 0.0, 0.777777778,         0.0,    0.0,         1.0, 1.0
 |     0.0,    0.0,  0.0, 1.0, 0.722222222,    0.0, 0.0,         0.0,         0.0,    0.0,         0.0, 1.0
 |     0.0,    0.0, 0.85, 1.0,         1.0,    1.0, 0.0,         0.0,         0.0,    0.0,         1.0, 0.0
 |];
