open = [1, 1, 1, 1, 1, 1, 1, 1];
satisfied = 
[|         0.0,    0.0,     0.0, 0.0,    0.0,    0.0, 0.0, 0.0,    0.0, 1.0,         0.0,         1.0
 | 0.733333333,    0.0,     0.0, 0.0,    0.0,    0.0, 0.0, 0.0,    0.0, 0.0,         0.0,         1.0
 |         0.0,    0.0,     0.0, 1.0,    0.0,    0.0, 1.0, 0.0,    1.0, 0.0, 0.666666667,         0.0
 |         0.0, 0.0001, 0.04994, 1.0,    1.0,    0.0, 0.0, 1.0,    0.0, 0.0,         0.0,         1.0
 |         0.0,    0.0,     0.0, 1.0, 0.0001,    0.0, 0.0, 1.0,    0.0, 0.0, 0.666516667,         0.0
 |         0.0,    0.0, 0.95016, 0.0,    0.0,    1.0, 0.0, 0.0,    0.0, 0.0,         1.0, 0.444088889
 | 0.733333333,    0.0,     0.0, 0.0,    0.0,    0.0, 1.0, 1.0,    0.0, 0.0,         0.0,         0.0
 |         1.0,    1.0,     0.0, 1.0,    0.0, 0.0001, 0.0, 1.0, 0.0001, 1.0,         1.0,         0.0
 |];
