open = [1, 1, 1, 1, 1, 1, 1, 1];
satisfied = 
[|     0.73324, 0.0,  0.0, 0.0,         0.0,    0.0, 0.0, 1.0, 0.0001, 0.0,         0.0, 0.0
 |         0.0, 0.0,  0.0, 1.0,         0.0,   0.12, 0.0, 1.0,    0.0, 0.0,         0.0, 0.0
 |         0.0, 1.0, 0.95, 0.0,         0.0,    0.0, 0.0, 0.0,    0.0, 0.0,         0.0, 1.0
 | 0.933333333, 0.0,  1.0, 0.0,         0.0,    0.0, 0.0, 0.0,    0.0, 1.0,         0.0, 0.0
 |         0.0, 0.0,  0.0, 0.0,         0.0,   0.64, 0.0, 0.0,    0.0, 0.0,         0.0, 1.0
 |         1.0, 0.0,  0.0, 1.0, 0.055416667, 0.2401, 1.0, 0.0,    0.0, 1.0,         0.0, 1.0
 |         0.0, 1.0,  0.0, 0.0,         0.0,    0.0, 0.0, 1.0,    0.0, 0.0,        0.75, 0.0
 |         1.0, 0.0,  0.0, 0.0, 0.944683333,    0.0, 1.0, 1.0,    1.0, 0.0, 0.499641667, 1.0
 |];
