open = [1, 1, 1, 1, 1, 1, 1, 1];
satisfied = 
[|    0.0, 0.0, 0.0001, 1.0, 0.666555556,    0.0, 0.0, 0.0,         0.0,         0.0,         0.0,         0.0
 | 0.6665, 0.0,    0.0, 0.0,         0.0, 0.0001, 1.0, 0.0,         0.0,         0.0,         0.0,         0.0
 |    0.0, 1.0,    0.0, 0.0, 0.277988889,    0.0, 0.0, 0.0,         1.0,         0.0, 0.749683333,         0.0
 |    1.0, 1.0,    0.0, 0.0,         0.0,    0.0, 0.0, 0.0, 0.642857143,         0.0,         0.0,         1.0
 |    0.0, 0.0,    0.0, 1.0,         0.0,    0.0, 0.0, 1.0,         0.0, 0.727272727,         0.0,         0.0
 |    1.0, 1.0,    0.0, 0.0, 0.055555556,    0.0, 0.0, 1.0,         1.0,         0.0,         0.0,         1.0
 |    0.6, 0.0,    0.0, 0.0,         0.0,    0.0, 1.0, 0.0,         0.0,         1.0,         0.0,         0.0
 |    0.0, 0.0,    1.0, 1.0,         0.0,    1.0, 0.0, 1.0,         0.0,         0.0,         1.0, 0.666666667
 |];
