open = [1, 1, 1, 1, 1, 1, 1, 1];
satisfied = 
[| 0.0001,    0.0, 0.0,  0.0,     0.33325,    0.0, 0.0, 0.0,         1.0, 0.0,    0.0,         0.0
 |    0.0, 0.0001, 0.0,  1.0,         0.0,    0.0, 0.0, 0.0,         0.0, 0.0, 0.9999,         0.0
 |    1.0,    0.0, 0.0,  1.0,         0.0,    0.0, 0.0, 0.0, 0.428571429, 1.0,    0.0,         0.0
 |    0.0,    1.0, 0.0,  1.0, 0.833333333,    0.0, 1.0, 0.0,         0.0, 0.0,    0.0,         0.0
 |    0.0,    0.0, 0.0, 0.75,         0.0,    0.0, 1.0, 0.0,         0.0, 0.0,    0.0,         1.0
 |    0.0,    0.0, 1.0,  1.0,         0.0,    0.0, 0.0, 0.0,         0.0, 0.0,    1.0,         0.0
 |    0.0,    0.0, 0.0,  1.0,         0.0, 0.0001, 0.0, 1.0,         0.0, 0.0,    1.0, 0.110833333
 |    0.0,    0.0, 1.0,  0.0,         0.0,    1.0, 1.0, 1.0,         0.0, 1.0,    0.0,         0.0
 |];
