open = [1, 1, 1, 1, 1, 1, 1, 1];
satisfied = 
[|         0.0,    0.0, 0.0, 0.0,         0.0,      0.0,     0.0, 0.0,    0.0, 1.0, 0.0, 1.0
 | 0.733333333,    0.0, 0.0, 0.0,         0.0,      0.0,     0.0, 1.0,    0.0, 0.0, 0.0, 0.0
 |         0.0,    0.0, 0.0, 0.0,         0.0,      0.4,     0.0, 1.0,    0.0, 0.0, 1.0, 1.0
 |         0.0,    1.0, 0.5, 0.0,         0.0,      0.0,     0.0, 1.0,    1.0, 0.0, 0.0, 0.0
 |         0.0, 0.0001, 0.0, 1.0, 0.944377778,      0.0,     0.0, 0.0,    0.0, 0.0, 0.0, 0.0
 |         0.0,    0.0, 1.0, 1.0, 0.666394444, 0.000196,     0.0, 1.0,    0.0, 1.0, 0.0, 0.0
 |         0.0,    0.0, 0.0, 0.0,         0.0,      0.0, 0.89986, 1.0, 0.0001, 0.0, 1.0, 0.0
 |         1.0,    0.0, 1.0, 1.0,         0.0, 0.599904, 0.10024, 0.0,    0.0, 0.0, 1.0, 1.0
 |];
