open = [1, 1, 1, 1, 1, 1, 1, 1];
satisfied = 
[|     0.0, 0.0,      0.0, 0.0,    0.0,      0.0, 1.0,    0.0,    0.0, 0.0, 0.833333333,    0.0
 |     0.0, 0.0, 0.399955, 0.0,    0.0,      0.0, 0.0, 0.0001,    0.0, 0.0,         1.0,    0.0
 |     0.0, 1.0,     0.15, 0.0,    0.0,      1.0, 0.0,    0.0,    0.0, 0.0,         0.0,    0.0
 |     1.0, 0.0,      0.0, 1.0,    0.0, 0.039944, 1.0,    0.0, 0.0001, 1.0,         0.0,    0.0
 | 0.39982, 0.0,      0.0, 0.0, 0.0001,      0.0, 1.0,    1.0,    0.0, 0.0,         0.0, 0.0001
 |     0.0, 1.0,      0.0, 1.0,    0.0,     0.84, 1.0,    0.0,    0.0, 0.0,         0.0,    1.0
 |     1.0, 0.0,      0.0, 0.0,    0.0,      0.6, 0.0,    0.0,    0.0, 0.0,         0.0,    0.0
 |     0.0, 1.0, 0.450145, 0.0,    1.0,      0.0, 1.0,    0.0,    1.0, 1.0,         0.0,    0.0
 |];
