open = [1, 1, 1, 0, 1, 1, 1, 1];
satisfied = 
[| 0.0001,         0.0, 0.149925, 1.0,    0.0,  0.0,    0.0, 1.0,    0.0,    0.0, 0.0,         0.0
 |    0.0, 0.083333333,      0.0, 1.0,    0.0,  0.0,    0.0, 0.0,    0.0,    1.0, 0.0,         0.0
 |    0.0,         1.0,  0.34995, 0.0,    0.0,  0.0, 0.0001, 1.0,    0.0,    0.0, 1.0,         0.0
 |    0.0,         0.0,      0.0, 0.0,    0.0,  0.0,    0.0, 0.0,    0.0,    0.0, 0.0,         0.0
 |    0.0, 0.583333333,      0.0, 0.0,    0.0,  0.0,    0.0, 1.0,    0.0,    0.0, 0.0,         1.0
 |    0.0,         1.0,      0.0, 0.0,    1.0, 0.36,    0.0, 0.0,    0.0,    0.0, 1.0,         1.0
 |    0.0,         0.0, 0.500225, 0.0, 0.0001,  0.0,    0.0, 0.0, 0.0001, 0.9993, 0.0,         1.0
 |    1.0,         1.0,      0.0, 0.0,    0.0,  1.0,    1.0, 0.0,    1.0,    0.0, 0.0, 0.444444444
 |];
