open = [1, 1, 1, 1, 1, 1, 1, 1];
satisfied = 
[| 0.0, 0.9165916670000001,      0.0,    0.0,         0.0,    0.0, 0.0, 1.0, 0.0,    0.0,         0.0, 0.0001
 | 0.0,                0.0,      0.0,    0.0, 0.555555556,    0.0, 1.0, 0.0, 0.0,    0.0,         0.0,    0.0
 | 0.0,                0.0,      0.0,    1.0,         0.0,   0.72, 0.0, 0.0, 1.0,    0.0,         0.0,    0.0
 | 0.8,                1.0,      0.0,    0.0,         0.0,    0.0, 0.0, 1.0, 0.0,    0.0,         1.0,    0.0
 | 0.0,                0.0,      0.0, 0.0001,         0.0,    0.0, 1.0, 1.0, 0.0,    0.0, 0.499933333,    0.0
 | 0.0,                1.0, 0.449875,    0.0,         1.0, 0.2801, 0.0, 0.0, 1.0,    0.0,         0.0,    0.0
 | 0.0,                1.0,      0.0,    0.0,         0.0,    0.0, 0.7, 0.0, 0.0,    1.0,         0.0,    0.0
 | 1.0,                1.0,      1.0,    0.0,         0.0,    0.0, 0.0, 0.0, 0.0, 0.0001,         0.0,    1.0
 |];
