open = [1, 1, 1, 1, 1, 1, 1, 1];
satisfied = 
[|         0.0,         0.0,    0.0, 0.0, 0.0,    0.0,    0.0, 0.0, 0.785714286,                0.0,         0.0, 1.0
 |         0.0, 0.916666667,    0.0, 0.0, 0.0,    0.0,    0.0, 1.0,         0.0,                0.0,         0.0, 0.0
 |         0.0,         0.0,    0.0, 0.0, 1.0, 0.0001,    0.0, 1.0,         0.0,                1.0, 0.166458333, 0.0
 |         0.0,         1.0,    1.0, 1.0, 0.0,    0.0,    0.0, 0.0,         0.0,        0.454545455,         0.0, 0.0
 | 0.933266667,         0.0,    0.0, 0.0, 0.0,    0.0, 0.0001, 0.0,         0.0,                1.0,         0.0, 0.0
 |         0.0,         1.0,    0.0, 1.0, 1.0,    0.0,    0.0, 0.0,         0.0,        0.272390909, 0.833641667, 1.0
 |         1.0,         0.0,    0.0, 0.0, 0.0,    0.0,    0.0, 0.0, 0.285714286,                1.0,         0.0, 0.0
 |         1.0,         1.0, 0.0001, 0.0, 0.0,    1.0,    1.0, 0.0,         0.0, 0.8179999999999999,         0.0, 1.0
 |];
