open = [1, 1, 1, 1, 1, 1, 1, 1];
satisfied = 
[|    0.0, 0.0, 0.15, 1.0,         0.0,  0.0, 0.0,         0.0,         0.0, 0.0,         0.0, 1.0
 |    1.0, 0.0,  0.0, 0.0,         0.0,  0.2, 0.0,         0.0,         0.0, 0.0,         0.0, 0.0
 |    0.0, 0.0,  0.0, 1.0,         0.0,  0.0, 1.0, 0.111111111,         0.0, 0.0,         1.0, 1.0
 |    0.0, 0.0,  0.0, 0.0, 0.222322222,  0.0, 1.0,         1.0,         0.0, 1.0, 0.166516667, 1.0
 |    0.0, 1.0,  0.0, 0.0,         0.0, 0.52, 0.0,         0.0,         0.0, 0.0,         0.0, 0.0
 |    0.0, 0.0,  0.0, 0.0,         0.0,  1.0, 1.0,         0.0, 0.357142857, 1.0,         0.0, 1.0
 | 0.0001, 0.0,  0.0, 0.0,         0.0,  0.0, 0.0, 0.999833333,         0.0, 0.0,         1.0, 1.0
 |    0.0, 1.0,  1.0, 1.0, 0.777777778,  0.0, 0.0,         0.0,         1.0, 0.0,         1.0, 0.0
 |];
