open = [1, 1, 1, 1, 1, 1, 1, 1];
satisfied = 
[| 0.8, 0.0,                0.0,    1.0,         0.0,  0.0,    0.0,         0.0, 0.0,    0.0,         0.0, 0.0
 | 0.0, 0.0,                0.0,    0.0,         0.0,  0.0,    0.0,         0.0, 0.0,    0.0, 0.916666667, 1.0
 | 0.0, 0.0, 0.8499100000000001, 0.0001,         0.0,  0.0, 0.0001,         0.0, 1.0,    0.0,         0.0, 1.0
 | 0.0, 1.0,                0.0,    0.0, 0.722222222,  0.0,    0.0,         1.0, 0.0,    1.0,         0.0, 0.0
 | 0.0, 0.0,                0.0,    0.0,         1.0,  0.0,    0.0, 0.777777778, 0.0,    0.0,         0.0, 0.0
 | 0.6, 1.0,                0.0,    0.0,         0.0,  1.0,    0.0,         0.0, 1.0,    0.0,         0.0, 0.0
 | 0.0, 1.0,                0.0,    0.0, 0.444383333,  0.0,    1.0,         0.0, 0.0, 0.0001,         0.0, 0.0
 | 1.0, 1.0,                1.0,    0.0,         0.0, 0.84,    0.0,         0.0, 0.0,    0.0,         1.0, 0.0
 |];
