open = [1, 1, 1, 1, 1, 1, 1, 1];
satisfied = 
[| 0.0,    0.0, 0.0001, 0.0,         1.0,  0.07992, 0.0, 0.0, 0.0,    0.0,      0.0, 0.0
 | 0.0, 0.0001,    0.0, 0.0,         0.0, 0.239952, 0.0, 0.0, 1.0,    0.0,      0.0, 0.0
 | 1.0,    0.0,    0.0, 0.0,         0.0,      0.2, 0.0, 1.0, 0.0,    1.0,      0.0, 0.0
 | 0.0,    0.0,    0.0, 1.0,         0.0, 0.240228, 1.0, 0.0, 0.0,    0.0, 0.999525, 1.0
 | 0.0,    0.0,    0.0, 0.0,         0.0,     0.24, 1.0, 0.0, 0.0,    0.0,      0.0, 1.0
 | 0.0,    1.0,    0.0, 0.0, 0.222161111,      0.0, 0.0, 1.0, 1.0, 0.0001,      1.0, 1.0
 | 0.0,    0.0,    0.0, 1.0,         0.0,      0.0, 0.1, 0.0, 0.0,    0.0,      1.0, 1.0
 | 1.0,    0.0,    1.0, 1.0,         0.0,      0.0, 0.0, 1.0, 1.0,    0.0,      0.0, 1.0
 |];
