open = [1, 1, 1, 1, 0, 1, 1, 1];
satisfied = 
[|    0.0,         0.0,      0.0, 0.0,    0.0,      0.0, 0.0,         0.0,         0.0,    1.0, 0.0, 1.0
 |    0.0, 0.250358333,      0.0, 0.0,    0.0,      0.0, 0.0,         1.0, 0.571121429,    0.0, 0.0, 0.0
 | 0.0001,         0.0,      0.0, 1.0,    0.0,      0.0, 0.0,         1.0, 0.999892857,    0.0, 0.0, 1.0
 |    0.0,         0.0,      0.0, 1.0,    1.0,      0.0, 0.0, 0.777777778,         0.0,    0.0, 1.0, 0.0
 |    0.0,         0.0,      0.0, 0.0,    0.0,      0.0, 0.0,         0.0,         0.0,    0.0, 0.0, 0.0
 |    0.0,         0.0,      0.0, 0.0, 0.0001, 0.959928, 1.0,         0.0,         1.0,    0.0, 1.0, 0.0
 |    0.0, 0.749741667, 0.650155, 1.0,    0.0,      0.0, 0.0,         0.0,         0.0,    0.0, 0.0, 0.0
 |    1.0,         0.0, 0.349945, 0.0,    0.0,      1.0, 1.0,         0.0,         1.0, 0.0001, 0.0, 1.0
 |];
