production = [0: 0.0, 1: 0.0, 2: 0.0, 3: 0.0, 4: 0.0, 5: 0.0, 6: 0.0, 7: 0.0, 8: 0.0, 9: 0.0, 10: 0.0, 11: 0.0, 12: 0.0, 13: 0.0, 14: 0.0, 15: 0.0, 16: 0.0, 17: 0.0, 18: 0.0, 19: 0.0, 20: 0.0, 21: 0.0, 22: 0.0, 23: 0.0127, 24: 0.0475, 25: 0.0828, 26: 0.1482, 27: 0.0, 28: 0.2323, 29: 0.333, 30: 0.0, 31: 0.0, 32: 0.8185, 33: 0.0, 34: 0.3912, 35: 1.2263, 36: 0.0, 37: 0.0, 38: 0.6085, 39: 0.588, 40: 0.0, 41: 1.10354375, 42: 0.0, 43: 0.0, 44: 0.0, 45: 0.0, 46: 0.905, 47: 0.0, 48: 1.0108, 49: 0.0, 50: 1.8355, 51: 1.8028, 52: 1.7512, 53: 1.63054375, 54: 1.6607, 55: 0.0, 56: 0.09754375, 57: 1.43, 58: 0.0, 59: 1.1723, 60: 0.0, 61: 0.7298, 62: 0.0, 63: 0.0, 64: 0.3648, 65: 0.0, 66: 0.0, 67: 0.1095, 68: 0.0, 69: 0.0238, 70: 0.0, 71: 0.0, 72: 0.0, 73: 0.0, 74: 0.0, 75: 0.0, 76: 0.0, 77: 0.0, 78: 0.0, 79: 0.0, 80: 0.0, 81: 0.0, 82: 0.0, 83: 0.0, 84: 0.0, 85: 0.0, 86: 0.0, 87: 0.0, 88: 0.0, 89: 0.0, 90: 0.0, 91: 0.0, 92: 0.0, 93: 0.0, 94: 0.0, 95: 0.0, 96: 0.0, 97: 0.0, 98: 0.0, 99: 0.0, 100: 0.0, 101: 0.0, 102: 0.0, 103: 0.0, 104: 0.0, 105: 0.0, 106: 0.0, 107: 0.0, 108: 0.0, 109: 0.0, 110: 0.0, 111: 0.0, 112: 0.0, 113: 0.0, 114: 0.0, 115: 0.0, 116: 0.0, 117: 0.0, 118: 0.0, 119: 0.0, 120: 0.0, 121: 0.0, 122: 0.0, 123: 0.0013, 124: 0.0, 125: 0.0, 126: 0.0253, 127: 0.0, 128: 0.0, 129: 0.1114, 130: 0.0, 131: 0.0, 132: 0.0, 133: 0.0, 134: 0.0, 135: 0.1955, 136: 0.208, 137: 0.1375, 138: 0.1576, 139: 0.0, 140: 0.0, 141: 0.0, 142: 0.0, 143: 0.2952, 144: 0.0, 145: 0.0, 146: 0.0, 147: 0.0, 148: 0.0, 149: 0.3795, 150: 0.0, 151: 0.3855, 152: 0.546, 153: 0.0, 154: 0.5504, 155: 0.642, 156: 0.6201, 157: 0.672, 158: 0.7237, 159: 0.5416, 160: 0.0, 161: 0.0, 162: 0.0, 163: 0.2714, 164: 0.0, 165: 0.1649, 166: 0.0, 167: 0.0, 168: 0.0, 169: 0.0694, 170: 0.0545, 171: 0.0324, 172: 0.0, 173: 0.0, 174: 0.0, 175: 0.0, 176: 0.0, 177: 0.0, 178: 0.0, 179: 0.0, 180: 0.0, 181: 0.0, 182: 0.0, 183: 0.0, 184: 0.0, 185: 0.0, 186: 0.0, 187: 0.0, 188: 0.0, 189: 0.0, 190: 0.0, 191: 0.0];
buy = [0: 1.32054375, 1: 0.32204375, 2: 1.32254375, 3: 0.0, 4: 0.26614375, 5: 0.26584375, 6: 0.0, 7: 0.0, 8: 0.26934375, 9: 0.0, 10: 1.22484375, 11: 1.23484375, 12: 0.0, 13: 1.22734375, 14: 0.0, 15: 0.0, 16: 0.26514375, 17: 0.0, 18: 0.25554375, 19: 0.0, 20: 0.0, 21: 0.26464375, 22: 0.0, 23: 0.23864375, 24: 0.20284375, 25: 0.27434375, 26: 1.09244375, 27: 0.23984375, 28: 0.0, 29: 0.0, 30: 0.0, 31: 1.09964375, 32: 0.0, 33: 0.09154374999999999, 34: 0.70034375, 35: 0.0, 36: 0.10214375, 37: 1.09904375, 38: 0.48134375, 39: 0.0, 40: 1.10334375, 41: 0.0, 42: 1.10314375, 43: 1.09564375, 44: 1.09004375, 45: 1.10214375, 46: 0.0, 47: 0.10064375, 48: 0.0, 49: 1.08684375, 50: 0.0, 51: 0.0, 52: 0.0, 53: 0.0, 54: 0.0, 55: 1.85184375, 56: 0.0, 57: 0.0, 58: 1.44354375, 59: 0.0, 60: 0.10704375, 61: 0.0, 62: 0.0, 63: 1.09464375, 64: 0.0, 65: 0.0, 66: 1.10654375, 67: 0.99814375, 68: 0.09804375, 69: 0.07554375000000001, 70: 1.10734375, 71: 1.10764375, 72: 0.0, 73: 1.10334375, 74: 0.794849805, 75: 0.0, 76: 0.0, 77: 1.10504375, 78: 1.10484375, 79: 1.09884375, 80: 0.0, 81: 1.10604375, 82: 0.09754375, 83: 0.0, 84: 1.10654375, 85: 0.0, 86: 1.10554375, 87: 1.09964375, 88: 0.0, 89: 1.23684375, 90: 1.33314375, 91: 0.33134375, 92: 1.32384375, 93: 1.33014375, 94: 0.303825972, 95: 0.0, 96: 1.26984375, 97: 0.0, 98: 0.0, 99: 0.0, 100: 1.22934375, 101: 0.0, 102: 0.0, 103: 1.22234375, 104: 0.0, 105: 0.22584375, 106: 1.22764375, 107: 1.22944375, 108: 0.0, 109: 0.0, 110: 1.22914375, 111: 1.22254375, 112: 0.10434375, 113: 1.11064375, 114: 1.11034375, 115: 0.0, 116: 0.0, 117: 0.0, 118: 0.10904375, 119: 1.10934375, 120: 0.0, 121: 1.09914375, 122: 1.10094375, 123: 0.0, 124: 1.10804375, 125: 0.10174375, 126: 1.06994375, 127: 0.0, 128: 0.10124375, 129: 0.0, 130: 0.0, 131: 1.09414375, 132: 1.09544375, 133: 0.10334375, 134: 0.0, 135: 0.89974375, 136: 0.0, 137: 0.0, 138: 0.0, 139: 1.10274375, 140: 0.0, 141: 1.09464375, 142: 0.09184375, 143: 0.0, 144: 0.0, 145: 0.0, 146: 0.09234375, 147: 0.0, 148: 1.10124375, 149: 0.0, 150: 1.09204375, 151: 0.0, 152: 0.0, 153: 0.0, 154: 0.0, 155: 0.18764375, 156: 0.0, 157: 0.0, 158: 0.0, 159: 0.0, 160: 1.09494375, 161: 1.10074375, 162: 1.18424375, 163: 0.0, 164: 0.0, 165: 0.0, 166: 0.13514375, 167: 1.13544375, 168: 0.0, 169: 0.0, 170: 0.16804375, 171: 1.15314375, 172: 1.15084375, 173: 1.15054375, 174: 1.15684375, 175: 1.11944375, 176: 0.0, 177: 1.26984375, 178: 0.0, 179: 1.27214375, 180: 0.23584375, 181: 1.21554375, 182: 0.21394375, 183: 0.22784375, 184: 0.0, 185: 1.21764375, 186: 0.25994375, 187: 1.22284375, 188: 1.23484375, 189: 0.0, 190: 0.0, 191: 1.22154375];
sell = [0: 0.0, 1: 0.0, 2: 0.0, 3: 0.62265625, 4: 0.0, 5: 0.0, 6: 0.62285625, 7: 0.62165625, 8: 0.0, 9: 0.0, 10: 0.0, 11: 0.0, 12: 0.66485625, 13: 0.0, 14: 0.67215625, 15: 0.64645625, 16: 0.0, 17: 0.63695625, 18: 0.0, 19: 0.64495625, 20: 0.64395625, 21: 0.0, 22: 0.63535625, 23: 0.0, 24: 0.0, 25: 0.0, 26: 0.0, 27: 0.0, 28: 0.90775625, 29: 1.01735625, 30: 0.62528782, 31: 0.0, 32: 0.71765625, 33: 0.0, 34: 0.0, 35: 1.12495625, 36: 0.0, 37: 0.0, 38: 0.0, 39: 1.39745625, 40: 0.0, 41: 0.0, 42: 0.0, 43: 0.0, 44: 0.0, 45: 0.0, 46: 0.0, 47: 0.0, 48: 0.91815625, 49: 0.0, 50: 2.64085625, 51: 2.60795625, 52: 0.65655625, 53: 0.0, 54: 2.02035625, 55: 0.0, 56: 0.0, 57: 1.92815625, 58: 0.0, 59: 1.65225625, 60: 0.0, 61: 1.52115625, 62: 0.8058562500000001, 63: 0.0, 64: 1.15945625, 65: 0.79445625, 66: 0.0, 67: 0.0, 68: 0.0, 69: 0.0, 70: 0.0, 71: 0.0, 72: 0.79545625, 73: 0.0, 74: 0.0, 75: 0.78715625, 76: 0.7866562499999999, 77: 0.0, 78: 0.0, 79: 0.0, 80: 0.79315625, 81: 0.0, 82: 0.0, 83: 0.80315625, 84: 0.0, 85: 0.79395625, 86: 0.0, 87: 0.0, 88: 0.80145625, 89: 0.0, 90: 0.0, 91: 0.0, 92: 0.0, 93: 0.0, 94: 0.0, 95: 0.63165625, 96: 0.0, 97: 0.65545625, 98: 0.65915625, 99: 0.64765625, 100: 0.0, 101: 0.67115625, 102: 0.68005625, 103: 0.0, 104: 0.67595625, 105: 0.0, 106: 0.0, 107: 0.0, 108: 0.66885625, 109: 0.66855625, 110: 0.0, 111: 0.0, 112: 0.0, 113: 0.0, 114: 0.0, 115: 0.79195625, 116: 0.80005625, 117: 0.79925625, 118: 0.0, 119: 0.0, 120: 0.79095625, 121: 0.0, 122: 0.0, 123: 0.79325625, 124: 0.0, 125: 0.0, 126: 0.0, 127: 0.8068562500000001, 128: 0.0, 129: 0.90835625, 130: 0.79595625, 131: 0.0, 132: 0.0, 133: 0.0, 134: 0.217927237, 135: 0.0, 136: 0.11335625, 137: 0.94305625, 138: 0.05715625, 139: 0.0, 140: 0.79745625, 141: 0.0, 142: 0.0, 143: 1.09475625, 144: 0.7977562499999999, 145: 0.80815625, 146: 0.0, 147: 0.80735625, 148: 0.0, 149: 1.17775625, 150: 0.0, 151: 1.02845625, 152: 1.17275625, 153: 0.07295625, 154: 0.88125625, 155: 0.0, 156: 1.07855625, 157: 0.22005625, 158: 0.25635625, 159: 1.01725625, 160: 0.0, 161: 0.0, 162: 0.0, 163: 0.98195625, 164: 0.69905625, 165: 0.88855625, 166: 0.0, 167: 0.0, 168: 0.75255625, 169: 0.76325625, 170: 0.0, 171: 0.0, 172: 0.0, 173: 0.0, 174: 0.0, 175: 0.0, 176: 0.48585625, 177: 0.0, 178: 0.02223964, 179: 0.0, 180: 0.0, 181: 0.0, 182: 0.0, 183: 0.0, 184: 0.67715625, 185: 0.0, 186: 0.0, 187: 0.0, 188: 0.0, 189: 0.66595625, 190: 0.66435625, 191: 0.0];
charge = [0: 1.0, 1: 0.0, 2: 1.0, 3: 0.0, 4: 0.0, 5: 0.0, 6: 0.0, 7: 0.0, 8: 0.0, 9: 0.0, 10: 1.0, 11: 1.0, 12: 0.0, 13: 1.0, 14: 0.0, 15: 0.0, 16: 0.0, 17: 0.0, 18: 0.0, 19: 0.0, 20: 0.0, 21: 0.0, 22: 0.0, 23: 0.0, 24: 0.0, 25: 0.0, 26: 1.0, 27: 0.0, 28: 0.0, 29: 0.0, 30: 0.0, 31: 1.0, 32: 0.0, 33: 0.0, 34: 1.0, 35: 0.0, 36: 0.0, 37: 1.0, 38: 1.0, 39: 0.0, 40: 1.0, 41: 1.0, 42: 1.0, 43: 1.0, 44: 1.0, 45: 1.0, 46: 0.80265625, 47: 0.0, 48: 0.0, 49: 1.0, 50: 0.0, 51: 0.0, 52: 1.0, 53: 1.0, 54: 0.0, 55: 1.0, 56: 0.0, 57: 0.0, 58: 1.0, 59: 0.0, 60: 0.0, 61: 0.0, 62: 0.0, 63: 1.0, 64: 0.0, 65: 0.0, 66: 1.0, 67: 1.0, 68: 0.0, 69: 0.0, 70: 1.0, 71: 1.0, 72: 0.0, 73: 1.0, 74: 0.690806055, 75: 0.0, 76: 0.0, 77: 1.0, 78: 1.0, 79: 1.0, 80: 0.0, 81: 1.0, 82: 0.0, 83: 0.0, 84: 1.0, 85: 0.0, 86: 1.0, 87: 1.0, 88: 0.0, 89: 1.0, 90: 1.0, 91: 0.0, 92: 1.0, 93: 1.0, 94: 0.003482222, 95: 0.0, 96: 1.0, 97: 0.0, 98: 0.0, 99: 0.0, 100: 1.0, 101: 0.0, 102: 0.0, 103: 1.0, 104: 0.0, 105: 0.0, 106: 1.0, 107: 1.0, 108: 0.0, 109: 0.0, 110: 1.0, 111: 1.0, 112: 0.0, 113: 1.0, 114: 1.0, 115: 0.0, 116: 0.0, 117: 0.0, 118: 0.0, 119: 1.0, 120: 0.0, 121: 1.0, 122: 1.0, 123: 0.0, 124: 1.0, 125: 0.0, 126: 1.0, 127: 0.0, 128: 0.0, 129: 0.0, 130: 0.0, 131: 1.0, 132: 1.0, 133: 0.0, 134: 0.0, 135: 1.0, 136: 0.0, 137: 0.0, 138: 0.0, 139: 1.0, 140: 0.0, 141: 1.0, 142: 0.0, 143: 0.0, 144: 0.0, 145: 0.0, 146: 0.0, 147: 0.0, 148: 1.0, 149: 0.0, 150: 1.0, 151: 0.0, 152: 0.0, 153: 0.0, 154: 0.0, 155: 0.0, 156: 0.0, 157: 0.0, 158: 0.0, 159: 0.0, 160: 1.0, 161: 1.0, 162: 1.0, 163: 0.0, 164: 0.0, 165: 0.0, 166: 0.0, 167: 1.0, 168: 0.0, 169: 0.0, 170: 0.0, 171: 1.0, 172: 1.0, 173: 1.0, 174: 1.0, 175: 1.0, 176: 0.0, 177: 1.0, 178: 0.0, 179: 1.0, 180: 0.0, 181: 1.0, 182: 0.0, 183: 0.0, 184: 0.0, 185: 1.0, 186: 0.0, 187: 1.0, 188: 1.0, 189: 0.0, 190: 0.0, 191: 1.0];
discharge = [0: 0.0, 1: 0.0, 2: 0.0, 3: 1.0, 4: 0.0, 5: 0.0, 6: 1.0, 7: 1.0, 8: 0.0, 9: 0.258715278, 10: 0.0, 11: 0.0, 12: 1.0, 13: 0.0, 14: 1.0, 15: 1.0, 16: 0.0, 17: 1.0, 18: 0.0, 19: 1.0, 20: 1.0, 21: 0.0, 22: 1.0, 23: 0.0, 24: 0.0, 25: 0.0, 26: 0.0, 27: 0.0, 28: 1.0, 29: 1.0, 30: 0.939812855, 31: 0.0, 32: 0.0, 33: 0.0, 34: 0.0, 35: 0.0, 36: 0.0, 37: 0.0, 38: 0.0, 39: 1.0, 40: 0.0, 41: 0.0, 42: 0.0, 43: 0.0, 44: 0.0, 45: 0.0, 46: 0.0, 47: 0.0, 48: 0.0, 49: 0.0, 50: 1.0, 51: 1.0, 52: 0.0, 53: 0.0, 54: 1.0, 55: 0.0, 56: 0.0, 57: 1.0, 58: 0.0, 59: 1.0, 60: 0.0, 61: 1.0, 62: 1.0, 63: 0.0, 64: 1.0, 65: 1.0, 66: 0.0, 67: 0.0, 68: 0.0, 69: 0.0, 70: 0.0, 71: 0.0, 72: 1.0, 73: 0.0, 74: 0.0, 75: 1.0, 76: 1.0, 77: 0.0, 78: 0.0, 79: 0.0, 80: 1.0, 81: 0.0, 82: 0.0, 83: 1.0, 84: 0.0, 85: 1.0, 86: 0.0, 87: 0.0, 88: 1.0, 89: 0.0, 90: 0.0, 91: 0.0, 92: 0.0, 93: 0.0, 94: 0.0, 95: 1.0, 96: 0.0, 97: 1.0, 98: 1.0, 99: 1.0, 100: 0.0, 101: 1.0, 102: 1.0, 103: 0.0, 104: 1.0, 105: 0.0, 106: 0.0, 107: 0.0, 108: 1.0, 109: 1.0, 110: 0.0, 111: 0.0, 112: 0.0, 113: 0.0, 114: 0.0, 115: 1.0, 116: 1.0, 117: 1.0, 118: 0.0, 119: 0.0, 120: 1.0, 121: 0.0, 122: 0.0, 123: 1.0, 124: 0.0, 125: 0.0, 126: 0.0, 127: 1.0, 128: 0.0, 129: 1.0, 130: 1.0, 131: 0.0, 132: 0.0, 133: 0.0, 134: 0.35663443, 135: 0.0, 136: 0.0, 137: 1.0, 138: 0.0, 139: 0.0, 140: 1.0, 141: 0.0, 142: 0.0, 143: 1.0, 144: 1.0, 145: 1.0, 146: 0.0, 147: 1.0, 148: 0.0, 149: 1.0, 150: 0.0, 151: 1.0, 152: 1.0, 153: 1.0, 154: 1.0, 155: 0.0, 156: 1.0, 157: 0.0, 158: 0.0, 159: 1.0, 160: 0.0, 161: 0.0, 162: 0.0, 163: 1.0, 164: 1.0, 165: 1.0, 166: 0.0, 167: 0.0, 168: 1.0, 169: 1.0, 170: 0.0, 171: 0.0, 172: 0.0, 173: 0.0, 174: 0.0, 175: 0.0, 176: 1.0, 177: 0.0, 178: 0.329759323, 179: 0.0, 180: 0.0, 181: 0.0, 182: 0.0, 183: 0.0, 184: 1.0, 185: 0.0, 186: 0.0, 187: 0.0, 188: 0.0, 189: 1.0, 190: 1.0, 191: 0.0];
soc = [0: 11.3979, 1: 11.39562042, 2: 12.293341296, 3: 11.290882628, 4: 11.288624451, 5: 11.286366726, 6: 10.284109453, 7: 9.282052631000001, 8: 9.280196220000001, 9: 9.019624903, 10: 9.917820978, 11: 10.815837414, 12: 9.813674247, 13: 10.711711512, 14: 9.70956917, 15: 8.707627256, 16: 8.70588573, 17: 7.704144553, 18: 7.702603724, 19: 6.701063204, 20: 5.699722991, 21: 5.698583046, 22: 4.69744333, 23: 4.696503841, 24: 4.69556454, 25: 4.694625427, 26: 5.593686502, 27: 5.592567765, 28: 4.591449251, 29: 3.590530962, 30: 2.65, 31: 3.54947, 32: 3.548760106, 33: 3.548050354, 34: 4.447340744, 35: 4.446451276, 36: 4.445561986, 37: 5.344672873, 38: 6.243603939, 39: 5.242355218, 40: 6.141306747, 41: 7.040078485, 42: 7.93867047, 43: 8.837082735999999, 44: 9.735315319, 45: 10.633368256, 46: 11.353632207, 47: 11.351361481, 48: 11.349091209, 49: 12.24682139, 50: 11.244372026, 51: 10.242123152, 52: 11.140074727, 53: 12.037846712, 54: 11.035439143, 55: 11.933232055, 56: 11.930845408, 57: 10.928459239, 58: 11.826273548, 59: 10.823908293, 60: 10.821743511, 61: 9.819579162, 62: 8.817615247000001, 63: 9.715851724, 64: 8.713908553, 65: 7.712165772, 66: 8.610623338, 67: 9.508901214, 68: 9.506999433000001, 69: 9.505098034, 70: 10.403197014, 71: 11.301116375, 72: 10.298856151, 73: 11.19679638, 74: 11.81628247, 75: 10.813919214, 76: 9.811756430000001, 77: 10.709794079, 78: 11.60765212, 79: 12.505330589, 80: 11.502829523, 81: 12.400528957, 82: 12.398048852, 83: 11.395569242, 84: 12.293290128, 85: 11.29083147, 86: 12.188573304, 87: 13.086135589, 88: 12.083518362, 89: 12.981101658, 90: 13.878505438, 91: 13.875729737, 92: 14.772954591, 93: 15.67, 94: 15.67, 95: 14.666866, 96: 15.563932627, 97: 14.56081984, 98: 13.557907676, 99: 12.555196095, 100: 13.452685056, 101: 12.449994519, 102: 11.44750452, 103: 12.345215019, 104: 11.342745976, 105: 11.340477427, 106: 12.238209331, 107: 13.135761689, 108: 12.133134537, 109: 11.13070791, 110: 12.028481768, 111: 12.926076072, 112: 12.923490857, 113: 13.820906159, 114: 14.718141977, 115: 13.715198349, 116: 12.712455309, 117: 11.709912818, 118: 11.707570836, 119: 12.605229322, 120: 11.602708276, 121: 12.500387734, 122: 13.397887656, 123: 12.395208079, 124: 13.292729037, 125: 13.290070492, 126: 14.187412477, 127: 13.184574995, 128: 13.18193808, 129: 12.179301692, 130: 11.176865832, 131: 12.074630459, 132: 12.972215533, 133: 12.96962109, 134: 12.610392735, 135: 13.507870657, 136: 13.505169083, 137: 12.502468049, 138: 12.499967555, 139: 13.397467562, 140: 12.394788068, 141: 13.292309111, 142: 13.289650649, 143: 12.286992719, 144: 11.28453532, 145: 10.282278413, 146: 10.280221957, 147: 9.278165913, 148: 10.17631028, 149: 9.174275017999999, 150: 10.072440163, 151: 9.070425674999999, 152: 8.06861159, 153: 7.066997867, 154: 6.065584468, 155: 6.064371351, 156: 5.063158477, 157: 5.062145845, 158: 5.061133416, 159: 4.060121189, 160: 4.959309165, 161: 5.858317303, 162: 6.75714564, 163: 5.75579421, 164: 4.754643052, 165: 3.753692123, 166: 3.752941385, 167: 4.652190796, 168: 3.651260358, 169: 2.650530106, 170: 2.65, 171: 3.54947, 172: 4.448760106, 173: 5.347870354, 174: 6.24680078, 175: 7.14555142, 176: 6.144122309, 177: 7.042893485, 178: 6.711725584, 179: 7.610383239, 180: 7.608861162, 181: 8.50733939, 182: 8.505637922, 183: 8.503936793999999, 184: 7.502236007, 185: 8.400735559999999, 186: 8.399055411999999, 187: 9.297375601000001, 188: 10.195516126, 189: 9.193477023, 190: 8.191638328, 191: 9.09];
cost = [0: 0.924898342, 1: 0.196736527, 2: 0.926120142, 3: 0.0, 4: 0.162587217, 5: 0.162403947, 6: 0.0, 7: 0.0, 8: 0.164542097, 9: 0.0, 10: 0.866435212, 11: 0.872544212, 12: 0.0, 13: 0.867962462, 14: 0.0, 15: 0.0, 16: 0.161976317, 17: 0.0, 18: 0.156111677, 19: 0.0, 20: 0.0, 21: 0.161670867, 22: 0.0, 23: 0.145787467, 24: 0.241302925, 25: 0.326359325, 26: 1.41774925, 27: 0.285318125, 28: 0.0, 29: 0.0, 30: 0.0, 31: 1.42631437, 32: 0.0, 33: 0.108900445, 34: 0.95130709, 35: 0.0, 36: 0.121510205, 37: 1.42560061, 38: 0.69078469, 39: 0.0, 40: 1.43071589, 41: 0.118178165, 42: 1.43047797, 43: 1.42155597, 44: 1.41489421, 45: 1.42928837, 46: 0.094856443, 47: 0.119725805, 48: 0.0, 49: 1.41108749, 50: 0.0, 51: 0.0, 52: 0.118178165, 53: 0.118178165, 54: 0.0, 55: 1.249469512, 56: 0.0, 57: 0.0, 58: 1.000039042, 59: 0.0, 60: 0.127339245, 61: 0.0, 62: 0.0, 63: 1.42036637, 64: 0.0, 65: 0.0, 66: 1.43452261, 67: 1.30556997, 68: 0.116632845, 69: 0.089866845, 70: 1.43547429, 71: 1.43583117, 72: 0.0, 73: 1.43071589, 74: 1.02719152, 75: 0.0, 76: 0.0, 77: 1.43273821, 78: 1.43250029, 79: 1.42536269, 80: 0.0, 81: 1.43392781, 82: 0.116038045, 83: 0.0, 84: 1.43452261, 85: 0.0, 86: 1.43333301, 87: 1.42631437, 88: 0.0, 89: 0.873766012, 90: 0.932595682, 91: 0.202417897, 92: 0.926914312, 93: 0.930762982, 94: 0.186018809, 95: 0.0, 96: 0.893925712, 97: 0.0, 98: 0.0, 99: 0.0, 100: 0.869184262, 101: 0.0, 102: 0.0, 103: 0.864907962, 104: 0.0, 105: 0.137967947, 106: 0.868145732, 107: 0.869245352, 108: 0.0, 109: 0.0, 110: 0.869062082, 111: 0.8650301419999999, 112: 0.063743597, 113: 0.796670432, 114: 0.796487162, 115: 0.0, 116: 0.0, 117: 0.0, 118: 0.066614827, 119: 0.7958762619999999, 120: 0.0, 121: 1.42571957, 122: 1.42786085, 123: 0.0, 124: 1.43630701, 125: 0.121034365, 126: 1.39098325, 127: 0.0, 128: 0.120439565, 129: 0.0, 130: 0.0, 131: 1.41977157, 132: 1.42131805, 133: 0.122937725, 134: 0.0, 135: 1.18851333, 136: 0.0, 137: 0.0, 138: 0.0, 139: 1.43000213, 140: 0.0, 141: 1.42036637, 142: 0.109257325, 143: 0.0, 144: 0.0, 145: 0.0, 146: 0.109852125, 147: 0.0, 148: 0.790927972, 149: 0.0, 150: 0.7853076919999999, 151: 0.0, 152: 0.0, 153: 0.0, 154: 0.0, 155: 0.114631567, 156: 0.0, 157: 0.0, 158: 0.0, 159: 0.0, 160: 1.42072325, 161: 1.42762293, 162: 1.52695453, 163: 0.0, 164: 0.0, 165: 0.0, 166: 0.160767005, 167: 1.46890205, 168: 0.0, 169: 0.0, 170: 0.199904845, 171: 1.48995797, 172: 1.48722189, 173: 1.48686501, 174: 1.49435949, 175: 1.44986845, 176: 0.0, 177: 1.62878429, 178: 0.0, 179: 1.63152037, 180: 0.280559725, 181: 1.56418901, 182: 0.254507485, 183: 0.271042925, 184: 0.0, 185: 0.862036732, 186: 0.158799637, 187: 0.865213412, 188: 0.872544212, 189: 0.0, 190: 0.0, 191: 0.864419242];
earn = [0: 0.0, 1: 0.0, 2: 0.0, 3: 0.367553984, 4: 0.0, 5: 0.0, 6: 0.355837776, 7: 0.380204963, 8: 0.0, 9: 0.0, 10: 0.0, 11: 0.0, 12: 0.377837807, 13: 0.0, 14: 0.3807093, 15: 0.364601325, 16: 0.0, 17: 0.363702019, 18: 0.0, 19: 0.368270019, 20: 0.370210448, 21: 0.0, 22: 0.368697232, 23: 0.0, 24: 0.0, 25: 0.0, 26: 0.0, 27: 0.0, 28: 0.481110813, 29: 0.528211365, 30: 0.314894946, 31: 0.0, 32: 0.302779172, 33: 0.0, 34: 0.0, 35: 0.399696956, 36: 0.0, 37: 0.0, 38: 0.0, 39: 0.221496816, 40: 0.0, 41: 0.0, 42: 0.0, 43: 0.0, 44: 0.0, 45: 0.0, 46: 0.0, 47: 0.0, 48: 0.028646475, 49: 0.0, 50: 0.07896160200000001, 51: 0.09101767299999999, 52: 0.035585349, 53: 0.0, 54: 0.121221375, 55: 0.0, 56: 0.0, 57: 0.284981494, 58: 0.0, 59: 0.354574191, 60: 0.0, 61: 0.553244528, 62: 0.347485215, 63: 0.0, 64: 0.649643337, 65: 0.453872856, 66: 0.0, 67: 0.0, 68: 0.0, 69: 0.0, 70: 0.0, 71: 0.0, 72: 0.60709221, 73: 0.0, 74: 0.0, 75: 0.641374913, 76: 0.642776822, 77: 0.0, 78: 0.0, 79: 0.0, 80: 0.6242932839999999, 81: 0.0, 82: 0.0, 83: 0.573935456, 84: 0.0, 85: 0.548306186, 86: 0.0, 87: 0.0, 88: 0.523911951, 89: 0.0, 90: 0.0, 91: 0.0, 92: 0.0, 93: 0.0, 94: 0.0, 95: 0.368950416, 96: 0.0, 97: 0.409660156, 98: 0.395296003, 99: 0.382635313, 100: 0.0, 101: 0.380814056, 102: 0.383823748, 103: 0.0, 104: 0.381644899, 105: 0.0, 106: 0.0, 107: 0.0, 108: 0.370813905, 109: 0.370848152, 110: 0.0, 111: 0.0, 112: 0.0, 113: 0.0, 114: 0.0, 115: 0.448880803, 116: 0.448671545, 117: 0.451739633, 118: 0.0, 119: 0.0, 120: 0.429251957, 121: 0.0, 122: 0.0, 123: 0.463578953, 124: 0.0, 125: 0.0, 126: 0.0, 127: 0.464426458, 128: 0.0, 129: 0.553915641, 130: 0.451466385, 131: 0.0, 132: 0.0, 133: 0.0, 134: 0.112799138, 135: 0.0, 136: 0.054603706, 137: 0.421451838, 138: 0.023931322, 139: 0.0, 140: 0.236286287, 141: 0.0, 142: 0.0, 143: 0.315946654, 144: 0.132347762, 145: 0.131810284, 146: 0.0, 147: 0.141529551, 148: 0.0, 149: 0.134381988, 150: 0.0, 151: 0.101508632, 152: 0.143662641, 153: 0.004092846, 154: 0.035779004, 155: 0.0, 156: 0.147115073, 157: 0.021191417, 158: 0.018662735, 159: 0.08300811, 160: 0.0, 161: 0.0, 162: 0.0, 163: 0.431864359, 164: 0.371268774, 165: 0.487106536, 166: 0.0, 167: 0.0, 168: 0.447996736, 169: 0.461693706, 170: 0.0, 171: 0.0, 172: 0.0, 173: 0.0, 174: 0.0, 175: 0.0, 176: 0.387761873, 177: 0.0, 178: 0.016951054, 179: 0.0, 180: 0.0, 181: 0.0, 182: 0.0, 183: 0.0, 184: 0.475228256, 185: 0.0, 186: 0.0, 187: 0.0, 188: 0.0, 189: 0.37400103, 190: 0.373766826, 191: 0.0];
total_cost = 94.591148625;
total_earn = 26.35090601;
% _objective = 68.240242615;