production = [0: 0.0, 1: 0.0, 2: 0.0, 3: 0.0, 4: 0.0, 5: 0.0, 6: 0.0, 7: 0.0, 8: 0.0, 9: 0.0, 10: 0.0, 11: 0.0, 12: 0.0, 13: 0.0, 14: 0.0, 15: 0.0, 16: 0.0, 17: 0.0, 18: 0.0, 19: 0.0, 20: 0.0, 21: 0.0, 22: 0.002, 23: 0.0127, 24: 0.0475, 25: 0.0, 26: 0.1482, 27: 0.1865, 28: 0.0, 29: 0.333, 30: 0.0, 31: 0.0, 32: 0.8185, 33: 0.9085, 34: 0.0, 35: 1.2263, 36: 0.0, 37: 1.283, 38: 0.0, 39: 0.0, 40: 1.59, 41: 0.0, 42: 1.10314375, 43: 1.7822, 44: 0.0, 45: 0.8383, 46: 0.0, 47: 1.0755, 48: 1.0108, 49: 1.8982, 50: 1.8355, 51: 0.0, 52: 0.0, 53: 0.0, 54: 1.6607, 55: 0.0, 56: 0.0, 57: 1.43, 58: 0.0, 59: 1.1723, 60: 0.0, 61: 0.0, 62: 0.0, 63: 0.8705000000000001, 64: 0.0, 65: 0.0, 66: 0.287, 67: 0.0, 68: 0.053, 69: 0.0, 70: 0.0, 71: 0.0, 72: 0.001, 73: 0.0013, 74: 0.0, 75: 0.0003, 76: 0.0, 77: 0.0, 78: 0.0, 79: 0.0, 80: 0.0, 81: 0.0, 82: 0.0, 83: 0.0, 84: 0.0, 85: 0.0, 86: 0.0, 87: 0.0, 88: 0.0, 89: 0.0, 90: 0.0, 91: 0.0, 92: 0.0, 93: 0.0, 94: 0.0, 95: 0.0, 96: 0.0, 97: 0.0, 98: 0.0, 99: 0.0, 100: 0.0, 101: 0.0, 102: 0.0, 103: 0.0, 104: 0.0, 105: 0.0, 106: 0.0, 107: 0.0, 108: 0.0, 109: 0.0, 110: 0.0, 111: 0.0, 112: 0.0, 113: 0.0, 114: 0.0, 115: 0.0, 116: 0.0, 117: 0.0, 118: 0.0, 119: 0.0, 120: 0.0003, 121: 0.0, 122: 0.0, 123: 0.0, 124: 0.0, 125: 0.0, 126: 0.0, 127: 0.0264, 128: 0.0, 129: 0.1114, 130: 0.2727, 131: 0.2315, 132: 0.19, 133: 0.0, 134: 0.2213, 135: 0.1955, 136: 0.0, 137: 0.1375, 138: 0.1576, 139: 0.0, 140: 0.1219, 141: 0.3192, 142: 0.4666, 143: 0.0, 144: 0.303, 145: 0.4985, 146: 0.3046, 147: 0.4995, 148: 0.3745, 149: 0.0, 150: 0.0, 151: 0.3855, 152: 0.546, 153: 0.0, 154: 0.5504, 155: 0.0, 156: 0.0, 157: 0.672, 158: 0.7237, 159: 0.0, 160: 0.3842, 161: 0.2889, 162: 0.1717, 163: 0.0, 164: 0.0, 165: 0.1649, 166: 0.2299, 167: 0.0, 168: 0.0, 169: 0.0, 170: 0.0545, 171: 0.0, 172: 0.0217, 173: 0.001, 174: 0.001, 175: 0.0, 176: 0.0, 177: 0.0, 178: 0.0, 179: 0.0, 180: 0.0, 181: 0.0, 182: 0.0, 183: 0.0, 184: 0.0, 185: 0.0, 186: 0.0, 187: 0.0, 188: 0.0, 189: 0.0, 190: 0.0, 191: 0.0];
buy = [0: 1.32054375, 1: 0.0, 2: 1.32254375, 3: 0.0, 4: 1.26614375, 5: 0.0, 6: 0.0, 7: 0.27834375, 8: 0.26934375, 9: 1.23284375, 10: 1.22484375, 11: 1.23484375, 12: 0.0, 13: 0.22734375, 14: 1.22784375, 15: 0.25354375, 16: 0.0, 17: 0.0, 18: 0.25554375, 19: 1.25504375, 20: 0.25604375, 21: 1.26464375, 22: 0.0, 23: 0.0, 24: 0.20284375, 25: 0.0, 26: 0.0, 27: 1.05334375, 28: 1.22454375, 29: 0.0, 30: 0.0, 31: 0.09964375, 32: 0.28234375, 33: 0.0, 34: 0.0, 35: 0.0, 36: 0.0, 37: 0.0, 38: 0.08984375, 39: 0.0, 40: 0.0, 41: 0.0, 42: 0.0, 43: 0.0, 44: 1.09004375, 45: 0.0, 46: 1.10234375, 47: 0.0, 48: 0.08184375000000001, 49: 0.0, 50: 0.0, 51: 1.09484375, 52: 1.09464375, 53: 0.0, 54: 0.0, 55: 0.0, 56: 1.09754375, 57: 0.0, 58: 0.0, 59: 0.0, 60: 1.10704375, 61: 1.10864375, 62: 1.09414375, 63: 0.0, 64: 1.10534375, 65: 1.10554375, 66: 0.81954375, 67: 0.10764375, 68: 1.04504375, 69: 0.09934374999999999, 70: 1.10734375, 71: 1.10764375, 72: 1.10354375, 73: 0.0, 74: 0.10404375, 75: 1.11254375, 76: 0.0, 77: 0.0, 78: 1.10484375, 79: 1.09884375, 80: 1.10684375, 81: 0.10604375, 82: 1.09754375, 83: 0.0, 84: 0.10654375, 85: 1.10604375, 86: 0.10554375, 87: 0.09964375, 88: 0.09854375, 89: 1.23684375, 90: 0.33314375, 91: 0.0, 92: 1.32384375, 93: 0.33014375, 94: 1.30034375, 95: 0.0, 96: 0.0, 97: 0.0, 98: 0.0, 99: 0.0, 100: 0.0, 101: 1.22884375, 102: 0.0, 103: 0.0, 104: 0.22404375, 105: 0.0, 106: 0.0, 107: 0.0, 108: 0.23114375, 109: 1.23144375, 110: 1.22914375, 111: 0.0, 112: 1.10434375, 113: 0.0, 114: 0.0, 115: 0.10804375, 116: 1.09994375, 117: 0.10074375, 118: 1.10904375, 119: 0.0, 120: 0.0, 121: 0.0, 122: 1.10094375, 123: 0.0, 124: 0.0, 125: 0.102332639, 126: 1.09524375, 127: 1.06674375, 128: 0.10124375, 129: 0.0, 130: 0.83134375, 131: 0.86264375, 132: 0.0, 133: 0.10334375, 134: 0.0, 135: 0.89974375, 136: 0.0, 137: 0.95694375, 138: 0.94284375, 139: 0.10274375, 140: 0.0, 141: 0.0, 142: 0.62524375, 143: 0.10044375, 144: 0.0, 145: 0.0, 146: 0.78774375, 147: 0.0, 148: 0.0, 149: 1.10174375, 150: 0.09204374999999999, 151: 0.0, 152: 0.72724375, 153: 0.82704375, 154: 0.01874375, 155: 0.0, 156: 1.44154375, 157: 0.77994375, 158: 0.74364375, 159: 1.42434375, 160: 0.0, 161: 0.81184375, 162: 1.01254375, 163: 0.18944375, 164: 1.20094375, 165: 1.01144375, 166: 0.90524375, 167: 0.13544375, 168: 1.14744375, 169: 0.0, 170: 0.16804375, 171: 0.0, 172: 0.0, 173: 0.14954375, 174: 0.0, 175: 1.11944375, 176: 0.41414375, 177: 1.26984375, 178: 0.27454375, 179: 1.27214375, 180: 1.23584375, 181: 1.21554375, 182: 1.21394375, 183: 0.22784375, 184: 0.0, 185: 1.21764375, 186: 0.0, 187: 0.22284375, 188: 0.23484375, 189: 1.23404375, 190: 1.23564375, 191: 0.22154375];
sell = [0: 0.0, 1: 0.0, 2: 0.0, 3: 0.62265625, 4: 0.0, 5: 0.63415625, 6: 0.62285625, 7: 0.0, 8: 0.0, 9: 0.0, 10: 0.0, 11: 0.0, 12: 0.66485625, 13: 0.0, 14: 0.0, 15: 0.0, 16: 0.211303185, 17: 0.63695625, 18: 0.0, 19: 0.0, 20: 0.0, 21: 0.0, 22: 0.63735625, 23: 0.66135625, 24: 0.0, 25: 0.54285625, 26: 0.80755625, 27: 0.0, 28: 0.0, 29: 1.01735625, 30: 0.67945625, 31: 0.0, 32: 0.0, 33: 1.71695625, 34: 0.80845625, 35: 0.12495625, 36: 0.79785625, 37: 2.08395625, 38: 0.0, 39: 0.80945625, 40: 2.38665625, 41: 0.79645625, 42: 0.0, 43: 1.68655625, 44: 0.0, 45: 0.0, 46: 0.0, 47: 1.87485625, 48: 0.0, 49: 2.71135625, 50: 2.64085625, 51: 0.0, 52: 0.0, 53: 0.0, 54: 2.02035625, 55: 0.04815625, 56: 0.0, 57: 0.02815625, 58: 0.45645625, 59: 1.65225625, 60: 0.0, 61: 0.0, 62: 0.0, 63: 0.77585625, 64: 0.0, 65: 0.0, 66: 0.0, 67: 0.0, 68: 0.0, 69: 0.0, 70: 0.0, 71: 0.0, 72: 0.0, 73: 0.79795625, 74: 0.0, 75: 0.0, 76: 0.7866562499999999, 77: 0.79495625, 78: 0.0, 79: 0.0, 80: 0.0, 81: 0.0, 82: 0.0, 83: 0.80315625, 84: 0.0, 85: 0.0, 86: 0.0, 87: 0.0, 88: 0.0, 89: 0.0, 90: 0.0, 91: 0.56865625, 92: 0.0, 93: 0.0, 94: 0.0, 95: 0.63165625, 96: 0.63015625, 97: 0.65545625, 98: 0.65915625, 99: 0.64765625, 100: 0.67065625, 101: 0.0, 102: 0.68005625, 103: 0.67765625, 104: 0.0, 105: 0.67415625, 106: 0.67235625, 107: 0.67055625, 108: 0.0, 109: 0.0, 110: 0.0, 111: 0.67745625, 112: 0.0, 113: 0.78935625, 114: 0.7896562499999999, 115: 0.0, 116: 0.0, 117: 0.0, 118: 0.0, 119: 0.7906562499999999, 120: 0.79125625, 121: 0.80085625, 122: 0.0, 123: 0.79195625, 124: 0.79195625, 125: 0.0, 126: 0.0, 127: 0.0, 128: 0.0, 129: 0.008356250000000001, 130: 0.0, 131: 0.0, 132: 0.99455625, 133: 0.0, 134: 0.11825625, 135: 0.0, 136: 0.80535625, 137: 0.0, 138: 0.0, 139: 0.0, 140: 0.91935625, 141: 1.12455625, 142: 0.0, 143: 0.0, 144: 0.20075625, 145: 1.30665625, 146: 0.0, 147: 1.30685625, 148: 1.17325625, 149: 0.0, 150: 0.0, 151: 1.02845625, 152: 0.0, 153: 0.0, 154: 0.0, 155: 0.07035625, 156: 0.0, 157: 0.0, 158: 0.0, 159: 0.0, 160: 1.18925625, 161: 0.0, 162: 0.0, 163: 0.0, 164: 0.0, 165: 0.0, 166: 0.0, 167: 0.0, 168: 0.0, 169: 0.69385625, 170: 0.0, 171: 0.71445625, 172: 0.77085625, 173: 0.0, 174: 0.74415625, 175: 0.0, 176: 0.0, 177: 0.0, 178: 0.0, 179: 0.0, 180: 0.0, 181: 0.0, 182: 0.0, 183: 0.0, 184: 0.67715625, 185: 0.0, 186: 0.64005625, 187: 0.0, 188: 0.0, 189: 0.0, 190: 0.0, 191: 0.0];
charge = [0: 1.0, 1: 0.0, 2: 1.0, 3: 0.0, 4: 1.0, 5: 0.0, 6: 0.0, 7: 0.0, 8: 0.0, 9: 1.0, 10: 1.0, 11: 1.0, 12: 0.0, 13: 0.0, 14: 1.0, 15: 0.0, 16: 0.0, 17: 0.0, 18: 0.0, 19: 1.0, 20: 0.0, 21: 1.0, 22: 0.0, 23: 0.0, 24: 0.0, 25: 0.0, 26: 0.0, 27: 1.0, 28: 1.0, 29: 0.0, 30: 0.0, 31: 0.0, 32: 1.0, 33: 0.0, 34: 0.0, 35: 1.0, 36: 0.0, 37: 0.0, 38: 0.0, 39: 0.0, 40: 0.0, 41: 0.0, 42: 1.0, 43: 0.0, 44: 1.0, 45: 0.73615625, 46: 1.0, 47: 0.0, 48: 1.0, 49: 0.0, 50: 0.0, 51: 1.0, 52: 1.0, 53: 0.0, 54: 0.0, 55: 0.0, 56: 1.0, 57: 1.0, 58: 0.0, 59: 0.0, 60: 1.0, 61: 1.0, 62: 1.0, 63: 0.0, 64: 1.0, 65: 1.0, 66: 1.0, 67: 0.0, 68: 1.0, 69: 0.0, 70: 1.0, 71: 1.0, 72: 1.0, 73: 0.0, 74: 0.0, 75: 1.0, 76: 0.0, 77: 0.0, 78: 1.0, 79: 1.0, 80: 1.0, 81: 0.0, 82: 1.0, 83: 0.0, 84: 0.0, 85: 1.0, 86: 0.0, 87: 0.0, 88: 0.0, 89: 1.0, 90: 0.0, 91: 0.0, 92: 1.0, 93: 0.0, 94: 1.0, 95: 0.0, 96: 0.0, 97: 0.0, 98: 0.0, 99: 0.0, 100: 0.0, 101: 1.0, 102: 0.0, 103: 0.0, 104: 0.0, 105: 0.0, 106: 0.0, 107: 0.0, 108: 0.0, 109: 1.0, 110: 1.0, 111: 0.0, 112: 1.0, 113: 0.0, 114: 0.0, 115: 0.0, 116: 1.0, 117: 0.0, 118: 1.0, 119: 0.0, 120: 0.0, 121: 0.0, 122: 1.0, 123: 0.0, 124: 0.0, 125: 0.000588889, 126: 1.0, 127: 1.0, 128: 0.0, 129: 0.0, 130: 1.0, 131: 1.0, 132: 0.0, 133: 0.0, 134: 0.0, 135: 1.0, 136: 0.0, 137: 1.0, 138: 1.0, 139: 0.0, 140: 0.0, 141: 0.0, 142: 1.0, 143: 0.0, 144: 0.0, 145: 0.0, 146: 1.0, 147: 0.0, 148: 0.0, 149: 1.0, 150: 0.0, 151: 0.0, 152: 1.0, 153: 0.0, 154: 0.0, 155: 0.0, 156: 1.0, 157: 1.0, 158: 1.0, 159: 1.0, 160: 0.0, 161: 1.0, 162: 1.0, 163: 0.0, 164: 1.0, 165: 1.0, 166: 1.0, 167: 0.0, 168: 1.0, 169: 0.0, 170: 0.0, 171: 0.0, 172: 0.0, 173: 0.0, 174: 0.0, 175: 1.0, 176: 0.0, 177: 1.0, 178: 0.0, 179: 1.0, 180: 1.0, 181: 1.0, 182: 1.0, 183: 0.0, 184: 0.0, 185: 1.0, 186: 0.0, 187: 0.0, 188: 0.0, 189: 1.0, 190: 1.0, 191: 0.0];
discharge = [0: 0.0, 1: 0.357826389, 2: 0.0, 3: 1.0, 4: 0.0, 5: 1.0, 6: 1.0, 7: 0.0, 8: 0.0, 9: 0.0, 10: 0.0, 11: 0.0, 12: 1.0, 13: 0.0, 14: 0.0, 15: 0.0, 16: 0.529385483, 17: 1.0, 18: 0.0, 19: 0.0, 20: 0.0, 21: 0.0, 22: 1.0, 23: 1.0, 24: 0.0, 25: 1.0, 26: 1.0, 27: 0.0, 28: 0.0, 29: 1.0, 30: 1.0, 31: 0.0, 32: 0.0, 33: 1.0, 34: 1.0, 35: 0.0, 36: 1.0, 37: 1.0, 38: 0.0, 39: 1.0, 40: 1.0, 41: 1.0, 42: 0.0, 43: 0.0, 44: 0.0, 45: 0.0, 46: 0.0, 47: 1.0, 48: 0.0, 49: 1.0, 50: 1.0, 51: 0.0, 52: 0.0, 53: 0.7006041670000001, 54: 1.0, 55: 1.0, 56: 0.0, 57: 0.0, 58: 1.0, 59: 1.0, 60: 0.0, 61: 0.0, 62: 0.0, 63: 0.0, 64: 0.0, 65: 0.0, 66: 0.0, 67: 0.0, 68: 0.0, 69: 0.0, 70: 0.0, 71: 0.0, 72: 0.0, 73: 1.0, 74: 0.0, 75: 0.0, 76: 1.0, 77: 1.0, 78: 0.0, 79: 0.0, 80: 0.0, 81: 0.0, 82: 0.0, 83: 1.0, 84: 0.0, 85: 0.0, 86: 0.0, 87: 0.0, 88: 0.0, 89: 0.0, 90: 0.0, 91: 1.0, 92: 0.0, 93: 0.0, 94: 0.0, 95: 1.0, 96: 1.0, 97: 1.0, 98: 1.0, 99: 1.0, 100: 1.0, 101: 0.0, 102: 1.0, 103: 1.0, 104: 0.0, 105: 1.0, 106: 1.0, 107: 1.0, 108: 0.0, 109: 0.0, 110: 0.0, 111: 1.0, 112: 0.0, 113: 1.0, 114: 1.0, 115: 0.0, 116: 0.0, 117: 0.0, 118: 0.0, 119: 1.0, 120: 1.0, 121: 1.0, 122: 0.0, 123: 1.0, 124: 1.0, 125: 0.0, 126: 0.0, 127: 0.0, 128: 0.0, 129: 0.0, 130: 0.0, 131: 0.0, 132: 1.0, 133: 0.0, 134: 0.0, 135: 0.0, 136: 1.0, 137: 0.0, 138: 0.0, 139: 0.0, 140: 1.0, 141: 1.0, 142: 0.0, 143: 0.0, 144: 0.0, 145: 1.0, 146: 0.0, 147: 1.0, 148: 1.0, 149: 0.0, 150: 0.0, 151: 1.0, 152: 0.0, 153: 0.0, 154: 0.0, 155: 1.0, 156: 0.0, 157: 0.0, 158: 0.0, 159: 0.0, 160: 1.0, 161: 0.0, 162: 0.0, 163: 0.0, 164: 0.0, 165: 0.0, 166: 0.0, 167: 0.0, 168: 0.0, 169: 1.0, 170: 0.0, 171: 1.0, 172: 1.0, 173: 0.0, 174: 1.0, 175: 0.0, 176: 0.0, 177: 0.0, 178: 0.0, 179: 0.0, 180: 0.0, 181: 0.0, 182: 0.0, 183: 0.0, 184: 1.0, 185: 0.0, 186: 1.0, 187: 0.0, 188: 0.0, 189: 0.0, 190: 0.0, 191: 0.0];
soc = [0: 11.3979, 1: 11.037794031, 2: 11.935586472, 3: 10.933199355, 4: 11.831012715, 5: 10.828646513, 6: 9.826480782999999, 7: 9.824515486999999, 8: 9.822550584, 9: 10.720586074, 10: 11.618441957, 11: 12.516118268, 12: 11.513615045, 13: 11.511312322, 14: 12.409010059, 15: 12.406528257, 16: 11.874661468, 17: 10.872286536, 18: 10.870112079, 19: 11.767938056, 20: 11.765584469, 21: 12.663231352, 22: 11.660698706, 23: 10.658366566, 24: 10.656234893, 25: 9.654103645999999, 26: 8.652172824999999, 27: 9.550442390000001, 28: 10.448532302, 29: 9.446442595000001, 30: 8.444553307, 31: 8.442864395999999, 32: 9.341175823, 33: 8.339307588, 34: 7.337639727, 35: 8.236172199, 36: 7.234524964, 37: 6.233078059, 38: 6.231831444, 39: 5.230585077, 40: 4.22953896, 41: 3.228693052, 42: 4.128047314, 43: 4.127221704, 44: 5.02639626, 45: 5.687931606, 46: 6.58679402, 47: 5.585476661, 48: 6.484359565, 49: 5.483062693, 50: 4.481966081, 51: 5.381069688, 52: 6.279993474, 53: 5.578133308, 54: 4.577017682, 55: 3.576102278, 56: 4.475387058, 57: 5.37449198, 58: 4.373417082, 59: 3.372542399, 60: 4.27186789, 61: 5.171013516, 62: 6.069979314, 63: 6.068765318, 64: 6.967551565, 65: 7.866158055, 66: 8.764584823, 67: 8.762831906000001, 68: 9.661079340000001, 69: 9.659147124, 70: 10.557215294, 71: 11.455103851, 72: 12.35281283, 73: 11.350342268, 74: 11.348072199, 75: 12.245802585, 76: 11.243353424, 77: 10.241104754, 78: 11.139056533, 79: 12.036828722, 80: 12.934421356, 81: 12.931834472, 82: 13.829248105, 83: 12.826482255, 84: 12.823916959, 85: 13.721352175, 86: 13.718607905, 87: 13.715864183, 88: 13.71312101, 89: 14.610378386, 90: 14.60745631, 91: 13.604534819, 92: 14.501813912, 93: 14.498913549, 94: 15.396013767, 95: 14.392934564, 96: 13.390055977, 97: 12.387377966, 98: 11.38490049, 99: 10.38262351, 100: 9.380546985000001, 101: 10.278670876, 102: 9.276615142000001, 103: 8.274759819, 104: 8.273104867000001, 105: 7.271450246, 106: 6.269995956, 107: 5.268741957, 108: 5.267688208, 109: 6.166634671, 110: 7.065401344, 111: 6.063988263, 112: 6.962775466, 113: 5.961382911, 114: 4.960190634, 115: 4.959198596, 116: 5.858206756, 117: 5.857035115, 118: 6.755863708, 119: 5.754512535, 120: 4.753361633, 121: 3.75241096, 122: 4.651660478, 123: 3.650730146, 124: 2.65, 125: 2.65, 126: 3.54947, 127: 4.448760106, 128: 4.447870354, 129: 4.44698078, 130: 5.346091384, 131: 6.245022165, 132: 5.243773161, 133: 5.242724406, 134: 5.241675862, 135: 6.140627526, 136: 5.139399401, 137: 6.038371521, 138: 6.937163847, 139: 6.935776414, 140: 5.934389259, 141: 4.933202381, 142: 5.83221574, 143: 5.831049297, 144: 5.829883087, 145: 4.828717111, 146: 5.727751367, 147: 4.726605817, 148: 3.725660496, 149: 4.624915364, 150: 4.623990381, 151: 3.623065583, 152: 4.522340969, 153: 4.521436501, 154: 4.520532214, 155: 3.519628108, 156: 4.418924182, 157: 5.318040397, 158: 6.216976789, 159: 7.115733394, 160: 6.114310247, 161: 7.013087385, 162: 7.911684767, 163: 7.91010243, 164: 8.80852041, 165: 9.706758706, 166: 10.604817354, 167: 10.602696391, 168: 11.500575851, 169: 10.498275736, 170: 10.496176081, 171: 9.494076846, 172: 8.49217803, 173: 8.490479595, 174: 7.488781499, 175: 8.387283742999999, 176: 8.385606286, 177: 9.283929165, 178: 9.282072379000001, 179: 10.180215964, 180: 11.078179921, 181: 11.975964285, 182: 12.873569092, 183: 12.870994378, 184: 11.86842018, 185: 12.766046496, 186: 11.763493286, 187: 11.761140588, 188: 11.75878836, 189: 12.656436602, 190: 13.553905315, 191: 13.551194533];
cost = [0: 0.924898342, 1: 0.0, 2: 0.926120142, 3: 0.0, 4: 0.891665382, 5: 0.0, 6: 0.0, 7: 0.170040197, 8: 0.164542097, 9: 0.871322412, 10: 0.866435212, 11: 0.872544212, 12: 0.0, 13: 0.138884297, 14: 0.868267912, 15: 0.154889877, 16: 0.0, 17: 0.0, 18: 0.156111677, 19: 0.884884392, 20: 0.156417127, 21: 0.890749032, 22: 0.0, 23: 0.0, 24: 0.241302925, 25: 0.0, 26: 0.0, 27: 1.37123589, 28: 1.57489541, 29: 0.0, 30: 0.0, 31: 0.118536205, 32: 0.45405429, 33: 0.0, 34: 0.0, 35: 0.118178165, 36: 0.0, 37: 0.0, 38: 0.106878125, 39: 0.0, 40: 0.0, 41: 0.0, 42: 0.118178165, 43: 0.0, 44: 1.41489421, 45: 0.086997595, 46: 1.42952629, 47: 0.0, 48: 0.21553949, 49: 0.0, 50: 0.0, 51: 1.42060429, 52: 0.786896032, 53: 0.0, 54: 0.0, 55: 0.0, 56: 0.7886676419999999, 57: 0.118178165, 58: 0.0, 59: 0.0, 60: 1.43511741, 61: 1.43702077, 62: 1.41977157, 63: 0.0, 64: 1.43309509, 65: 1.43333301, 66: 1.09310741, 67: 0.128053005, 68: 1.36136221, 69: 0.118179325, 70: 1.43547429, 71: 1.43583117, 72: 1.43095381, 73: 0.0, 74: 0.123770445, 75: 1.44166021, 76: 0.0, 77: 0.0, 78: 1.43250029, 79: 1.42536269, 80: 1.43487949, 81: 0.126149645, 82: 1.42381621, 83: 0.0, 84: 0.126744445, 85: 1.43392781, 86: 0.125554845, 87: 0.118536205, 88: 0.060200377, 89: 0.873766012, 90: 0.203517517, 91: 0.0, 92: 0.926914312, 93: 0.201684817, 94: 0.912558162, 95: 0.0, 96: 0.0, 97: 0.0, 98: 0.0, 99: 0.0, 100: 0.0, 101: 0.8688788119999999, 102: 0.0, 103: 0.0, 104: 0.136868327, 105: 0.0, 106: 0.0, 107: 0.0, 108: 0.141205717, 109: 0.870467152, 110: 0.869062082, 111: 0.0, 112: 0.792821762, 113: 0.0, 114: 0.0, 115: 0.066003927, 116: 0.7901338020000001, 117: 0.061544357, 118: 0.795692992, 119: 0.0, 120: 0.0, 121: 0.0, 122: 1.42786085, 123: 0.0, 124: 0.0, 125: 0.121804501, 126: 1.42108013, 127: 1.38717653, 128: 0.120439565, 129: 0.0, 130: 1.10714469, 131: 1.14437917, 132: 0.0, 133: 0.122937725, 134: 0.0, 135: 1.18851333, 136: 0.0, 137: 1.25655845, 138: 1.23978509, 139: 0.122223965, 140: 0.0, 141: 0.0, 142: 0.8619681300000001, 143: 0.119487885, 144: 0.0, 145: 0.0, 146: 1.05527813, 147: 0.0, 148: 0.0, 149: 0.791233422, 150: 0.056229527, 151: 0.0, 152: 0.5624513719999999, 153: 0.505241027, 154: 0.011450557, 155: 0.0, 156: 1.83303861, 157: 1.04599925, 158: 1.00281677, 159: 1.81257749, 160: 0.0, 161: 1.08394749, 162: 1.32270021, 163: 0.225362285, 164: 1.54682085, 165: 1.32139165, 166: 1.19505613, 167: 0.161123885, 168: 1.48317725, 169: 0.0, 170: 0.199904845, 171: 0.0, 172: 0.0, 173: 0.177897245, 174: 0.0, 175: 1.44986845, 176: 0.492665405, 177: 1.62878429, 178: 0.326597245, 179: 1.63152037, 180: 1.58833789, 181: 1.56418901, 182: 1.56228565, 183: 0.271042925, 184: 0.0, 185: 0.862036732, 186: 0.0, 187: 0.136135247, 188: 0.143466047, 189: 0.872055492, 190: 0.873032932, 191: 0.135341077];
earn = [0: 0.0, 1: 0.0, 2: 0.0, 3: 0.367553984, 4: 0.0, 5: 0.359883672, 6: 0.355837776, 7: 0.0, 8: 0.0, 9: 0.0, 10: 0.0, 11: 0.0, 12: 0.377837807, 13: 0.0, 14: 0.0, 15: 0.0, 16: 0.119111605, 17: 0.363702019, 18: 0.0, 19: 0.0, 20: 0.0, 21: 0.0, 22: 0.369857832, 23: 0.376906927, 24: 0.0, 25: 0.301230933, 26: 0.455542481, 27: 0.0, 28: 0.0, 29: 0.528211365, 30: 0.342174168, 31: 0.0, 32: 0.0, 33: 0.7063558009999999, 34: 0.319663601, 35: 0.044396956, 36: 0.248213079, 37: 0.510777677, 38: 0.0, 39: 0.128298816, 40: 0.365397072, 41: 0.082672159, 42: 0.0, 43: 0.131720043, 44: 0.0, 45: 0.0, 46: 0.0, 47: 0.061870256, 48: 0.0, 49: 0.07076639799999999, 50: 0.07896160200000001, 51: 0.0, 52: 0.0, 53: 0.0, 54: 0.121221375, 55: 0.003086816, 56: 0.0, 57: 0.004161494, 58: 0.083440202, 59: 0.354574191, 60: 0.0, 61: 0.0, 62: 0.0, 63: 0.365428294, 64: 0.0, 65: 0.0, 66: 0.0, 67: 0.0, 68: 0.0, 69: 0.0, 70: 0.0, 71: 0.0, 72: 0.0, 73: 0.624480561, 74: 0.0, 75: 0.0, 76: 0.642776822, 77: 0.6469353960000001, 78: 0.0, 79: 0.0, 80: 0.0, 81: 0.0, 82: 0.0, 83: 0.573935456, 84: 0.0, 85: 0.0, 86: 0.0, 87: 0.0, 88: 0.0, 89: 0.0, 90: 0.0, 91: 0.359675078, 92: 0.0, 93: 0.0, 94: 0.0, 95: 0.368950416, 96: 0.402354766, 97: 0.409660156, 98: 0.395296003, 99: 0.382635313, 100: 0.387706378, 101: 0.0, 102: 0.383823748, 103: 0.382536953, 104: 0.0, 105: 0.380696034, 106: 0.37974681, 107: 0.378797226, 108: 0.0, 109: 0.0, 110: 0.0, 111: 0.378630298, 112: 0.0, 113: 0.444802247, 114: 0.446234747, 115: 0.0, 116: 0.0, 117: 0.0, 118: 0.0, 119: 0.443162828, 120: 0.429414767, 121: 0.439109482, 122: 0.0, 123: 0.462819233, 124: 0.473669033, 125: 0.0, 126: 0.0, 127: 0.0, 128: 0.0, 129: 0.005095641, 130: 0.0, 131: 0.0, 132: 0.548895594, 133: 0.0, 134: 0.061209435, 135: 0.0, 136: 0.387940106, 137: 0.0, 138: 0.0, 139: 0.0, 140: 0.272405257, 141: 0.345576136, 142: 0.0, 143: 0.0, 144: 0.033305462, 145: 0.213115634, 146: 0.0, 147: 0.229091901, 148: 0.105241086, 149: 0.0, 150: 0.0, 151: 0.101508632, 152: 0.0, 153: 0.0, 154: 0.0, 155: 0.00416509, 156: 0.0, 157: 0.0, 158: 0.0, 159: 0.0, 160: 0.38436762, 161: 0.0, 162: 0.0, 163: 0.0, 164: 0.0, 165: 0.0, 166: 0.0, 167: 0.0, 168: 0.0, 169: 0.419713646, 170: 0.0, 171: 0.46639704, 172: 0.573825393, 173: 0.0, 174: 0.581260447, 175: 0.0, 176: 0.0, 177: 0.0, 178: 0.0, 179: 0.0, 180: 0.0, 181: 0.0, 182: 0.0, 183: 0.0, 184: 0.475228256, 185: 0.0, 186: 0.402659387, 187: 0.0, 188: 0.0, 189: 0.0, 190: 0.0, 191: 0.0];
total_cost = 93.82027347499999;
total_earn = 24.227707911;
% _objective = 69.592565564;