production = [0: 0.0, 1: 0.0, 2: 0.0, 3: 0.0, 4: 0.0, 5: 0.0, 6: 0.0, 7: 0.0, 8: 0.0, 9: 0.0, 10: 0.0, 11: 0.0, 12: 0.0, 13: 0.0, 14: 0.0, 15: 0.0, 16: 0.0, 17: 0.0, 18: 0.0, 19: 0.0, 20: 0.0, 21: 0.0, 22: 0.0, 23: 0.0, 24: 0.0, 25: 0.0828, 26: 0.1482, 27: 0.0, 28: 0.2323, 29: 0.333, 30: 0.0, 31: 0.0, 32: 0.8185, 33: 0.9085, 34: 0.0, 35: 1.2263, 36: 1.2192, 37: 0.0, 38: 0.0, 39: 0.588, 40: 0.0, 41: 1.7255, 42: 0.0, 43: 1.7822, 44: 0.0, 45: 0.0, 46: 0.0, 47: 1.0755, 48: 0.0, 49: 1.8982, 50: 0.0, 51: 0.0, 52: 1.7512, 53: 1.7035, 54: 1.54034375, 55: 0.0, 56: 0.0, 57: 0.0, 58: 1.32, 59: 1.1723, 60: 1.2328, 61: 0.7298, 62: 0.0, 63: 0.8705000000000001, 64: 0.0, 65: 0.0, 66: 0.287, 67: 0.0, 68: 0.0, 69: 0.0238, 70: 0.0, 71: 0.0, 72: 0.0, 73: 0.0013, 74: 0.0, 75: 0.0, 76: 0.0, 77: 0.0, 78: 0.0, 79: 0.0, 80: 0.0, 81: 0.0, 82: 0.0, 83: 0.0, 84: 0.0, 85: 0.0, 86: 0.0, 87: 0.0, 88: 0.0, 89: 0.0, 90: 0.0, 91: 0.0, 92: 0.0, 93: 0.0, 94: 0.0, 95: 0.0, 96: 0.0, 97: 0.0, 98: 0.0, 99: 0.0, 100: 0.0, 101: 0.0, 102: 0.0, 103: 0.0, 104: 0.0, 105: 0.0, 106: 0.0, 107: 0.0, 108: 0.0, 109: 0.0, 110: 0.0, 111: 0.0, 112: 0.0, 113: 0.0, 114: 0.0, 115: 0.0, 116: 0.0, 117: 0.0, 118: 0.0, 119: 0.0, 120: 0.0, 121: 0.0, 122: 0.0, 123: 0.0013, 124: 0.005, 125: 0.0115, 126: 0.0, 127: 0.0264, 128: 0.0, 129: 0.1114, 130: 0.2727, 131: 0.2315, 132: 0.19, 133: 0.0, 134: 0.2213, 135: 0.1955, 136: 0.208, 137: 0.0, 138: 0.0, 139: 0.1764, 140: 0.1219, 141: 0.3192, 142: 0.4666, 143: 0.0, 144: 0.303, 145: 0.0, 146: 0.3046, 147: 0.4995, 148: 0.0, 149: 0.0, 150: 0.416, 151: 0.0, 152: 0.0, 153: 0.4416, 154: 0.5504, 155: 0.642, 156: 0.6201, 157: 0.672, 158: 0.7237, 159: 0.5416, 160: 0.3842, 161: 0.0, 162: 0.1717, 163: 0.2714, 164: 0.0, 165: 0.0, 166: 0.0, 167: 0.0, 168: 0.0, 169: 0.0, 170: 0.0545, 171: 0.0, 172: 0.0217, 173: 0.001, 174: 0.0, 175: 0.0, 176: 0.0, 177: 0.0, 178: 0.0, 179: 0.0, 180: 0.0, 181: 0.0, 182: 0.0, 183: 0.0, 184: 0.0, 185: 0.0, 186: 0.0, 187: 0.0, 188: 0.0, 189: 0.0, 190: 0.0, 191: 0.0];
buy = [0: 0.32054375, 1: 0.0, 2: 0.0, 3: 0.692052437, 4: 1.26614375, 5: 0.26584375, 6: 0.27714375, 7: 0.0, 8: 1.26934375, 9: 0.0, 10: 0.0, 11: 1.23484375, 12: 1.23514375, 13: 0.22734375, 14: 1.22784375, 15: 1.25354375, 16: 1.26514375, 17: 0.26304375, 18: 0.25554375, 19: 1.25504375, 20: 0.25604375, 21: 0.0, 22: 0.0, 23: 1.25134375, 24: 0.25034375, 25: 0.27434375, 26: 1.09244375, 27: 0.23984375, 28: 0.99224375, 29: 0.8826437499999999, 30: 1.22054375, 31: 0.0, 32: 0.0, 33: 0.18304375, 34: 1.09154375, 35: 0.0, 36: 0.0, 37: 1.09904375, 38: 0.08984375, 39: 0.0, 40: 0.0, 41: 0.0, 42: 0.0, 43: 0.0, 44: 0.0, 45: 1.10214375, 46: 0.0, 47: 0.02514375, 48: 1.09264375, 49: 0.0, 50: 0.0, 51: 1.09484375, 52: 0.0, 53: 0.0, 54: 0.0, 55: 1.85184375, 56: 0.101025972, 57: 0.0, 58: 0.0, 59: 0.24774375, 60: 0.0, 61: 0.0, 62: 0.0, 63: 0.0, 64: 1.10534375, 65: 0.10554375, 66: 0.0, 67: 0.10764375, 68: 1.09804375, 69: 1.07554375, 70: 0.10734375, 71: 0.0, 72: 0.0, 73: 1.10204375, 74: 0.0, 75: 0.11284375, 76: 1.075869226, 77: 1.10504375, 78: 1.10484375, 79: 0.0, 80: 0.10684375, 81: 0.0, 82: 1.09754375, 83: 1.09684375, 84: 0.10654375, 85: 0.0, 86: 0.10554375, 87: 0.0, 88: 1.09854375, 89: 1.23684375, 90: 0.0, 91: 1.33134375, 92: 0.32384375, 93: 0.0, 94: 0.30034375, 95: 0.0, 96: 0.0, 97: 0.24454375, 98: 0.0, 99: 1.25234375, 100: 1.22934375, 101: 0.22884375, 102: 1.21994375, 103: 0.22234375, 104: 1.22404375, 105: 0.0, 106: 0.0, 107: 1.22944375, 108: 0.23114375, 109: 0.0, 110: 1.22914375, 111: 0.0, 112: 1.10434375, 113: 0.11064375, 114: 0.0, 115: 1.10804375, 116: 0.09994375, 117: 1.10074375, 118: 0.10904375, 119: 0.10934375, 120: 0.0, 121: 0.0, 122: 0.0, 123: 0.0, 124: 1.10304375, 125: 0.09024375, 126: 0.09524375, 127: 0.0, 128: 0.0, 129: 0.0, 130: 0.83134375, 131: 0.0, 132: 0.0, 133: 1.10334375, 134: 0.0, 135: 0.0, 136: 0.0, 137: 0.0, 138: 0.0, 139: 0.0, 140: 0.0, 141: 0.77544375, 142: 0.62524375, 143: 0.10044375, 144: 0.79924375, 145: 0.09184375, 146: 0.78774375, 147: 0.0, 148: 0.10124375, 149: 0.10174375, 150: 0.0, 151: 1.25704375, 152: 0.27324375, 153: 1.38544375, 154: 0.01874375, 155: 1.18764375, 156: 0.0, 157: 0.77994375, 158: 0.74364375, 159: 0.88274375, 160: 0.0, 161: 1.10074375, 162: 0.0, 163: 0.91804375, 164: 0.20094375, 165: 0.0, 166: 1.13514375, 167: 0.13544375, 168: 0.0, 169: 1.20614375, 170: 0.16804375, 171: 1.18554375, 172: 0.12914375, 173: 1.14954375, 174: 1.15684375, 175: 0.11944375, 176: 0.41414375, 177: 1.26984375, 178: 0.27454375, 179: 0.27214375, 180: 0.23584375, 181: 0.0, 182: 0.0, 183: 0.0, 184: 1.22284375, 185: 0.21764375, 186: 1.25994375, 187: 0.22284375, 188: 1.23484375, 189: 1.23404375, 190: 0.0, 191: 0.22154375];
sell = [0: 0.0, 1: 0.5779562499999999, 2: 0.57745625, 3: 0.0, 4: 0.0, 5: 0.0, 6: 0.0, 7: 0.62165625, 8: 0.0, 9: 0.66715625, 10: 0.67515625, 11: 0.0, 12: 0.0, 13: 0.0, 14: 0.0, 15: 0.0, 16: 0.0, 17: 0.0, 18: 0.0, 19: 0.0, 20: 0.0, 21: 0.63535625, 22: 0.63535625, 23: 0.0, 24: 0.0, 25: 0.0, 26: 0.0, 27: 0.0, 28: 0.0, 29: 0.0, 30: 0.0, 31: 0.80035625, 32: 1.61765625, 33: 0.0, 34: 0.0, 35: 2.02495625, 36: 1.11705625, 37: 0.0, 38: 0.0, 39: 0.0, 40: 0.79665625, 41: 2.52195625, 42: 0.0, 43: 2.58655625, 44: 0.80995625, 45: 0.0, 46: 0.79765625, 47: 0.0, 48: 0.0, 49: 0.81135625, 50: 0.80535625, 51: 0.0, 52: 2.55655625, 53: 0.07295625, 54: 0.0, 55: 0.0, 56: 0.0, 57: 0.49815625, 58: 0.87645625, 59: 0.0, 60: 2.02575625, 61: 1.52115625, 62: 0.0, 63: 1.67585625, 64: 0.0, 65: 0.0, 66: 0.18045625, 67: 0.0, 68: 0.0, 69: 0.0, 70: 0.0, 71: 0.79235625, 72: 0.79545625, 73: 0.0, 74: 0.79595625, 75: 0.0, 76: 0.0, 77: 0.0, 78: 0.0, 79: 0.80115625, 80: 0.0, 81: 0.79395625, 82: 0.0, 83: 0.0, 84: 0.0, 85: 0.79395625, 86: 0.0, 87: 0.80035625, 88: 0.0, 89: 0.0, 90: 0.56685625, 91: 0.0, 92: 0.0, 93: 0.56985625, 94: 0.0, 95: 0.63165625, 96: 0.63015625, 97: 0.0, 98: 0.65915625, 99: 0.0, 100: 0.0, 101: 0.0, 102: 0.0, 103: 0.0, 104: 0.0, 105: 0.67415625, 106: 0.67235625, 107: 0.0, 108: 0.0, 109: 0.66855625, 110: 0.0, 111: 0.0, 112: 0.0, 113: 0.0, 114: 0.7896562499999999, 115: 0.0, 116: 0.0, 117: 0.0, 118: 0.0, 119: 0.0, 120: 0.79095625, 121: 0.80085625, 122: 0.79905625, 123: 0.79325625, 124: 0.0, 125: 0.0, 126: 0.0, 127: 0.83325625, 128: 0.7987562499999999, 129: 0.90835625, 130: 0.0, 131: 1.03735625, 132: 0.0, 133: 0.0, 134: 1.01825625, 135: 1.00025625, 136: 1.01335625, 137: 0.805555556, 138: 0.79955625, 139: 0.07365625000000001, 140: 0.91935625, 141: 0.0, 142: 0.0, 143: 0.0, 144: 0.0, 145: 0.0, 146: 0.0, 147: 0.40685625, 148: 0.0, 149: 0.0, 150: 1.22395625, 151: 0.0, 152: 0.0, 153: 0.0, 154: 0.0, 155: 0.0, 156: 1.07855625, 157: 0.0, 158: 0.0, 159: 0.0, 160: 1.18925625, 161: 0.0, 162: 0.8874562499999999, 163: 0.0, 164: 0.0, 165: 0.72365625, 166: 0.0, 167: 0.0, 168: 0.75255625, 169: 0.0, 170: 0.0, 171: 0.0, 172: 0.0, 173: 0.0, 174: 0.0, 175: 0.0, 176: 0.0, 177: 0.0, 178: 0.0, 179: 0.0, 180: 0.0, 181: 0.68445625, 182: 0.68605625, 183: 0.67215625, 184: 0.0, 185: 0.0, 186: 0.0, 187: 0.0, 188: 0.0, 189: 0.0, 190: 0.66435625, 191: 0.0];
charge = [0: 0.0, 1: 0.0, 2: 0.0, 3: 0.414708687, 4: 1.0, 5: 0.0, 6: 0.0, 7: 0.0, 8: 1.0, 9: 0.0, 10: 0.0, 11: 1.0, 12: 1.0, 13: 0.0, 14: 1.0, 15: 1.0, 16: 1.0, 17: 0.0, 18: 0.0, 19: 1.0, 20: 0.0, 21: 0.0, 22: 0.0, 23: 1.0, 24: 0.0, 25: 0.0, 26: 1.0, 27: 0.0, 28: 1.0, 29: 1.0, 30: 1.0, 31: 0.0, 32: 0.0, 33: 1.0, 34: 1.0, 35: 0.0, 36: 0.0, 37: 1.0, 38: 0.0, 39: 0.49745625, 40: 0.0, 41: 0.0, 42: 0.0, 43: 0.0, 44: 0.0, 45: 1.0, 46: 0.0, 47: 1.0, 48: 1.0, 49: 1.0, 50: 0.0, 51: 1.0, 52: 0.0, 53: 1.0, 54: 1.0, 55: 1.0, 56: 0.003482222, 57: 0.0, 58: 0.0, 59: 1.0, 60: 0.0, 61: 0.0, 62: 0.0, 63: 0.0, 64: 1.0, 65: 0.0, 66: 0.0, 67: 0.0, 68: 1.0, 69: 1.0, 70: 0.0, 71: 0.0, 72: 0.0, 73: 1.0, 74: 0.0, 75: 0.0, 76: 0.962525476, 77: 1.0, 78: 1.0, 79: 0.0, 80: 0.0, 81: 0.0, 82: 1.0, 83: 1.0, 84: 0.0, 85: 0.0, 86: 0.0, 87: 0.0, 88: 1.0, 89: 1.0, 90: 0.0, 91: 1.0, 92: 0.0, 93: 0.0, 94: 0.0, 95: 0.0, 96: 0.0, 97: 0.0, 98: 0.0, 99: 1.0, 100: 1.0, 101: 0.0, 102: 1.0, 103: 0.0, 104: 1.0, 105: 0.0, 106: 0.0, 107: 1.0, 108: 0.0, 109: 0.0, 110: 1.0, 111: 0.0, 112: 1.0, 113: 0.0, 114: 0.0, 115: 1.0, 116: 0.0, 117: 1.0, 118: 0.0, 119: 0.0, 120: 0.0, 121: 0.0, 122: 0.0, 123: 0.0, 124: 1.0, 125: 0.0, 126: 0.0, 127: 0.0, 128: 0.0, 129: 0.0, 130: 1.0, 131: 0.0, 132: 0.09455624999999999, 133: 1.0, 134: 0.0, 135: 0.0, 136: 0.0, 137: 0.0, 138: 0.0, 139: 0.0, 140: 0.0, 141: 1.0, 142: 1.0, 143: 0.0, 144: 1.0, 145: 0.0, 146: 1.0, 147: 0.0, 148: 0.0, 149: 0.0, 150: 0.0, 151: 1.0, 152: 0.0, 153: 1.0, 154: 0.0, 155: 1.0, 156: 0.0, 157: 1.0, 158: 1.0, 159: 1.0, 160: 0.0, 161: 1.0, 162: 0.0, 163: 1.0, 164: 0.0, 165: 0.0, 166: 1.0, 167: 0.0, 168: 0.0, 169: 1.0, 170: 0.0, 171: 1.0, 172: 0.0, 173: 1.0, 174: 1.0, 175: 0.0, 176: 0.0, 177: 1.0, 178: 0.0, 179: 0.0, 180: 0.0, 181: 0.0, 182: 0.0, 183: 0.0, 184: 1.0, 185: 0.0, 186: 1.0, 187: 0.0, 188: 1.0, 189: 1.0, 190: 0.0, 191: 0.0];
discharge = [0: 0.0, 1: 1.0, 2: 1.0, 3: 0.0, 4: 0.0, 5: 0.0, 6: 0.0, 7: 1.0, 8: 0.0, 9: 1.0, 10: 1.0, 11: 0.0, 12: 0.0, 13: 0.0, 14: 0.0, 15: 0.0, 16: 0.0, 17: 0.0, 18: 0.0, 19: 0.0, 20: 0.0, 21: 1.0, 22: 1.0, 23: 0.0, 24: 0.0, 25: 0.0, 26: 0.0, 27: 0.0, 28: 0.0, 29: 0.0, 30: 0.0, 31: 1.0, 32: 1.0, 33: 0.0, 34: 0.0, 35: 1.0, 36: 0.0, 37: 0.0, 38: 0.0, 39: 0.0, 40: 1.0, 41: 1.0, 42: 0.114604167, 43: 1.0, 44: 1.0, 45: 0.0, 46: 1.0, 47: 0.0, 48: 0.0, 49: 0.0, 50: 1.0, 51: 0.0, 52: 1.0, 53: 0.0, 54: 0.0, 55: 0.0, 56: 0.0, 57: 1.0, 58: 0.0, 59: 0.0, 60: 1.0, 61: 1.0, 62: 0.104604167, 63: 1.0, 64: 0.0, 65: 0.0, 66: 0.0, 67: 0.0, 68: 0.0, 69: 0.0, 70: 0.0, 71: 1.0, 72: 1.0, 73: 0.0, 74: 1.0, 75: 0.0, 76: 0.0, 77: 0.0, 78: 0.0, 79: 1.0, 80: 0.0, 81: 1.0, 82: 0.0, 83: 0.0, 84: 0.0, 85: 1.0, 86: 0.0, 87: 1.0, 88: 0.0, 89: 0.0, 90: 1.0, 91: 0.0, 92: 0.0, 93: 1.0, 94: 0.0, 95: 1.0, 96: 1.0, 97: 0.0, 98: 1.0, 99: 0.0, 100: 0.0, 101: 0.0, 102: 0.0, 103: 0.0, 104: 0.0, 105: 1.0, 106: 1.0, 107: 0.0, 108: 0.0, 109: 1.0, 110: 0.0, 111: 0.247270833, 112: 0.0, 113: 0.0, 114: 1.0, 115: 0.0, 116: 0.0, 117: 0.0, 118: 0.0, 119: 0.0, 120: 1.0, 121: 1.0, 122: 1.0, 123: 1.0, 124: 0.0, 125: 0.0, 126: 0.0, 127: 1.0, 128: 1.0, 129: 1.0, 130: 0.0, 131: 1.0, 132: 0.0, 133: 0.0, 134: 1.0, 135: 1.0, 136: 1.0, 137: 1.0, 138: 1.0, 139: 0.0, 140: 1.0, 141: 0.0, 142: 0.0, 143: 0.0, 144: 0.0, 145: 0.0, 146: 0.0, 147: 0.0, 148: 0.0, 149: 0.0, 150: 1.0, 151: 0.0, 152: 0.0, 153: 0.0, 154: 0.0, 155: 0.0, 156: 1.0, 157: 0.0, 158: 0.0, 159: 0.0, 160: 1.0, 161: 0.0, 162: 1.0, 163: 0.0, 164: 0.0, 165: 1.0, 166: 0.0, 167: 0.0, 168: 1.0, 169: 0.0, 170: 0.0, 171: 0.0, 172: 0.0, 173: 0.0, 174: 0.0, 175: 0.0, 176: 0.0, 177: 0.0, 178: 0.0, 179: 0.0, 180: 0.0, 181: 1.0, 182: 1.0, 183: 1.0, 184: 0.0, 185: 0.0, 186: 0.0, 187: 0.0, 188: 0.0, 189: 0.0, 190: 1.0, 191: 0.0];
soc = [0: 10.4979, 1: 9.49580042, 2: 8.493901259999999, 3: 8.865440297999999, 4: 9.763667209999999, 5: 9.761714477, 6: 9.759762134000001, 7: 8.757810181, 8: 9.656058619, 9: 8.654127407000001, 10: 7.652396582, 11: 8.550866103000001, 12: 9.449155929, 13: 9.447266098, 14: 10.345376645, 15: 11.24330757, 16: 12.141058908, 17: 12.138630696, 18: 12.13620297, 19: 13.03377573, 20: 13.031168975, 21: 12.028562741, 22: 11.026157028, 23: 11.923951797, 24: 11.921567006, 25: 11.919182693, 26: 12.816798857, 27: 12.814235497, 28: 13.71167265, 29: 14.608930315, 30: 15.506008529, 31: 14.502907327, 32: 13.500006746, 33: 14.397306745, 34: 15.294427283, 35: 14.291368398, 36: 14.288510124, 37: 15.185652422, 38: 15.182615292, 39: 15.627289393, 40: 14.624163936, 41: 13.621239103, 42: 13.503910688, 43: 12.501209906, 44: 11.498709664, 45: 12.396409922, 46: 11.39393064, 47: 12.291651854, 48: 13.189193524, 49: 14.086555685, 50: 13.083738374, 51: 13.981121626, 52: 12.978325402, 53: 13.875729737, 54: 14.772954591, 55: 15.67, 56: 15.67, 57: 14.666866, 58: 14.663932627, 59: 15.56099984, 60: 14.55788764, 61: 13.554976063, 62: 13.447660901, 63: 12.444971369, 64: 13.342482374, 65: 13.339813878, 66: 13.337145915, 67: 13.334478486, 68: 14.23181159, 69: 15.128965228, 70: 15.125939435, 71: 14.122914247, 72: 13.120089664, 73: 14.017465646, 74: 13.014662153, 75: 13.012059221, 76: 13.875729737, 77: 14.772954591, 78: 15.67, 79: 14.666866, 80: 14.663932627, 81: 13.66099984, 82: 14.55826764, 83: 15.455355987, 84: 15.452264916, 85: 14.449174463, 86: 14.446284628, 87: 13.443395371, 88: 14.340706692, 89: 15.23783855, 90: 14.234790983, 91: 15.131944024, 92: 15.128917636, 93: 14.125891852, 94: 14.123066674, 95: 13.12024206, 96: 12.117618012, 97: 12.115194488, 98: 11.11277145, 99: 12.010548895, 100: 12.908146785, 101: 12.905565156, 102: 13.802984043, 103: 13.800223446, 104: 14.697463402, 105: 13.694523909, 106: 12.691785004, 107: 13.589246647, 108: 13.586528798, 109: 12.583811492, 110: 13.48129473, 111: 13.231327637, 112: 14.128681372, 113: 14.125855636, 114: 13.123030464, 115: 14.020405858, 116: 14.017601777, 117: 14.914798257, 118: 14.911815297, 119: 14.908832934, 120: 13.905851168, 121: 12.903069997, 122: 11.900489383, 123: 10.898109285, 124: 11.795929664, 125: 11.793570478, 126: 11.791211764, 127: 10.788853521, 128: 9.786695751, 129: 8.784738410999999, 130: 9.682981463999999, 131: 8.681044867000001, 132: 8.764409283000001, 133: 9.662656402, 134: 8.66072387, 135: 7.658991726, 136: 6.657459927, 137: 5.656128435, 138: 4.65499721, 139: 4.65406621, 140: 3.653135397, 141: 4.55240477, 142: 5.451494289, 143: 5.45040399, 144: 6.349313909, 145: 6.348044046, 146: 7.246774438, 147: 7.245325083, 148: 7.243876018, 149: 7.242427242, 150: 6.240978757, 151: 7.139730561, 152: 7.138302615, 153: 8.036874955, 154: 8.035267579999999, 155: 8.933660526000001, 156: 7.931873794, 157: 8.830287418999999, 158: 9.728521362, 159: 10.626575657, 160: 9.624450341999999, 161: 10.522525452, 162: 9.520420947, 163: 10.418516863, 164: 10.41643316, 165: 9.414349873000001, 166: 10.312467003, 167: 10.31040451, 168: 9.308342429, 169: 10.20648076, 170: 10.204439464, 171: 11.102398576, 172: 11.100178096, 173: 11.997958061, 174: 12.895558469, 175: 12.892979358, 176: 12.890400762, 177: 13.787822682, 178: 13.785065117, 179: 13.782308104, 180: 13.779551642, 181: 12.776795732, 182: 11.774240373, 183: 10.771885525, 184: 11.669731148, 185: 11.667397201, 186: 12.565063722, 187: 12.562550709, 188: 13.460038199, 189: 14.357346191, 190: 13.354474722, 191: 13.351803827];
cost = [0: 0.195820177, 1: 0.0, 2: 0.0, 3: 0.471784346, 4: 0.891665382, 5: 0.162403947, 6: 0.169307117, 7: 0.0, 8: 0.893620262, 9: 0.0, 10: 0.0, 11: 0.872544212, 12: 0.8727274820000001, 13: 0.138884297, 14: 0.868267912, 15: 0.883968042, 16: 0.891054482, 17: 0.160693427, 18: 0.156111677, 19: 0.884884392, 20: 0.156417127, 21: 0.0, 22: 0.0, 23: 0.882624062, 24: 0.297808925, 25: 0.326359325, 26: 1.41774925, 27: 0.285318125, 28: 1.29855133, 29: 1.16817117, 30: 1.57013701, 31: 0.0, 32: 0.0, 33: 0.33592701, 34: 1.41667861, 35: 0.0, 36: 0.0, 37: 1.42560061, 38: 0.106878125, 39: 0.058788467, 40: 0.0, 41: 0.0, 42: 0.0, 43: 0.0, 44: 0.0, 45: 1.42928837, 46: 0.0, 47: 0.14808917, 48: 1.41798717, 49: 0.118178165, 50: 0.0, 51: 1.42060429, 52: 0.0, 53: 0.118178165, 54: 0.118178165, 55: 1.249469512, 56: 0.062128289, 57: 0.0, 58: 0.0, 59: 0.269524822, 60: 0.0, 61: 0.0, 62: 0.0, 63: 0.0, 64: 1.43309509, 65: 0.125554845, 66: 0.0, 67: 0.128053005, 68: 1.42441101, 69: 1.39764501, 70: 0.127696125, 71: 0.0, 72: 0.0, 73: 1.42916941, 74: 0.0, 75: 0.134238925, 76: 1.393603526, 77: 1.43273821, 78: 1.43250029, 79: 0.0, 80: 0.127101325, 81: 0.0, 82: 1.42381621, 83: 1.42298349, 84: 0.126744445, 85: 0.0, 86: 0.125554845, 87: 0.0, 88: 0.789278542, 89: 0.873766012, 90: 0.0, 91: 0.931496062, 92: 0.197836147, 93: 0.0, 94: 0.183479997, 95: 0.0, 96: 0.0, 97: 0.149391777, 98: 0.0, 99: 0.883234962, 100: 0.869184262, 101: 0.139800647, 102: 0.863441802, 103: 0.135829797, 104: 0.865946492, 105: 0.0, 106: 0.0, 107: 0.869245352, 108: 0.141205717, 109: 0.0, 110: 0.869062082, 111: 0.0, 112: 0.792821762, 113: 0.067592267, 114: 0.0, 115: 0.795082092, 116: 0.061055637, 117: 0.790622522, 118: 0.066614827, 119: 0.066798097, 120: 0.0, 121: 0.0, 122: 0.0, 123: 0.0, 124: 1.43035901, 125: 0.107353965, 126: 0.113301965, 127: 0.0, 128: 0.0, 129: 0.0, 130: 1.10714469, 131: 0.0, 132: 0.011174484, 133: 1.43071589, 134: 0.0, 135: 0.0, 136: 0.0, 137: 0.0, 138: 0.0, 139: 0.0, 140: 0.0, 141: 1.04064605, 142: 0.8619681300000001, 143: 0.119487885, 144: 1.06895853, 145: 0.109257325, 146: 1.05527813, 147: 0.0, 148: 0.061849807, 149: 0.062155257, 150: 0.0, 151: 0.886106192, 152: 0.166924607, 153: 0.964545752, 154: 0.011450557, 155: 0.843709732, 156: 0.0, 157: 1.04599925, 158: 1.00281677, 159: 1.16829013, 160: 0.0, 161: 1.42762293, 162: 0.0, 163: 1.21028301, 164: 0.239042685, 165: 0.0, 166: 1.46854517, 167: 0.161123885, 168: 0.0, 169: 1.55300677, 170: 0.199904845, 171: 1.52850101, 172: 0.153629405, 173: 1.48567541, 174: 1.49435949, 175: 0.142090285, 176: 0.492665405, 177: 1.62878429, 178: 0.326597245, 179: 0.323742205, 180: 0.280559725, 181: 0.0, 182: 0.0, 183: 0.0, 184: 0.865213412, 185: 0.132958567, 186: 0.887877802, 187: 0.136135247, 188: 0.872544212, 189: 0.872055492, 190: 0.0, 191: 0.135341077];
earn = [0: 0.0, 1: 0.3421501, 2: 0.341796354, 3: 0.0, 4: 0.0, 5: 0.0, 6: 0.0, 7: 0.380204963, 8: 0.0, 9: 0.377810584, 10: 0.382340984, 11: 0.0, 12: 0.0, 13: 0.0, 14: 0.0, 15: 0.0, 16: 0.0, 17: 0.0, 18: 0.0, 19: 0.0, 20: 0.0, 21: 0.36494863, 22: 0.368697232, 23: 0.0, 24: 0.0, 25: 0.0, 26: 0.0, 27: 0.0, 28: 0.0, 29: 0.0, 30: 0.0, 31: 0.374406654, 32: 0.682489172, 33: 0.0, 34: 0.0, 35: 0.719466956, 36: 0.347516199, 37: 0.0, 38: 0.0, 39: 0.0, 40: 0.121968072, 41: 0.261779059, 42: 0.0, 43: 0.202010043, 44: 0.031507298, 45: 0.0, 46: 0.027598906, 47: 0.0, 48: 0.0, 49: 0.021176398, 50: 0.024080152, 51: 0.0, 52: 0.138565349, 53: 0.004019889, 54: 0.0, 55: 0.0, 56: 0.0, 57: 0.073627494, 58: 0.160216203, 59: 0.0, 60: 0.732108309, 61: 0.553244528, 62: 0.0, 63: 0.789328294, 64: 0.0, 65: 0.0, 66: 0.109338442, 67: 0.0, 68: 0.0, 69: 0.0, 70: 0.0, 71: 0.549578295, 72: 0.60709221, 73: 0.0, 74: 0.63421794, 75: 0.0, 76: 0.0, 77: 0.0, 78: 0.0, 79: 0.636518641, 80: 0.0, 81: 0.600945486, 82: 0.0, 83: 0.0, 84: 0.0, 85: 0.548306186, 86: 0.0, 87: 0.539200006, 88: 0.0, 89: 0.0, 90: 0.365905709, 91: 0.0, 92: 0.0, 93: 0.346814514, 94: 0.0, 95: 0.368950416, 96: 0.402354766, 97: 0.0, 98: 0.395296003, 99: 0.0, 100: 0.0, 101: 0.0, 102: 0.0, 103: 0.0, 104: 0.0, 105: 0.380696034, 106: 0.37974681, 107: 0.0, 108: 0.0, 109: 0.370848152, 110: 0.0, 111: 0.0, 112: 0.0, 113: 0.0, 114: 0.446234747, 115: 0.0, 116: 0.0, 117: 0.0, 118: 0.0, 119: 0.0, 120: 0.429251957, 121: 0.439109482, 122: 0.45769942, 123: 0.463578953, 124: 0.0, 125: 0.0, 126: 0.0, 127: 0.479622298, 128: 0.482129273, 129: 0.553915641, 130: 0.0, 131: 0.5736580060000001, 132: 0.0, 133: 0.0, 134: 0.527049435, 135: 0.519933199, 136: 0.488133706, 137: 0.360003088, 138: 0.334774202, 139: 0.030766216, 140: 0.272405257, 141: 0.0, 142: 0.0, 143: 0.0, 144: 0.0, 145: 0.0, 146: 0.0, 147: 0.07132190099999999, 148: 0.0, 149: 0.0, 150: 0.159236708, 151: 0.0, 152: 0.0, 153: 0.0, 154: 0.0, 155: 0.0, 156: 0.147115073, 157: 0.0, 158: 0.0, 159: 0.0, 160: 0.38436762, 161: 0.0, 162: 0.395716742, 163: 0.0, 164: 0.0, 165: 0.396708356, 166: 0.0, 167: 0.0, 168: 0.447996736, 169: 0.0, 170: 0.0, 171: 0.0, 172: 0.0, 173: 0.0, 174: 0.0, 175: 0.0, 176: 0.0, 177: 0.0, 178: 0.0, 179: 0.0, 180: 0.0, 181: 0.470700563, 182: 0.458491392, 183: 0.435288388, 184: 0.0, 185: 0.0, 186: 0.0, 187: 0.0, 188: 0.0, 189: 0.0, 190: 0.373766826, 191: 0.0];
total_cost = 83.387818736;
total_earn = 25.657842611;
% _objective = 57.729976125;