production = [0: 0.0, 1: 0.0, 2: 0.0, 3: 0.0, 4: 0.0, 5: 0.0, 6: 0.0, 7: 0.0, 8: 0.0, 9: 0.0, 10: 0.0, 11: 0.0, 12: 0.0, 13: 0.0, 14: 0.0, 15: 0.0, 16: 0.0, 17: 0.0, 18: 0.0, 19: 0.0, 20: 0.0, 21: 0.0003, 22: 0.0, 23: 0.0092, 24: 0.0, 25: 0.0665, 26: 0.098, 27: 0.0, 28: 0.0, 29: 0.2382, 30: 0.0, 31: 0.11260625, 32: 0.4788, 33: 0.0, 34: 1.0688, 35: 0.0, 36: 1.2203, 37: 0.0, 38: 1.45, 39: 0.0, 40: 1.643, 41: 1.12440625, 42: 1.783, 43: 1.8395, 44: 0.0, 45: 1.40790625, 46: 1.917, 47: 1.9095, 48: 0.0, 49: 0.0, 50: 0.13570625, 51: 0.0, 52: 0.0, 53: 0.0, 54: 1.7585, 55: 0.0, 56: 0.0, 57: 0.0, 58: 0.0, 59: 1.265, 60: 1.2283, 61: 1.127, 62: 0.9745, 63: 0.6907, 64: 0.0, 65: 0.0, 66: 0.0, 67: 0.3455, 68: 0.0, 69: 0.101, 70: 0.103, 71: 0.0, 72: 0.0255, 73: 0.0047, 74: 0.0005, 75: 0.0, 76: 0.0, 77: 0.0, 78: 0.0, 79: 0.0, 80: 0.0, 81: 0.0, 82: 0.0, 83: 0.0, 84: 0.0, 85: 0.0, 86: 0.0, 87: 0.0, 88: 0.0, 89: 0.0, 90: 0.0, 91: 0.0, 92: 0.0, 93: 0.0, 94: 0.0, 95: 0.0, 96: 0.0, 97: 0.0, 98: 0.0, 99: 0.0, 100: 0.0, 101: 0.0, 102: 0.0, 103: 0.0, 104: 0.0, 105: 0.0, 106: 0.0, 107: 0.0, 108: 0.0, 109: 0.0, 110: 0.0, 111: 0.0, 112: 0.0, 113: 0.0, 114: 0.0, 115: 0.0, 116: 0.0, 117: 0.0, 118: 0.002, 119: 0.0, 120: 0.0475, 121: 0.0, 122: 0.0, 123: 0.1865, 124: 0.0, 125: 0.0, 126: 0.4783, 127: 0.662, 128: 0.0, 129: 0.0, 130: 0.3912, 131: 1.2263, 132: 0.0, 133: 1.283, 134: 0.0, 135: 0.0, 136: 1.59, 137: 0.0, 138: 1.7368, 139: 1.7822, 140: 1.4155, 141: 0.8383, 142: 0.0, 143: 1.0755, 144: 1.0108, 145: 0.0, 146: 1.8355, 147: 1.8028, 148: 0.0, 149: 1.7035, 150: 0.0, 151: 1.5855, 152: 1.51, 153: 1.43, 154: 0.0, 155: 0.0, 156: 0.0, 157: 0.7298, 158: 0.0, 159: 0.8705000000000001, 160: 0.0, 161: 0.0, 162: 0.287, 163: 0.0, 164: 0.0, 165: 0.0, 166: 0.0323, 167: 0.0, 168: 0.001, 169: 0.0, 170: 0.0, 171: 0.0, 172: 0.0, 173: 0.0, 174: 0.0, 175: 0.0, 176: 0.0, 177: 0.0, 178: 0.0, 179: 0.0, 180: 0.0, 181: 0.0, 182: 0.0, 183: 0.0, 184: 0.0, 185: 0.0, 186: 0.0, 187: 0.0, 188: 0.0, 189: 0.0, 190: 0.0, 191: 0.0];
buy = [0: 0.0, 1: 0.24010625, 2: 1.23770625, 3: 1.24540625, 4: 1.24740625, 5: 0.0, 6: 0.23910625, 7: 1.23990625, 8: 0.24690625, 9: 0.24860625, 10: 0.0, 11: 0.0, 12: 0.0, 13: 0.25090625, 14: 1.25340625, 15: 0.0, 16: 0.0, 17: 1.24460625, 18: 1.93790625, 19: 0.0, 20: 0.28540625, 21: 0.0, 22: 0.28590625, 23: 0.0, 24: 0.0, 25: 0.0, 26: 0.0, 27: 0.12190625, 28: 1.12010625, 29: 0.0, 30: 0.0, 31: 0.0, 32: 0.0, 33: 1.12170625, 34: 0.04330625, 35: 0.0, 36: 0.0, 37: 1.12170625, 38: 0.0, 39: 1.11620625, 40: 0.0, 41: 0.0, 42: 0.0, 43: 0.0, 44: 0.0, 45: 0.0, 46: 0.0, 47: 0.0, 48: 1.14190625, 49: 1.12090625, 50: 0.0, 51: 1.14140625, 52: 0.0, 53: 1.67760625, 54: 0.0, 55: 0.88090625, 56: 1.46740625, 57: 0.0, 58: 1.44860625, 59: 0.0, 60: 0.0, 61: 0.0, 62: 0.0, 63: 0.48750625, 64: 1.19720625, 65: 1.15120625, 66: 0.0, 67: 0.0, 68: 0.14210625, 69: 1.10710625, 70: 0.0, 71: 1.15070625, 72: 0.15390625, 73: 0.0, 74: 1.12540625, 75: 1.10240625, 76: 0.0, 77: 1.12510625, 78: 1.12590625, 79: 1.12760625, 80: 0.0, 81: 0.11960625, 82: 0.0, 83: 0.12790625, 84: 0.0, 85: 0.0, 86: 0.0, 87: 0.0, 88: 0.0, 89: 1.37320625, 90: 0.42140625, 91: 0.0, 92: 0.43240625, 93: 0.43690625, 94: 1.39660625, 95: 0.38510625, 96: 0.0, 97: 0.0, 98: 0.0, 99: 1.29890625, 100: 0.0, 101: 0.28740625, 102: 0.0, 103: 0.0, 104: 1.29090625, 105: 0.25440625, 106: 1.24640625, 107: 1.25640625, 108: 1.25670625, 109: 0.0, 110: 1.24940625, 111: 1.27510625, 112: 0.0, 113: 0.28460625, 114: 0.0, 115: 1.27660625, 116: 0.27760625, 117: 0.0, 118: 0.0, 119: 0.0, 120: 0.22440625, 121: 0.37870625, 122: 0.0, 123: 0.07490624999999999, 124: 1.24610625, 125: 1.23720625, 126: 0.0, 127: 0.45920625, 128: 0.0, 129: 0.0, 130: 0.0, 131: 0.0, 132: 0.12370625, 133: 0.0, 134: 1.11140625, 135: 0.0, 136: 0.0, 137: 0.0, 138: 0.0, 139: 0.0, 140: 0.0, 141: 0.0, 142: 0.0, 143: 0.0, 144: 0.10340625, 145: 0.10840625, 146: 0.0, 147: 0.0, 148: 1.11620625, 149: 0.0, 150: 0.0, 151: 0.28790625, 152: 0.0, 153: 0.0, 154: 0.0, 155: 0.44160625, 156: 0.0, 157: 0.40040625, 158: 1.11570625, 159: 0.0, 160: 0.0, 161: 1.12710625, 162: 0.0, 163: 1.12920625, 164: 1.11960625, 165: 0.0, 166: 0.09660625, 167: 1.12920625, 168: 0.0, 169: 1.12490625, 170: 1.12560625, 171: 0.13440625, 172: 0.0, 173: 0.0, 174: 1.12640625, 175: 0.0, 176: 0.12840625, 177: 1.12760625, 178: 0.0, 179: 0.0, 180: 1.12810625, 181: 1.12760625, 182: 1.12710625, 183: 1.12120625, 184: 1.12010625, 185: 1.25840625, 186: 0.35470625, 187: 1.35290625, 188: 1.34540625, 189: 1.35170625, 190: 1.32190625, 191: 0.0];
sell = [0: 0.6558937500000001, 1: 0.0, 2: 0.0, 3: 0.0, 4: 0.0, 5: 0.65209375, 6: 0.0, 7: 0.0, 8: 0.0, 9: 0.0, 10: 0.65759375, 11: 0.65909375, 12: 0.66059375, 13: 0.0, 14: 0.0, 15: 0.0, 16: 0.65939375, 17: 0.0, 18: 0.0, 19: 0.65539375, 20: 0.0, 21: 0.61819375, 22: 0.0, 23: 0.63179375, 24: 0.6558937500000001, 25: 0.73259375, 26: 0.88559375, 27: 0.0, 28: 0.0, 29: 0.0, 30: 0.78709375, 31: 0.0, 32: 0.461021869, 33: 0.0, 34: 0.0, 35: 0.78379375, 36: 0.09689375, 37: 0.0, 38: 1.32829375, 39: 0.0, 40: 2.42629375, 41: 0.0, 42: 1.055241591, 43: 1.68659375, 44: 0.0, 45: 0.0, 46: 0.77559375, 47: 1.76759375, 48: 0.0, 49: 0.0, 50: 0.0, 51: 0.0, 52: 0.77109375, 53: 0.0, 54: 0.18459375, 55: 0.0, 56: 0.0, 57: 0.41659375, 58: 0.0, 59: 1.71439375, 60: 1.99359375, 61: 0.0, 62: 0.83509375, 63: 0.0, 64: 0.0, 65: 0.0, 66: 0.75229375, 67: 1.10409375, 68: 0.0, 69: 0.0, 70: 0.81809375, 71: 0.0, 72: 0.0, 73: 0.0, 74: 0.0, 75: 0.0, 76: 0.79739375, 77: 0.0, 78: 0.0, 79: 0.0, 80: 0.78159375, 81: 0.0, 82: 0.7707937500000001, 83: 0.0, 84: 0.77339375, 85: 0.78139375, 86: 0.74489375, 87: 0.77259375, 88: 0.77339375, 89: 0.0, 90: 0.0, 91: 0.47629375, 92: 0.0, 93: 0.0, 94: 0.0, 95: 0.0, 96: 0.55789375, 97: 0.55639375, 98: 0.55589375, 99: 0.0, 100: 0.61229375, 101: 0.0, 102: 0.180319638, 103: 0.60009375, 104: 0.0, 105: 0.0, 106: 0.0, 107: 0.0, 108: 0.0, 109: 0.65109375, 110: 0.0, 111: 0.0, 112: 0.61329375, 113: 0.0, 114: 0.62289375, 115: 0.0, 116: 0.0, 117: 0.61379375, 118: 0.61579375, 119: 0.62709375, 120: 0.0, 121: 0.0, 122: 0.63779375, 123: 0.0, 124: 0.0, 125: 0.0, 126: 0.23619375, 127: 0.0, 128: 0.77759375, 129: 0.7868937499999999, 130: 0.27809375, 131: 2.00339375, 132: 0.0, 133: 1.16239375, 134: 0.0, 135: 0.7878937499999999, 136: 1.46509375, 137: 0.77489375, 138: 0.61209375, 139: 1.66499375, 140: 0.30389375, 141: 0.71459375, 142: 0.77609375, 143: 0.9532937500000001, 144: 0.0, 145: 0.0, 146: 0.71929375, 147: 0.68639375, 148: 0.0, 149: 0.05139375, 150: 0.0, 151: 0.0, 152: 2.29089375, 153: 1.90659375, 154: 0.43489375, 155: 0.0, 156: 0.77139375, 157: 0.0, 158: 0.0, 159: 1.65429375, 160: 0.77309375, 161: 0.0, 162: 1.05889375, 163: 0.0, 164: 0.0, 165: 0.462069399, 166: 0.0, 167: 0.0, 168: 0.77489375, 169: 0.0, 170: 0.0, 171: 0.0, 172: 0.76509375, 173: 0.77339375, 174: 0.0, 175: 0.77959375, 176: 0.0, 177: 0.0, 178: 0.0, 179: 0.78159375, 180: 0.0, 181: 0.0, 182: 0.0, 183: 0.0, 184: 0.0, 185: 0.0, 186: 0.0, 187: 0.0, 188: 0.0, 189: 0.0, 190: 0.0, 191: 0.61009375];
charge = [0: 0.0, 1: 0.0, 2: 1.0, 3: 1.0, 4: 1.0, 5: 0.0, 6: 0.0, 7: 1.0, 8: 0.0, 9: 0.0, 10: 0.0, 11: 0.0, 12: 0.0, 13: 0.0, 14: 1.0, 15: 0.0, 16: 0.0, 17: 1.0, 18: 1.0, 19: 0.0, 20: 0.0, 21: 0.0, 22: 0.0, 23: 0.0, 24: 0.0, 25: 0.0, 26: 0.0, 27: 0.0, 28: 1.0, 29: 0.11449375, 30: 0.0, 31: 0.0, 32: 0.0, 33: 1.0, 34: 1.0, 35: 0.0, 36: 1.0, 37: 1.0, 38: 0.0, 39: 1.0, 40: 0.0, 41: 1.0, 42: 0.595352159, 43: 0.0, 44: 0.0, 45: 1.0, 46: 1.0, 47: 0.0, 48: 1.0, 49: 1.0, 50: 0.0, 51: 1.0, 52: 0.0, 53: 1.0, 54: 1.0, 55: 0.0, 56: 1.0, 57: 0.0, 58: 1.0, 59: 0.0, 60: 0.0, 61: 0.73039375, 62: 0.0, 63: 1.0, 64: 1.0, 65: 1.0, 66: 0.0, 67: 0.0, 68: 0.0, 69: 1.0, 70: 0.0, 71: 1.0, 72: 0.0, 73: 0.0, 74: 1.0, 75: 1.0, 76: 0.0, 77: 1.0, 78: 1.0, 79: 1.0, 80: 0.0, 81: 0.0, 82: 0.0, 83: 0.0, 84: 0.0, 85: 0.0, 86: 0.0, 87: 0.0, 88: 0.0, 89: 1.0, 90: 0.0, 91: 0.0, 92: 0.0, 93: 0.0, 94: 1.0, 95: 0.0, 96: 0.0, 97: 0.0, 98: 0.0, 99: 1.0, 100: 0.0, 101: 0.0, 102: 0.0, 103: 0.0, 104: 1.0, 105: 0.0, 106: 1.0, 107: 1.0, 108: 1.0, 109: 0.0, 110: 1.0, 111: 1.0, 112: 0.0, 113: 0.0, 114: 0.0, 115: 1.0, 116: 0.0, 117: 0.0, 118: 0.0, 119: 0.0, 120: 0.0, 121: 0.0, 122: 0.0, 123: 0.0, 124: 1.0, 125: 1.0, 126: 0.0, 127: 1.0, 128: 0.0, 129: 0.0, 130: 0.0, 131: 0.0, 132: 0.0, 133: 0.0, 134: 1.0, 135: 0.0, 136: 0.0, 137: 0.0, 138: 1.0, 139: 0.0, 140: 1.0, 141: 0.0, 142: 0.0, 143: 0.0, 144: 1.0, 145: 0.0, 146: 1.0, 147: 1.0, 148: 1.0, 149: 1.0, 150: 0.0, 151: 1.0, 152: 0.0, 153: 0.0, 154: 0.0, 155: 0.0, 156: 0.0, 157: 1.0, 158: 1.0, 159: 0.0, 160: 0.0, 161: 1.0, 162: 0.0, 163: 1.0, 164: 1.0, 165: 0.0, 166: 0.0, 167: 1.0, 168: 0.0, 169: 1.0, 170: 1.0, 171: 0.0, 172: 0.0, 173: 0.0, 174: 1.0, 175: 0.0, 176: 0.0, 177: 1.0, 178: 0.0, 179: 0.0, 180: 1.0, 181: 1.0, 182: 1.0, 183: 1.0, 184: 1.0, 185: 1.0, 186: 0.0, 187: 1.0, 188: 1.0, 189: 1.0, 190: 1.0, 191: 0.0];
discharge = [0: 1.0, 1: 0.0, 2: 0.0, 3: 0.0, 4: 0.0, 5: 1.0, 6: 0.0, 7: 0.0, 8: 0.0, 9: 0.0, 10: 1.0, 11: 1.0, 12: 1.0, 13: 0.0, 14: 0.0, 15: 0.271006944, 16: 1.0, 17: 0.0, 18: 0.0, 19: 1.0, 20: 0.0, 21: 1.0, 22: 0.0, 23: 1.0, 24: 1.0, 25: 1.0, 26: 1.0, 27: 0.0, 28: 0.0, 29: 0.0, 30: 1.0, 31: 0.0, 32: 0.114586799, 33: 0.0, 34: 0.0, 35: 1.0, 36: 0.0, 37: 0.0, 38: 0.0, 39: 0.0, 40: 1.0, 41: 0.0, 42: 0.0, 43: 0.0, 44: 0.145229167, 45: 0.0, 46: 0.0, 47: 0.0, 48: 0.0, 49: 0.0, 50: 0.0, 51: 0.0, 52: 1.0, 53: 0.0, 54: 0.0, 55: 0.0, 56: 0.0, 57: 1.0, 58: 0.0, 59: 1.0, 60: 1.0, 61: 0.0, 62: 0.0, 63: 0.0, 64: 0.0, 65: 0.0, 66: 1.0, 67: 1.0, 68: 0.0, 69: 0.0, 70: 1.0, 71: 0.0, 72: 0.0, 73: 0.435784722, 74: 0.0, 75: 0.0, 76: 1.0, 77: 0.0, 78: 0.0, 79: 0.0, 80: 1.0, 81: 0.0, 82: 1.0, 83: 0.0, 84: 1.0, 85: 1.0, 86: 1.0, 87: 1.0, 88: 1.0, 89: 0.0, 90: 0.0, 91: 1.0, 92: 0.0, 93: 0.0, 94: 0.0, 95: 0.0, 96: 1.0, 97: 1.0, 98: 1.0, 99: 0.0, 100: 1.0, 101: 0.0, 102: 0.532250987, 103: 1.0, 104: 0.0, 105: 0.0, 106: 0.0, 107: 0.0, 108: 0.0, 109: 1.0, 110: 0.0, 111: 0.0, 112: 1.0, 113: 0.0, 114: 1.0, 115: 0.0, 116: 0.0, 117: 1.0, 118: 1.0, 119: 1.0, 120: 0.0, 121: 0.0, 122: 1.0, 123: 0.0, 124: 0.0, 125: 0.0, 126: 0.0, 127: 0.0, 128: 1.0, 129: 1.0, 130: 0.0, 131: 1.0, 132: 0.0, 133: 0.0, 134: 0.0, 135: 1.0, 136: 0.0, 137: 1.0, 138: 0.0, 139: 0.0, 140: 0.0, 141: 0.0, 142: 1.0, 143: 0.0, 144: 0.0, 145: 0.0, 146: 0.0, 147: 0.0, 148: 0.0, 149: 0.0, 150: 0.624340278, 151: 0.0, 152: 1.0, 153: 1.0, 154: 1.0, 155: 0.0, 156: 1.0, 157: 0.0, 158: 0.0, 159: 1.0, 160: 1.0, 161: 0.0, 162: 1.0, 163: 0.0, 164: 0.0, 165: 0.647750721, 166: 0.0, 167: 0.0, 168: 1.0, 169: 0.0, 170: 0.0, 171: 0.0, 172: 1.0, 173: 1.0, 174: 0.0, 175: 1.0, 176: 0.0, 177: 0.0, 178: 0.132340278, 179: 1.0, 180: 0.0, 181: 0.0, 182: 0.0, 183: 0.0, 184: 0.0, 185: 0.0, 186: 0.0, 187: 0.0, 188: 0.0, 189: 0.0, 190: 0.0, 191: 1.0];
soc = [0: 7.778244, 1: 7.776688351, 2: 8.675133014, 3: 9.573397987, 4: 10.471483307, 5: 9.469389011000001, 6: 9.467495133, 7: 10.365601634, 8: 10.363528514, 9: 10.361455808, 10: 9.359383516999999, 11: 8.35751164, 12: 7.355840138, 13: 7.35436897, 14: 8.252898095999999, 15: 7.980240572, 16: 6.978644524, 17: 7.877248795, 18: 8.775673345, 19: 7.77391821, 20: 7.772363427, 21: 6.770808954, 22: 6.769454792, 23: 5.768100901, 24: 4.766947281, 25: 3.765993892, 26: 2.765240693, 27: 2.764687645, 28: 3.664134707, 29: 3.766446255, 30: 2.765692966, 31: 2.765139827, 32: 2.65, 33: 3.54947, 34: 4.448760106, 35: 3.447870354, 36: 4.34718078, 37: 5.246311344, 38: 5.245262081, 39: 6.144213029, 40: 5.142984186, 41: 6.04195559, 42: 6.576564141, 43: 6.575248828, 44: 6.428704612, 45: 7.327418871, 46: 8.225953387000001, 47: 8.224308196999999, 48: 9.122663335, 49: 10.020838802, 50: 10.018834635, 51: 10.916830868, 52: 9.914647501999999, 53: 10.812664572, 54: 11.710502039, 55: 11.708159939, 56: 12.605818307, 57: 11.603297143, 58: 12.500976484, 59: 11.498476288, 60: 10.496176593, 61: 11.151431733, 62: 11.149201446, 63: 12.046971606, 64: 12.944562212, 65: 13.841973299, 66: 12.839204905, 67: 11.836637064, 68: 11.834269736, 69: 12.731902882, 70: 11.729356502, 71: 12.62701063, 72: 12.624485228, 73: 12.186175609, 74: 13.083738374, 75: 13.981121626, 76: 12.978325402, 77: 13.875729737, 78: 14.772954591, 79: 15.67, 80: 14.666866, 81: 14.663932627, 82: 13.66099984, 83: 13.65826764, 84: 12.655535987, 85: 11.65300488, 86: 10.650674279, 87: 9.648544144000001, 88: 8.646614435, 89: 9.544885111999999, 90: 9.542976135, 91: 8.54106754, 92: 8.539359326, 93: 8.537651454000001, 94: 9.435943924, 95: 9.434056735, 96: 8.432169924, 97: 7.43048349, 98: 6.428997393, 99: 7.327711594, 100: 6.326246052, 101: 6.324980802, 102: 5.791464819, 103: 4.790306526, 104: 5.689348465, 105: 5.688210595, 106: 6.587072953, 107: 7.485755538, 108: 8.384258386999999, 109: 7.382581536, 110: 8.281105019, 111: 9.179448797999999, 112: 8.177612909, 113: 8.175977386, 114: 7.174342191, 115: 8.072907322000001, 116: 8.071292741000001, 117: 7.069678482, 118: 6.068264546, 119: 5.067050894, 120: 5.066037483, 121: 5.065024276, 122: 4.064011271, 123: 4.063198469, 124: 4.962385829, 125: 5.861393352, 126: 5.860221073, 127: 6.759049029, 128: 5.757697219, 129: 4.75654568, 130: 4.755594371, 131: 3.754643252, 132: 3.753892323, 133: 3.753141545, 134: 4.652390916, 135: 3.651460438, 136: 3.650730146, 137: 2.65, 138: 3.54947, 139: 3.548760106, 140: 4.448050354, 141: 4.447160744, 142: 3.446271312, 143: 3.445582057, 144: 4.344892941, 145: 4.344023962, 146: 5.243155158, 147: 6.142106527, 148: 7.040878105, 149: 7.93946993, 150: 7.313541758, 151: 8.21207905, 152: 7.210436634, 153: 6.208994546, 154: 5.207752748, 155: 5.206711197, 156: 4.205669855, 157: 5.104828721, 158: 6.003807755, 159: 5.002606994, 160: 4.001606472, 161: 4.900806151, 162: 3.89982599, 163: 4.799046024, 164: 5.698086215, 165: 5.049195877, 166: 5.048186038, 167: 5.947176401, 168: 4.945986965, 169: 5.844997768, 170: 6.743828769, 171: 6.742480003, 172: 5.741131507, 173: 4.73998328, 174: 5.639035284, 175: 4.637907477, 176: 4.636979895, 177: 5.536052499, 178: 5.402605011, 179: 4.40152449, 180: 5.300644185, 181: 6.199584056, 182: 7.098344139, 183: 7.996924471, 184: 8.895325086, 185: 9.793546020999999, 186: 9.791587311000001, 187: 10.689628994, 188: 11.587491068, 189: 12.48517357, 190: 13.382676535, 191: 12.38];
cost = [0: 0.0, 1: 0.146680908, 2: 0.874292914, 3: 0.878996844, 4: 0.8802186440000001, 5: 0.0, 6: 0.146070008, 7: 0.875636894, 8: 0.150835028, 9: 0.151873558, 10: 0.0, 11: 0.0, 12: 0.0, 13: 0.153278628, 14: 0.883884044, 15: 0.0, 16: 0.0, 17: 0.878508124, 18: 1.302045094, 19: 0.0, 20: 0.174354678, 21: 0.0, 22: 0.174660128, 23: 0.0, 24: 0.0, 25: 0.0, 26: 0.0, 27: 0.145019675, 28: 1.45065656, 29: 0.013530661, 30: 0.0, 31: 0.0, 32: 0.0, 33: 1.45255992, 34: 0.16969528, 35: 0.0, 36: 0.118178165, 37: 1.45255992, 38: 0.0, 39: 1.44601712, 40: 0.0, 41: 0.118178165, 42: 0.07035762600000001, 43: 0.0, 44: 0.0, 45: 0.118178165, 46: 0.118178165, 47: 0.0, 48: 1.47658984, 49: 1.45160824, 50: 0.0, 51: 1.47599504, 52: 0.0, 53: 1.143027824, 54: 0.118178165, 55: 0.538145628, 56: 1.014616644, 57: 0.0, 58: 1.003131724, 59: 0.0, 60: 0.0, 61: 0.086316593, 62: 0.0, 63: 0.6981155999999999, 64: 1.54237472, 65: 1.48765312, 66: 0.0, 67: 0.0, 68: 0.169049595, 69: 1.43519176, 70: 0.0, 71: 1.48705832, 72: 0.183086875, 73: 0.0, 74: 1.45696144, 75: 1.42960064, 76: 0.0, 77: 1.45660456, 78: 1.45755624, 79: 1.45957856, 80: 0.0, 81: 0.142283595, 82: 0.0, 83: 0.152157275, 84: 0.0, 85: 0.0, 86: 0.0, 87: 0.0, 88: 0.0, 89: 0.957069864, 90: 0.257437078, 91: 0.0, 92: 0.264156978, 93: 0.266906028, 94: 0.971364924, 95: 0.235261408, 96: 0.0, 97: 0.0, 98: 0.0, 99: 0.911679994, 100: 0.0, 101: 0.175576478, 102: 0.0, 103: 0.0, 104: 0.906792794, 105: 0.155416778, 106: 0.879607744, 107: 0.885716744, 108: 0.885900014, 109: 0.0, 110: 0.881440444, 111: 0.897140574, 112: 0.0, 113: 0.173865958, 114: 0.0, 115: 0.898056924, 116: 0.169589658, 117: 0.0, 118: 0.0, 119: 0.0, 120: 0.266953675, 121: 0.450508955, 122: 0.0, 123: 0.08910847500000001, 124: 1.60054616, 125: 1.58995872, 126: 0.0, 127: 0.66444992, 128: 0.0, 129: 0.0, 130: 0.0, 131: 0.0, 132: 0.147160955, 133: 0.0, 134: 1.44030704, 135: 0.0, 136: 0.0, 137: 0.0, 138: 0.118178165, 139: 0.0, 140: 0.118178165, 141: 0.0, 142: 0.0, 143: 0.0, 144: 0.24119024, 145: 0.128960075, 146: 0.118178165, 147: 0.118178165, 148: 0.800068564, 149: 0.118178165, 150: 0.0, 151: 0.294060094, 152: 0.0, 153: 0.0, 154: 0.0, 155: 0.269777258, 156: 0.0, 157: 0.59450144, 158: 1.44542232, 159: 0.0, 160: 0.0, 161: 1.45898376, 162: 0.0, 163: 1.46148192, 164: 1.45006176, 165: 0.0, 166: 0.114922795, 167: 1.46148192, 168: 0.0, 169: 1.45636664, 170: 1.45719936, 171: 0.159889675, 172: 0.0, 173: 0.0, 174: 1.45815104, 175: 0.0, 176: 0.152752075, 177: 1.45957856, 178: 0.0, 179: 0.0, 180: 1.46017336, 181: 1.45957856, 182: 1.45898376, 183: 1.45196512, 184: 0.802451074, 185: 0.8869385440000001, 186: 0.216690048, 187: 0.944668594, 188: 0.940086844, 189: 0.943935514, 190: 0.925730694, 191: 0.0];
earn = [0: 0.407310019, 1: 0.0, 2: 0.0, 3: 0.0, 4: 0.0, 5: 0.377953538, 6: 0.0, 7: 0.0, 8: 0.0, 9: 0.0, 10: 0.388966703, 11: 0.38912895, 12: 0.393912053, 13: 0.0, 14: 0.0, 15: 0.0, 16: 0.403746793, 17: 0.0, 18: 0.0, 19: 0.41316022, 20: 0.0, 21: 0.411222483, 22: 0.0, 23: 0.467843272, 24: 0.515401309, 25: 0.571276606, 26: 0.6829699, 27: 0.0, 28: 0.0, 29: 0.0, 30: 0.574578438, 31: 0.0, 32: 0.292103456, 33: 0.0, 34: 0.0, 35: 0.439159638, 36: 0.051547475, 37: 0.0, 38: 0.589098278, 39: 0.0, 40: 0.6725686279999999, 41: 0.0, 42: 0.320582395, 43: 0.552696772, 44: 0.0, 45: 0.0, 46: 0.178076325, 47: 0.3337217, 48: 0.0, 49: 0.0, 50: 0.0, 51: 0.0, 52: 0.181592578, 53: 0.0, 54: 0.047089866, 55: 0.0, 56: 0.0, 57: 0.143683184, 58: 0.0, 59: 0.692100757, 60: 0.956326922, 61: 0.0, 62: 0.429321697, 63: 0.0, 64: 0.0, 65: 0.0, 66: 0.452504691, 67: 0.722187722, 68: 0.0, 69: 0.0, 70: 0.589354738, 71: 0.0, 72: 0.0, 73: 0.0, 74: 0.0, 75: 0.0, 76: 0.680575566, 77: 0.0, 78: 0.0, 79: 0.0, 80: 0.592995178, 81: 0.0, 82: 0.55127169, 83: 0.0, 84: 0.496441448, 85: 0.515798014, 86: 0.479935043, 87: 0.473059153, 88: 0.496596127, 89: 0.0, 90: 0.0, 91: 0.291729922, 92: 0.0, 93: 0.0, 94: 0.0, 95: 0.0, 96: 0.326088897, 97: 0.3293851, 98: 0.329033511, 99: 0.0, 100: 0.348456373, 101: 0.0, 102: 0.103016609, 103: 0.367017338, 104: 0.0, 105: 0.0, 106: 0.0, 107: 0.0, 108: 0.0, 109: 0.3687795, 110: 0.0, 111: 0.0, 112: 0.345713687, 113: 0.0, 114: 0.355672331, 115: 0.0, 116: 0.0, 117: 0.35256313, 118: 0.357345113, 119: 0.357380728, 120: 0.0, 121: 0.0, 122: 0.359779454, 123: 0.0, 124: 0.0, 125: 0.0, 126: 0.118947173, 127: 0.0, 128: 0.328066803, 129: 0.323728089, 130: 0.109958269, 131: 0.711805799, 132: 0.0, 133: 0.284902708, 134: 0.0, 135: 0.124881159, 136: 0.224305853, 137: 0.08043397100000001, 138: 0.0528849, 139: 0.130036012, 140: 0.011821467, 141: 0.026368509, 142: 0.026852844, 143: 0.031458694, 144: 0.0, 145: 0.0, 146: 0.021506883, 147: 0.023955142, 148: 0.0, 149: 0.002831796, 150: 0.0, 151: 0.0, 152: 0.325765091, 153: 0.281794556, 154: 0.079498578, 155: 0.0, 156: 0.278781701, 157: 0.0, 158: 0.0, 159: 0.779172356, 160: 0.433164428, 161: 0.0, 162: 0.641583723, 163: 0.0, 164: 0.0, 165: 0.297480279, 166: 0.0, 167: 0.0, 168: 0.59139891, 169: 0.0, 170: 0.0, 171: 0.0, 172: 0.625158103, 173: 0.629387834, 174: 0.0, 175: 0.619387234, 176: 0.0, 177: 0.0, 178: 0.0, 179: 0.558526894, 180: 0.0, 181: 0.0, 182: 0.0, 183: 0.0, 184: 0.0, 185: 0.0, 186: 0.0, 187: 0.0, 188: 0.0, 189: 0.0, 190: 0.0, 191: 0.356355759];
total_cost = 82.17824364000001;
total_earn = 31.652022534;
