production = [0: 0.0, 1: 0.0, 2: 0.0, 3: 0.0, 4: 0.0, 5: 0.0, 6: 0.0, 7: 0.0, 8: 0.0, 9: 0.0, 10: 0.0, 11: 0.0, 12: 0.0, 13: 0.0, 14: 0.0, 15: 0.0, 16: 0.0, 17: 0.0, 18: 0.0, 19: 0.0, 20: 0.0, 21: 0.0, 22: 0.0, 23: 0.0092, 24: 0.0338, 25: 0.0, 26: 0.098, 27: 0.0, 28: 0.0, 29: 0.2382, 30: 0.0, 31: 0.0, 32: 0.0, 33: 0.8110000000000001, 34: 0.0, 35: 1.177, 36: 0.0, 37: 1.417, 38: 1.45, 39: 1.5982, 40: 0.0, 41: 0.0, 42: 1.783, 43: 0.0, 44: 0.0, 45: 1.9205, 46: 1.917, 47: 1.9095, 48: 0.0, 49: 0.0, 50: 1.9125, 51: 0.0, 52: 1.8393, 53: 1.8148, 54: 1.7585, 55: 0.0, 56: 0.0, 57: 0.0, 58: 0.0, 59: 0.0, 60: 1.2283, 61: 0.0, 62: 0.0, 63: 0.0, 64: 0.0, 65: 0.637, 66: 0.5212, 67: 0.0, 68: 0.0, 69: 0.0, 70: 0.103, 71: 0.0415, 72: 0.0, 73: 0.0047, 74: 0.0005, 75: 0.0, 76: 0.0, 77: 0.0, 78: 0.0, 79: 0.0, 80: 0.0, 81: 0.0, 82: 0.0, 83: 0.0, 84: 0.0, 85: 0.0, 86: 0.0, 87: 0.0, 88: 0.0, 89: 0.0, 90: 0.0, 91: 0.0, 92: 0.0, 93: 0.0, 94: 0.0, 95: 0.0, 96: 0.0, 97: 0.0, 98: 0.0, 99: 0.0, 100: 0.0, 101: 0.0, 102: 0.0, 103: 0.0, 104: 0.0, 105: 0.0, 106: 0.0, 107: 0.0, 108: 0.0, 109: 0.0, 110: 0.0, 111: 0.0, 112: 0.0, 113: 0.0, 114: 0.0, 115: 0.0, 116: 0.0, 117: 0.0, 118: 0.002, 119: 0.0, 120: 0.0, 121: 0.0, 122: 0.1482, 123: 0.1865, 124: 0.2323, 125: 0.0, 126: 0.0, 127: 0.0, 128: 0.8185, 129: 0.9085, 130: 0.0, 131: 0.0, 132: 0.0, 133: 0.0, 134: 0.6085, 135: 0.588, 136: 1.59, 137: 1.7255, 138: 1.7368, 139: 1.7822, 140: 0.0, 141: 0.0, 142: 0.0, 143: 0.0, 144: 0.0, 145: 1.8982, 146: 0.0, 147: 0.0, 148: 0.0, 149: 0.0, 150: 0.0, 151: 0.0, 152: 0.0, 153: 0.0, 154: 1.32, 155: 0.0, 156: 0.0, 157: 0.0, 158: 0.92, 159: 0.0, 160: 0.3648, 161: 0.0, 162: 0.287, 163: 0.1095, 164: 0.053, 165: 0.0238, 166: 0.0, 167: 0.0145, 168: 0.0, 169: 0.0, 170: 0.0, 171: 0.0003, 172: 0.0, 173: 0.0, 174: 0.0, 175: 0.0, 176: 0.0, 177: 0.0, 178: 0.0, 179: 0.0, 180: 0.0, 181: 0.0, 182: 0.0, 183: 0.0, 184: 0.0, 185: 0.0, 186: 0.0, 187: 0.0, 188: 0.0, 189: 0.0, 190: 0.0, 191: 0.0];
buy = [0: 1.24410625, 1: 0.0, 2: 0.0, 3: 0.0, 4: 1.24740625, 5: 0.0, 6: 0.0, 7: 0.0, 8: 1.24690625, 9: 0.0, 10: 1.24240625, 11: 0.0, 12: 0.563848338, 13: 0.25090625, 14: 0.0, 15: 0.24390625, 16: 0.0, 17: 0.24460625, 18: 0.9379062500000001, 19: 0.24460625, 20: 1.28540625, 21: 0.024797636, 22: 1.28590625, 23: 0.0, 24: 1.21030625, 25: 1.23390625, 26: 1.01440625, 27: 0.0, 28: 0.12010625, 29: 0.0, 30: 0.0, 31: 0.11260625, 32: 0.12090625, 33: 0.31070625, 34: 1.11210625, 35: 0.0, 36: 0.0, 37: 0.0, 38: 0.0, 39: 0.0, 40: 1.11670625, 41: 0.0, 42: 0.0, 43: 1.15290625, 44: 0.0, 45: 0.0, 46: 0.0, 47: 0.0, 48: 0.14190625, 49: 1.12090625, 50: 0.0, 51: 0.8243360199999999, 52: 0.0, 53: 0.0, 54: 0.0, 55: 1.88090625, 56: 1.46740625, 57: 0.0, 58: 1.44860625, 59: 1.45060625, 60: 0.0, 61: 1.39660625, 62: 0.0, 63: 1.17820625, 64: 0.19720625, 65: 0.51420625, 66: 0.0, 67: 0.0, 68: 0.14210625, 69: 1.20810625, 70: 1.08190625, 71: 1.10920625, 72: 1.17940625, 73: 1.39220625, 74: 0.12540625, 75: 1.10240625, 76: 1.10260625, 77: 1.12510625, 78: 0.12590625, 79: 0.0, 80: 0.0, 81: 0.11960625, 82: 0.0, 83: 0.12790625, 84: 0.12660625, 85: 1.11860625, 86: 1.15510625, 87: 0.0, 88: 1.12660625, 89: 0.0, 90: 1.42140625, 91: 0.0, 92: 0.43240625, 93: 1.43690625, 94: 0.39660625, 95: 0.0, 96: 0.0, 97: 0.34360625, 98: 0.34410625, 99: 0.98965879, 100: 0.28770625, 101: 0.0, 102: 0.0, 103: 1.29990625, 104: 0.0, 105: 0.0, 106: 0.0, 107: 1.25640625, 108: 0.25670625, 109: 0.0, 110: 0.24940625, 111: 1.27510625, 112: 0.0, 113: 0.28460625, 114: 0.0, 115: 1.27660625, 116: 0.0, 117: 0.0, 118: 1.28420625, 119: 0.0, 120: 1.27190625, 121: 0.37870625, 122: 1.11400625, 123: 0.0, 124: 1.01380625, 125: 1.23720625, 126: 1.24210625, 127: 0.0, 128: 0.0, 129: 0.20460625, 130: 0.11310625, 131: 0.0, 132: 1.12370625, 133: 1.12060625, 134: 0.50290625, 135: 0.52410625, 136: 0.0, 137: 0.0, 138: 0.0, 139: 0.0, 140: 0.11160625, 141: 0.12370625, 142: 0.12390625, 143: 1.12220625, 144: 0.11420625, 145: 0.0, 146: 0.0, 147: 1.11640625, 148: 0.11620625, 149: 1.65210625, 150: 1.56190625, 151: 1.87340625, 152: 1.11910625, 153: 1.42340625, 154: 0.14510625, 155: 0.44160625, 156: 1.12860625, 157: 0.0, 158: 0.0, 159: 0.11620625, 160: 0.0, 161: 0.12710625, 162: 0.0, 163: 0.01970625, 164: 0.0, 165: 0.0, 166: 0.0, 167: 1.11470625, 168: 0.0, 169: 1.12490625, 170: 1.12560625, 171: 0.0, 172: 0.13490625, 173: 1.12660625, 174: 0.12640625, 175: 1.12040625, 176: 1.12840625, 177: 0.0, 178: 1.11910625, 179: 0.11840625, 180: 0.0, 181: 1.12760625, 182: 1.12710625, 183: 1.12120625, 184: 0.0, 185: 0.25840625, 186: 0.35470625, 187: 0.0, 188: 1.34540625, 189: 1.35170625, 190: 0.32190625, 191: 0.0];
sell = [0: 0.0, 1: 0.6598937499999999, 2: 0.66229375, 3: 0.65459375, 4: 0.0, 5: 0.65209375, 6: 0.6608937499999999, 7: 0.66009375, 8: 0.0, 9: 0.65139375, 10: 0.0, 11: 0.65909375, 12: 0.0, 13: 0.0, 14: 0.64659375, 15: 0.0, 16: 0.65939375, 17: 0.0, 18: 0.0, 19: 0.0, 20: 0.0, 21: 0.0, 22: 0.0, 23: 0.63179375, 24: 0.0, 25: 0.0, 26: 0.0, 27: 0.77809375, 28: 0.0, 29: 1.01449375, 30: 0.78709375, 31: 0.0, 32: 0.0, 33: 0.0, 34: 0.0, 35: 1.06079375, 36: 0.77659375, 37: 2.19529375, 38: 0.32829375, 39: 1.48199375, 40: 0.0, 41: 0.77559375, 42: 0.65059375, 43: 0.0, 44: 0.76929375, 45: 1.51259375, 46: 0.77559375, 47: 2.66759375, 48: 0.0, 49: 0.0, 50: 1.77679375, 51: 0.0, 52: 2.61039375, 53: 2.03719375, 54: 2.08459375, 55: 0.0, 56: 0.0, 57: 0.41659375, 58: 0.0, 59: 0.0, 60: 1.99359375, 61: 0.0, 62: 0.76059375, 63: 0.0, 64: 0.0, 65: 0.0, 66: 1.27349375, 67: 0.75859375, 68: 0.0, 69: 0.0, 70: 0.0, 71: 0.0, 72: 0.0, 73: 0.0, 74: 0.0, 75: 0.0, 76: 0.0, 77: 0.0, 78: 0.0, 79: 0.77239375, 80: 0.0, 81: 0.0, 82: 0.7707937500000001, 83: 0.0, 84: 0.0, 85: 0.0, 86: 0.0, 87: 0.77259375, 88: 0.0, 89: 0.5267937499999999, 90: 0.0, 91: 0.47629375, 92: 0.0, 93: 0.0, 94: 0.0, 95: 0.51489375, 96: 0.55789375, 97: 0.0, 98: 0.0, 99: 0.0, 100: 0.0, 101: 0.61259375, 102: 0.60129375, 103: 0.0, 104: 0.60909375, 105: 0.64559375, 106: 0.65359375, 107: 0.0, 108: 0.0, 109: 0.65109375, 110: 0.0, 111: 0.0, 112: 0.61329375, 113: 0.0, 114: 0.62289375, 115: 0.0, 116: 0.62239375, 117: 0.61379375, 118: 0.0, 119: 0.535977845, 120: 0.0, 121: 0.0, 122: 0.0, 123: 0.82509375, 124: 0.0, 125: 0.0, 126: 0.0, 127: 0.77879375, 128: 1.59609375, 129: 0.0, 130: 0.0, 131: 0.77709375, 132: 0.0, 133: 0.0, 134: 0.0, 135: 0.0, 136: 2.36509375, 137: 1.60039375, 138: 0.61209375, 139: 0.6649937500000001, 140: 0.0, 141: 0.0, 142: 0.0, 143: 0.0, 144: 0.0, 145: 1.78979375, 146: 0.78379375, 147: 0.0, 148: 0.0, 149: 0.0, 150: 0.0, 151: 0.0, 152: 0.0, 153: 0.0, 154: 0.0, 155: 0.0, 156: 0.0, 157: 0.7697937500000001, 158: 1.70429375, 159: 0.0, 160: 1.13789375, 161: 0.0, 162: 1.05889375, 163: 0.0, 164: 0.83339375, 165: 0.80289375, 166: 0.77109375, 167: 0.0, 168: 0.77389375, 169: 0.0, 170: 0.0, 171: 0.76589375, 172: 0.0, 173: 0.0, 174: 0.0, 175: 0.0, 176: 0.0, 177: 0.622265967, 178: 0.0, 179: 0.0, 180: 0.77189375, 181: 0.0, 182: 0.0, 183: 0.0, 184: 0.7798937500000001, 185: 0.0, 186: 0.0, 187: 0.54709375, 188: 0.0, 189: 0.0, 190: 0.0, 191: 0.61009375];
charge = [0: 1.0, 1: 0.0, 2: 0.0, 3: 0.0, 4: 1.0, 5: 0.0, 6: 0.0, 7: 0.0, 8: 1.0, 9: 0.0, 10: 1.0, 11: 0.0, 12: 0.324442088, 13: 0.0, 14: 0.0, 15: 0.0, 16: 0.0, 17: 0.0, 18: 0.0, 19: 0.0, 20: 1.0, 21: 0.0, 22: 1.0, 23: 0.0, 24: 1.0, 25: 1.0, 26: 1.0, 27: 0.0, 28: 0.0, 29: 0.0, 30: 0.0, 31: 0.0, 32: 0.0, 33: 1.0, 34: 1.0, 35: 0.0, 36: 0.0, 37: 0.0, 38: 1.0, 39: 0.0, 40: 1.0, 41: 0.0, 42: 1.0, 43: 1.0, 44: 0.0, 45: 0.0, 46: 1.0, 47: 0.0, 48: 0.0, 49: 1.0, 50: 0.0, 51: 0.68292977, 52: 0.0, 53: 0.0, 54: 0.0, 55: 1.0, 56: 1.0, 57: 0.0, 58: 1.0, 59: 1.0, 60: 0.0, 61: 1.0, 62: 0.0, 63: 1.0, 64: 0.0, 65: 1.0, 66: 0.0, 67: 0.0, 68: 0.0, 69: 1.0, 70: 1.0, 71: 1.0, 72: 1.0, 73: 1.0, 74: 0.0, 75: 1.0, 76: 1.0, 77: 1.0, 78: 0.0, 79: 0.0, 80: 0.0, 81: 0.0, 82: 0.0, 83: 0.0, 84: 0.0, 85: 1.0, 86: 1.0, 87: 0.0, 88: 1.0, 89: 0.0, 90: 1.0, 91: 0.0, 92: 0.0, 93: 1.0, 94: 0.0, 95: 0.0, 96: 0.0, 97: 0.0, 98: 0.0, 99: 0.69075254, 100: 0.0, 101: 0.0, 102: 0.0, 103: 1.0, 104: 0.0, 105: 0.0, 106: 0.0, 107: 1.0, 108: 0.0, 109: 0.0, 110: 0.0, 111: 1.0, 112: 0.0, 113: 0.0, 114: 0.0, 115: 1.0, 116: 0.0, 117: 0.0, 118: 1.0, 119: 0.0, 120: 1.0, 121: 0.0, 122: 1.0, 123: 0.0, 124: 1.0, 125: 1.0, 126: 1.0, 127: 0.0, 128: 0.0, 129: 1.0, 130: 0.0, 131: 0.0, 132: 1.0, 133: 1.0, 134: 1.0, 135: 1.0, 136: 0.0, 137: 0.0, 138: 1.0, 139: 1.0, 140: 0.0, 141: 0.0, 142: 0.0, 143: 1.0, 144: 0.0, 145: 0.0, 146: 0.0, 147: 1.0, 148: 0.0, 149: 1.0, 150: 1.0, 151: 1.0, 152: 1.0, 153: 1.0, 154: 1.0, 155: 0.0, 156: 1.0, 157: 0.0, 158: 0.0, 159: 0.0, 160: 0.0, 161: 0.0, 162: 0.0, 163: 0.0, 164: 0.0, 165: 0.0, 166: 0.0, 167: 1.0, 168: 0.0, 169: 1.0, 170: 1.0, 171: 0.0, 172: 0.0, 173: 1.0, 174: 0.0, 175: 1.0, 176: 1.0, 177: 0.0, 178: 1.0, 179: 0.0, 180: 0.0, 181: 1.0, 182: 1.0, 183: 1.0, 184: 0.0, 185: 0.0, 186: 0.0, 187: 0.0, 188: 1.0, 189: 1.0, 190: 0.0, 191: 0.0];
discharge = [0: 0.0, 1: 1.0, 2: 1.0, 3: 1.0, 4: 0.0, 5: 1.0, 6: 1.0, 7: 1.0, 8: 0.0, 9: 1.0, 10: 0.0, 11: 1.0, 12: 0.0, 13: 0.0, 14: 1.0, 15: 0.0, 16: 1.0, 17: 0.0, 18: 0.0, 19: 0.0, 20: 0.0, 21: 0.28589846, 22: 0.0, 23: 1.0, 24: 0.0, 25: 0.0, 26: 0.0, 27: 1.0, 28: 0.0, 29: 1.0, 30: 1.0, 31: 0.0, 32: 0.0, 33: 0.0, 34: 0.0, 35: 0.0, 36: 1.0, 37: 1.0, 38: 0.0, 39: 0.0, 40: 0.0, 41: 1.0, 42: 0.0, 43: 0.0, 44: 1.0, 45: 0.0, 46: 0.0, 47: 1.0, 48: 0.0, 49: 0.0, 50: 0.0, 51: 0.0, 52: 1.0, 53: 1.0, 54: 1.0, 55: 0.0, 56: 0.0, 57: 1.0, 58: 0.0, 59: 0.0, 60: 1.0, 61: 0.0, 62: 1.0, 63: 0.0, 64: 0.0, 65: 0.0, 66: 1.0, 67: 1.0, 68: 0.0, 69: 0.0, 70: 0.0, 71: 0.0, 72: 0.0, 73: 0.0, 74: 0.0, 75: 0.0, 76: 0.0, 77: 0.0, 78: 0.0, 79: 1.0, 80: 0.1315625, 81: 0.0, 82: 1.0, 83: 0.0, 84: 0.0, 85: 0.0, 86: 0.0, 87: 1.0, 88: 0.0, 89: 1.0, 90: 0.0, 91: 1.0, 92: 0.0, 93: 0.0, 94: 0.0, 95: 1.0, 96: 1.0, 97: 0.0, 98: 0.0, 99: 0.0, 100: 0.0, 101: 1.0, 102: 1.0, 103: 0.0, 104: 1.0, 105: 1.0, 106: 1.0, 107: 0.0, 108: 0.0, 109: 1.0, 110: 0.0, 111: 0.0, 112: 1.0, 113: 0.0, 114: 1.0, 115: 0.0, 116: 1.0, 117: 1.0, 118: 0.0, 119: 0.898760106, 120: 0.0, 121: 0.0, 122: 0.0, 123: 1.0, 124: 0.0, 125: 0.0, 126: 0.0, 127: 1.0, 128: 1.0, 129: 0.0, 130: 0.0, 131: 1.0, 132: 0.0, 133: 0.0, 134: 0.0, 135: 0.0, 136: 1.0, 137: 0.0, 138: 0.0, 139: 0.0, 140: 0.0, 141: 0.0, 142: 0.0, 143: 0.0, 144: 0.0, 145: 0.0, 146: 1.0, 147: 0.0, 148: 0.0, 149: 0.0, 150: 0.0, 151: 0.0, 152: 0.0, 153: 0.0, 154: 0.0, 155: 0.0, 156: 0.0, 157: 1.0, 158: 1.0, 159: 0.0, 160: 1.0, 161: 0.0, 162: 1.0, 163: 0.0, 164: 1.0, 165: 1.0, 166: 1.0, 167: 0.0, 168: 1.0, 169: 0.0, 170: 0.0, 171: 1.0, 172: 0.0, 173: 0.0, 174: 0.0, 175: 0.0, 176: 0.0, 177: 0.8331913520000001, 178: 0.0, 179: 0.0, 180: 1.0, 181: 0.0, 182: 0.0, 183: 0.0, 184: 1.0, 185: 0.0, 186: 0.0, 187: 1.0, 188: 0.0, 189: 0.0, 190: 0.0, 191: 1.0];
soc = [0: 9.678243999999999, 1: 8.676308350999999, 2: 7.67457309, 3: 6.673038175, 4: 7.571703567, 5: 6.570189227, 6: 5.568875189, 7: 4.567761414, 8: 5.466847861, 9: 4.465754492, 10: 5.364861341, 11: 4.363788369, 12: 4.65491349, 13: 4.653982507, 14: 3.653051711, 15: 3.6523211, 16: 2.651590636, 17: 2.651060318, 18: 2.650530106, 19: 2.65, 20: 3.54947, 21: 3.262861646, 22: 4.162209073, 23: 3.161376632, 24: 4.060744356, 25: 4.959932207, 26: 5.858940221, 27: 4.857768433, 28: 4.856796879, 29: 3.85582552, 30: 2.855054355, 31: 2.854483344, 32: 2.853912447, 33: 3.753341665, 34: 4.652590996, 35: 4.651660478, 36: 3.650730146, 37: 2.65, 38: 3.54947, 39: 3.548760106, 40: 4.448050354, 41: 3.447160744, 42: 4.346471312, 43: 5.245602017, 44: 4.244552897, 45: 4.243703987, 46: 5.142855246, 47: 4.141826675, 48: 4.140998309, 49: 5.04017011, 50: 5.039162076, 51: 5.652791036, 52: 4.651660478, 53: 3.650730146, 54: 2.65, 55: 3.54947, 56: 4.448760106, 57: 3.447870354, 58: 4.34718078, 59: 5.246311344, 60: 4.245262081, 61: 5.144413029, 62: 4.143384146, 63: 5.04255547, 64: 5.041546959, 65: 5.940538649, 66: 4.939350541, 67: 3.938362671, 68: 3.937574999, 69: 4.836787484, 70: 5.735820126, 71: 6.634672962, 72: 7.533346028, 73: 8.431839358, 74: 8.430152991, 75: 9.32846696, 76: 10.226601267, 77: 11.124555946, 78: 11.122331035, 79: 10.120106569, 80: 9.986520047999999, 81: 9.984522744, 82: 8.982525838999999, 83: 8.980729333999999, 84: 8.978933187999999, 85: 9.877137401000001, 86: 10.775161974, 87: 9.773006942, 88: 10.67105234, 89: 9.66891813, 90: 10.566984346, 91: 9.564870948999999, 92: 9.562957975, 93: 10.461045383, 94: 10.458953174, 95: 9.456861384, 96: 8.454970011, 97: 8.453279017, 98: 8.451588362000001, 99: 9.07157533, 100: 9.069761014999999, 101: 8.067947063, 102: 7.066333473, 103: 7.964920207, 104: 6.963327223, 105: 5.961934557, 106: 4.96074217, 107: 5.859750022, 108: 5.858578072, 109: 4.857406356, 110: 4.856434875, 111: 5.755463588, 112: 4.754312495, 113: 4.753361633, 114: 3.75241096, 115: 4.651660478, 116: 3.650730146, 117: 2.65, 118: 3.54947, 119: 2.65, 120: 3.54947, 121: 3.548760106, 122: 4.448050354, 123: 3.447160744, 124: 4.346471312, 125: 5.245602017, 126: 6.144552897, 127: 5.143323987, 128: 4.142295322, 129: 5.041466863, 130: 5.040458569, 131: 4.039450478, 132: 4.938642587, 133: 5.837654859, 134: 6.736487328, 135: 7.635140031, 136: 6.633613003, 137: 6.63228628, 138: 7.530959823, 139: 8.429453630999999, 140: 8.42776774, 141: 8.426082186, 142: 8.42439697, 143: 9.322712091, 144: 9.320847548, 145: 9.318983379000001, 146: 8.317119582, 147: 9.215456158, 148: 9.213613067000001, 149: 10.111770344, 150: 11.00974799, 151: 11.907546041, 152: 12.805164531, 153: 13.702603498, 154: 14.599862978, 155: 14.596943005, 156: 15.494023617, 157: 14.490924812, 158: 13.488026627, 159: 13.485329022, 160: 12.482631956, 161: 12.480135429, 162: 11.477639402, 163: 11.475343874, 164: 10.473048806, 165: 9.470954195999999, 166: 8.469060004999999, 167: 9.367366193000001, 168: 8.365492720000001, 169: 9.263819621, 170: 10.161966857, 171: 9.159934464000001, 172: 9.158102477, 173: 10.056270857, 174: 10.054259602, 175: 10.95224875, 176: 11.850058301, 177: 11.014496937, 178: 11.912294038, 179: 11.909911579, 180: 10.907529597, 181: 11.805348091, 182: 12.702987021, 183: 13.600446424, 184: 12.597726334, 185: 12.595206789, 186: 12.592687748, 187: 11.59016921, 188: 12.487851176, 189: 13.385353606, 190: 13.382676535, 191: 12.38];
cost = [0: 0.878202674, 1: 0.0, 2: 0.0, 3: 0.0, 4: 0.8802186440000001, 5: 0.0, 6: 0.0, 7: 0.0, 8: 0.879913194, 9: 0.0, 10: 0.877164144, 11: 0.0, 12: 0.38279692, 13: 0.153278628, 14: 0.0, 15: 0.149002328, 16: 0.0, 17: 0.149429958, 18: 0.572966928, 19: 0.149429958, 20: 0.903432844, 21: 0.015148876, 22: 0.9037382940000001, 23: 0.0, 24: 1.55795848, 25: 1.58603304, 26: 1.32491584, 27: 0.0, 28: 0.142878395, 29: 0.0, 30: 0.0, 31: 0.133956395, 32: 0.143830075, 33: 0.48779432, 34: 1.44113976, 35: 0.0, 36: 0.0, 37: 0.0, 38: 0.118178165, 39: 0.0, 40: 1.44661192, 41: 0.0, 42: 0.118178165, 43: 1.48967544, 44: 0.0, 45: 0.0, 46: 0.118178165, 47: 0.0, 48: 0.168811675, 49: 1.45160824, 50: 0.0, 51: 1.061337517, 52: 0.0, 53: 0.0, 54: 0.0, 55: 1.267223794, 56: 1.014616644, 57: 0.0, 58: 1.003131724, 59: 1.004353524, 60: 0.0, 61: 1.77958096, 62: 0.0, 63: 1.51977232, 64: 0.234596555, 65: 0.72987792, 66: 0.0, 67: 0.0, 68: 0.169049595, 69: 1.55534136, 70: 1.40521384, 71: 1.43768992, 72: 1.52119984, 73: 1.77434672, 74: 0.149183275, 75: 1.42960064, 76: 1.42983856, 77: 1.45660456, 78: 0.149778075, 79: 0.0, 80: 0.0, 81: 0.142283595, 82: 0.0, 83: 0.152157275, 84: 0.150610795, 85: 1.44887216, 86: 1.49229256, 87: 0.0, 88: 0.806421924, 89: 0.0, 90: 0.986515244, 91: 0.0, 92: 0.264156978, 93: 0.995984194, 94: 0.242286758, 95: 0.0, 96: 0.0, 97: 0.209909058, 98: 0.210214508, 99: 0.686214423, 100: 0.175759748, 101: 0.0, 102: 0.0, 103: 0.912290894, 104: 0.0, 105: 0.0, 106: 0.0, 107: 0.885716744, 108: 0.156821848, 109: 0.0, 110: 0.152362278, 111: 0.897140574, 112: 0.0, 113: 0.173865958, 114: 0.0, 115: 0.898056924, 116: 0.0, 117: 0.0, 118: 0.902699764, 119: 0.0, 120: 1.63123784, 121: 0.450508955, 122: 1.4434, 123: 0.0, 124: 1.32420208, 125: 1.58995872, 126: 1.59578776, 127: 0.0, 128: 0.0, 129: 0.36157776, 130: 0.134551195, 131: 0.0, 132: 1.45493912, 133: 1.45125136, 134: 0.71643544, 135: 0.74165496, 136: 0.0, 137: 0.0, 138: 0.118178165, 139: 0.118178165, 140: 0.132766795, 141: 0.147160955, 142: 0.147398875, 143: 1.45315472, 144: 0.135859755, 145: 0.0, 146: 0.0, 147: 1.44625504, 148: 0.070990398, 149: 1.127449874, 150: 1.072346694, 151: 1.262642044, 152: 0.801840174, 153: 0.987737044, 154: 0.206823574, 155: 0.269777258, 156: 1.46076816, 157: 0.0, 158: 0.0, 159: 0.138238955, 160: 0.0, 161: 0.151205595, 162: 0.0, 163: 0.023442555, 164: 0.0, 165: 0.0, 166: 0.0, 167: 1.44423272, 168: 0.0, 169: 1.45636664, 170: 1.45719936, 171: 0.0, 172: 0.160484475, 173: 1.45838896, 174: 0.150372875, 175: 1.45101344, 176: 1.46053024, 177: 0.0, 178: 1.44946696, 179: 0.140856075, 180: 0.0, 181: 1.45957856, 182: 1.45898376, 183: 1.45196512, 184: 0.0, 185: 0.157860378, 186: 0.216690048, 187: 0.0, 188: 0.940086844, 189: 0.943935514, 190: 0.196652528, 191: 0.0];
earn = [0: 0.0, 1: 0.387621589, 2: 0.383666769, 3: 0.376587784, 4: 0.0, 5: 0.377953538, 6: 0.391909994, 7: 0.374999259, 8: 0.0, 9: 0.391096808, 10: 0.0, 11: 0.38912895, 12: 0.0, 13: 0.0, 14: 0.386598403, 15: 0.0, 16: 0.403746793, 17: 0.0, 18: 0.0, 19: 0.0, 20: 0.0, 21: 0.0, 22: 0.0, 23: 0.467843272, 24: 0.0, 25: 0.0, 26: 0.0, 27: 0.584114978, 28: 0.0, 29: 0.73530507, 30: 0.574578438, 31: 0.0, 32: 0.0, 33: 0.0, 34: 0.0, 35: 0.5943627379999999, 36: 0.413147875, 37: 1.105988991, 38: 0.145598278, 39: 0.6139900109999999, 40: 0.0, 41: 0.234461991, 42: 0.197650381, 43: 0.0, 44: 0.203708985, 45: 0.397055859, 46: 0.178076325, 47: 0.5036417, 48: 0.0, 49: 0.0, 50: 0.383076733, 51: 0.0, 52: 0.614747728, 53: 0.5097058759999999, 54: 0.531779866, 55: 0.0, 56: 0.0, 57: 0.143683184, 58: 0.0, 59: 0.0, 60: 0.956326922, 61: 0.0, 62: 0.391021247, 63: 0.0, 64: 0.0, 65: 0.0, 66: 0.766006491, 67: 0.496196172, 68: 0.0, 69: 0.0, 70: 0.0, 71: 0.0, 72: 0.0, 73: 0.0, 74: 0.0, 75: 0.0, 76: 0.0, 77: 0.0, 78: 0.0, 79: 0.618841873, 80: 0.0, 81: 0.0, 82: 0.55127169, 83: 0.0, 84: 0.0, 85: 0.0, 86: 0.0, 87: 0.473059153, 88: 0.0, 89: 0.33293365, 90: 0.0, 91: 0.291729922, 92: 0.0, 93: 0.0, 94: 0.0, 95: 0.289061351, 96: 0.326088897, 97: 0.0, 98: 0.0, 99: 0.0, 100: 0.0, 101: 0.347646953, 102: 0.343519119, 103: 0.0, 104: 0.346026159, 105: 0.365599741, 106: 0.370130141, 107: 0.0, 108: 0.0, 109: 0.3687795, 110: 0.0, 111: 0.0, 112: 0.345713687, 113: 0.0, 114: 0.355672331, 115: 0.0, 116: 0.357814167, 117: 0.35256313, 118: 0.0, 119: 0.305453774, 120: 0.0, 121: 0.0, 122: 0.0, 123: 0.448851, 124: 0.0, 125: 0.0, 126: 0.0, 127: 0.364319716, 128: 0.673391953, 129: 0.0, 130: 0.0, 131: 0.276101409, 132: 0.0, 133: 0.0, 134: 0.0, 135: 0.0, 136: 0.362095853, 137: 0.166120871, 138: 0.0528849, 139: 0.051936012, 140: 0.0, 141: 0.0, 142: 0.0, 143: 0.0, 144: 0.0, 145: 0.046713617, 146: 0.023435433, 147: 0.0, 148: 0.0, 149: 0.0, 150: 0.0, 151: 0.0, 152: 0.0, 153: 0.0, 154: 0.0, 155: 0.0, 156: 0.0, 157: 0.279973987, 158: 0.734891465, 159: 0.0, 160: 0.637561868, 161: 0.0, 162: 0.641583723, 163: 0.0, 164: 0.522954578, 165: 0.516902996, 166: 0.522878672, 167: 0.0, 168: 0.59063571, 169: 0.0, 170: 0.0, 171: 0.624050228, 172: 0.0, 173: 0.0, 174: 0.0, 175: 0.0, 176: 0.0, 177: 0.47099311, 178: 0.0, 179: 0.0, 180: 0.545342934, 181: 0.0, 182: 0.0, 183: 0.0, 184: 0.509816544, 185: 0.0, 186: 0.0, 187: 0.346036797, 188: 0.0, 189: 0.0, 190: 0.0, 191: 0.356355759];
total_cost = 95.281827503;
total_earn = 32.113113372;
