production = [0: 0.0, 1: 0.0, 2: 0.0, 3: 0.0, 4: 0.0, 5: 0.0, 6: 0.0, 7: 0.0, 8: 0.0, 9: 0.0, 10: 0.0, 11: 0.0, 12: 0.0, 13: 0.0, 14: 0.0, 15: 0.0, 16: 0.0, 17: 0.0, 18: 0.0, 19: 0.0, 20: 0.0, 21: 0.0, 22: 0.0, 23: 0.0092, 24: 0.0, 25: 0.0, 26: 0.0, 27: 0.1333, 28: 0.1835, 29: 0.0, 30: 0.0, 31: 0.6870000000000001, 32: 0.4788, 33: 0.8110000000000001, 34: 0.0, 35: 1.177, 36: 1.2203, 37: 0.0, 38: 1.45, 39: 1.5982, 40: 1.643, 41: 1.7178, 42: 1.783, 43: 1.8395, 44: 1.8467, 45: 1.9205, 46: 0.0, 47: 1.9095, 48: 1.14190625, 49: 0.0, 50: 1.9125, 51: 1.871, 52: 0.0, 53: 0.0, 54: 1.7585, 55: 1.717, 56: 0.0, 57: 0.0, 58: 1.4307, 59: 1.265, 60: 0.0, 61: 1.127, 62: 0.9745, 63: 0.6907, 64: 0.0, 65: 0.0, 66: 0.0, 67: 0.3455, 68: 0.2462, 69: 0.0, 70: 0.103, 71: 0.0415, 72: 0.0, 73: 0.0047, 74: 0.0005, 75: 0.0, 76: 0.0, 77: 0.0, 78: 0.0, 79: 0.0, 80: 0.0, 81: 0.0, 82: 0.0, 83: 0.0, 84: 0.0, 85: 0.0, 86: 0.0, 87: 0.0, 88: 0.0, 89: 0.0, 90: 0.0, 91: 0.0, 92: 0.0, 93: 0.0, 94: 0.0, 95: 0.0, 96: 0.0, 97: 0.0, 98: 0.0, 99: 0.0, 100: 0.0, 101: 0.0, 102: 0.0, 103: 0.0, 104: 0.0, 105: 0.0, 106: 0.0, 107: 0.0, 108: 0.0, 109: 0.0, 110: 0.0, 111: 0.0, 112: 0.0, 113: 0.0, 114: 0.0, 115: 0.0, 116: 0.0, 117: 0.0, 118: 0.002, 119: 0.0, 120: 0.0, 121: 0.0828, 122: 0.0, 123: 0.0, 124: 0.0, 125: 0.0, 126: 0.4783, 127: 0.662, 128: 0.8185, 129: 0.0, 130: 0.0, 131: 1.2263, 132: 1.2192, 133: 1.283, 134: 0.6085, 135: 0.0, 136: 1.59, 137: 1.7255, 138: 1.7368, 139: 0.0, 140: 0.0, 141: 0.8383, 142: 0.905, 143: 1.0755, 144: 0.0, 145: 0.0, 146: 0.0, 147: 1.8028, 148: 1.7512, 149: 1.7035, 150: 1.56190625, 151: 0.0, 152: 0.0, 153: 1.43, 154: 1.32, 155: 0.0, 156: 0.0, 157: 0.0, 158: 0.0, 159: 0.8705000000000001, 160: 0.3648, 161: 0.2988, 162: 0.0, 163: 0.1095, 164: 0.0, 165: 0.0, 166: 0.0, 167: 0.0145, 168: 0.0, 169: 0.0, 170: 0.0, 171: 0.0, 172: 0.0, 173: 0.0, 174: 0.0, 175: 0.0, 176: 0.0, 177: 0.0, 178: 0.0, 179: 0.0, 180: 0.0, 181: 0.0, 182: 0.0, 183: 0.0, 184: 0.0, 185: 0.0, 186: 0.0, 187: 0.0, 188: 0.0, 189: 0.0, 190: 0.0, 191: 0.0];
buy = [0: 0.0, 1: 1.24010625, 2: 1.23770625, 3: 0.24540625, 4: 0.24740625, 5: 0.0, 6: 0.0, 7: 1.23990625, 8: 0.0, 9: 0.0, 10: 1.24240625, 11: 0.0, 12: 1.23940625, 13: 1.25090625, 14: 0.0, 15: 0.837781981, 16: 1.24060625, 17: 0.0, 18: 1.93790625, 19: 0.24460625, 20: 0.0, 21: 0.28210625, 22: 0.28590625, 23: 0.0, 24: 1.24410625, 25: 1.23390625, 26: 0.0, 27: 0.0, 28: 0.93660625, 29: 1.12370625, 30: 0.0, 31: 0.0, 32: 0.64210625, 33: 0.31070625, 34: 1.11210625, 35: 0.0, 36: 0.0, 37: 1.12170625, 38: 0.0, 39: 0.0, 40: 0.0, 41: 0.0, 42: 0.0, 43: 0.0, 44: 0.0, 45: 0.0, 46: 1.14140625, 47: 0.0, 48: 0.0, 49: 0.0, 50: 0.0, 51: 0.0, 52: 0.12890625, 53: 0.0, 54: 0.0, 55: 0.16390625, 56: 0.0, 57: 0.0, 58: 0.01790625, 59: 0.0, 60: 1.13470625, 61: 0.0, 62: 0.16490625, 63: 0.0, 64: 1.19720625, 65: 1.15120625, 66: 1.14770625, 67: 0.0, 68: 0.0, 69: 0.0, 70: 0.0, 71: 0.10920625, 72: 0.0, 73: 1.39220625, 74: 1.12540625, 75: 0.0, 76: 1.10260625, 77: 1.12510625, 78: 1.12590625, 79: 1.12760625, 80: 1.11840625, 81: 0.0, 82: 0.0, 83: 1.12790625, 84: 0.0, 85: 1.11860625, 86: 0.15510625, 87: 0.0, 88: 0.0, 89: 0.37320625, 90: 0.0, 91: 0.0, 92: 1.43240625, 93: 0.43690625, 94: 0.92528865, 95: 1.38510625, 96: 1.34210625, 97: 0.0, 98: 0.0, 99: 0.0, 100: 0.0, 101: 1.28740625, 102: 0.0, 103: 1.29990625, 104: 1.29090625, 105: 1.25440625, 106: 0.0, 107: 0.0, 108: 0.25670625, 109: 0.589058433, 110: 0.0, 111: 1.27510625, 112: 0.28670625, 113: 1.28460625, 114: 1.27710625, 115: 1.27660625, 116: 1.27760625, 117: 0.0, 118: 1.28420625, 119: 1.27290625, 120: 0.0, 121: 1.29590625, 122: 0.0, 123: 0.26140625, 124: 0.24610625, 125: 1.23720625, 126: 0.76380625, 127: 0.0, 128: 0.30390625, 129: 1.11310625, 130: 0.11310625, 131: 0.0, 132: 0.0, 133: 0.0, 134: 0.0, 135: 0.11210625, 136: 0.0, 137: 0.0, 138: 0.0, 139: 0.0, 140: 0.0, 141: 0.0, 142: 0.0, 143: 0.0, 144: 1.11420625, 145: 0.10840625, 146: 1.11620625, 147: 0.0, 148: 0.0, 149: 0.0, 150: 0.0, 151: 1.87340625, 152: 1.11910625, 153: 0.0, 154: 0.14510625, 155: 0.123287539, 156: 0.0, 157: 0.0, 158: 0.0, 159: 0.0, 160: 0.0, 161: 0.0, 162: 1.12810625, 163: 0.01970625, 164: 0.11960625, 165: 0.12090625, 166: 0.0, 167: 1.11470625, 168: 1.12610625, 169: 0.12490625, 170: 0.12560625, 171: 1.13440625, 172: 1.13490625, 173: 0.0, 174: 0.0, 175: 1.12040625, 176: 1.12840625, 177: 0.12760625, 178: 1.11910625, 179: 0.0, 180: 1.12810625, 181: 0.0, 182: 1.12710625, 183: 0.12120625, 184: 0.0, 185: 1.25840625, 186: 0.35470625, 187: 1.35290625, 188: 1.34540625, 189: 0.35170625, 190: 0.0, 191: 0.28990625];
sell = [0: 0.6558937500000001, 1: 0.0, 2: 0.0, 3: 0.0, 4: 0.0, 5: 0.65209375, 6: 0.6608937499999999, 7: 0.0, 8: 0.65309375, 9: 0.65139375, 10: 0.0, 11: 0.65909375, 12: 0.0, 13: 0.0, 14: 0.64659375, 15: 0.0, 16: 0.0, 17: 0.65539375, 18: 0.0, 19: 0.0, 20: 0.61459375, 21: 0.0, 22: 0.0, 23: 0.63179375, 24: 0.0, 25: 0.0, 26: 0.78759375, 27: 0.91139375, 28: 0.0, 29: 0.0, 30: 0.78709375, 31: 1.47439375, 32: 0.0, 33: 0.0, 34: 0.0, 35: 1.96079375, 36: 1.99689375, 37: 0.0, 38: 2.22829375, 39: 2.38199375, 40: 2.42629375, 41: 2.49339375, 42: 2.55059375, 43: 0.68659375, 44: 1.71599375, 45: 1.51259375, 46: 0.0, 47: 2.66759375, 48: 0.0, 49: 0.644352474, 50: 0.7767937499999999, 51: 1.72959375, 52: 0.0, 53: 0.22239375, 54: 1.18459375, 55: 0.0, 56: 0.43259375, 57: 0.0, 58: 0.0, 59: 1.71439375, 60: 0.0, 61: 0.73039375, 62: 0.0, 63: 0.951749521, 64: 0.0, 65: 0.0, 66: 0.0, 67: 0.20409375, 68: 1.00409375, 69: 0.69189375, 70: 0.81809375, 71: 0.0, 72: 0.72059375, 73: 0.0, 74: 0.0, 75: 0.79759375, 76: 0.0, 77: 0.0, 78: 0.0, 79: 0.0, 80: 0.0, 81: 0.78039375, 82: 0.0, 83: 0.0, 84: 0.77339375, 85: 0.0, 86: 0.0, 87: 0.77259375, 88: 0.77339375, 89: 0.0, 90: 0.47859375, 91: 0.47629375, 92: 0.0, 93: 0.0, 94: 0.0, 95: 0.0, 96: 0.0, 97: 0.55639375, 98: 0.55589375, 99: 0.60109375, 100: 0.61229375, 101: 0.0, 102: 0.60129375, 103: 0.0, 104: 0.0, 105: 0.0, 106: 0.65359375, 107: 0.64359375, 108: 0.0, 109: 0.0, 110: 0.65059375, 111: 0.0, 112: 0.0, 113: 0.0, 114: 0.0, 115: 0.0, 116: 0.0, 117: 0.61379375, 118: 0.0, 119: 0.0, 120: 0.62809375, 121: 0.0, 122: 0.63779375, 123: 0.0, 124: 0.0, 125: 0.0, 126: 0.0, 127: 1.44079375, 128: 0.0, 129: 0.0, 130: 0.0, 131: 2.00339375, 132: 1.09549375, 133: 2.06239375, 134: 1.39709375, 135: 0.0, 136: 0.46509375, 137: 0.6003937499999999, 138: 1.61209375, 139: 0.78279375, 140: 0.78839375, 141: 0.71459375, 142: 1.68109375, 143: 0.9532937500000001, 144: 0.0, 145: 0.0, 146: 0.0, 147: 2.58639375, 148: 2.53499375, 149: 0.05139375, 150: 0.0, 151: 0.0, 152: 0.0, 153: 0.00659375, 154: 0.0, 155: 0.0, 156: 0.0, 157: 0.7697937500000001, 158: 0.78429375, 159: 1.65429375, 160: 0.23789375, 161: 0.17169375, 162: 0.0, 163: 0.0, 164: 0.0, 165: 0.0, 166: 0.77109375, 167: 0.0, 168: 0.0, 169: 0.0, 170: 0.0, 171: 0.0, 172: 0.0, 173: 0.77339375, 174: 0.77359375, 175: 0.0, 176: 0.0, 177: 0.0, 178: 0.0, 179: 0.78159375, 180: 0.0, 181: 0.0, 182: 0.0, 183: 0.0, 184: 0.7798937500000001, 185: 0.0, 186: 0.0, 187: 0.0, 188: 0.0, 189: 0.0, 190: 0.57809375, 191: 0.0];
charge = [0: 0.0, 1: 1.0, 2: 1.0, 3: 0.0, 4: 0.0, 5: 0.0, 6: 0.0, 7: 1.0, 8: 0.0, 9: 0.0, 10: 1.0, 11: 0.0, 12: 1.0, 13: 1.0, 14: 0.0, 15: 0.593875731, 16: 1.0, 17: 0.0, 18: 1.0, 19: 0.0, 20: 0.0, 21: 0.0, 22: 0.0, 23: 0.0, 24: 1.0, 25: 1.0, 26: 0.0, 27: 0.0, 28: 1.0, 29: 1.0, 30: 0.0, 31: 0.0, 32: 1.0, 33: 1.0, 34: 1.0, 35: 0.0, 36: 0.0, 37: 1.0, 38: 0.0, 39: 0.0, 40: 0.0, 41: 0.0, 42: 0.0, 43: 1.0, 44: 0.0, 45: 0.0, 46: 1.0, 47: 0.0, 48: 1.0, 49: 0.0, 50: 1.0, 51: 0.0, 52: 0.0, 53: 0.0, 54: 0.0, 55: 1.0, 56: 0.0, 57: 0.0, 58: 1.0, 59: 0.0, 60: 1.0, 61: 0.0, 62: 1.0, 63: 0.0, 64: 1.0, 65: 1.0, 66: 1.0, 67: 0.0, 68: 0.0, 69: 0.0, 70: 0.0, 71: 0.0, 72: 0.0, 73: 1.0, 74: 1.0, 75: 0.0, 76: 1.0, 77: 1.0, 78: 1.0, 79: 1.0, 80: 1.0, 81: 0.0, 82: 0.0, 83: 1.0, 84: 0.0, 85: 1.0, 86: 0.0, 87: 0.0, 88: 0.0, 89: 0.0, 90: 0.0, 91: 0.0, 92: 1.0, 93: 0.0, 94: 0.5286824, 95: 1.0, 96: 1.0, 97: 0.0, 98: 0.0, 99: 0.0, 100: 0.0, 101: 1.0, 102: 0.0, 103: 1.0, 104: 1.0, 105: 1.0, 106: 0.0, 107: 0.0, 108: 0.0, 109: 0.340152183, 110: 0.0, 111: 1.0, 112: 0.0, 113: 1.0, 114: 1.0, 115: 1.0, 116: 1.0, 117: 0.0, 118: 1.0, 119: 1.0, 120: 0.0, 121: 1.0, 122: 0.0, 123: 0.0, 124: 0.0, 125: 1.0, 126: 1.0, 127: 0.0, 128: 1.0, 129: 1.0, 130: 0.0, 131: 0.0, 132: 0.0, 133: 0.0, 134: 0.0, 135: 0.0, 136: 1.0, 137: 1.0, 138: 0.0, 139: 0.0, 140: 0.0, 141: 0.0, 142: 0.0, 143: 0.0, 144: 1.0, 145: 0.0, 146: 1.0, 147: 0.0, 148: 0.0, 149: 1.0, 150: 1.0, 151: 1.0, 152: 1.0, 153: 1.0, 154: 1.0, 155: 0.0, 156: 0.0, 157: 0.0, 158: 0.0, 159: 0.0, 160: 0.0, 161: 0.0, 162: 1.0, 163: 0.0, 164: 0.0, 165: 0.0, 166: 0.0, 167: 1.0, 168: 1.0, 169: 0.0, 170: 0.0, 171: 1.0, 172: 1.0, 173: 0.0, 174: 0.0, 175: 1.0, 176: 1.0, 177: 0.0, 178: 1.0, 179: 0.0, 180: 1.0, 181: 0.0, 182: 1.0, 183: 0.0, 184: 0.0, 185: 1.0, 186: 0.0, 187: 1.0, 188: 1.0, 189: 0.0, 190: 0.0, 191: 0.0];
discharge = [0: 1.0, 1: 0.0, 2: 0.0, 3: 0.0, 4: 0.0, 5: 1.0, 6: 1.0, 7: 0.0, 8: 1.0, 9: 1.0, 10: 0.0, 11: 1.0, 12: 0.0, 13: 0.0, 14: 1.0, 15: 0.0, 16: 0.0, 17: 1.0, 18: 0.0, 19: 0.0, 20: 1.0, 21: 0.0, 22: 0.0, 23: 1.0, 24: 0.0, 25: 0.0, 26: 1.0, 27: 1.0, 28: 0.0, 29: 0.0, 30: 1.0, 31: 1.0, 32: 0.0, 33: 0.0, 34: 0.0, 35: 1.0, 36: 1.0, 37: 0.0, 38: 1.0, 39: 1.0, 40: 1.0, 41: 1.0, 42: 1.0, 43: 0.0, 44: 0.0, 45: 0.0, 46: 0.0, 47: 1.0, 48: 0.0, 49: 0.850287471, 50: 0.0, 51: 0.0, 52: 0.0, 53: 1.0, 54: 0.0, 55: 0.0, 56: 1.0, 57: 0.537118056, 58: 0.0, 59: 1.0, 60: 0.0, 61: 0.0, 62: 0.0, 63: 0.488061968, 64: 0.0, 65: 0.0, 66: 0.0, 67: 0.0, 68: 1.0, 69: 1.0, 70: 1.0, 71: 0.0, 72: 1.0, 73: 0.0, 74: 0.0, 75: 1.0, 76: 0.0, 77: 0.0, 78: 0.0, 79: 0.0, 80: 0.0, 81: 1.0, 82: 0.1435625, 83: 0.0, 84: 1.0, 85: 0.0, 86: 0.0, 87: 1.0, 88: 1.0, 89: 0.0, 90: 1.0, 91: 1.0, 92: 0.0, 93: 0.0, 94: 0.0, 95: 0.0, 96: 0.0, 97: 1.0, 98: 1.0, 99: 1.0, 100: 1.0, 101: 0.0, 102: 1.0, 103: 0.0, 104: 0.0, 105: 0.0, 106: 1.0, 107: 1.0, 108: 0.0, 109: 0.0, 110: 1.0, 111: 0.0, 112: 0.0, 113: 0.0, 114: 0.0, 115: 0.0, 116: 0.0, 117: 1.0, 118: 0.0, 119: 0.0, 120: 1.0, 121: 0.0, 122: 1.0, 123: 0.0, 124: 0.0, 125: 0.0, 126: 0.0, 127: 1.0, 128: 0.0, 129: 0.0, 130: 0.0, 131: 1.0, 132: 0.0, 133: 1.0, 134: 1.0, 135: 0.0, 136: 0.0, 137: 0.0, 138: 0.0, 139: 1.0, 140: 1.0, 141: 0.0, 142: 1.0, 143: 0.0, 144: 0.0, 145: 0.0, 146: 0.0, 147: 1.0, 148: 1.0, 149: 0.0, 150: 0.0, 151: 0.0, 152: 0.0, 153: 0.0, 154: 0.0, 155: 0.353687456, 156: 0.142895833, 157: 1.0, 158: 1.0, 159: 1.0, 160: 0.0, 161: 0.0, 162: 0.0, 163: 0.0, 164: 0.0, 165: 0.0, 166: 1.0, 167: 0.0, 168: 0.0, 169: 0.0, 170: 0.0, 171: 0.0, 172: 0.0, 173: 1.0, 174: 1.0, 175: 0.0, 176: 0.0, 177: 0.0, 178: 0.0, 179: 1.0, 180: 0.0, 181: 0.141784722, 182: 0.0, 183: 0.0, 184: 1.0, 185: 0.0, 186: 0.0, 187: 0.0, 188: 0.0, 189: 0.0, 190: 1.0, 191: 0.0];
soc = [0: 7.778244, 1: 8.676688350999999, 2: 9.574953014, 3: 9.573038023000001, 4: 9.571123415000001, 5: 8.569209191000001, 6: 7.567495349, 7: 8.46598185, 8: 7.464288653, 9: 6.462795796, 10: 7.361503236, 11: 6.360030936, 12: 7.25875893, 13: 8.157307178, 14: 7.155675716, 15: 7.688732739, 16: 8.587194993000001, 17: 7.585477554, 18: 8.483960458, 19: 8.482263666, 20: 7.480567213, 21: 7.4790711, 22: 7.477575286, 23: 6.476079771, 24: 7.374784555, 25: 8.273309598000001, 26: 7.271654936, 27: 6.270200605, 28: 7.168946565, 29: 8.067512775000001, 30: 7.065899273, 31: 6.064486093, 32: 6.963273196, 33: 7.861880541, 34: 8.760308165, 35: 7.758556103, 36: 6.757004392, 37: 7.655652991, 38: 6.654121861, 39: 5.652791036, 40: 4.651660478, 41: 3.650730146, 42: 2.65, 43: 3.54947, 44: 3.548760106, 45: 3.548050354, 46: 4.447340744, 47: 3.446451276, 48: 4.345761986, 49: 3.494605362, 50: 4.393906441, 51: 4.39302766, 52: 4.392149054, 53: 3.391269841, 54: 3.39059237, 55: 4.289914252, 56: 3.289056269, 57: 2.751280402, 58: 3.650730146, 59: 2.65, 60: 3.54947, 61: 3.548760106, 62: 4.448050354, 63: 3.959098776, 64: 4.858306956, 65: 5.757335295, 66: 6.656183828, 67: 6.654852591, 68: 5.653521621, 69: 4.652390916, 70: 3.651460438, 71: 3.650730146, 72: 2.65, 73: 3.54947, 74: 4.448760106, 75: 3.447870354, 76: 4.34718078, 77: 5.246311344, 78: 6.145262081, 79: 7.044033029, 80: 7.942624222, 81: 6.941035698, 82: 6.79608499, 83: 7.694725773, 84: 6.693186828, 85: 7.591848191, 86: 7.590329821, 87: 6.588811755, 88: 5.587493993, 89: 5.586376494, 90: 4.585259219, 91: 3.584342167, 92: 4.483625299, 93: 4.482728574, 94: 4.957646188, 95: 5.856654659, 96: 6.755483328, 97: 5.754132231, 98: 4.752981405, 99: 3.752030808, 100: 2.751280402, 101: 3.650730146, 102: 2.65, 103: 3.54947, 104: 4.448760106, 105: 5.347870354, 106: 4.34680078, 107: 3.34593142, 108: 3.345262233, 109: 3.650730146, 110: 2.65, 111: 3.54947, 112: 3.548760106, 113: 4.448050354, 114: 5.347160744, 115: 6.246091312, 116: 7.144842093, 117: 6.143413125, 118: 7.042184442, 119: 7.940776006, 120: 6.93918785, 121: 7.837800013, 122: 6.836232453, 123: 6.834865206, 124: 6.833498233, 125: 7.732131534, 126: 8.630585107, 127: 7.62885899, 128: 8.527333218000001, 129: 9.425627752, 130: 9.423742625999999, 131: 8.421857878000001, 132: 8.420173505999999, 133: 7.418489471, 134: 6.417005774, 135: 6.415722372, 136: 7.314439228, 137: 8.212976340000001, 138: 8.211333744999999, 139: 7.209691478, 140: 6.20824954, 141: 6.20700789, 142: 5.205766488, 143: 5.204725335, 144: 6.10368439, 145: 6.102463653, 146: 7.00124316, 147: 5.999842912, 148: 4.998642943, 149: 5.897643215, 150: 6.796463686, 151: 7.695104393, 152: 8.593565372, 153: 9.491846659, 154: 10.38994829, 155: 10.034182844, 156: 9.889280174, 157: 8.887302318, 158: 7.885524857, 159: 6.883947752, 160: 6.882570963, 161: 6.881194449, 162: 7.77981821, 163: 7.778262246, 164: 7.776706594, 165: 7.775151252, 166: 6.773596222, 167: 7.672241503, 168: 8.570707055, 169: 8.568992913000001, 170: 8.567279115, 171: 9.465565658999999, 172: 10.363672546, 173: 9.361599811, 174: 8.359727490999999, 175: 9.258055546, 176: 10.156203935, 177: 10.154172694, 178: 11.052141859, 179: 10.049931431, 180: 10.947921445, 181: 10.803947138, 182: 11.701786349, 183: 11.699445991, 184: 10.697106102, 185: 11.594966681, 186: 11.592647688, 187: 12.490329158, 188: 13.387831092, 189: 13.385153526, 190: 12.382476495, 191: 12.38];
cost = [0: 0.0, 1: 0.875759074, 2: 0.874292914, 3: 0.149918678, 4: 0.151140478, 5: 0.0, 6: 0.0, 7: 0.875636894, 8: 0.0, 9: 0.0, 10: 0.877164144, 11: 0.0, 12: 0.875331444, 13: 0.882356794, 14: 0.0, 15: 0.5819841569999999, 16: 0.876064524, 17: 0.0, 18: 1.302045094, 19: 0.149429958, 20: 0.0, 21: 0.172338708, 22: 0.174660128, 23: 0.0, 24: 1.59816696, 25: 1.58603304, 26: 0.0, 27: 0.0, 28: 1.23236496, 29: 1.45493912, 30: 0.0, 31: 0.0, 32: 0.88202776, 33: 0.48779432, 34: 1.44113976, 35: 0.0, 36: 0.0, 37: 1.45255992, 38: 0.0, 39: 0.0, 40: 0.0, 41: 0.0, 42: 0.0, 43: 0.118178165, 44: 0.0, 45: 0.0, 46: 1.47599504, 47: 0.0, 48: 0.118178165, 49: 0.0, 50: 0.118178165, 51: 0.0, 52: 0.07874882800000001, 53: 0.0, 54: 0.0, 55: 0.218308494, 56: 0.0, 57: 0.0, 58: 0.129117094, 59: 0.0, 60: 1.46802472, 61: 0.0, 62: 0.31435064, 63: 0.0, 64: 1.54237472, 65: 1.48765312, 66: 1.48348952, 67: 0.0, 68: 0.0, 69: 0.0, 70: 0.0, 71: 0.129911755, 72: 0.0, 73: 1.77434672, 74: 1.45696144, 75: 0.0, 76: 1.42983856, 77: 1.45660456, 78: 1.45755624, 79: 1.45957856, 80: 1.44863424, 81: 0.0, 82: 0.0, 83: 1.45993544, 84: 0.0, 85: 1.44887216, 86: 0.184514395, 87: 0.0, 88: 0.0, 89: 0.227991698, 90: 0.0, 91: 0.0, 92: 0.993235144, 93: 0.266906028, 94: 0.627737552, 95: 0.964339574, 96: 0.938070874, 97: 0.0, 98: 0.0, 99: 0.0, 100: 0.0, 101: 0.904654644, 102: 0.0, 103: 0.912290894, 104: 0.906792794, 105: 0.8844949439999999, 106: 0.0, 107: 0.0, 108: 0.156821848, 109: 0.400054358, 110: 0.0, 111: 0.897140574, 112: 0.175148848, 113: 0.902944124, 114: 0.898362374, 115: 0.898056924, 116: 0.898667824, 117: 0.0, 118: 0.902699764, 119: 0.895796594, 120: 0.0, 121: 1.65978824, 122: 0.0, 123: 0.310968875, 124: 0.292767995, 125: 1.58995872, 126: 1.02680208, 127: 0.0, 128: 0.47970504, 129: 1.44232936, 130: 0.134551195, 131: 0.0, 132: 0.0, 133: 0.0, 134: 0.0, 135: 0.133361595, 136: 0.118178165, 137: 0.118178165, 138: 0.0, 139: 0.0, 140: 0.0, 141: 0.0, 142: 0.0, 143: 0.0, 144: 1.44363792, 145: 0.128960075, 146: 1.44601712, 147: 0.0, 148: 0.0, 149: 0.118178165, 150: 0.118178165, 151: 1.262642044, 152: 0.801840174, 153: 0.118178165, 154: 0.206823574, 155: 0.075316358, 156: 0.0, 157: 0.0, 158: 0.0, 159: 0.0, 160: 0.0, 161: 0.0, 162: 1.46017336, 163: 0.023442555, 164: 0.142283595, 165: 0.143830075, 166: 0.0, 167: 1.44423272, 168: 1.45779416, 169: 0.148588475, 170: 0.149421195, 171: 1.46766784, 172: 1.46826264, 173: 0.0, 174: 0.0, 175: 1.45101344, 176: 1.46053024, 177: 0.151800395, 178: 1.44946696, 179: 0.0, 180: 1.46017336, 181: 0.0, 182: 1.45898376, 183: 0.144186955, 184: 0.0, 185: 0.8869385440000001, 186: 0.216690048, 187: 0.944668594, 188: 0.940086844, 189: 0.214857348, 190: 0.0, 191: 0.177103728];
earn = [0: 0.407310019, 1: 0.0, 2: 0.0, 3: 0.0, 4: 0.0, 5: 0.377953538, 6: 0.391909994, 7: 0.0, 8: 0.397146309, 9: 0.391096808, 10: 0.0, 11: 0.38912895, 12: 0.0, 13: 0.0, 14: 0.386598403, 15: 0.0, 16: 0.0, 17: 0.403394853, 18: 0.0, 19: 0.0, 20: 0.391496219, 21: 0.0, 22: 0.0, 23: 0.467843272, 24: 0.0, 25: 0.0, 26: 0.6073923, 27: 0.6841832879999999, 28: 0.0, 29: 0.0, 30: 0.574578438, 31: 1.012318749, 32: 0.0, 33: 0.0, 34: 0.0, 35: 1.098632738, 36: 1.062347475, 37: 0.0, 38: 0.988248278, 39: 0.986860011, 40: 0.6725686279999999, 41: 0.753752931, 42: 0.7748703810000001, 43: 0.224996772, 44: 0.454395145, 45: 0.397055859, 46: 0.0, 47: 0.5036417, 48: 0.0, 49: 0.135507325, 50: 0.167476733, 51: 0.396249928, 52: 0.0, 53: 0.055642916, 54: 0.302189866, 55: 0.0, 56: 0.139295188, 57: 0.0, 58: 0.0, 59: 0.692100757, 60: 0.0, 61: 0.367972371, 62: 0.0, 63: 0.499002274, 64: 0.0, 65: 0.0, 66: 0.0, 67: 0.133497722, 68: 0.672240766, 69: 0.461769889, 70: 0.589354738, 71: 0.0, 72: 0.566458747, 73: 0.0, 74: 0.0, 75: 0.700446831, 76: 0.0, 77: 0.0, 78: 0.0, 79: 0.0, 80: 0.0, 81: 0.579130202, 82: 0.0, 83: 0.0, 84: 0.496441448, 85: 0.0, 86: 0.0, 87: 0.473059153, 88: 0.496596127, 89: 0.0, 90: 0.302040516, 91: 0.291729922, 92: 0.0, 93: 0.0, 94: 0.0, 95: 0.0, 96: 0.0, 97: 0.3293851, 98: 0.329033511, 99: 0.354825641, 100: 0.348456373, 101: 0.0, 102: 0.343519119, 103: 0.0, 104: 0.0, 105: 0.0, 106: 0.370130141, 107: 0.372833859, 108: 0.0, 109: 0.0, 110: 0.3684963, 111: 0.0, 112: 0.0, 113: 0.0, 114: 0.0, 115: 0.0, 116: 0.0, 117: 0.35256313, 118: 0.0, 119: 0.0, 120: 0.351544072, 121: 0.0, 122: 0.359779454, 123: 0.0, 124: 0.0, 125: 0.0, 126: 0.0, 127: 0.674003316, 128: 0.0, 129: 0.0, 130: 0.0, 131: 0.711805799, 132: 0.340808106, 133: 0.505492708, 134: 0.315044641, 135: 0.0, 136: 0.071205853, 137: 0.062320871, 138: 0.1392849, 139: 0.061136192, 140: 0.030668517, 141: 0.026368509, 142: 0.058165844, 143: 0.031458694, 144: 0.0, 145: 0.0, 146: 0.0, 147: 0.09026514200000001, 148: 0.137396661, 149: 0.002831796, 150: 0.0, 151: 0.0, 152: 0.0, 153: 0.000974556, 154: 0.0, 155: 0.0, 156: 0.0, 157: 0.279973987, 158: 0.338187465, 159: 0.779172356, 160: 0.133291868, 161: 0.09808863900000001, 162: 0.0, 163: 0.0, 164: 0.0, 165: 0.0, 166: 0.522878672, 167: 0.0, 168: 0.0, 169: 0.0, 170: 0.0, 171: 0.0, 172: 0.0, 173: 0.629387834, 174: 0.627461891, 175: 0.0, 176: 0.0, 177: 0.0, 178: 0.0, 179: 0.558526894, 180: 0.0, 181: 0.0, 182: 0.0, 183: 0.0, 184: 0.509816544, 185: 0.0, 186: 0.0, 187: 0.0, 188: 0.0, 189: 0.0, 190: 0.355874513, 191: 0.0];
total_cost = 87.75326497499999;
total_earn = 35.29038394;
