production = [0: 0.0, 1: 0.0, 2: 0.0, 3: 0.0, 4: 0.0, 5: 0.0, 6: 0.0, 7: 0.0, 8: 0.0, 9: 0.0, 10: 0.0, 11: 0.0, 12: 0.0, 13: 0.0, 14: 0.0, 15: 0.0, 16: 0.0, 17: 0.0, 18: 0.0, 19: 0.0, 20: 0.0, 21: 0.0, 22: 0.0, 23: 0.0, 24: 0.0338, 25: 0.0665, 26: 0.098, 27: 0.0, 28: 0.0, 29: 0.0, 30: 0.0, 31: 0.0, 32: 0.4788, 33: 0.0, 34: 0.11210625, 35: 1.177, 36: 1.2203, 37: 0.0, 38: 1.45, 39: 1.5982, 40: 0.0, 41: 0.0, 42: 1.783, 43: 1.8395, 44: 1.8467, 45: 0.0, 46: 1.917, 47: 0.0, 48: 1.14190625, 49: 0.0, 50: 1.9125, 51: 1.871, 52: 1.8393, 53: 0.0, 54: 1.57390625, 55: 1.717, 56: 1.6413, 57: 0.0, 58: 0.0, 59: 0.0, 60: 0.0, 61: 0.0, 62: 0.9745, 63: 0.6907, 64: 0.7492, 65: 0.637, 66: 0.5212, 67: 0.0, 68: 0.2462, 69: 0.0, 70: 0.0, 71: 0.0415, 72: 0.0255, 73: 0.0047, 74: 0.0, 75: 0.0, 76: 0.0, 77: 0.0, 78: 0.0, 79: 0.0, 80: 0.0, 81: 0.0, 82: 0.0, 83: 0.0, 84: 0.0, 85: 0.0, 86: 0.0, 87: 0.0, 88: 0.0, 89: 0.0, 90: 0.0, 91: 0.0, 92: 0.0, 93: 0.0, 94: 0.0, 95: 0.0, 96: 0.0, 97: 0.0, 98: 0.0, 99: 0.0, 100: 0.0, 101: 0.0, 102: 0.0, 103: 0.0, 104: 0.0, 105: 0.0, 106: 0.0, 107: 0.0, 108: 0.0, 109: 0.0, 110: 0.0, 111: 0.0, 112: 0.0, 113: 0.0, 114: 0.0, 115: 0.0, 116: 0.0, 117: 0.0, 118: 0.0, 119: 0.0127, 120: 0.0, 121: 0.0, 122: 0.0, 123: 0.1865, 124: 0.0, 125: 0.333, 126: 0.0, 127: 0.0, 128: 0.0, 129: 0.9085, 130: 0.3912, 131: 1.2263, 132: 0.0, 133: 0.0, 134: 0.0, 135: 0.588, 136: 0.0, 137: 1.12510625, 138: 1.7368, 139: 0.0, 140: 1.4155, 141: 0.0, 142: 0.905, 143: 1.0755, 144: 1.0108, 145: 0.0, 146: 0.0, 147: 1.8028, 148: 0.0, 149: 1.7035, 150: 0.0, 151: 0.0, 152: 0.0, 153: 0.0, 154: 0.0, 155: 0.0, 156: 1.2328, 157: 0.0, 158: 0.0, 159: 0.0, 160: 0.3648, 161: 0.0, 162: 0.287, 163: 0.1095, 164: 0.053, 165: 0.0, 166: 0.0, 167: 0.0, 168: 0.001, 169: 0.0, 170: 0.0, 171: 0.0, 172: 0.0, 173: 0.0, 174: 0.0, 175: 0.0, 176: 0.0, 177: 0.0, 178: 0.0, 179: 0.0, 180: 0.0, 181: 0.0, 182: 0.0, 183: 0.0, 184: 0.0, 185: 0.0, 186: 0.0, 187: 0.0, 188: 0.0, 189: 0.0, 190: 0.0, 191: 0.0];
buy = [0: 0.24410625, 1: 1.24010625, 2: 0.0, 3: 0.24540625, 4: 0.0, 5: 0.0, 6: 1.23910625, 7: 0.0, 8: 0.0, 9: 1.24860625, 10: 0.24240625, 11: 1.24090625, 12: 0.0, 13: 0.0, 14: 0.0, 15: 1.24390625, 16: 0.0, 17: 0.0, 18: 0.9379062500000001, 19: 0.0, 20: 0.28540625, 21: 1.28210625, 22: 1.28590625, 23: 1.27740625, 24: 0.0, 25: 1.16740625, 26: 0.0, 27: 1.12190625, 28: 0.0, 29: 0.12370625, 30: 0.0, 31: 1.11260625, 32: 0.0, 33: 1.12170625, 34: 0.0, 35: 0.0, 36: 0.0, 37: 1.12170625, 38: 0.0, 39: 0.0, 40: 1.11670625, 41: 1.12440625, 42: 0.0, 43: 0.0, 44: 0.0, 45: 1.40790625, 46: 0.0, 47: 1.14190625, 48: 0.0, 49: 0.12090625, 50: 0.0, 51: 0.0, 52: 0.0, 53: 1.67760625, 54: 0.0, 55: 0.0, 56: 0.0, 57: 1.48340625, 58: 1.44860625, 59: 0.45060625, 60: 0.0, 61: 0.0, 62: 0.16490625, 63: 0.0, 64: 0.44800625, 65: 0.0, 66: 0.230985195, 67: 0.14140625, 68: 0.0, 69: 0.20810625, 70: 0.0, 71: 0.10920625, 72: 1.15390625, 73: 0.0, 74: 0.12590625, 75: 0.10240625, 76: 1.10260625, 77: 0.0, 78: 1.12590625, 79: 1.12760625, 80: 1.11840625, 81: 0.0, 82: 1.12920625, 83: 1.12790625, 84: 1.12660625, 85: 0.11860625, 86: 0.0, 87: 1.12740625, 88: 1.12660625, 89: 0.0, 90: 1.42140625, 91: 0.42370625, 92: 0.0, 93: 0.0, 94: 0.39660625, 95: 0.0, 96: 1.34210625, 97: 0.0, 98: 0.34410625, 99: 0.0, 100: 0.0, 101: 1.28740625, 102: 1.29870625, 103: 1.29990625, 104: 0.0, 105: 1.25440625, 106: 1.24640625, 107: 0.0, 108: 0.0, 109: 1.24890625, 110: 0.0, 111: 0.0, 112: 1.28670625, 113: 0.28460625, 114: 1.27710625, 115: 0.0, 116: 0.27760625, 117: 0.28620625, 118: 1.28620625, 119: 1.26020625, 120: 0.0, 121: 1.37870625, 122: 0.0, 123: 0.0, 124: 0.0, 125: 0.0, 126: 1.24210625, 127: 1.12120625, 128: 0.0, 129: 0.0, 130: 0.0, 131: 0.0, 132: 0.0, 133: 1.12060625, 134: 0.0, 135: 0.52410625, 136: 0.0, 137: 0.0, 138: 0.0, 139: 0.11720625, 140: 0.0, 141: 1.12370625, 142: 0.0, 143: 0.0, 144: 0.10340625, 145: 0.10840625, 146: 1.11620625, 147: 0.0, 148: 0.0, 149: 0.0, 150: 0.0, 151: 0.0, 152: 1.11910625, 153: 1.42340625, 154: 0.46510625, 155: 0.44160625, 156: 0.0, 157: 0.0, 158: 1.11570625, 159: 1.11620625, 160: 0.0, 161: 1.12710625, 162: 0.0, 163: 0.01970625, 164: 1.06660625, 165: 0.12090625, 166: 1.12890625, 167: 0.12920625, 168: 1.12510625, 169: 0.12490625, 170: 1.12560625, 171: 0.13440625, 172: 0.13490625, 173: 0.12660625, 174: 1.12640625, 175: 0.12040625, 176: 0.0, 177: 0.252222595, 178: 1.11910625, 179: 0.0, 180: 1.12810625, 181: 0.0, 182: 0.0, 183: 1.12120625, 184: 0.0, 185: 0.0, 186: 0.35470625, 187: 1.35290625, 188: 0.507522722, 189: 0.0, 190: 1.32190625, 191: 0.0];
sell = [0: 0.0, 1: 0.0, 2: 0.66229375, 3: 0.0, 4: 0.65259375, 5: 0.65209375, 6: 0.0, 7: 0.66009375, 8: 0.65309375, 9: 0.0, 10: 0.0, 11: 0.0, 12: 0.66059375, 13: 0.64909375, 14: 0.64659375, 15: 0.0, 16: 0.302120258, 17: 0.65539375, 18: 0.0, 19: 0.65539375, 20: 0.0, 21: 0.0, 22: 0.0, 23: 0.0, 24: 0.68969375, 25: 0.0, 26: 0.88559375, 27: 0.0, 28: 0.7798937500000001, 29: 0.0, 30: 0.78709375, 31: 0.0, 32: 1.25789375, 33: 0.0, 34: 0.0, 35: 1.06079375, 36: 1.99689375, 37: 0.0, 38: 2.22829375, 39: 1.48199375, 40: 0.0, 41: 0.0, 42: 0.65059375, 43: 0.68659375, 44: 1.71599375, 45: 0.0, 46: 0.77559375, 47: 0.0, 48: 0.0, 49: 0.0, 50: 0.7767937499999999, 51: 1.72959375, 52: 1.71039375, 53: 0.0, 54: 0.0, 55: 1.73609375, 56: 0.17389375, 57: 0.0, 58: 0.0, 59: 0.0, 60: 0.76529375, 61: 0.50339375, 62: 0.0, 63: 1.41249375, 64: 0.0, 65: 1.38579375, 66: 0.0, 67: 0.0, 68: 1.00409375, 69: 0.0, 70: 0.71509375, 71: 0.0, 72: 0.0, 73: 0.50779375, 74: 0.0, 75: 0.0, 76: 0.0, 77: 0.77489375, 78: 0.0, 79: 0.0, 80: 0.0, 81: 0.78039375, 82: 0.0, 83: 0.0, 84: 0.0, 85: 0.0, 86: 0.74489375, 87: 0.0, 88: 0.0, 89: 0.5267937499999999, 90: 0.0, 91: 0.0, 92: 0.46759375, 93: 0.46309375, 94: 0.0, 95: 0.51489375, 96: 0.0, 97: 0.55639375, 98: 0.0, 99: 0.60109375, 100: 0.61229375, 101: 0.0, 102: 0.0, 103: 0.0, 104: 0.60909375, 105: 0.0, 106: 0.0, 107: 0.64359375, 108: 0.64329375, 109: 0.0, 110: 0.65059375, 111: 0.62489375, 112: 0.0, 113: 0.0, 114: 0.0, 115: 0.332633013, 116: 0.0, 117: 0.0, 118: 0.0, 119: 0.0, 120: 0.62809375, 121: 0.0, 122: 0.63779375, 123: 0.82509375, 124: 0.6538937500000001, 125: 0.99579375, 126: 0.0, 127: 0.0, 128: 0.77759375, 129: 1.69539375, 130: 1.17809375, 131: 0.10339375, 132: 0.77629375, 133: 0.0, 134: 0.78859375, 135: 0.0, 136: 0.77509375, 137: 0.0, 138: 2.51209375, 139: 0.0, 140: 0.30389375, 141: 0.0, 142: 1.68109375, 143: 0.9532937500000001, 144: 0.0, 145: 0.0, 146: 0.0, 147: 1.68639375, 148: 0.78379375, 149: 0.05139375, 150: 0.0, 151: 0.02659375, 152: 0.0, 153: 0.0, 154: 0.0, 155: 0.0, 156: 0.10419375, 157: 0.7697937500000001, 158: 0.0, 159: 0.0, 160: 1.13789375, 161: 0.0, 162: 1.05889375, 163: 0.0, 164: 0.0, 165: 0.0, 166: 0.0, 167: 0.0, 168: 0.0, 169: 0.0, 170: 0.0, 171: 0.0, 172: 0.0, 173: 0.0, 174: 0.0, 175: 0.0, 176: 0.77159375, 177: 0.0, 178: 0.0, 179: 0.78159375, 180: 0.0, 181: 0.77239375, 182: 0.77289375, 183: 0.0, 184: 0.7798937500000001, 185: 0.64159375, 186: 0.0, 187: 0.0, 188: 0.0, 189: 0.54829375, 190: 0.0, 191: 0.61009375];
charge = [0: 0.0, 1: 1.0, 2: 0.0, 3: 0.0, 4: 0.0, 5: 0.0, 6: 1.0, 7: 0.0, 8: 0.0, 9: 1.0, 10: 0.0, 11: 1.0, 12: 0.0, 13: 0.0, 14: 0.0, 15: 1.0, 16: 0.0, 17: 0.0, 18: 0.0, 19: 0.0, 20: 0.0, 21: 1.0, 22: 1.0, 23: 1.0, 24: 0.0, 25: 1.0, 26: 0.0, 27: 1.0, 28: 0.0, 29: 0.0, 30: 0.0, 31: 1.0, 32: 0.0, 33: 1.0, 34: 0.0, 35: 0.0, 36: 0.0, 37: 1.0, 38: 0.0, 39: 0.0, 40: 1.0, 41: 1.0, 42: 1.0, 43: 1.0, 44: 0.0, 45: 1.0, 46: 1.0, 47: 1.0, 48: 1.0, 49: 0.0, 50: 1.0, 51: 0.0, 52: 0.0, 53: 1.0, 54: 1.0, 55: 0.0, 56: 1.0, 57: 1.0, 58: 1.0, 59: 0.0, 60: 0.0, 61: 0.0, 62: 1.0, 63: 0.0, 64: 1.0, 65: 0.0, 66: 0.604478945, 67: 0.0, 68: 0.0, 69: 0.0, 70: 0.0, 71: 0.0, 72: 1.0, 73: 0.0, 74: 0.0, 75: 0.0, 76: 1.0, 77: 0.0, 78: 1.0, 79: 1.0, 80: 1.0, 81: 0.0, 82: 1.0, 83: 1.0, 84: 1.0, 85: 0.0, 86: 0.0, 87: 1.0, 88: 1.0, 89: 0.0, 90: 1.0, 91: 0.0, 92: 0.0, 93: 0.0, 94: 0.0, 95: 0.0, 96: 1.0, 97: 0.0, 98: 0.0, 99: 0.0, 100: 0.0, 101: 1.0, 102: 1.0, 103: 1.0, 104: 0.0, 105: 1.0, 106: 1.0, 107: 0.0, 108: 0.0, 109: 1.0, 110: 0.0, 111: 0.0, 112: 1.0, 113: 0.0, 114: 1.0, 115: 0.0, 116: 0.0, 117: 0.0, 118: 1.0, 119: 1.0, 120: 0.0, 121: 1.0, 122: 0.0, 123: 0.0, 124: 0.0, 125: 0.0, 126: 1.0, 127: 1.0, 128: 0.0, 129: 0.0, 130: 0.0, 131: 1.0, 132: 0.0, 133: 1.0, 134: 0.0, 135: 1.0, 136: 0.0, 137: 1.0, 138: 0.0, 139: 0.0, 140: 1.0, 141: 1.0, 142: 0.0, 143: 0.0, 144: 1.0, 145: 0.0, 146: 1.0, 147: 0.0, 148: 0.0, 149: 1.0, 150: 0.0, 151: 0.0, 152: 1.0, 153: 1.0, 154: 0.0, 155: 0.0, 156: 1.0, 157: 0.0, 158: 1.0, 159: 1.0, 160: 0.0, 161: 1.0, 162: 0.0, 163: 0.0, 164: 1.0, 165: 0.0, 166: 1.0, 167: 0.0, 168: 1.0, 169: 0.0, 170: 1.0, 171: 0.0, 172: 0.0, 173: 0.0, 174: 1.0, 175: 0.0, 176: 0.0, 177: 0.124616345, 178: 1.0, 179: 0.0, 180: 1.0, 181: 0.0, 182: 0.0, 183: 1.0, 184: 0.0, 185: 0.0, 186: 0.0, 187: 1.0, 188: 0.162116472, 189: 0.0, 190: 1.0, 191: 0.0];
discharge = [0: 0.0, 1: 0.0, 2: 1.0, 3: 0.0, 4: 1.0, 5: 1.0, 6: 0.0, 7: 1.0, 8: 1.0, 9: 0.0, 10: 0.0, 11: 0.0, 12: 1.0, 13: 1.0, 14: 1.0, 15: 0.0, 16: 0.603029454, 17: 1.0, 18: 0.0, 19: 1.0, 20: 0.0, 21: 0.0, 22: 0.0, 23: 0.0, 24: 1.0, 25: 0.0, 26: 1.0, 27: 0.0, 28: 1.0, 29: 0.0, 30: 1.0, 31: 0.0, 32: 1.0, 33: 0.0, 34: 0.0, 35: 0.0, 36: 1.0, 37: 0.0, 38: 1.0, 39: 0.0, 40: 0.0, 41: 0.0, 42: 0.0, 43: 0.0, 44: 0.0, 45: 0.0, 46: 0.0, 47: 0.0, 48: 0.0, 49: 0.0, 50: 0.0, 51: 0.0, 52: 0.0, 53: 0.0, 54: 0.0, 55: 1.0, 56: 0.0, 57: 0.0, 58: 0.0, 59: 0.0, 60: 1.0, 61: 1.0, 62: 0.0, 63: 1.0, 64: 0.0, 65: 1.0, 66: 0.0, 67: 0.0, 68: 1.0, 69: 0.0, 70: 1.0, 71: 0.0, 72: 0.0, 73: 1.0, 74: 0.0, 75: 0.0, 76: 0.0, 77: 1.0, 78: 0.0, 79: 0.0, 80: 0.0, 81: 1.0, 82: 0.0, 83: 0.0, 84: 0.0, 85: 0.0, 86: 1.0, 87: 0.0, 88: 0.0, 89: 1.0, 90: 0.0, 91: 0.0, 92: 1.0, 93: 1.0, 94: 0.0, 95: 1.0, 96: 0.0, 97: 1.0, 98: 0.0, 99: 1.0, 100: 1.0, 101: 0.0, 102: 0.0, 103: 0.0, 104: 1.0, 105: 0.0, 106: 0.0, 107: 1.0, 108: 1.0, 109: 0.0, 110: 1.0, 111: 1.0, 112: 0.0, 113: 0.0, 114: 0.0, 115: 0.676932514, 116: 0.0, 117: 0.0, 118: 0.0, 119: 0.0, 120: 1.0, 121: 0.0, 122: 1.0, 123: 1.0, 124: 1.0, 125: 1.0, 126: 0.0, 127: 0.0, 128: 1.0, 129: 1.0, 130: 1.0, 131: 0.0, 132: 1.0, 133: 0.0, 134: 1.0, 135: 0.0, 136: 1.0, 137: 0.0, 138: 1.0, 139: 0.0, 140: 0.0, 141: 0.0, 142: 1.0, 143: 0.0, 144: 0.0, 145: 0.0, 146: 0.0, 147: 0.0, 148: 1.0, 149: 0.0, 150: 0.624340278, 151: 1.0, 152: 0.0, 153: 0.0, 154: 0.0, 155: 0.0, 156: 0.0, 157: 1.0, 158: 0.0, 159: 0.0, 160: 1.0, 161: 0.0, 162: 1.0, 163: 0.0, 164: 0.0, 165: 0.0, 166: 0.0, 167: 0.0, 168: 0.0, 169: 0.0, 170: 0.0, 171: 0.0, 172: 0.0, 173: 0.0, 174: 0.0, 175: 0.0, 176: 1.0, 177: 0.0, 178: 0.0, 179: 1.0, 180: 0.0, 181: 1.0, 182: 1.0, 183: 0.0, 184: 1.0, 185: 1.0, 186: 0.0, 187: 0.0, 188: 0.0, 189: 1.0, 190: 0.0, 191: 1.0];
soc = [0: 8.778244000000001, 1: 9.676488351, 2: 8.674553054, 3: 8.672818143000001, 4: 7.671083579, 5: 6.669549363, 6: 7.568215453, 7: 6.56670181, 8: 5.565388469, 9: 6.464275392, 10: 6.462982536, 11: 7.36168994, 12: 6.360217602, 13: 5.358945558, 14: 4.357873769, 15: 5.257002195, 16: 4.652921341, 17: 3.651990756, 18: 3.651260358, 19: 2.650530106, 20: 2.65, 21: 3.54947, 22: 4.448760106, 23: 5.347870354, 24: 4.34680078, 25: 5.24593142, 26: 4.244882233, 27: 5.144033257, 28: 4.14300445, 29: 4.142175849, 30: 3.141347414, 31: 4.040719145, 32: 3.039911001, 33: 3.939303019, 34: 3.938515158, 35: 3.937727455, 36: 2.93693991, 37: 3.836352522, 38: 2.835585251, 39: 2.835018134, 40: 3.734451131, 41: 4.63370424, 42: 5.532777499, 43: 6.431670944, 44: 6.43038461, 45: 7.329098533, 46: 8.227632713, 47: 9.125987187, 48: 10.024161989, 49: 10.022157157, 50: 10.920152725, 51: 10.917968695, 52: 10.915785101, 53: 11.813601944, 54: 12.711239224, 55: 11.708696976, 56: 12.606355236, 57: 13.503833965, 58: 14.401133199, 59: 14.398252972, 60: 13.395373321, 61: 12.392694247, 62: 13.290215708, 63: 12.287557665, 64: 13.185100153, 65: 12.182463133, 66: 12.724057691, 67: 12.721512879, 68: 11.718968577, 69: 11.716624783, 70: 10.714281458, 71: 10.712138602, 72: 11.609996174, 73: 10.607674175, 74: 10.60555264, 75: 10.60343153, 76: 11.501310843, 77: 10.499010581, 78: 11.396910779, 79: 12.294631397, 80: 13.192172471, 81: 12.189534036, 82: 13.087096129, 83: 13.98447871, 84: 14.881681814, 85: 14.878705478, 86: 13.875729737, 87: 14.772954591, 88: 15.67, 89: 14.666866, 90: 15.563932627, 91: 15.56081984, 92: 14.557707676, 93: 13.554796135, 94: 13.552085176, 95: 12.549374759, 96: 13.446864884, 97: 12.444175511, 98: 12.441686675, 99: 11.439198338, 100: 10.436910498, 101: 11.334823116, 102: 12.232556152, 103: 13.130109641, 104: 12.127483619, 105: 13.025058122, 106: 13.92245311, 107: 12.91966862, 108: 11.917084686, 109: 12.814701269, 110: 11.812138329, 111: 10.809775901, 112: 11.707613946, 113: 11.705272423, 114: 12.602931369, 115: 11.923478268, 116: 11.921093573, 117: 11.918709354, 118: 12.816325612, 119: 13.713762347, 120: 12.711019595, 121: 13.608477391, 122: 12.605755695, 123: 11.603234544, 124: 10.600913897, 125: 9.598793713999999, 126: 10.496873956, 127: 11.394774581, 128: 10.392495626, 129: 9.390417126999999, 130: 8.388539043, 131: 9.286861335999999, 132: 8.285003962999999, 133: 9.183346962, 134: 8.181510293000001, 135: 9.079873990999999, 136: 8.078058016, 137: 8.976442405, 138: 7.974647116, 139: 7.973052187, 140: 8.871457575999999, 141: 9.769683284999999, 142: 8.767729348, 143: 8.765975802, 144: 9.664222606999999, 145: 9.662289763, 146: 10.560357305, 147: 10.558245233, 148: 9.556133583999999, 149: 10.454222357, 150: 9.827791234999999, 151: 8.825825676999999, 152: 9.724060511999999, 153: 10.6221157, 154: 10.619991277, 155: 10.617867278, 156: 11.515743705, 157: 10.513440556, 158: 11.411337868, 159: 12.3090556, 160: 11.306593789, 161: 12.20433247, 162: 11.201891604, 163: 11.199651226, 164: 12.097411295, 165: 12.094991813, 166: 12.992572815, 167: 12.9899743, 168: 13.887376305, 169: 13.88459883, 170: 14.78182191, 171: 14.778865546, 172: 14.775909773, 173: 14.772954591, 174: 15.67, 175: 15.666866, 176: 14.663732627, 177: 14.772954591, 178: 15.67, 179: 14.666866, 180: 15.563932627, 181: 14.56081984, 182: 13.557907676, 183: 14.455196095, 184: 13.452305056, 185: 12.449614595, 186: 12.447124672, 187: 13.344635247, 188: 13.487871144, 189: 12.48517357, 190: 13.382676535, 191: 12.38];
cost = [0: 0.149124508, 1: 0.875759074, 2: 0.0, 3: 0.149918678, 4: 0.0, 5: 0.0, 6: 0.875148174, 7: 0.0, 8: 0.0, 9: 0.880951724, 10: 0.148085978, 11: 0.876247794, 12: 0.0, 13: 0.0, 14: 0.0, 15: 0.878080494, 16: 0.0, 17: 0.0, 18: 0.572966928, 19: 0.0, 20: 0.174354678, 21: 0.901416874, 22: 0.9037382940000001, 23: 0.898545644, 24: 0.0, 25: 1.50692464, 26: 0.0, 27: 1.45279784, 28: 0.0, 29: 0.147160955, 30: 0.0, 31: 1.44173456, 32: 0.0, 33: 1.45255992, 34: 0.0, 35: 0.0, 36: 0.0, 37: 1.45255992, 38: 0.0, 39: 0.0, 40: 1.44661192, 41: 1.45577184, 42: 0.118178165, 43: 0.118178165, 44: 0.0, 45: 1.79302344, 46: 0.118178165, 47: 1.47658984, 48: 0.118178165, 49: 0.143830075, 50: 0.118178165, 51: 0.0, 52: 0.0, 53: 1.143027824, 54: 0.118178165, 55: 0.0, 56: 0.118178165, 57: 1.024391044, 58: 1.003131724, 59: 0.275275358, 60: 0.0, 61: 0.0, 62: 0.31435064, 63: 0.0, 64: 0.6511264, 65: 0.0, 66: 0.346216201, 67: 0.168216875, 68: 0.0, 69: 0.247563195, 70: 0.0, 71: 0.129911755, 72: 1.49086504, 73: 0.0, 74: 0.149778075, 75: 0.121822475, 76: 1.42983856, 77: 0.0, 78: 1.45755624, 79: 1.45957856, 80: 1.44863424, 81: 0.0, 82: 1.46148192, 83: 1.45993544, 84: 1.45838896, 85: 0.141093995, 86: 0.0, 87: 1.45934064, 88: 0.806421924, 89: 0.0, 90: 0.986515244, 91: 0.258842148, 92: 0.0, 93: 0.0, 94: 0.242286758, 95: 0.0, 96: 0.938070874, 97: 0.0, 98: 0.210214508, 99: 0.0, 100: 0.0, 101: 0.904654644, 102: 0.911557814, 103: 0.912290894, 104: 0.0, 105: 0.8844949439999999, 106: 0.879607744, 107: 0.0, 108: 0.0, 109: 0.8811349939999999, 110: 0.0, 111: 0.0, 112: 0.9042270140000001, 113: 0.173865958, 114: 0.898362374, 115: 0.0, 116: 0.169589658, 117: 0.174843398, 118: 0.903921564, 119: 0.888038164, 120: 0.0, 121: 1.75828712, 122: 0.0, 123: 0.0, 124: 0.0, 125: 0.0, 126: 1.59578776, 127: 1.45196512, 128: 0.0, 129: 0.0, 130: 0.0, 131: 0.118178165, 132: 0.0, 133: 1.45125136, 134: 0.0, 135: 0.74165496, 136: 0.0, 137: 0.118178165, 138: 0.0, 139: 0.139428555, 140: 0.118178165, 141: 1.45493912, 142: 0.0, 143: 0.0, 144: 0.24119024, 145: 0.128960075, 146: 1.44601712, 147: 0.0, 148: 0.0, 149: 0.118178165, 150: 0.0, 151: 0.0, 152: 0.801840174, 153: 0.987737044, 154: 0.284133408, 155: 0.269777258, 156: 0.118178165, 157: 0.0, 158: 1.44542232, 159: 1.44601712, 160: 0.0, 161: 1.45898376, 162: 0.0, 163: 0.023442555, 164: 1.38701296, 165: 0.143830075, 166: 1.46112504, 167: 0.153703755, 168: 1.45660456, 169: 0.148588475, 170: 1.45719936, 171: 0.159889675, 172: 0.160484475, 173: 0.150610795, 174: 1.45815104, 175: 0.143235275, 176: 0.0, 177: 0.31477093, 178: 1.44946696, 179: 0.0, 180: 1.46017336, 181: 0.0, 182: 0.0, 183: 1.45196512, 184: 0.0, 185: 0.0, 186: 0.216690048, 187: 0.944668594, 188: 0.329204258, 189: 0.0, 190: 0.925730694, 191: 0.0];
earn = [0: 0.0, 1: 0.0, 2: 0.383666769, 3: 0.0, 4: 0.38320305, 5: 0.377953538, 6: 0.0, 7: 0.374999259, 8: 0.397146309, 9: 0.0, 10: 0.0, 11: 0.0, 12: 0.393912053, 13: 0.393220994, 14: 0.386598403, 15: 0.0, 16: 0.184988234, 17: 0.403394853, 18: 0.0, 19: 0.41316022, 20: 0.0, 21: 0.0, 22: 0.0, 23: 0.0, 24: 0.541961349, 25: 0.0, 26: 0.6829699, 27: 0.0, 28: 0.559963713, 29: 0.0, 30: 0.574578438, 31: 0.0, 32: 0.79700148, 33: 0.0, 34: 0.0, 35: 0.5943627379999999, 36: 1.062347475, 37: 0.0, 38: 0.988248278, 39: 0.6139900109999999, 40: 0.0, 41: 0.0, 42: 0.197650381, 43: 0.224996772, 44: 0.454395145, 45: 0.0, 46: 0.178076325, 47: 0.0, 48: 0.0, 49: 0.0, 50: 0.167476733, 51: 0.396249928, 52: 0.402797728, 53: 0.0, 54: 0.0, 55: 0.442877516, 56: 0.055993787, 57: 0.0, 58: 0.0, 59: 0.0, 60: 0.367111412, 61: 0.253609771, 62: 0.0, 63: 0.740570473, 64: 0.0, 65: 0.826903131, 66: 0.0, 67: 0.0, 68: 0.672240766, 69: 0.0, 70: 0.515153538, 71: 0.0, 72: 0.0, 73: 0.427206882, 74: 0.0, 75: 0.0, 76: 0.0, 77: 0.646416366, 78: 0.0, 79: 0.0, 80: 0.0, 81: 0.579130202, 82: 0.0, 83: 0.0, 84: 0.0, 85: 0.0, 86: 0.479935043, 87: 0.0, 88: 0.0, 89: 0.33293365, 90: 0.0, 91: 0.0, 92: 0.275740034, 93: 0.267158784, 94: 0.0, 95: 0.289061351, 96: 0.0, 97: 0.3293851, 98: 0.0, 99: 0.354825641, 100: 0.348456373, 101: 0.0, 102: 0.0, 103: 0.0, 104: 0.346026159, 105: 0.0, 106: 0.0, 107: 0.372833859, 108: 0.365583838, 109: 0.0, 110: 0.3684963, 111: 0.352440075, 112: 0.0, 113: 0.0, 114: 0.0, 115: 0.18993345, 116: 0.0, 117: 0.0, 118: 0.0, 119: 0.0, 120: 0.351544072, 121: 0.0, 122: 0.359779454, 123: 0.448851, 124: 0.346563688, 125: 0.517016115, 126: 0.0, 127: 0.0, 128: 0.328066803, 129: 0.697484989, 130: 0.465818269, 131: 0.036735799, 132: 0.241504986, 133: 0.0, 134: 0.177827891, 135: 0.0, 136: 0.118666853, 137: 0.0, 138: 0.2170449, 139: 0.0, 140: 0.011821467, 141: 0.0, 142: 0.058165844, 143: 0.031458694, 144: 0.0, 145: 0.0, 146: 0.0, 147: 0.058855142, 148: 0.042481621, 149: 0.002831796, 150: 0.0, 151: 0.001704659, 152: 0.0, 153: 0.0, 154: 0.0, 155: 0.0, 156: 0.037655621, 157: 0.279973987, 158: 0.0, 159: 0.0, 160: 0.637561868, 161: 0.0, 162: 0.641583723, 163: 0.0, 164: 0.0, 165: 0.0, 166: 0.0, 167: 0.0, 168: 0.0, 169: 0.0, 170: 0.0, 171: 0.0, 172: 0.0, 173: 0.0, 174: 0.0, 175: 0.0, 176: 0.607321441, 177: 0.0, 178: 0.0, 179: 0.558526894, 180: 0.0, 181: 0.533415124, 182: 0.527654563, 183: 0.0, 184: 0.509816544, 185: 0.41985895, 186: 0.0, 187: 0.0, 188: 0.0, 189: 0.333691576, 190: 0.0, 191: 0.356355759];
total_cost = 87.74244808;
total_earn = 32.686973669;
% _objective = 55.05547441100001;