production = [0: 0.0, 1: 0.0, 2: 0.0, 3: 0.0, 4: 0.0, 5: 0.0, 6: 0.0, 7: 0.0, 8: 0.0, 9: 0.0, 10: 0.0, 11: 0.0, 12: 0.0, 13: 0.0, 14: 0.0, 15: 0.0, 16: 0.0, 17: 0.0, 18: 0.0, 19: 0.0, 20: 0.0, 21: 0.0, 22: 0.0, 23: 0.0, 24: 9.6e-05, 25: 0.000288, 26: 0.000282, 27: 0.001082, 28: 0.004194, 29: 0.009644, 30: 0.004963, 31: 0.003164, 32: 0.017753, 33: 0.097676, 34: 0.028993, 35: 0.1999, 36: 0.08458499999999999, 37: 0.11759, 38: 0.056288, 39: 0.08132200000000001, 40: 0.063801, 41: 0.127482, 42: 0.008983, 43: 0.093877, 44: 0.07902099999999999, 45: 0.08165600000000001, 46: 0.201107, 47: 0.003057, 48: 0.062317, 49: 0.029176, 50: 0.07888199999999999, 51: 0.08064200000000001, 52: 0.321763, 53: 0.269814, 54: 0.331774, 55: 0.193108, 56: 0.401794, 57: 0.108255, 58: 0.109203, 59: 0.264084, 60: 0.043817, 61: 0.057998, 62: 0.633525, 63: 0.230734, 64: 0.226303, 65: 0.115332, 66: 0.020786, 67: 0.028683, 68: 0.061917, 69: 0.06320099999999999, 70: 0.20698, 71: 0.003778, 72: 0.049142, 73: 0.002303, 74: 0.051644, 75: 0.024173, 76: 0.010566, 77: 3.5e-05, 78: 3.6e-05, 79: 0.0, 80: 0.0, 81: 0.0, 82: 0.0, 83: 0.0, 84: 0.0, 85: 0.0, 86: 0.0, 87: 0.0, 88: 0.0, 89: 0.0, 90: 0.0, 91: 0.0, 92: 0.0, 93: 0.0, 94: 0.0, 95: 0.0];
buy = [0: 207.036814, 1: 515.5994909999999, 2: 773.768597, 3: 564.4905680000001, 4: 237.835256, 5: 633.938094, 6: 356.323853, 7: 707.510543, 8: 891.319711, 9: 93.45318, 10: 992.19795, 11: 421.024648, 12: 875.251589, 13: 121.152682, 14: 234.060666, 15: 454.808489, 16: 753.3718239999999, 17: 791.330822, 18: 365.658738, 19: 981.631625, 20: 439.486058, 21: 695.005179, 22: 402.641873, 23: 708.778879, 24: 778.907721, 25: 637.037882, 26: 737.096995, 27: 116.896601, 28: 87.674055, 29: 699.811805, 30: 65.408866, 31: 30.823544, 32: 178.119442, 33: 659.0794079999999, 34: 400.476208, 35: 155.22406, 36: 112.006453, 37: 224.210582, 38: 945.022487, 39: 40.839232, 40: 379.526038, 41: 453.597566, 42: 624.382075, 43: 341.358345, 44: 625.674441, 45: 610.34137, 46: 776.358708, 47: 939.848199, 48: 578.157293, 49: 772.886484, 50: 152.581576, 51: 732.840923, 52: 295.431783, 53: 364.751513, 54: 29.157026, 55: 830.573263, 56: 621.005626, 57: 178.236177, 58: 147.128546, 59: 45.780904, 60: 670.884673, 61: 424.047484, 62: 211.335843, 63: 280.470042, 64: 408.354178, 65: 736.976959, 66: 127.213593, 67: 231.083846, 68: 129.866671, 69: 470.847236, 70: 420.820316, 71: 995.301301, 72: 33.034911, 73: 158.382197, 74: 985.887222, 75: 167.088564, 76: 730.293125, 77: 992.4881820000001, 78: 447.646606, 79: 710.827898, 80: 12.136984, 81: 742.558165, 82: 773.495138, 83: 574.85082, 84: 484.6818, 85: 349.814611, 86: 871.3797029999999, 87: 884.481319, 88: 327.598363, 89: 600.8485889999999, 90: 924.989026, 91: 186.482808, 92: 373.121311, 93: 655.977535, 94: 809.568206, 95: 421.966614];
sell = [0: 1.755148, 1: 1.48319, 2: 3.694321, 3: 1.688976, 4: 2.47612, 5: 1.361638, 6: 0.258411, 7: 3.774497, 8: 2.709281, 9: 2.59368, 10: 2.615788, 11: 0.724353, 12: 1.154735, 13: 2.378438, 14: 1.70394, 15: 0.324785, 16: 1.369862, 17: 2.776865, 18: 1.518651, 19: 2.165952, 20: 2.403008, 21: 0.099091, 22: 3.429318, 23: 3.163542, 24: 2.827601, 25: 0.181303, 26: 3.529504, 27: 0.383173, 28: 1.91362, 29: 2.466279, 30: 0.609165, 31: 3.847355, 32: 2.816407, 33: 0.394656, 34: 3.952986, 35: 0.555221, 36: 1.570342, 37: 3.642607, 38: 1.177263, 39: 3.105738, 40: 0.396304, 41: 1.996145, 42: 2.895013, 43: 1.263109, 44: 0.440204, 45: 1.986623, 46: 3.351841, 47: 1.757628, 48: 0.704334, 49: 3.81803, 50: 3.265608, 51: 0.088491, 52: 1.475165, 53: 0.363753, 54: 3.137884, 55: 2.632889, 56: 3.815929, 57: 2.509438, 58: 0.345209, 59: 2.829172, 60: 1.983729, 61: 3.568476, 62: 0.652267, 63: 0.151717, 64: 0.042382, 65: 3.465022, 66: 0.723256, 67: 2.737662, 68: 3.183733, 69: 3.272572, 70: 3.88693, 71: 3.820921, 72: 0.386971, 73: 1.685642, 74: 2.136517, 75: 3.04301, 76: 0.394307, 77: 3.250682, 78: 3.097995, 79: 3.814886, 80: 0.235718, 81: 2.265374, 82: 2.179304, 83: 0.049243, 84: 0.628387, 85: 1.57104, 86: 1.435555, 87: 2.424367, 88: 3.455904, 89: 2.277109, 90: 1.4613, 91: 1.104877, 92: 3.158486, 93: 2.92144, 94: 3.103629, 95: 0.1197];
charge = [0: 0.790277, 1: 0.193728, 2: 0.182706, 3: 0.843903, 4: 0.620816, 5: 0.280116, 6: 0.413094, 7: 0.518163, 8: 0.685491, 9: 0.04373, 10: 0.152764, 11: 0.863641, 12: 0.024536, 13: 0.5047199999999999, 14: 0.5331900000000001, 15: 0.211286, 16: 0.881996, 17: 0.591418, 18: 0.905641, 19: 0.814317, 20: 0.882885, 21: 0.5738529999999999, 22: 0.081044, 23: 0.128711, 24: 0.628231, 25: 0.9601229999999999, 26: 0.869228, 27: 0.31552, 28: 0.780327, 29: 0.27647, 30: 0.96967, 31: 0.6633790000000001, 32: 0.727963, 33: 0.924437, 34: 0.013296, 35: 0.506725, 36: 0.196968, 37: 0.962484, 38: 0.462527, 39: 0.82694, 40: 0.356358, 41: 0.7448050000000001, 42: 0.624626, 43: 0.274061, 44: 0.6661820000000001, 45: 0.442331, 46: 0.237195, 47: 0.918307, 48: 0.124011, 49: 0.107535, 50: 0.06776, 51: 0.564276, 52: 0.701508, 53: 0.550774, 54: 0.892396, 55: 0.518707, 56: 0.5805940000000001, 57: 0.586071, 58: 0.6043539999999999, 59: 0.636024, 60: 0.288189, 61: 0.883163, 62: 0.786923, 63: 0.866036, 64: 0.005318, 65: 0.875547, 66: 0.288932, 67: 0.453555, 68: 0.589399, 69: 0.807585, 70: 0.416177, 71: 0.859305, 72: 0.8602300000000001, 73: 0.422292, 74: 0.722774, 75: 0.11627, 76: 0.09424200000000001, 77: 0.167022, 78: 0.091429, 79: 0.463005, 80: 0.306182, 81: 0.550212, 82: 0.982445, 83: 0.550897, 84: 0.996281, 85: 0.026111, 86: 0.141322, 87: 0.124014, 88: 0.951245, 89: 0.486134, 90: 0.56286, 91: 0.269925, 92: 0.634885, 93: 0.68224, 94: 0.358981, 95: 0.142862];
discharge = [0: 0.994819, 1: 0.502694, 2: 0.981352, 3: 0.30717, 4: 0.60586, 5: 0.281829, 6: 0.230655, 7: 0.938701, 8: 0.284612, 9: 0.649846, 10: 0.8810789999999999, 11: 0.840081, 12: 0.489548, 13: 0.652038, 14: 0.730329, 15: 0.8519600000000001, 16: 0.772607, 17: 0.915374, 18: 0.250454, 19: 0.647916, 20: 0.330547, 21: 0.034496, 22: 0.898029, 23: 0.294243, 24: 0.930244, 25: 0.002316, 26: 0.520584, 27: 0.574561, 28: 0.9119699999999999, 29: 0.194825, 30: 0.402518, 31: 0.069381, 32: 0.277875, 33: 0.845355, 34: 0.60914, 35: 0.443305, 36: 0.766971, 37: 0.458463, 38: 0.353995, 39: 0.23791, 40: 0.359764, 41: 0.913224, 42: 0.706077, 43: 0.052746, 44: 0.05748, 45: 0.038255, 46: 0.787191, 47: 0.911565, 48: 0.602285, 49: 0.58606, 50: 0.062762, 51: 0.066425, 52: 0.529073, 53: 0.52969, 54: 0.347884, 55: 0.807478, 56: 0.062628, 57: 0.555541, 58: 0.452999, 59: 0.34595, 60: 0.396791, 61: 0.028486, 62: 0.446475, 63: 0.121778, 64: 0.141175, 65: 0.756606, 66: 0.6117629999999999, 67: 0.07508099999999999, 68: 0.375565, 69: 0.387847, 70: 0.014034, 71: 0.851393, 72: 0.95397, 73: 0.129151, 74: 0.598588, 75: 0.001525, 76: 0.51622, 77: 0.922755, 78: 0.047867, 79: 0.183946, 80: 0.81441, 81: 0.8131890000000001, 82: 0.429832, 83: 0.840588, 84: 0.252388, 85: 0.780925, 86: 0.241796, 87: 0.408508, 88: 0.931589, 89: 0.497577, 90: 0.419948, 91: 0.440559, 92: 0.743045, 93: 0.018404, 94: 0.762263, 95: 0.592318];
soc = [0: 11.546714, 1: 13.298825, 2: 11.171727, 3: 10.804006, 4: 15.36159, 5: 11.755185, 6: 9.5549, 7: 11.823074, 8: 5.068685, 9: 5.47224, 10: 3.402067, 11: 9.723573, 12: 5.879409, 13: 12.065836, 14: 6.5872, 15: 3.304368, 16: 10.012511, 17: 7.392644, 18: 13.639892, 19: 5.460031, 20: 13.241909, 21: 3.754256, 22: 11.785605, 23: 9.364912, 24: 10.479, 25: 14.569617, 26: 10.705458, 27: 14.201933, 28: 13.357773, 29: 9.020804, 30: 15.287863, 31: 13.203689, 32: 12.121174, 33: 6.028014, 34: 3.835479, 35: 13.238927, 36: 8.197251, 37: 14.453374, 38: 11.099687, 39: 7.429261, 40: 3.745385, 41: 13.994115, 42: 11.064098, 43: 8.876477, 44: 12.933498, 45: 9.153377000000001, 46: 11.173545, 47: 9.237303000000001, 48: 9.008372, 49: 9.222206, 50: 4.754558, 51: 4.855556, 52: 7.934819, 53: 9.355124999999999, 54: 11.394759, 55: 13.038606, 56: 7.290087, 57: 14.325049, 58: 13.96161, 59: 8.624886999999999, 60: 9.192679, 61: 14.526729, 62: 14.770662, 63: 10.282519, 64: 15.195644, 65: 13.330457, 66: 5.92044, 67: 9.312711999999999, 68: 12.409684, 69: 10.829819, 70: 4.565274, 71: 14.583162, 72: 9.252615, 73: 3.060453, 74: 3.712679, 75: 11.68606, 76: 7.007357, 77: 9.558083999999999, 78: 9.897659000000001, 79: 8.340152, 80: 15.121308, 81: 11.661863, 82: 12.557598, 83: 3.311383, 84: 9.007053000000001, 85: 3.492363, 86: 13.727034, 87: 6.229924, 88: 12.352514, 89: 9.179182000000001, 90: 8.624458000000001, 91: 10.876938, 92: 6.308869, 93: 12.252986, 94: 2.994874, 95: 12.908788];
cost = [0: 103.840546, 1: 162.669322, 2: 167.37477, 3: 489.91001, 4: 183.520085, 5: 394.749271, 6: 410.365681, 7: 67.84670800000001, 8: 111.069013, 9: 289.847323, 10: 132.982452, 11: 200.526284, 12: 319.924836, 13: 62.310389, 14: 538.333621, 15: 158.331718, 16: 221.387346, 17: 369.379732, 18: 25.431299, 19: 42.306633, 20: 253.016797, 21: 372.61986, 22: 319.634107, 23: 509.448194, 24: 132.03501, 25: 1047.857095, 26: 97.146289, 27: 908.229979, 28: 513.044172, 29: 95.725972, 30: 19.841404, 31: 811.1554609999999, 32: 572.356398, 33: 36.718504, 34: 240.421899, 35: 611.263868, 36: 431.216209, 37: 987.146718, 38: 1070.629285, 39: 997.344257, 40: 595.740136, 41: 465.038729, 42: 626.48498, 43: 770.529713, 44: 900.60808, 45: 154.494448, 46: 446.009462, 47: 1127.36246, 48: 110.528359, 49: 515.9376600000001, 50: 969.260628, 51: 563.8435930000001, 52: 356.579913, 53: 292.333226, 54: 435.136653, 55: 271.494896, 56: 54.139661, 57: 520.304163, 58: 584.7997360000001, 59: 65.10004499999999, 60: 362.556933, 61: 1041.153966, 62: 1006.479772, 63: 1064.91936, 64: 560.855664, 65: 501.351615, 66: 279.747658, 67: 890.097897, 68: 1012.182291, 69: 821.063844, 70: 1085.437259, 71: 274.237168, 72: 888.205823, 73: 781.120885, 74: 605.76851, 75: 598.416352, 76: 745.890542, 77: 223.546438, 78: 994.300123, 79: 1106.317334, 80: 1174.603416, 81: 1134.863303, 82: 801.915343, 83: 94.42362199999999, 84: 453.016429, 85: 984.295672, 86: 184.031043, 87: 288.089451, 88: 78.846356, 89: 229.433755, 90: 576.419907, 91: 162.832623, 92: 440.127511, 93: 555.713848, 94: 587.970089, 95: 520.467228];
earn = [0: 1.668711, 1: 1.078825, 2: 0.47835, 3: 2.29223, 4: 2.083896, 5: 0.417342, 6: 1.091402, 7: 1.98436, 8: 1.42214, 9: 0.380716, 10: 1.968908, 11: 0.782342, 12: 1.023301, 13: 1.461499, 14: 1.894636, 15: 1.429908, 16: 0.437849, 17: 0.595245, 18: 0.530774, 19: 1.161838, 20: 1.140076, 21: 1.232505, 22: 1.16277, 23: 0.796894, 24: 0.254155, 25: 0.408531, 26: 0.611425, 27: 2.138453, 28: 0.9359150000000001, 29: 1.945725, 30: 2.141497, 31: 0.579457, 32: 2.300845, 33: 1.991085, 34: 0.027346, 35: 1.303802, 36: 1.153558, 37: 0.977089, 38: 1.018656, 39: 0.553274, 40: 0.390445, 41: 0.910739, 42: 1.673363, 43: 1.310766, 44: 0.668307, 45: 0.907812, 46: 0.414421, 47: 0.096749, 48: 0.544356, 49: 0.227637, 50: 0.314449, 51: 0.112449, 52: 0.209428, 53: 0.078071, 54: 0.071945, 55: 0.389923, 56: 0.346964, 57: 0.199023, 58: 0.005339, 59: 0.116257, 60: 0.485681, 61: 0.039088, 62: 0.017313, 63: 0.320686, 64: 1.285349, 65: 1.010608, 66: 1.349296, 67: 1.38759, 68: 0.535764, 69: 1.619533, 70: 2.099515, 71: 1.383198, 72: 0.5472630000000001, 73: 2.410258, 74: 0.405346, 75: 2.53489, 76: 1.452086, 77: 0.197339, 78: 0.440163, 79: 1.839802, 80: 1.92434, 81: 2.567125, 82: 0.660061, 83: 0.843798, 84: 1.120556, 85: 0.216249, 86: 1.786357, 87: 0.494487, 88: 2.419081, 89: 0.287616, 90: 1.883028, 91: 2.00962, 92: 1.03931, 93: 1.028454, 94: 1.932604, 95: 0.167914];
total_cost = 43.85663688912725;
total_earn = 14.81348939689151;
