production = [0: 0.0, 1: 0.0, 2: 0.0, 3: 0.0, 4: 0.0, 5: 0.0, 6: 0.0, 7: 0.0, 8: 0.0, 9: 0.0, 10: 0.0, 11: 0.0, 12: 0.0, 13: 0.0, 14: 0.0, 15: 0.0, 16: 0.0, 17: 0.0, 18: 0.0, 19: 0.0, 20: 0.0, 21: 0.0, 22: 0.0, 23: 0.0, 24: 0.000121, 25: 0.000273, 26: 0.000161, 27: 0.000519, 28: 0.003943, 29: 0.0039, 30: 0.010547, 31: 0.019891, 32: 0.008754, 33: 0.000169, 34: 0.264826, 35: 0.128817, 36: 0.176719, 37: 0.130706, 38: 0.2055, 39: 0.193361, 40: 0.1022, 41: 0.08572100000000001, 42: 0.152829, 43: 0.041797, 44: 0.097124, 45: 0.223058, 46: 0.135167, 47: 0.273992, 48: 0.04121, 49: 0.206203, 50: 0.221189, 51: 0.165084, 52: 0.224877, 53: 0.277113, 54: 0.171637, 55: 0.259576, 56: 0.124401, 57: 0.003878, 58: 0.265143, 59: 0.532411, 60: 0.15645, 61: 0.090722, 62: 0.62688, 63: 0.158629, 64: 0.284056, 65: 0.217714, 66: 0.124088, 67: 0.069563, 68: 0.061785, 69: 0.054716, 70: 0.165452, 71: 0.00945, 72: 0.032513, 73: 0.050158, 74: 0.002169, 75: 0.01739, 76: 0.015485, 77: 0.000635, 78: 0.000103, 79: 0.0, 80: 0.0, 81: 0.0, 82: 0.0, 83: 0.0, 84: 0.0, 85: 0.0, 86: 0.0, 87: 0.0, 88: 0.0, 89: 0.0, 90: 0.0, 91: 0.0, 92: 0.0, 93: 0.0, 94: 0.0, 95: 0.0];
buy = [0: 200.4651, 1: 11.591621, 2: 113.414351, 3: 3.856511, 4: 785.945928, 5: 927.731451, 6: 275.733044, 7: 15.626628, 8: 287.097884, 9: 159.908437, 10: 239.070392, 11: 22.841658, 12: 42.588909, 13: 86.74779599999999, 14: 317.732338, 15: 631.356058, 16: 642.546247, 17: 836.324708, 18: 113.997257, 19: 489.103483, 20: 639.839604, 21: 404.329265, 22: 556.432111, 23: 943.8884389999999, 24: 556.79319, 25: 524.504774, 26: 793.1384409999999, 27: 786.199044, 28: 844.314127, 29: 927.069218, 30: 871.77701, 31: 821.955144, 32: 30.232878, 33: 7.302073, 34: 390.600999, 35: 285.799145, 36: 367.567975, 37: 114.112266, 38: 863.12908, 39: 926.052313, 40: 54.600578, 41: 652.166836, 42: 346.208591, 43: 552.189306, 44: 385.032622, 45: 908.17512, 46: 739.353252, 47: 254.969389, 48: 903.164677, 49: 256.655686, 50: 797.826949, 51: 368.303406, 52: 18.313554, 53: 14.909789, 54: 575.048134, 55: 544.952354, 56: 360.904175, 57: 990.42209, 58: 511.129176, 59: 886.009712, 60: 734.490119, 61: 560.724225, 62: 301.163105, 63: 232.029218, 64: 101.805309, 65: 964.24019, 66: 903.980731, 67: 109.05035, 68: 866.609419, 69: 782.44713, 70: 392.96602, 71: 416.444789, 72: 377.246518, 73: 594.015132, 74: 131.442166, 75: 105.043348, 76: 391.722479, 77: 942.422899, 78: 411.643387, 79: 342.731656, 80: 639.8276090000001, 81: 386.023601, 82: 21.099615, 83: 375.995295, 84: 621.395087, 85: 673.376931, 86: 61.979112, 87: 42.029878, 88: 185.504784, 89: 353.344929, 90: 208.31249, 91: 210.068647, 92: 70.961878, 93: 194.568436, 94: 301.953299, 95: 182.495735];
sell = [0: 1.615666, 1: 0.746375, 2: 1.987579, 3: 0.8450839999999999, 4: 2.359809, 5: 1.375351, 6: 3.560048, 7: 0.375097, 8: 2.855571, 9: 2.339899, 10: 0.445712, 11: 1.65832, 12: 1.43274, 13: 1.335536, 14: 1.971451, 15: 2.305318, 16: 2.833297, 17: 0.039908, 18: 1.369923, 19: 0.825881, 20: 2.857334, 21: 3.763508, 22: 2.614051, 23: 2.286732, 24: 1.480921, 25: 1.28343, 26: 3.663232, 27: 0.6271679999999999, 28: 1.964617, 29: 0.231215, 30: 1.608097, 31: 1.946084, 32: 0.033352, 33: 1.02928, 34: 2.843017, 35: 1.353657, 36: 2.647338, 37: 3.487587, 38: 0.392085, 39: 2.389432, 40: 0.212684, 41: 1.77271, 42: 1.814961, 43: 2.920527, 44: 3.327131, 45: 1.572199, 46: 2.990148, 47: 1.641469, 48: 1.191855, 49: 2.701954, 50: 1.544465, 51: 1.977607, 52: 2.031431, 53: 1.234703, 54: 2.170837, 55: 1.074487, 56: 0.448965, 57: 1.439281, 58: 1.424367, 59: 3.426455, 60: 0.893401, 61: 1.578179, 62: 3.527042, 63: 2.191112, 64: 2.245119, 65: 0.645496, 66: 0.810388, 67: 2.931514, 68: 2.246614, 69: 2.164801, 70: 1.636974, 71: 0.710241, 72: 0.652172, 73: 0.95336, 74: 1.047062, 75: 3.773614, 76: 3.144037, 77: 1.218248, 78: 1.682662, 79: 0.010474, 80: 3.586781, 81: 1.144333, 82: 0.045007, 83: 3.517658, 84: 0.223479, 85: 1.934662, 86: 2.448186, 87: 0.834798, 88: 2.748271, 89: 3.551597, 90: 0.589453, 91: 3.462056, 92: 1.947076, 93: 2.171254, 94: 3.209283, 95: 2.128014];
charge = [0: 0.2391, 1: 0.376348, 2: 0.181108, 3: 0.884902, 4: 0.541095, 5: 0.142695, 6: 0.758711, 7: 0.656462, 8: 0.615486, 9: 0.9988590000000001, 10: 0.349868, 11: 0.464371, 12: 0.149528, 13: 0.330403, 14: 0.348555, 15: 0.067327, 16: 0.669238, 17: 0.653506, 18: 0.6022149999999999, 19: 0.818932, 20: 0.060345, 21: 0.953408, 22: 0.243109, 23: 0.877427, 24: 0.903043, 25: 0.108932, 26: 0.384336, 27: 0.01822, 28: 0.879009, 29: 0.944417, 30: 0.695241, 31: 0.869963, 32: 0.21359, 33: 0.387071, 34: 0.015472, 35: 0.160197, 36: 0.92716, 37: 0.097539, 38: 0.968595, 39: 0.147823, 40: 0.963346, 41: 0.134348, 42: 0.164651, 43: 0.172049, 44: 0.639015, 45: 0.088425, 46: 0.7871590000000001, 47: 0.306333, 48: 0.600506, 49: 0.248132, 50: 0.153707, 51: 0.174066, 52: 0.595035, 53: 0.637942, 54: 0.77093, 55: 0.9743230000000001, 56: 0.8687550000000001, 57: 0.6909419999999999, 58: 0.79711, 59: 0.620329, 60: 0.692639, 61: 0.9007810000000001, 62: 0.671896, 63: 0.154073, 64: 0.353751, 65: 0.503194, 66: 0.778712, 67: 0.991452, 68: 0.826779, 69: 0.167314, 70: 0.478348, 71: 0.421388, 72: 0.047444, 73: 0.476134, 74: 0.841924, 75: 0.173629, 76: 0.269214, 77: 0.828276, 78: 0.060442, 79: 0.209536, 80: 0.576373, 81: 0.309544, 82: 0.281369, 83: 0.050711, 84: 0.768317, 85: 0.670037, 86: 0.354783, 87: 0.282602, 88: 0.642326, 89: 0.455875, 90: 0.815123, 91: 0.287284, 92: 0.5836209999999999, 93: 0.461577, 94: 0.466671, 95: 0.023643];
discharge = [0: 0.441672, 1: 0.420622, 2: 0.213133, 3: 0.253467, 4: 0.08566, 5: 0.078768, 6: 0.955357, 7: 0.421724, 8: 0.044591, 9: 0.474347, 10: 0.763104, 11: 0.026344, 12: 0.961827, 13: 0.138393, 14: 0.672803, 15: 0.071023, 16: 0.449736, 17: 0.681739, 18: 0.761393, 19: 0.151807, 20: 0.394787, 21: 0.686362, 22: 0.650825, 23: 0.8953410000000001, 24: 0.314761, 25: 0.74704, 26: 0.711255, 27: 0.71058, 28: 0.979647, 29: 0.481593, 30: 0.277801, 31: 0.731228, 32: 0.323719, 33: 0.085018, 34: 0.330841, 35: 0.581028, 36: 0.489861, 37: 0.240522, 38: 0.796674, 39: 0.350076, 40: 0.315481, 41: 0.459273, 42: 0.910412, 43: 0.346141, 44: 0.864047, 45: 0.82521, 46: 0.106366, 47: 0.08393200000000001, 48: 0.348041, 49: 0.494552, 50: 0.538846, 51: 0.120959, 52: 0.555837, 53: 0.94255, 54: 0.131706, 55: 0.149067, 56: 0.751382, 57: 0.333854, 58: 0.119157, 59: 0.738364, 60: 0.293534, 61: 0.233835, 62: 0.064621, 63: 0.680214, 64: 0.917249, 65: 0.007974999999999999, 66: 0.192006, 67: 0.408958, 68: 0.606979, 69: 0.842259, 70: 0.541486, 71: 0.427019, 72: 0.033509, 73: 0.7168020000000001, 74: 0.916137, 75: 0.163248, 76: 0.399055, 77: 0.822251, 78: 0.534076, 79: 0.172231, 80: 0.506974, 81: 0.90385, 82: 0.075282, 83: 0.63096, 84: 0.615258, 85: 0.141321, 86: 0.638385, 87: 0.788167, 88: 0.744951, 89: 0.08783199999999999, 90: 0.459758, 91: 0.942566, 92: 0.729185, 93: 0.69064, 94: 0.730731, 95: 0.454275];
soc = [0: 12.21083, 1: 11.77948, 2: 9.94533, 3: 14.045126, 4: 13.315745, 5: 13.729753, 6: 7.926014, 7: 12.214143, 8: 5.992808, 9: 13.697188, 10: 9.029956, 11: 8.275466, 12: 2.788643, 13: 13.273232, 14: 8.620558000000001, 15: 5.689958, 16: 2.920973, 17: 15.302841, 18: 14.941947, 19: 11.726302, 20: 10.651911, 21: 6.309943, 22: 13.088176, 23: 10.072709, 24: 3.162044, 25: 3.79204, 26: 14.866318, 27: 13.014285, 28: 9.266886, 29: 13.689223, 30: 8.513510999999999, 31: 12.833569, 32: 14.151143, 33: 4.282499, 34: 11.58849, 35: 13.487608, 36: 10.623342, 37: 12.755813, 38: 6.398121, 39: 7.428579, 40: 7.686448, 41: 3.991414, 42: 7.364584, 43: 6.92435, 44: 14.857841, 45: 14.198372, 46: 8.426064, 47: 7.879579, 48: 5.261267, 49: 6.613837, 50: 12.421947, 51: 5.826794, 52: 9.376935, 53: 4.414313, 54: 8.079700000000001, 55: 6.617038, 56: 12.454461, 57: 5.376697, 58: 11.017454, 59: 5.038442, 60: 7.799708, 61: 15.634546, 62: 5.412963, 63: 12.679338, 64: 10.558767, 65: 2.738237, 66: 2.797727, 67: 3.772835, 68: 4.649513, 69: 6.300994, 70: 10.413893, 71: 10.968826, 72: 8.11933, 73: 10.523903, 74: 14.796476, 75: 15.022178, 76: 14.667117, 77: 11.589423, 78: 6.706422, 79: 3.36898, 80: 9.544790000000001, 81: 3.534212, 82: 3.110878, 83: 15.378732, 84: 3.699056, 85: 9.293646000000001, 86: 3.566188, 87: 12.403673, 88: 5.794465, 89: 8.566341, 90: 4.691354, 91: 3.089138, 92: 4.693322, 93: 5.944932, 94: 6.815594, 95: 13.297812];
cost = [0: 257.430561, 1: 154.142965, 2: 446.564963, 3: 304.095852, 4: 244.246241, 5: 592.850765, 6: 116.069944, 7: 298.183488, 8: 69.21901, 9: 586.237809, 10: 44.237402, 11: 219.575323, 12: 85.599605, 13: 130.753916, 14: 12.841247, 15: 172.683197, 16: 426.44777, 17: 538.268823, 18: 528.6906320000001, 19: 458.406873, 20: 312.204574, 21: 187.938645, 22: 327.253553, 23: 466.011303, 24: 525.339397, 25: 18.963411, 26: 215.021816, 27: 970.668421, 28: 18.610828, 29: 44.479355, 30: 856.489086, 31: 523.20682, 32: 289.78291, 33: 599.861702, 34: 441.446727, 35: 86.620591, 36: 642.279782, 37: 201.671219, 38: 530.199926, 39: 312.581659, 40: 121.279817, 41: 885.377241, 42: 752.70517, 43: 780.07595, 44: 314.836476, 45: 495.009045, 46: 925.379939, 47: 923.716303, 48: 422.129604, 49: 450.511528, 50: 524.288437, 51: 178.902117, 52: 389.269257, 53: 1.814982, 54: 167.619885, 55: 488.014044, 56: 63.418734, 57: 191.713023, 58: 292.652613, 59: 209.349516, 60: 460.455387, 61: 1035.010266, 62: 452.928939, 63: 1124.769262, 64: 432.217247, 65: 1115.901294, 66: 408.109025, 67: 374.850968, 68: 913.862691, 69: 883.538946, 70: 390.836116, 71: 144.878795, 72: 264.310115, 73: 477.951712, 74: 826.961585, 75: 475.139415, 76: 1113.586233, 77: 111.615044, 78: 362.912433, 79: 768.205115, 80: 736.02861, 81: 238.036611, 82: 75.633961, 83: 254.893642, 84: 726.929964, 85: 425.888612, 86: 782.545519, 87: 692.135555, 88: 379.650552, 89: 262.846223, 90: 157.203832, 91: 479.778013, 92: 109.759446, 93: 472.92398, 94: 94.847669, 95: 578.235223];
earn = [0: 2.062144, 1: 2.002289, 2: 0.392751, 3: 2.090126, 4: 1.227525, 5: 0.892096, 6: 1.271682, 7: 1.910923, 8: 1.142018, 9: 0.1233, 10: 1.540346, 11: 1.065874, 12: 0.156329, 13: 0.669188, 14: 1.153678, 15: 1.431027, 16: 0.519994, 17: 2.092947, 18: 1.542865, 19: 1.968105, 20: 1.180104, 21: 1.425164, 22: 1.430624, 23: 2.202391, 24: 0.212678, 25: 1.308875, 26: 1.5417, 27: 0.907278, 28: 1.090223, 29: 2.164286, 30: 0.652122, 31: 2.233275, 32: 1.307408, 33: 0.362748, 34: 1.018268, 35: 1.394107, 36: 1.00249, 37: 0.066649, 38: 1.275041, 39: 0.200292, 40: 1.352901, 41: 0.908981, 42: 1.201174, 43: 0.9955850000000001, 44: 0.643374, 45: 0.314373, 46: 1.044907, 47: 0.477777, 48: 0.003773, 49: 0.16643, 50: 0.6165929999999999, 51: 0.146495, 52: 0.115896, 53: 0.09599000000000001, 54: 0.08121100000000001, 55: 0.325828, 56: 0.220603, 57: 0.07294399999999999, 58: 0.057247, 59: 0.04426, 60: 0.101666, 61: 0.050111, 62: 0.187458, 63: 0.208033, 64: 1.165998, 65: 0.490685, 66: 1.692777, 67: 1.526508, 68: 1.712974, 69: 0.71415, 70: 1.820339, 71: 1.969425, 72: 0.493194, 73: 1.706061, 74: 0.009082, 75: 2.190928, 76: 0.353888, 77: 0.807241, 78: 2.330148, 79: 0.006736, 80: 1.027643, 81: 2.944336, 82: 0.330113, 83: 1.290577, 84: 1.935444, 85: 1.327537, 86: 2.295867, 87: 2.24628, 88: 1.946799, 89: 0.470671, 90: 1.882919, 91: 0.8675, 92: 1.412988, 93: 1.687487, 94: 0.212562, 95: 1.750522];
total_cost = 42.07600320462686;
total_earn = 13.74633952299133;
