production = [0: 0.0, 1: 0.0, 2: 0.0, 3: 0.0, 4: 0.0, 5: 0.0, 6: 0.0, 7: 0.0, 8: 0.0, 9: 0.0, 10: 0.0, 11: 0.0, 12: 0.0, 13: 0.0, 14: 0.0, 15: 0.0, 16: 0.0, 17: 0.0, 18: 0.0, 19: 0.0, 20: 0.0, 21: 0.0, 22: 0.0, 23: 0.0, 24: 0.000187, 25: 7.1e-05, 26: 0.000251, 27: 0.000831, 28: 0.002993, 29: 0.001632, 30: 0.023118, 31: 0.005912, 32: 0.038022, 33: 0.102488, 34: 0.237351, 35: 0.01004, 36: 0.164331, 37: 0.080426, 38: 0.131443, 39: 0.139701, 40: 0.177418, 41: 0.131881, 42: 0.153074, 43: 0.118106, 44: 0.080344, 45: 0.06761399999999999, 46: 0.463506, 47: 0.053472, 48: 0.038238, 49: 0.280914, 50: 0.10236, 51: 0.264638, 52: 0.14064, 53: 0.030155, 54: 0.344424, 55: 0.03603, 56: 0.518764, 57: 0.379059, 58: 0.283106, 59: 0.081779, 60: 0.539087, 61: 0.054099, 62: 0.660811, 63: 0.199411, 64: 0.176558, 65: 0.245985, 66: 0.152317, 67: 0.241409, 68: 0.187414, 69: 0.101545, 70: 0.026571, 71: 0.108854, 72: 0.045857, 73: 0.008394, 74: 0.046305, 75: 0.016969, 76: 0.016707, 77: 0.000304, 78: 0.000734, 79: 0.0, 80: 0.0, 81: 0.0, 82: 0.0, 83: 0.0, 84: 0.0, 85: 0.0, 86: 0.0, 87: 0.0, 88: 0.0, 89: 0.0, 90: 0.0, 91: 0.0, 92: 0.0, 93: 0.0, 94: 0.0, 95: 0.0];
buy = [0: 601.993568, 1: 549.4070359999999, 2: 863.056146, 3: 310.317163, 4: 945.4905240000001, 5: 964.403401, 6: 170.943677, 7: 411.213039, 8: 847.272296, 9: 294.352494, 10: 103.405235, 11: 239.295075, 12: 855.353709, 13: 529.833337, 14: 154.055412, 15: 783.804886, 16: 326.638916, 17: 11.766234, 18: 88.02335600000001, 19: 863.52568, 20: 917.0450059999999, 21: 840.6585690000001, 22: 983.962465, 23: 139.73202, 24: 626.892775, 25: 673.9060919999999, 26: 631.374602, 27: 397.70856, 28: 479.78224, 29: 226.858173, 30: 499.823569, 31: 509.462836, 32: 852.007103, 33: 257.536144, 34: 293.106582, 35: 316.578337, 36: 557.4388760000001, 37: 244.612556, 38: 672.381494, 39: 887.759153, 40: 613.250908, 41: 301.103625, 42: 522.226839, 43: 84.96090100000001, 44: 357.817411, 45: 884.4389619999999, 46: 778.559436, 47: 28.390857, 48: 147.119524, 49: 35.849655, 50: 661.369082, 51: 898.682538, 52: 109.03259, 53: 201.553871, 54: 146.453762, 55: 215.746178, 56: 344.152528, 57: 136.604267, 58: 62.383897, 59: 324.398651, 60: 27.929055, 61: 273.180579, 62: 517.666546, 63: 804.518469, 64: 370.533512, 65: 60.088974, 66: 648.292871, 67: 183.184487, 68: 797.458428, 69: 16.775968, 70: 848.608167, 71: 357.040194, 72: 570.696375, 73: 446.984885, 74: 807.023746, 75: 505.60203, 76: 597.08799, 77: 121.81091, 78: 218.158548, 79: 561.00728, 80: 891.9080740000001, 81: 545.266194, 82: 298.927762, 83: 74.170886, 84: 272.339257, 85: 338.308108, 86: 806.283965, 87: 765.910309, 88: 335.980885, 89: 970.8286890000001, 90: 625.583817, 91: 878.575974, 92: 22.510123, 93: 296.90971, 94: 46.607762, 95: 530.989408];
sell = [0: 1.752067, 1: 2.968045, 2: 2.372979, 3: 2.207135, 4: 1.141929, 5: 3.087005, 6: 1.114724, 7: 1.829723, 8: 2.191156, 9: 1.808655, 10: 1.769971, 11: 1.554123, 12: 2.844998, 13: 0.489431, 14: 3.996076, 15: 0.914169, 16: 2.320764, 17: 1.799935, 18: 3.596676, 19: 1.527931, 20: 0.258493, 21: 2.879595, 22: 1.81644, 23: 0.597033, 24: 3.279553, 25: 1.906237, 26: 3.39487, 27: 0.347549, 28: 3.136024, 29: 0.6092689999999999, 30: 1.174314, 31: 0.065521, 32: 2.74177, 33: 1.13428, 34: 1.77807, 35: 1.623521, 36: 3.958828, 37: 0.254973, 38: 0.6054929999999999, 39: 3.348519, 40: 2.067983, 41: 0.010041, 42: 3.149806, 43: 2.077834, 44: 3.265455, 45: 1.242513, 46: 1.276901, 47: 1.259951, 48: 1.083348, 49: 2.433409, 50: 0.203636, 51: 3.699557, 52: 0.079863, 53: 0.061002, 54: 3.231615, 55: 0.66596, 56: 2.574146, 57: 1.249508, 58: 1.412514, 59: 2.549939, 60: 2.241057, 61: 3.963848, 62: 2.928269, 63: 1.864428, 64: 1.818438, 65: 3.11892, 66: 1.717022, 67: 3.655902, 68: 0.561102, 69: 2.278829, 70: 2.434092, 71: 2.148758, 72: 1.347966, 73: 0.429169, 74: 0.236127, 75: 1.311694, 76: 1.532908, 77: 0.192644, 78: 1.106434, 79: 3.704335, 80: 3.047079, 81: 2.622285, 82: 2.861657, 83: 1.226166, 84: 1.178344, 85: 2.804656, 86: 1.352095, 87: 2.076605, 88: 0.411106, 89: 0.152807, 90: 3.343304, 91: 0.253478, 92: 0.958344, 93: 0.717458, 94: 0.939474, 95: 0.145316];
charge = [0: 0.690176, 1: 0.812338, 2: 0.496111, 3: 0.839503, 4: 0.8061120000000001, 5: 0.808763, 6: 0.043064, 7: 0.6071029999999999, 8: 0.565709, 9: 0.683406, 10: 0.173506, 11: 0.268545, 12: 0.9961719999999999, 13: 0.593588, 14: 0.400719, 15: 0.231278, 16: 0.631283, 17: 0.00672, 18: 0.747819, 19: 0.91447, 20: 0.676988, 21: 0.124616, 22: 0.950951, 23: 0.924941, 24: 0.397299, 25: 0.790017, 26: 0.870175, 27: 0.678217, 28: 0.069897, 29: 0.636184, 30: 0.948041, 31: 0.990276, 32: 0.441127, 33: 0.363599, 34: 0.668359, 35: 0.201353, 36: 0.239914, 37: 0.116152, 38: 0.116512, 39: 0.237474, 40: 0.94223, 41: 0.402411, 42: 0.83549, 43: 0.946526, 44: 0.28406, 45: 0.856972, 46: 0.300265, 47: 0.21459, 48: 0.6461170000000001, 49: 0.373932, 50: 0.82382, 51: 0.835415, 52: 0.85754, 53: 0.762239, 54: 0.530968, 55: 0.908673, 56: 0.709669, 57: 0.387579, 58: 0.651331, 59: 0.030498, 60: 0.982653, 61: 0.406359, 62: 0.092214, 63: 0.048572, 64: 0.834145, 65: 0.7017099999999999, 66: 0.383824, 67: 0.747227, 68: 0.034208, 69: 0.793049, 70: 0.672461, 71: 0.01733, 72: 0.314964, 73: 0.553833, 74: 0.5009209999999999, 75: 0.7813290000000001, 76: 0.752829, 77: 0.66381, 78: 0.730662, 79: 0.926285, 80: 0.162343, 81: 0.954543, 82: 0.014412, 83: 0.816048, 84: 0.501013, 85: 0.917748, 86: 0.734851, 87: 0.860526, 88: 0.806034, 89: 0.015399, 90: 0.158149, 91: 0.655052, 92: 0.975548, 93: 0.830025, 94: 0.268288, 95: 0.975514];
discharge = [0: 0.901232, 1: 0.243595, 2: 0.898654, 3: 0.808539, 4: 0.621063, 5: 0.6978529999999999, 6: 0.115219, 7: 0.66982, 8: 0.51429, 9: 0.63925, 10: 0.918714, 11: 0.443672, 12: 0.853672, 13: 0.520428, 14: 0.9037500000000001, 15: 0.022388, 16: 0.746451, 17: 0.489976, 18: 0.117653, 19: 0.186561, 20: 0.973424, 21: 0.713524, 22: 0.7354889999999999, 23: 0.090998, 24: 0.995541, 25: 0.28279, 26: 0.014402, 27: 0.061387, 28: 0.8890479999999999, 29: 0.856262, 30: 0.7069530000000001, 31: 0.228644, 32: 0.31942, 33: 0.612169, 34: 0.491741, 35: 0.446154, 36: 0.130109, 37: 0.516095, 38: 0.614124, 39: 0.275381, 40: 0.771217, 41: 0.64238, 42: 0.009318, 43: 0.444103, 44: 0.910843, 45: 0.247962, 46: 0.006175, 47: 0.33337, 48: 0.31667, 49: 0.608617, 50: 0.765445, 51: 0.586928, 52: 0.324865, 53: 0.7632910000000001, 54: 0.9452970000000001, 55: 0.529417, 56: 0.894617, 57: 0.851782, 58: 0.831133, 59: 0.4219, 60: 0.750146, 61: 0.658317, 62: 0.892479, 63: 0.930559, 64: 0.083591, 65: 0.218467, 66: 0.357729, 67: 0.545133, 68: 0.017136, 69: 0.302358, 70: 0.8640099999999999, 71: 0.438942, 72: 0.376414, 73: 0.127723, 74: 0.598229, 75: 0.242959, 76: 0.966655, 77: 0.611245, 78: 0.437984, 79: 0.191115, 80: 0.850819, 81: 0.780158, 82: 0.370709, 83: 0.507507, 84: 0.286148, 85: 0.8312889999999999, 86: 0.588585, 87: 0.472629, 88: 0.496318, 89: 0.245172, 90: 0.695279, 91: 0.399058, 92: 0.441355, 93: 0.743671, 94: 0.499705, 95: 0.590821];
soc = [0: 11.47078, 1: 11.055016, 2: 9.372311, 3: 8.714765, 4: 8.003158000000001, 5: 7.491949, 6: 5.213625, 7: 10.339588, 8: 9.789630000000001, 9: 12.820467, 10: 8.213312999999999, 11: 8.458002, 12: 8.600916, 13: 5.232809, 14: 2.704419, 15: 15.579349, 16: 9.619783999999999, 17: 8.084531999999999, 18: 6.201789, 19: 14.97973, 20: 3.84164, 21: 14.707834, 22: 13.894101, 23: 10.867756, 24: 11.994962, 25: 9.690842, 26: 15.493481, 27: 7.390871, 28: 7.359755, 29: 9.163209, 30: 15.434264, 31: 7.052117, 32: 13.198828, 33: 7.661016, 34: 4.93956, 35: 12.466176, 36: 15.259129, 37: 11.790135, 38: 13.81984, 39: 8.54936, 40: 3.728433, 41: 8.574422999999999, 42: 3.992475, 43: 10.103945, 44: 2.963143, 45: 15.296227, 46: 15.257712, 47: 13.820351, 48: 13.018302, 49: 14.810728, 50: 15.652499, 51: 13.740129, 52: 7.351262, 53: 15.406308, 54: 4.289756, 55: 3.471584, 56: 13.7126, 57: 2.688395, 58: 13.643612, 59: 8.002592, 60: 10.435382, 61: 5.738693, 62: 14.011353, 63: 6.767259, 64: 7.784231, 65: 10.421306, 66: 11.72387, 67: 8.710319, 68: 6.337104, 69: 15.498574, 70: 3.032873, 71: 7.123996, 72: 3.192739, 73: 14.080396, 74: 14.828278, 75: 5.362808, 76: 7.773036, 77: 9.362686, 78: 8.174918, 79: 3.146969, 80: 11.56087, 81: 11.21631, 82: 3.971654, 83: 5.640316, 84: 8.210243, 85: 4.390076, 86: 15.357053, 87: 14.44695, 88: 9.322659, 89: 9.131669, 90: 6.695188, 91: 11.805547, 92: 11.06924, 93: 12.229038, 94: 15.412421, 95: 13.234557];
cost = [0: 272.321309, 1: 117.504324, 2: 469.273703, 3: 451.950624, 4: 497.557991, 5: 69.935754, 6: 129.630556, 7: 252.917835, 8: 350.225685, 9: 3.535586, 10: 173.493311, 11: 225.051991, 12: 464.679429, 13: 113.328697, 14: 182.913922, 15: 269.059445, 16: 361.152191, 17: 418.81987, 18: 449.385411, 19: 235.441283, 20: 385.787576, 21: 198.61375, 22: 37.555287, 23: 48.845066, 24: 173.591773, 25: 1081.230087, 26: 599.185928, 27: 1156.189208, 28: 514.144754, 29: 186.966231, 30: 5.263692, 31: 911.912924, 32: 1.317249, 33: 448.959521, 34: 617.0524359999999, 35: 550.779256, 36: 1068.412881, 37: 856.379145, 38: 1114.879854, 39: 809.090212, 40: 1082.186598, 41: 324.739598, 42: 53.88246, 43: 1015.208397, 44: 402.754677, 45: 1078.025957, 46: 3.63916, 47: 602.908968, 48: 854.209694, 49: 828.840156, 50: 1160.071486, 51: 340.06818, 52: 135.104037, 53: 267.149768, 54: 38.332686, 55: 197.232198, 56: 268.453648, 57: 390.621867, 58: 284.331519, 59: 469.979577, 60: 1076.352585, 61: 774.334799, 62: 1115.47969, 63: 500.841905, 64: 925.522826, 65: 259.839969, 66: 878.4591, 67: 1164.009152, 68: 287.259076, 69: 456.972841, 70: 186.381297, 71: 136.394285, 72: 244.59153, 73: 119.031577, 74: 1129.980043, 75: 347.425713, 76: 359.755801, 77: 121.274831, 78: 138.719435, 79: 1069.527325, 80: 295.966237, 81: 361.020167, 82: 201.746546, 83: 427.443928, 84: 419.714866, 85: 455.050795, 86: 257.252622, 87: 342.20704, 88: 500.717334, 89: 327.146938, 90: 30.686397, 91: 116.499187, 92: 92.772732, 93: 258.085167, 94: 270.393164, 95: 155.3369];
earn = [0: 0.937554, 1: 1.507149, 2: 0.071975, 3: 1.44018, 4: 0.902806, 5: 2.122685, 6: 0.739706, 7: 0.936353, 8: 1.745959, 9: 1.348733, 10: 1.806502, 11: 0.09629799999999999, 12: 0.780851, 13: 0.373233, 14: 0.243075, 15: 1.242402, 16: 0.997068, 17: 1.754552, 18: 2.112549, 19: 2.242254, 20: 0.487594, 21: 2.20658, 22: 1.068683, 23: 0.359912, 24: 1.68612, 25: 0.388926, 26: 1.593383, 27: 0.823315, 28: 1.391804, 29: 0.093322, 30: 0.356431, 31: 0.484925, 32: 2.40777, 33: 0.69601, 34: 0.413886, 35: 0.785413, 36: 1.365306, 37: 1.676028, 38: 0.870963, 39: 0.759665, 40: 1.078464, 41: 1.095769, 42: 0.512925, 43: 0.882793, 44: 0.20441, 45: 0.785258, 46: 0.877582, 47: 0.6007479999999999, 48: 0.206377, 49: 0.423145, 50: 0.268978, 51: 0.433969, 52: 0.076419, 53: 0.373863, 54: 0.370076, 55: 0.188484, 56: 0.095717, 57: 0.164147, 58: 0.158416, 59: 0.162993, 60: 0.06896099999999999, 61: 0.255769, 62: 0.14174, 63: 0.117944, 64: 1.287379, 65: 0.216139, 66: 1.454964, 67: 0.6124039999999999, 68: 1.653376, 69: 1.567598, 70: 1.882917, 71: 0.802727, 72: 1.766313, 73: 1.655643, 74: 0.492953, 75: 0.136227, 76: 1.244064, 77: 0.417886, 78: 1.714076, 79: 1.767635, 80: 1.939552, 81: 2.182103, 82: 2.712897, 83: 0.761393, 84: 0.37759, 85: 0.508908, 86: 0.53261, 87: 0.15399, 88: 1.650084, 89: 1.087138, 90: 0.716576, 91: 0.206504, 92: 0.988223, 93: 1.291728, 94: 0.754638, 95: 0.082722];
total_cost = 42.07600320462686;
total_earn = 13.74633952299133;
