production = [0: 0.0, 1: 0.0, 2: 0.0, 3: 0.0, 4: 0.0, 5: 0.0, 6: 0.0, 7: 0.0, 8: 0.0, 9: 0.0, 10: 0.0, 11: 0.0, 12: 0.0, 13: 0.0, 14: 0.0, 15: 0.0, 16: 0.0, 17: 0.0, 18: 0.0, 19: 0.0, 20: 0.0, 21: 0.0, 22: 0.0, 23: 0.0, 24: 0.000195, 25: 0.000227, 26: 0.000128, 27: 0.000665, 28: 0.004276, 29: 0.0083, 30: 0.002354, 31: 0.008687, 32: 0.037963, 33: 0.088977, 34: 0.09873800000000001, 35: 0.2206, 36: 0.09558899999999999, 37: 0.036907, 38: 0.088464, 39: 0.112013, 40: 0.085559, 41: 0.108346, 42: 0.045513, 43: 0.153167, 44: 0.118854, 45: 0.311457, 46: 0.464736, 47: 0.042103, 48: 0.29083, 49: 0.102134, 50: 0.04483, 51: 0.261627, 52: 0.181428, 53: 0.008815, 54: 0.055867, 55: 0.182314, 56: 0.543289, 57: 0.316815, 58: 0.364848, 59: 0.360116, 60: 0.085578, 61: 0.334943, 62: 0.52092, 63: 0.490949, 64: 0.295728, 65: 0.03417, 66: 0.160482, 67: 0.060861, 68: 0.06678099999999999, 69: 0.033982, 70: 0.056837, 71: 0.105112, 72: 0.074254, 73: 0.056889, 74: 0.02419, 75: 0.023716, 76: 0.02043, 77: 0.000375, 78: 0.000185, 79: 0.0, 80: 0.0, 81: 0.0, 82: 0.0, 83: 0.0, 84: 0.0, 85: 0.0, 86: 0.0, 87: 0.0, 88: 0.0, 89: 0.0, 90: 0.0, 91: 0.0, 92: 0.0, 93: 0.0, 94: 0.0, 95: 0.0];
buy = [0: 212.708275, 1: 738.073409, 2: 936.798616, 3: 391.030703, 4: 867.547627, 5: 718.825257, 6: 722.834197, 7: 68.741534, 8: 773.287427, 9: 134.971563, 10: 792.226709, 11: 757.14909, 12: 67.313625, 13: 958.620602, 14: 777.634907, 15: 535.296723, 16: 103.05504, 17: 91.017679, 18: 495.790477, 19: 159.075991, 20: 759.653318, 21: 646.973759, 22: 429.618668, 23: 952.803241, 24: 151.842199, 25: 114.211986, 26: 855.5834139999999, 27: 353.285535, 28: 804.868151, 29: 964.427867, 30: 409.042031, 31: 13.30182, 32: 52.502278, 33: 159.741125, 34: 429.884543, 35: 891.331232, 36: 499.919071, 37: 485.132029, 38: 354.540905, 39: 278.640668, 40: 672.175869, 41: 835.583765, 42: 770.499287, 43: 239.63036, 44: 386.315763, 45: 611.611871, 46: 548.290132, 47: 328.61302, 48: 28.318773, 49: 929.075644, 50: 216.41246, 51: 657.947417, 52: 968.458094, 53: 784.428827, 54: 42.061153, 55: 955.8737170000001, 56: 630.263501, 57: 794.853194, 58: 428.989915, 59: 401.555129, 60: 197.175292, 61: 424.532478, 62: 441.223205, 63: 473.068745, 64: 703.468269, 65: 688.1277219999999, 66: 875.3658380000001, 67: 80.407669, 68: 795.405942, 69: 124.420058, 70: 988.401423, 71: 363.603071, 72: 407.947879, 73: 996.863251, 74: 825.430803, 75: 325.817418, 76: 76.468734, 77: 308.270025, 78: 429.410997, 79: 66.29440700000001, 80: 181.424984, 81: 987.948167, 82: 877.84293, 83: 549.816053, 84: 996.559331, 85: 26.473292, 86: 993.837816, 87: 685.153055, 88: 651.678666, 89: 47.969312, 90: 982.129395, 91: 954.421078, 92: 538.431639, 93: 945.140308, 94: 485.531368, 95: 376.696695];
sell = [0: 1.134935, 1: 3.488665, 2: 2.554027, 3: 0.160166, 4: 2.20634, 5: 0.429479, 6: 1.35573, 7: 2.382596, 8: 2.782606, 9: 2.089831, 10: 0.624401, 11: 2.783918, 12: 1.109049, 13: 3.665883, 14: 0.5626060000000001, 15: 1.795233, 16: 0.04762, 17: 3.20448, 18: 2.714924, 19: 1.953406, 20: 3.659979, 21: 2.92496, 22: 2.012837, 23: 1.939448, 24: 3.362955, 25: 1.762425, 26: 0.7310410000000001, 27: 0.465493, 28: 2.016871, 29: 2.912805, 30: 3.492289, 31: 1.730692, 32: 3.346489, 33: 3.066964, 34: 3.79193, 35: 1.376218, 36: 2.475583, 37: 3.272912, 38: 2.115075, 39: 3.48025, 40: 0.236006, 41: 1.197427, 42: 3.92695, 43: 0.737105, 44: 3.650507, 45: 1.114425, 46: 2.243432, 47: 3.185568, 48: 2.496877, 49: 1.579074, 50: 1.487099, 51: 2.751953, 52: 1.11122, 53: 3.148436, 54: 0.1421, 55: 3.827483, 56: 3.418569, 57: 1.965561, 58: 3.492348, 59: 1.822099, 60: 3.668976, 61: 0.9481000000000001, 62: 3.861488, 63: 3.340562, 64: 1.815514, 65: 2.394936, 66: 2.977386, 67: 2.18685, 68: 2.702995, 69: 0.941785, 70: 3.773418, 71: 0.70156, 72: 2.024019, 73: 3.671218, 74: 0.373391, 75: 3.273015, 76: 2.844034, 77: 2.666507, 78: 3.930718, 79: 3.625846, 80: 3.56157, 81: 2.847856, 82: 2.654421, 83: 1.595057, 84: 1.060363, 85: 3.234396, 86: 2.116179, 87: 1.744442, 88: 3.890347, 89: 1.221045, 90: 1.56675, 91: 3.727671, 92: 3.398888, 93: 1.297538, 94: 2.794331, 95: 2.21501];
charge = [0: 0.592662, 1: 0.477513, 2: 0.635898, 3: 0.97807, 4: 0.915498, 5: 0.218003, 6: 0.246978, 7: 0.10144, 8: 0.079051, 9: 0.57174, 10: 0.204943, 11: 0.876465, 12: 0.749072, 13: 0.207437, 14: 0.462426, 15: 0.365104, 16: 0.175622, 17: 0.273082, 18: 0.44339, 19: 0.763119, 20: 0.592419, 21: 0.08626200000000001, 22: 0.5584480000000001, 23: 0.240875, 24: 0.370167, 25: 0.778539, 26: 0.124673, 27: 0.081968, 28: 0.791414, 29: 0.08670799999999999, 30: 0.949841, 31: 0.348917, 32: 0.575368, 33: 0.953781, 34: 0.774618, 35: 0.778168, 36: 0.978664, 37: 0.792795, 38: 0.602226, 39: 0.610101, 40: 0.203048, 41: 0.265823, 42: 0.771215, 43: 0.08483499999999999, 44: 0.168039, 45: 0.819017, 46: 0.145834, 47: 0.054993, 48: 0.702013, 49: 0.588234, 50: 0.149692, 51: 0.317637, 52: 0.605721, 53: 0.140844, 54: 0.376629, 55: 0.988156, 56: 0.954713, 57: 0.516985, 58: 0.228018, 59: 0.472625, 60: 0.193303, 61: 0.784818, 62: 0.486291, 63: 0.68006, 64: 0.233543, 65: 0.874733, 66: 0.289491, 67: 0.052771, 68: 0.215154, 69: 0.153581, 70: 0.09374399999999999, 71: 0.402969, 72: 0.796292, 73: 0.806735, 74: 0.18502, 75: 0.164855, 76: 0.375957, 77: 0.662687, 78: 0.456556, 79: 0.026226, 80: 0.018359, 81: 0.203966, 82: 0.279524, 83: 0.065789, 84: 0.6728189999999999, 85: 0.026041, 86: 0.202109, 87: 0.313843, 88: 0.853742, 89: 0.567924, 90: 0.6205310000000001, 91: 0.571024, 92: 0.576226, 93: 0.652316, 94: 0.555022, 95: 0.238913];
discharge = [0: 0.9232900000000001, 1: 0.839036, 2: 0.341042, 3: 0.783695, 4: 0.522161, 5: 0.152272, 6: 0.25632, 7: 0.645973, 8: 0.4926, 9: 0.55894, 10: 0.265487, 11: 0.664306, 12: 0.757906, 13: 0.456447, 14: 0.953169, 15: 0.641216, 16: 0.111954, 17: 0.477975, 18: 0.706504, 19: 0.911791, 20: 0.927795, 21: 0.108871, 22: 0.484522, 23: 0.666189, 24: 0.614683, 25: 0.8114479999999999, 26: 0.9892609999999999, 27: 0.06916700000000001, 28: 0.253204, 29: 0.707768, 30: 0.495657, 31: 0.261417, 32: 0.644104, 33: 0.095123, 34: 0.06525300000000001, 35: 0.1307, 36: 0.896834, 37: 0.00769, 38: 0.185351, 39: 0.585135, 40: 0.195091, 41: 0.133513, 42: 0.207683, 43: 0.420671, 44: 0.189047, 45: 0.187506, 46: 0.140279, 47: 0.507632, 48: 0.257012, 49: 0.772811, 50: 0.757487, 51: 0.542896, 52: 0.530661, 53: 0.322631, 54: 0.020266, 55: 0.722433, 56: 0.032698, 57: 0.91877, 58: 0.003933, 59: 0.442872, 60: 0.120659, 61: 0.492775, 62: 0.070946, 63: 0.943114, 64: 0.680258, 65: 0.145445, 66: 0.116448, 67: 0.123235, 68: 0.606548, 69: 0.569556, 70: 0.610324, 71: 0.641373, 72: 0.475052, 73: 0.264481, 74: 0.504597, 75: 0.200706, 76: 0.191015, 77: 0.520112, 78: 0.916172, 79: 0.158166, 80: 0.430059, 81: 0.171128, 82: 0.714627, 83: 0.253773, 84: 0.696175, 85: 0.38785, 86: 0.166834, 87: 0.322673, 88: 0.709109, 89: 0.567318, 90: 0.417699, 91: 0.843181, 92: 0.279525, 93: 0.980035, 94: 0.19288, 95: 0.336173];
soc = [0: 11.97797, 1: 11.229514, 2: 10.067648, 3: 11.390545, 4: 15.29225, 5: 7.17126, 6: 7.798856, 7: 9.047437, 8: 6.100455, 9: 14.833833, 10: 13.979664, 11: 13.521271, 12: 6.429669, 13: 12.979453, 14: 5.870179, 15: 13.543828, 16: 12.007794, 17: 8.91498, 18: 3.540827, 19: 9.231482, 20: 12.150965, 21: 3.428834, 22: 6.306406, 23: 7.356097, 24: 12.532904, 25: 10.700014, 26: 6.09685, 27: 14.445476, 28: 9.407546, 29: 14.275824, 30: 11.331833, 31: 13.633139, 32: 9.142547, 33: 10.778774, 34: 7.018437, 35: 8.252672, 36: 11.964414, 37: 5.403065, 38: 3.416444, 39: 8.463495, 40: 12.454217, 41: 12.756545, 42: 6.932691, 43: 3.59419, 44: 12.56867, 45: 14.313379, 46: 8.761941999999999, 47: 9.86904, 48: 9.183097999999999, 49: 8.324761000000001, 50: 9.625876999999999, 51: 9.799186000000001, 52: 10.10018, 53: 15.096733, 54: 3.530745, 55: 4.234431, 56: 6.83274, 57: 12.948082, 58: 12.378832, 59: 10.501018, 60: 15.098268, 61: 4.911887, 62: 13.791963, 63: 13.790342, 64: 11.118087, 65: 6.966826, 66: 15.518654, 67: 5.123494, 68: 11.387481, 69: 5.417821, 70: 15.371813, 71: 6.27091, 72: 11.634083, 73: 15.185685, 74: 9.694934999999999, 75: 8.437187, 76: 7.655159, 77: 4.438367, 78: 6.674167, 79: 12.121043, 80: 9.472097, 81: 11.690914, 82: 8.103868, 83: 11.65986, 84: 7.858362, 85: 12.703082, 86: 5.390944, 87: 5.508961, 88: 11.002787, 89: 14.247326, 90: 4.090195, 91: 12.458997, 92: 11.359935, 93: 7.423977, 94: 11.184646, 95: 13.548982];
cost = [0: 117.628643, 1: 316.711693, 2: 430.307643, 3: 191.070473, 4: 479.27325, 5: 456.462046, 6: 606.667008, 7: 29.03298, 8: 312.708246, 9: 354.225093, 10: 285.719287, 11: 58.591541, 12: 455.430938, 13: 1.331283, 14: 404.418633, 15: 100.344665, 16: 137.985773, 17: 512.554673, 18: 373.625216, 19: 200.480604, 20: 117.807257, 21: 269.038971, 22: 434.006323, 23: 598.418009, 24: 98.368764, 25: 1037.22822, 26: 248.868192, 27: 1043.214965, 28: 633.776444, 29: 637.487305, 30: 217.542358, 31: 710.789707, 32: 657.97777, 33: 716.194077, 34: 384.733462, 35: 550.038628, 36: 127.367073, 37: 107.402013, 38: 676.938277, 39: 277.119367, 40: 384.589989, 41: 169.063292, 42: 614.0751310000001, 43: 96.15445, 44: 646.960515, 45: 851.398492, 46: 1080.500005, 47: 795.056518, 48: 757.6968010000001, 49: 914.90198, 50: 549.274619, 51: 209.892768, 52: 299.741397, 53: 608.483467, 54: 313.221083, 55: 584.571363, 56: 253.924154, 57: 491.808732, 58: 486.774195, 59: 462.456154, 60: 300.432501, 61: 866.728514, 62: 576.335694, 63: 449.441832, 64: 38.735905, 65: 85.67287399999999, 66: 390.560811, 67: 295.874838, 68: 1047.266472, 69: 454.753065, 70: 1078.606582, 71: 1143.267037, 72: 34.439979, 73: 239.086146, 74: 272.920655, 75: 772.815333, 76: 861.4265789999999, 77: 746.417238, 78: 1046.140928, 79: 770.839221, 80: 822.379635, 81: 1057.607351, 82: 1027.119411, 83: 508.802614, 84: 81.606421, 85: 416.258975, 86: 664.885464, 87: 265.890101, 88: 212.782232, 89: 36.657946, 90: 212.444464, 91: 145.006172, 92: 242.282749, 93: 237.952657, 94: 398.882842, 95: 48.270387];
earn = [0: 0.472299, 1: 1.993121, 2: 1.044218, 3: 1.332034, 4: 0.638555, 5: 0.147226, 6: 2.077754, 7: 0.674699, 8: 0.826669, 9: 2.112357, 10: 0.196336, 11: 0.212685, 12: 1.963708, 13: 0.546161, 14: 1.968422, 15: 0.904857, 16: 2.130694, 17: 2.119176, 18: 0.365651, 19: 0.645793, 20: 1.388804, 21: 0.207519, 22: 0.3404, 23: 1.98439, 24: 0.601729, 25: 1.437345, 26: 0.9815700000000001, 27: 0.313502, 28: 1.911102, 29: 1.364486, 30: 1.886158, 31: 0.529206, 32: 0.754204, 33: 1.819779, 34: 2.209867, 35: 0.667093, 36: 1.128502, 37: 1.694516, 38: 1.62648, 39: 0.965272, 40: 1.655645, 41: 1.691198, 42: 0.601429, 43: 0.896649, 44: 1.133862, 45: 0.366876, 46: 0.233932, 47: 0.458853, 48: 0.647617, 49: 0.171109, 50: 0.278442, 51: 0.568836, 52: 0.282136, 53: 0.137571, 54: 0.099302, 55: 0.376215, 56: 0.192569, 57: 0.171457, 58: 0.082645, 59: 0.056848, 60: 0.499644, 61: 0.10322, 62: 0.160608, 63: 0.088365, 64: 0.838337, 65: 1.114339, 66: 1.554845, 67: 1.371705, 68: 0.806318, 69: 0.055968, 70: 1.6687, 71: 1.763365, 72: 0.286556, 73: 0.6142300000000001, 74: 1.083209, 75: 0.777039, 76: 1.462759, 77: 0.447192, 78: 2.450983, 79: 0.530908, 80: 1.549364, 81: 1.428928, 82: 1.283368, 83: 2.817077, 84: 0.934092, 85: 0.98524, 86: 1.551704, 87: 1.59377, 88: 1.916597, 89: 0.803348, 90: 0.430166, 91: 2.072021, 92: 0.862896, 93: 0.837999, 94: 0.129099, 95: 0.215863];
total_cost = 46.69408732838454;
total_earn = 13.71616893615439;
