open = [0, 1, 1, 1, 0, 0, 0, 1, 1, 0];
satisfied = 
[| 0.359523, 0.778097,           0.533107, 0.223158,           0.891865, 0.565426,           0.669477,             0.365507, 0.513298,  0.87135, 0.718167, 0.160725,            0.35962, 0.422979,           0.749957, 0.855725,           0.222213,           0.230534, 0.061462,           0.585599, 0.850512, 0.735032,            0.468832, 0.351024, 0.7549129999999999,            0.943037, 0.930661,            0.24307, 0.732596, 0.07197199999999999
 | 0.862603, 0.338905,           0.687822, 0.049733,            0.34486, 0.910754,           0.236716,             0.391857, 0.547535, 0.549291, 0.208312, 0.289286,           0.032033,  0.98282,           0.465444, 0.760773,           0.328934,           0.425096, 0.679021,           0.938836, 0.439404, 0.978459,            0.329579, 0.327314,            0.13957,            0.754841, 0.456873,           0.116449, 0.039395,            0.356567
 | 0.576248, 0.682374,           0.546038, 0.358171,           0.517759, 0.960892,           0.407177,             0.289653,  0.53388, 0.740766, 0.142924, 0.645778, 0.6791779999999999, 0.600075, 0.6342680000000001,  0.17623,           0.280436, 0.7474730000000001, 0.671963, 0.7989270000000001, 0.228879, 0.255544,            0.005059, 0.034954,           0.816117,             0.59805,  0.20359,            0.29824,  0.13868,             0.32083
 | 0.739972, 0.258573, 0.8527439999999999, 0.271806,           0.637752, 0.528465,           0.078717,             0.139303, 0.012274, 0.403947, 0.752791, 0.549989,           0.313029, 0.834223,           0.939087, 0.149154,           0.557192,           0.533021, 0.488574,           0.884424, 0.188839,  0.08312,             0.72304, 0.577688,           0.416303,            0.100599, 0.808667,           0.290276,  0.00353,            0.233555
 | 0.828732, 0.455583,           0.477023, 0.851786,           0.117081, 0.891548, 0.6022110000000001,             0.873459, 0.012322, 0.459964, 0.913231, 0.686916,           0.919886, 0.707529, 0.5796289999999999, 0.322236,           0.803603,           0.627957, 0.512823,           0.732849, 0.776378, 0.695181,            0.110588, 0.813783,           0.418436,  0.6195619999999999, 0.087899, 0.5606719999999999, 0.581977,            0.431809
 | 0.806727, 0.874916,           0.547288, 0.734378, 0.6870039999999999, 0.525439,           0.206024,             0.798447, 0.469236, 0.373696, 0.002811, 0.939405,           0.421127, 0.660339,           0.473524, 0.875607,           0.527932,           0.364004, 0.814608,           0.295891, 0.209812,  0.17043,            0.079623, 0.684512,           0.328064,            0.162956, 0.728636,           0.951603, 0.600543,            0.855132
 | 0.378107, 0.138836,           0.310863, 0.440522,           0.294704, 0.613955,           0.349654,             0.393173, 0.646342, 0.039237, 0.126007, 0.218336,           0.814849, 0.335814,            0.74944, 0.385733,           0.849877,           0.381607, 0.775236,           0.169591, 0.999803, 0.997156,            0.540402, 0.894908,           0.362309,            0.760383, 0.231923,           0.532015, 0.709782,            0.808105
 | 0.044213, 0.241264,           0.010389, 0.607752,           0.517138, 0.089434,           0.107309, 0.009376000000000001, 0.352312, 0.208707, 0.335219, 0.146067,           0.435937, 0.039702,           0.855742, 0.768438,            0.82459, 0.9822689999999999, 0.129665,           0.928756,  0.99427, 0.487225, 0.07799200000000001, 0.384592,           0.095738,            0.305937, 0.019057,           0.728836, 0.570787,            0.959466
 | 0.833855, 0.948094,           0.253841,  0.01886,           0.839427, 0.136513,           0.515606,             0.875359,  0.96223, 0.991375, 0.793567, 0.880777,           0.184112, 0.762372,            0.63285, 0.306508,           0.766165,           0.011542, 0.235091,           0.431497, 0.321093,  0.71936,            0.863726, 0.945099,           0.887253,            0.855454, 0.204397,           0.106153, 0.172289,            0.599109
 | 0.602737, 0.777278, 0.7108910000000001, 0.611838,           0.009927, 0.111836,           0.684523,             0.860706, 0.405165, 0.095084, 0.411567, 0.584408,           0.611247, 0.843278,           0.892242, 0.947086, 0.5933040000000001,           0.012457, 0.897499,           0.281727, 0.790508, 0.408768,            0.712742, 0.278843,           0.435571, 0.08114300000000001, 0.638705,           0.226733, 0.783904,            0.248744
 |];
% _objective = 45978.3266045;
