open = [1, 1, 0, 1, 1, 0, 0, 0, 0, 0];
satisfied = 
[| 0.472179,            0.79779, 0.530715, 0.449395, 0.795345,           0.644832,            0.064043,            0.660999, 0.928812, 0.08934599999999999, 0.235421,           0.168672, 0.759659, 0.773358, 0.508066,            0.862495,            0.01571, 0.946652, 0.683412, 0.042297, 0.600448,            0.540828, 0.8131080000000001, 0.709182, 0.454513, 0.257614, 0.869606, 0.023031, 0.226346, 0.555692
 | 0.784879,             0.9241, 0.769871, 0.339542, 0.985934,           0.753215,  0.5074959999999999,  0.5226150000000001, 0.002775, 0.07589600000000001, 0.062191,           0.395461, 0.240537, 0.076657, 0.960203,             0.53911,           0.233015, 0.443575, 0.319461, 0.915915,  0.51335,             0.91157,           0.558916,  0.14877, 0.384627,  0.90394, 0.427394, 0.530878, 0.666687, 0.708446
 | 0.506066, 0.8000159999999999, 0.757018, 0.509849, 0.299568,           0.468639,             0.02125,            0.263025, 0.968656,            0.555979, 0.763839,           0.992248, 0.267693, 0.962574, 0.819364,            0.010329,           0.741868, 0.345581, 0.392331, 0.159939, 0.085564,            0.153407,           0.947549, 0.355039, 0.290259,  0.83138, 0.492994, 0.800158, 0.120034, 0.457457
 | 0.278345,           0.498951, 0.953603, 0.309439,   0.5631,           0.411012,            0.366671,            0.680642, 0.378713,            0.450038, 0.915793,           0.227215, 0.462371, 0.673062, 0.368951,            0.476176,           0.523207, 0.629072, 0.076089, 0.451235, 0.855529, 0.06661300000000001,           0.739833,  0.16234, 0.317316,  0.74505, 0.732079, 0.120494,   0.8033, 0.908833
 |   0.9301,           0.929974, 0.074485, 0.875997, 0.708025,           0.440637,            0.451902,            0.946562, 0.952579,            0.268818, 0.241343,           0.381929, 0.527832, 0.033466,  0.69336, 0.08343200000000001,           0.223964, 0.385774, 0.991314, 0.978998, 0.399154,            0.746563,            0.89642, 0.218566, 0.012925, 0.047262, 0.875389, 0.554399, 0.120784, 0.262312
 | 0.952504,           0.627395, 0.812599, 0.738242, 0.662134,           0.497643,             0.46039,            0.334871, 0.529861,            0.950094, 0.634387,           0.783135, 0.751669, 0.129324, 0.269216,            0.304867,           0.380156, 0.480755, 0.102294, 0.652501, 0.809049,            0.967274, 0.8049809999999999, 0.822703, 0.353352, 0.139567, 0.028101, 0.619956, 0.303631, 0.072772
 | 0.202434,           0.881538, 0.437557, 0.637307, 0.790449,            0.79226, 0.07009700000000001, 0.07588200000000001, 0.087648,            0.990221, 0.064924,           0.190461,  0.26581, 0.766698, 0.051195,            0.349977,           0.404721, 0.372039, 0.132466, 0.351527, 0.950137,            0.698334,           0.530545, 0.381331, 0.699856,  0.20701, 0.357788, 0.416198, 0.035858, 0.643213
 | 0.293864,           0.221048, 0.038929, 0.238113, 0.160424, 0.5470429999999999,             0.46037,            0.900597, 0.941904,            0.297633, 0.392081,           0.947419, 0.723262, 0.470458, 0.478571,            0.636915,            0.47114, 0.289712, 0.765355, 0.137985,  0.04467,             0.61844,           0.834466, 0.720808, 0.127847, 0.826693, 0.661569,  0.41786, 0.725091, 0.071772
 | 0.125625,             0.2366, 0.954052,  0.50862, 0.478106,            0.75811,            0.996754,            0.825562, 0.639896,            0.671775, 0.113273,           0.700462, 0.209763, 0.895711,  0.07076, 0.06371400000000001,           0.057652, 0.344943, 0.220773, 0.209372, 0.260064,  0.6900309999999999,            0.28876, 0.735551, 0.290086, 0.061437,  0.69172, 0.850015, 0.290842,  0.43612
 | 0.063224,           0.447698, 0.641033, 0.853674, 0.483682,           0.310079,            0.285084,            0.800936, 0.320965,            0.472709, 0.907902, 0.7690439999999999, 0.391114, 0.787814, 0.885593,            0.725394, 0.8218760000000001, 0.158151, 0.378826, 0.704146, 0.223959,            0.055055,           0.552911, 0.516865, 0.927349, 0.741277, 0.077822, 0.279366, 0.450883, 0.990684
 |];
% _objective = 31283.013792;
