open = [0, 0, 1, 1, 1, 1, 1, 1, 0, 1];
satisfied = 
[|           0.259254, 0.191853, 0.793561,           0.838101,           0.219607, 0.604977,           0.205416, 0.482357,           0.615653,           0.406363, 0.964399,           0.823292,           0.676606,           0.228446,           0.328109, 0.225987, 0.263886, 0.453459, 0.912755,            0.460142,   0.6162, 0.398664,            0.624008,           0.471218, 0.686737,           0.692816,           0.281033, 0.505562,            0.043105, 0.289101
 |           0.169405,  0.12743, 0.869841,            0.40972,           0.912174, 0.005719,           0.563984, 0.944902,           0.482135,           0.148004, 0.050104,           0.444134,           0.805159,           0.387843,           0.507921, 0.120186, 0.649987, 0.778193, 0.486828,            0.562249, 0.376051, 0.653143,            0.052493,           0.273097,  0.05143, 0.5429349999999999,            0.02098, 0.421617,            0.705866, 0.721088
 |           0.178886, 0.103721, 0.231382,           0.711633,           0.965818,  0.12706,           0.050387,  0.79614, 0.5262559999999999,           0.447767, 0.906022,           0.245687,           0.277426, 0.5924199999999999,           0.116326,  0.15787, 0.332655, 0.025964, 0.451114,            0.400565, 0.839817, 0.236724,            0.406709,           0.279829,  0.38805,           0.100815,           0.584773, 0.198679,            0.809298, 0.905266
 |           0.738158, 0.558034, 0.294877,           0.241365, 0.7678779999999999,  0.19851, 0.8862139999999999,  0.06276,           0.863031,           0.518703, 0.926444,           0.816121,           0.531653,           0.290841,           0.330076, 0.111736, 0.468818, 0.016368, 0.560956,            0.013544, 0.179193, 0.621101,            0.473554, 0.7420679999999999, 0.973125,           0.307437,           0.027325, 0.591851, 0.07548199999999999, 0.840668
 |           0.940542, 0.017095, 0.865682,           0.353207,           0.416911, 0.108853,           0.229475, 0.940916,           0.109629,           0.783367, 0.933481,           0.939962,           0.714426,           0.278669,           0.011979, 0.706332, 0.017262, 0.704312, 0.903122,            0.209953, 0.627757, 0.294217,            0.516528,           0.602141, 0.559422,           0.538847,           0.923246, 0.048294,            0.586367, 0.731461
 |           0.568822, 0.457594, 0.855109,           0.768672,           0.946561, 0.655421,           0.436554,  0.16302, 0.9497370000000001, 0.8341769999999999,   0.8197,           0.178141,           0.739773,           0.232674, 0.7847499999999999, 0.482022, 0.797558, 0.555328, 0.781158,            0.885784, 0.543902, 0.740101,            0.490193,           0.998812, 0.548423,           0.946663, 0.9746899999999999, 0.814236,            0.279827, 0.419899
 |           0.064355, 0.218064, 0.420276,           0.416056,           0.130211, 0.994209,           0.711771, 0.118013,           0.153946,           0.581017, 0.429584, 0.6208090000000001,           0.079246,           0.472283,           0.057365, 0.864184, 0.834973,  0.57373, 0.798574, 0.09386899999999999,  0.47591, 0.491798,            0.309735,           0.583246,  0.06723,            0.00325,           0.904744, 0.308634,            0.227182, 0.741133
 | 0.7937070000000001, 0.108483, 0.948221,           0.888036,           0.252771, 0.137039,           0.343396, 0.488765,           0.069608,           0.810087, 0.609749,           0.166536, 0.7517509999999999,           0.178139,           0.428663, 0.126995, 0.137672, 0.131299, 0.172961,              0.2232, 0.975969, 0.900245,            0.148967,           0.567083, 0.764966,            0.07034,           0.030121, 0.895749,            0.871617, 0.752355
 |           0.222857, 0.850945, 0.006238,           0.477836,           0.396814, 0.024116,           0.602282, 0.476014, 0.7979850000000001,           0.345158, 0.974716,           0.193632,           0.304184,           0.591511,           0.486619, 0.551074, 0.747386, 0.724329, 0.596646,            0.971978, 0.087496, 0.906243,            0.549305,           0.135441, 0.331773,           0.101048,           0.572176, 0.607085,            0.493784,  0.59674
 |           0.914212, 0.087157, 0.749978, 0.9502890000000001,            0.79762, 0.610111,           0.303982, 0.409483,           0.541393,           0.502737, 0.146968,           0.593827,           0.379987,           0.552073,           0.738447, 0.046892, 0.081376, 0.594217, 0.627988,            0.375745, 0.478713, 0.245356, 0.08175399999999999,           0.651954, 0.235384,           0.148672,           0.458855, 0.296909,              0.6368, 0.991731
 |];
% _objective = 51168.031885;
