open = [0, 0, 0, 1, 1, 1, 1, 1, 1, 0];
satisfied = 
[|           0.231675,           0.162257,  0.98397, 0.944505, 0.539176,             0.91223,            0.836391, 0.141871, 0.886861, 0.403955, 0.805219, 0.916884, 0.868916, 0.021562,            0.12422, 0.206199,           0.237347,           0.389947, 0.284654,           0.776421, 0.6219209999999999, 0.7063970000000001, 0.268062, 0.719495, 0.9637019999999999,           0.116002,           0.506237, 0.152179, 0.182278,           0.079553
 |           0.289194,           0.184852, 0.109723, 0.824027, 0.766628,            0.356414,             0.51674, 0.714515, 0.441749, 0.160279, 0.830324, 0.331262, 0.288011, 0.042361,           0.195755, 0.567806,           0.208154,           0.916982, 0.980424,           0.816043,           0.039193,           0.559572, 0.198386, 0.335701,           0.187754,           0.739866, 0.9551770000000001, 0.792755, 0.284326, 0.5461240000000001
 |           0.685938,           0.981854, 0.112668, 0.219835, 0.607717,            0.739449,  0.6142649999999999, 0.661139, 0.659825, 0.325222, 0.576897, 0.108333, 0.463706, 0.049529,           0.223457,  0.93904, 0.8902679999999999,           0.939524, 0.029836,           0.773057,           0.989081,           0.199862, 0.621074, 0.107865,           0.012118,            0.86082,           0.679312, 0.047077, 0.137369,           0.522477
 |           0.488794,           0.244827, 0.944707, 0.165504, 0.187148, 0.08666699999999999,            0.422032, 0.839226, 0.133723, 0.079314, 0.426661, 0.820713,  0.40818, 0.750648, 0.8241540000000001, 0.369016,           0.277677,           0.271678, 0.910399, 0.5439349999999999,           0.051662,            0.85075, 0.079565, 0.272704,            0.44504,           0.768715,           0.819053, 0.324753, 0.027955,           0.581516
 |           0.251656,           0.424386, 0.952375,  0.25525, 0.738779,  0.7086750000000001,            0.915767, 0.464373, 0.347943,  0.90213, 0.102401, 0.393913, 0.880065, 0.992058,           0.927744, 0.485041,           0.933663,           0.390454, 0.448238,           0.582848,           0.397985,           0.045249, 0.688763, 0.236093,           0.424415,           0.696971,            0.15958, 0.799423, 0.248469,           0.729168
 |           0.813125, 0.8546550000000001, 0.017862, 0.823706,  0.32122,            0.056407,            0.201407, 0.431962, 0.441261,  0.76326, 0.475974, 0.631906, 0.148314, 0.821465,           0.162779, 0.158916,           0.886484, 0.9502350000000001, 0.473964,           0.022372,           0.957266, 0.6827530000000001, 0.886167, 0.384767,           0.386648, 0.9092249999999999,           0.119594, 0.859077, 0.423233,           0.250394
 |           0.084907,           0.550584, 0.085288, 0.590497, 0.486092,            0.374409,             0.38772, 0.491249, 0.127988, 0.276545, 0.087645, 0.226169, 0.604899, 0.123092,             0.4937, 0.856046,           0.861588,           0.189457, 0.449138,           0.096828,           0.369481,           0.830249, 0.311017, 0.935908,           0.080724,           0.209794,           0.624925, 0.293446, 0.734961,           0.430555
 | 0.5843970000000001,           0.030067, 0.102839, 0.244775, 0.987461,            0.445417,            0.942924, 0.061545, 0.816905, 0.489531,  0.10295, 0.897722, 0.102448, 0.078579,           0.636732, 0.333116,           0.912442,           0.034904, 0.557261,           0.246924,           0.905524, 0.7339059999999999, 0.127438, 0.654821,           0.226207,           0.750714,            0.83923, 0.995489,  0.30741,            0.27428
 |           0.607609,           0.935979,  0.93621, 0.776836, 0.167882,            0.005146,            0.881467, 0.736955, 0.065703, 0.060527, 0.222346, 0.517933, 0.119447, 0.473691,           0.091429, 0.683649,           0.481532,              0.262, 0.425842,           0.624897,           0.428454,           0.488988, 0.475779, 0.641212,            0.04339,           0.574973,           0.520416, 0.124428, 0.459973,           0.625752
 |           0.796479,            0.25456, 0.965715, 0.297995, 0.830363,             0.55428, 0.08748400000000001, 0.350868, 0.763412, 0.952932, 0.791478, 0.284589, 0.571418,  0.53594,             0.1107, 0.544358,           0.973868,           0.081041, 0.169807,           0.803762, 0.8651450000000001,           0.750068, 0.401146, 0.647194,           0.289299,           0.375917,           0.624297, 0.652616, 0.776976,            0.69003
 |];
% _objective = 44064.03573650001;
