p = 
[|  0, 0,  0,  2
 |  0, 0,  0,  2
 |  0, 0,  0,  2
 |  0, 0,  0,  2
 | 13, 0,  0,  0
 |  0, 1,  0,  0
 |  0, 1,  0,  0
 |  0, 1,  0,  0
 |  0, 1,  0,  0
 |  0, 1,  0,  0
 |  0, 1,  0,  0
 |  0, 1,  0,  0
 |  0, 1,  0,  0
 |  0, 1,  0,  0
 |  0, 1,  0,  0
 |  0, 1,  0,  0
 |  0, 1,  0,  0
 |  0, 1,  0,  0
 |  0, 1,  0,  0
 |  0, 1,  0,  0
 |  1, 0,  0,  5
 |  1, 0,  0,  5
 |  0, 1,  0, 39
 |  0, 1,  0,  0
 |  0, 1,  0,  0
 |  0, 1, 19,  0
 |  0, 1,  0,  0
 |  0, 1,  0,  0
 |  0, 1,  0,  0
 | 25, 0,  0,  0
 |  0, 1,  0,  0
 |  0, 1,  0,  0
 |  0, 1,  0,  0
 |  0, 1,  0,  0
 |  0, 1,  0,  0
 |  0, 1,  0,  0
 |  0, 0,  0, 15
 |  0, 0, 40,  7
 |  0, 1,  0,  0
 |  0, 1,  0,  0
 |  0, 1,  0,  0
 |  0, 1,  0,  0
 |  0, 1,  0,  0
 |  0, 1,  0,  0
 |  0, 1,  0,  0
 |  0, 1,  0,  0
 |  0, 1,  0,  0
 |  0, 1,  0,  0
 |  0, 1,  0,  0
 |  0, 1,  0,  0
 |];
R = [8, 429, 1, 30];
% _objective = 468;
