production = [0: 0.0, 1: 0.0, 2: 0.0, 3: 0.0, 4: 0.0, 5: 0.0, 6: 0.0, 7: 0.0, 8: 0.0, 9: 0.0, 10: 0.0, 11: 0.0, 12: 0.0, 13: 0.0, 14: 0.0, 15: 0.0, 16: 0.0, 17: 0.0, 18: 0.0, 19: 0.0, 20: 0.0, 21: 0.0, 22: 0.0, 23: 4.3e-05, 24: 0.00269, 25: 0.018315, 26: 0.010117, 27: 0.051458, 28: 0.044264, 29: 0.015752, 30: 0.176054, 31: 0.385009, 32: 0.06260599999999999, 33: 0.117279, 34: 0.868085, 35: 0.388748, 36: 0.690059, 37: 0.695982, 38: 0.623851, 39: 1.225186, 40: 0.214278, 41: 1.000556, 42: 0.874557, 43: 0.457277, 44: 0.655121, 45: 0.70409, 46: 0.370398, 47: 0.015241, 48: 0.005349, 49: 0.042598, 50: 0.042795, 51: 0.039738, 52: 0.020609, 53: 0.074493, 54: 0.092584, 55: 0.246384, 56: 1.198807, 57: 0.998704, 58: 0.648244, 59: 1.013692, 60: 0.269528, 61: 0.566635, 62: 0.201612, 63: 0.168444, 64: 0.229615, 65: 0.318716, 66: 0.149813, 67: 0.136441, 68: 0.085479, 69: 0.069648, 70: 0.021696, 71: 0.009312000000000001, 72: 0.002347, 73: 0.000146, 74: 0.0, 75: 0.0, 76: 0.0, 77: 0.0, 78: 0.0, 79: 0.0, 80: 0.0, 81: 0.0, 82: 0.0, 83: 0.0, 84: 0.0, 85: 0.0, 86: 0.0, 87: 0.0, 88: 0.0, 89: 0.0, 90: 0.0, 91: 0.0, 92: 0.0, 93: 0.0, 94: 0.0, 95: 0.0, 96: 0.0, 97: 0.0, 98: 0.0, 99: 0.0, 100: 0.0, 101: 0.0, 102: 0.0, 103: 0.0, 104: 0.0, 105: 0.0, 106: 0.0, 107: 0.0, 108: 0.0, 109: 0.0, 110: 0.0, 111: 0.0, 112: 0.0, 113: 0.0, 114: 0.0, 115: 0.0, 116: 0.0, 117: 0.0, 118: 0.0, 119: 0.000423, 120: 0.003862, 121: 0.017848, 122: 0.03256, 123: 0.095804, 124: 0.023968, 125: 0.18098, 126: 0.06944599999999999, 127: 0.043567, 128: 0.156746, 129: 0.362614, 130: 0.271927, 131: 0.362091, 132: 0.189348, 133: 0.422312, 134: 0.741788, 135: 1.105781, 136: 0.845282, 137: 0.938158, 138: 0.29986, 139: 1.202056, 140: 0.231013, 141: 0.124343, 142: 1.11235, 143: 0.058869, 144: 1.275693, 145: 1.715268, 146: 0.758428, 147: 1.172333, 148: 0.81386, 149: 0.838589, 150: 0.867252, 151: 0.793916, 152: 0.893894, 153: 1.12574, 154: 0.428215, 155: 0.072256, 156: 0.284525, 157: 0.176561, 158: 0.092475, 159: 0.105952, 160: 0.137901, 161: 0.504167, 162: 0.276257, 163: 0.160261, 164: 0.05999, 165: 0.015184, 166: 0.016251, 167: 0.0191, 168: 0.002988, 169: 0.00027, 170: 0.0, 171: 0.0, 172: 0.0, 173: 0.0, 174: 0.0, 175: 0.0, 176: 0.0, 177: 0.0, 178: 0.0, 179: 0.0, 180: 0.0, 181: 0.0, 182: 0.0, 183: 0.0, 184: 0.0, 185: 0.0, 186: 0.0, 187: 0.0, 188: 0.0, 189: 0.0, 190: 0.0, 191: 0.0];
buy = [0: 598.807783, 1: 472.714414, 2: 309.540731, 3: 547.026262, 4: 534.992118, 5: 360.940935, 6: 299.379316, 7: 720.31699, 8: 812.137052, 9: 179.901812, 10: 793.030542, 11: 170.929872, 12: 724.674874, 13: 894.635233, 14: 238.985955, 15: 377.861631, 16: 365.026249, 17: 309.877175, 18: 193.616408, 19: 818.2425040000001, 20: 762.406752, 21: 118.032521, 22: 296.003154, 23: 423.478422, 24: 833.508179, 25: 391.538126, 26: 66.935388, 27: 242.873197, 28: 510.952098, 29: 844.3665140000001, 30: 945.833635, 31: 254.138469, 32: 674.781984, 33: 866.1309659999999, 34: 181.237833, 35: 441.974759, 36: 603.500254, 37: 478.084902, 38: 528.736997, 39: 824.024133, 40: 165.827701, 41: 137.010713, 42: 4.972314, 43: 958.028286, 44: 915.730791, 45: 133.675101, 46: 189.786569, 47: 391.747906, 48: 457.285323, 49: 200.121644, 50: 480.585065, 51: 880.506302, 52: 987.509243, 53: 574.540026, 54: 205.076202, 55: 930.5986370000001, 56: 258.247169, 57: 91.58747, 58: 533.8598950000001, 59: 811.845515, 60: 724.635788, 61: 675.234965, 62: 651.807791, 63: 65.527232, 64: 794.639334, 65: 674.402719, 66: 11.466276, 67: 471.24275, 68: 604.983042, 69: 963.165779, 70: 528.257245, 71: 655.622246, 72: 179.929933, 73: 780.343117, 74: 541.702107, 75: 683.4950669999999, 76: 982.913422, 77: 459.010575, 78: 790.070655, 79: 92.433632, 80: 297.845017, 81: 555.186796, 82: 478.338981, 83: 879.814237, 84: 530.618112, 85: 76.367842, 86: 279.808624, 87: 980.861755, 88: 152.656303, 89: 294.335271, 90: 361.236234, 91: 731.978836, 92: 188.684236, 93: 671.494285, 94: 353.082347, 95: 606.082106, 96: 412.1127, 97: 336.468594, 98: 538.458204, 99: 60.448953, 100: 602.275166, 101: 13.057354, 102: 22.499222, 103: 136.109725, 104: 988.685126, 105: 836.733301, 106: 404.079303, 107: 633.669174, 108: 795.664816, 109: 955.3400779999999, 110: 966.66899, 111: 7.404056, 112: 423.258182, 113: 989.416786, 114: 804.436102, 115: 813.354801, 116: 530.56506, 117: 58.52549, 118: 104.14773, 119: 982.1230880000001, 120: 773.850922, 121: 736.606092, 122: 722.572187, 123: 509.275969, 124: 112.095129, 125: 680.65578, 126: 309.481917, 127: 946.484254, 128: 219.972998, 129: 233.319525, 130: 207.392893, 131: 157.457105, 132: 865.249724, 133: 598.875285, 134: 230.629936, 135: 495.034146, 136: 303.529026, 137: 198.562458, 138: 980.130359, 139: 144.119423, 140: 911.832537, 141: 688.850373, 142: 505.109713, 143: 236.71281, 144: 916.793754, 145: 12.423455, 146: 395.884654, 147: 921.741399, 148: 692.424631, 149: 222.383896, 150: 50.650178, 151: 974.558766, 152: 775.711664, 153: 195.809965, 154: 922.371029, 155: 548.681791, 156: 783.695966, 157: 305.859949, 158: 87.29800400000001, 159: 583.9748970000001, 160: 375.179006, 161: 46.862619, 162: 5.821541, 163: 602.071925, 164: 933.6295239999999, 165: 693.249883, 166: 403.033761, 167: 877.585516, 168: 511.543125, 169: 750.7055350000001, 170: 35.767082, 171: 773.302899, 172: 264.022755, 173: 688.20115, 174: 531.817346, 175: 674.62272, 176: 402.816238, 177: 239.525716, 178: 687.112852, 179: 917.9141080000001, 180: 44.602277, 181: 710.68218, 182: 129.433569, 183: 880.055073, 184: 187.880424, 185: 255.864868, 186: 192.8272, 187: 331.647382, 188: 217.949529, 189: 649.2711859999999, 190: 586.9483, 191: 549.788821];
sell = [0: 1.592718, 1: 0.988652, 2: 1.964244, 3: 2.030007, 4: 3.152721, 5: 2.193153, 6: 3.300087, 7: 2.221375, 8: 1.487723, 9: 3.463857, 10: 3.570901, 11: 0.416868, 12: 1.018645, 13: 2.44405, 14: 2.782189, 15: 2.521145, 16: 0.6054310000000001, 17: 0.432792, 18: 1.726178, 19: 0.404894, 20: 0.195451, 21: 1.367528, 22: 1.835359, 23: 1.531409, 24: 3.796247, 25: 3.20211, 26: 0.727136, 27: 0.471057, 28: 0.614436, 29: 2.709552, 30: 1.084838, 31: 0.63242, 32: 3.436722, 33: 3.443263, 34: 3.512222, 35: 2.294201, 36: 0.230198, 37: 3.334038, 38: 0.722607, 39: 3.595762, 40: 2.667325, 41: 2.452171, 42: 1.200951, 43: 0.08637499999999999, 44: 3.649837, 45: 1.914027, 46: 3.069712, 47: 1.989643, 48: 0.7052040000000001, 49: 2.192511, 50: 3.790639, 51: 3.923755, 52: 2.983809, 53: 1.879016, 54: 1.048931, 55: 3.55975, 56: 3.831676, 57: 2.871888, 58: 1.916819, 59: 1.669463, 60: 1.435889, 61: 0.7662330000000001, 62: 3.353869, 63: 2.664464, 64: 1.376455, 65: 1.66489, 66: 1.918813, 67: 3.266098, 68: 2.798168, 69: 3.08425, 70: 0.314624, 71: 3.064934, 72: 2.620771, 73: 1.673759, 74: 1.696709, 75: 1.799381, 76: 2.198177, 77: 0.8768089999999999, 78: 3.162448, 79: 0.771566, 80: 3.678609, 81: 2.470022, 82: 2.044804, 83: 3.361448, 84: 1.362756, 85: 1.7412, 86: 3.109109, 87: 2.4773, 88: 3.46029, 89: 1.305975, 90: 1.413584, 91: 0.792179, 92: 2.054686, 93: 2.686144, 94: 2.594891, 95: 2.992829, 96: 1.619363, 97: 0.580111, 98: 2.760632, 99: 1.110017, 100: 0.494268, 101: 1.753055, 102: 2.103275, 103: 0.981486, 104: 3.850253, 105: 3.069458, 106: 1.974457, 107: 0.899832, 108: 3.275698, 109: 1.726405, 110: 1.870271, 111: 0.062495, 112: 2.992745, 113: 3.90607, 114: 0.858873, 115: 3.844219, 116: 2.770191, 117: 2.622468, 118: 1.940823, 119: 3.46478, 120: 0.227605, 121: 0.055311, 122: 3.30705, 123: 2.129788, 124: 3.829505, 125: 1.654775, 126: 3.428042, 127: 3.391691, 128: 2.66818, 129: 1.447323, 130: 1.948641, 131: 2.811337, 132: 3.999707, 133: 2.553079, 134: 1.448368, 135: 3.093166, 136: 3.04002, 137: 2.491691, 138: 3.714279, 139: 2.805715, 140: 3.298673, 141: 1.555197, 142: 2.216251, 143: 2.169608, 144: 0.27688, 145: 3.450233, 146: 2.402059, 147: 0.361765, 148: 3.572527, 149: 3.67845, 150: 1.148374, 151: 3.508922, 152: 0.782379, 153: 0.220317, 154: 3.367172, 155: 1.473612, 156: 2.046311, 157: 0.966124, 158: 3.672639, 159: 1.805269, 160: 2.10621, 161: 0.88215, 162: 0.41325, 163: 0.075059, 164: 2.323424, 165: 2.705961, 166: 1.803181, 167: 0.43533, 168: 0.237725, 169: 1.466412, 170: 3.244736, 171: 2.788012, 172: 0.667937, 173: 3.348243, 174: 0.933512, 175: 1.461907, 176: 1.307463, 177: 2.694587, 178: 1.929242, 179: 0.550135, 180: 0.513768, 181: 1.526996, 182: 0.598422, 183: 3.232244, 184: 1.062597, 185: 2.455114, 186: 2.911316, 187: 3.675404, 188: 0.578338, 189: 1.701316, 190: 2.477048, 191: 1.498755];
charge = [0: 0.7851399999999999, 1: 0.792938, 2: 0.294244, 3: 0.464014, 4: 0.579624, 5: 0.95175, 6: 0.595977, 7: 0.170462, 8: 0.233789, 9: 0.158441, 10: 0.372506, 11: 0.677256, 12: 0.131641, 13: 0.40012, 14: 0.8523770000000001, 15: 0.769548, 16: 0.6551, 17: 0.445893, 18: 0.589677, 19: 0.216663, 20: 0.320483, 21: 0.127146, 22: 0.391341, 23: 0.273192, 24: 0.932198, 25: 0.580985, 26: 0.245651, 27: 0.180571, 28: 0.030517, 29: 0.078416, 30: 0.440323, 31: 0.6573020000000001, 32: 0.756286, 33: 0.407898, 34: 0.745956, 35: 0.8304049999999999, 36: 0.002456, 37: 0.408524, 38: 0.005421, 39: 0.701427, 40: 0.706526, 41: 0.307312, 42: 0.7523840000000001, 43: 0.422228, 44: 0.731062, 45: 0.189081, 46: 0.791671, 47: 0.942484, 48: 0.6795639999999999, 49: 0.6641049999999999, 50: 0.189447, 51: 0.72205, 52: 0.281884, 53: 0.640136, 54: 0.8998969999999999, 55: 0.074591, 56: 0.549714, 57: 0.461198, 58: 0.639111, 59: 0.289331, 60: 0.136802, 61: 0.72006, 62: 0.702532, 63: 0.224379, 64: 0.021091, 65: 0.879714, 66: 0.0622, 67: 0.834799, 68: 0.295339, 69: 0.434545, 70: 0.028129, 71: 0.485255, 72: 0.755667, 73: 0.828975, 74: 0.17436, 75: 0.497761, 76: 0.648267, 77: 0.470643, 78: 0.475312, 79: 0.237402, 80: 0.020809, 81: 0.263133, 82: 0.401365, 83: 0.958112, 84: 0.643991, 85: 0.589614, 86: 0.985073, 87: 0.117198, 88: 0.605233, 89: 0.614267, 90: 0.068536, 91: 0.886629, 92: 0.188365, 93: 0.243197, 94: 0.970029, 95: 0.519232, 96: 0.836862, 97: 0.515529, 98: 0.518108, 99: 0.759051, 100: 0.071577, 101: 0.208711, 102: 0.653428, 103: 0.563509, 104: 0.08355700000000001, 105: 0.463588, 106: 0.780811, 107: 0.566491, 108: 0.510352, 109: 0.469688, 110: 0.289479, 111: 0.5989100000000001, 112: 0.72354, 113: 0.265678, 114: 0.509181, 115: 0.484378, 116: 0.445504, 117: 0.883181, 118: 0.17838, 119: 0.909123, 120: 0.341402, 121: 0.332678, 122: 0.350404, 123: 0.980955, 124: 0.124707, 125: 0.324271, 126: 0.7317090000000001, 127: 0.027708, 128: 0.975423, 129: 0.673756, 130: 0.158394, 131: 0.365977, 132: 0.329295, 133: 0.7746459999999999, 134: 0.327723, 135: 0.419608, 136: 0.813554, 137: 0.736596, 138: 0.394594, 139: 0.369417, 140: 0.11383, 141: 0.562456, 142: 0.385328, 143: 0.364506, 144: 0.080682, 145: 0.5899720000000001, 146: 0.627579, 147: 0.575223, 148: 0.054521, 149: 0.163674, 150: 0.387493, 151: 0.727002, 152: 0.906618, 153: 0.997136, 154: 0.874626, 155: 0.111464, 156: 0.115685, 157: 0.098703, 158: 0.9937, 159: 0.75756, 160: 0.647331, 161: 0.281493, 162: 0.053119, 163: 0.020272, 164: 0.499545, 165: 0.871026, 166: 0.922534, 167: 0.813333, 168: 0.584593, 169: 0.749375, 170: 0.259074, 171: 0.239922, 172: 0.276911, 173: 0.169817, 174: 0.592477, 175: 0.461784, 176: 0.89728, 177: 0.510866, 178: 0.117862, 179: 0.47322, 180: 0.011154, 181: 0.105643, 182: 0.456331, 183: 0.950976, 184: 0.900767, 185: 0.303446, 186: 0.222655, 187: 0.705938, 188: 0.952336, 189: 0.010352, 190: 0.847837, 191: 0.460456];
discharge = [0: 0.103179, 1: 0.842776, 2: 0.626001, 3: 0.167747, 4: 0.223422, 5: 0.107003, 6: 0.395383, 7: 0.228922, 8: 0.183062, 9: 0.189324, 10: 0.238463, 11: 0.702402, 12: 0.803686, 13: 0.783803, 14: 0.194055, 15: 0.545555, 16: 0.250153, 17: 0.015146, 18: 0.743204, 19: 0.115632, 20: 0.196324, 21: 0.938302, 22: 0.620215, 23: 0.456364, 24: 0.394544, 25: 0.008437999999999999, 26: 0.345548, 27: 0.8893180000000001, 28: 0.182706, 29: 0.152351, 30: 0.16852, 31: 0.13583, 32: 0.9422, 33: 0.484676, 34: 0.918246, 35: 0.098873, 36: 0.180435, 37: 0.365259, 38: 0.363927, 39: 0.843739, 40: 0.602938, 41: 0.140921, 42: 0.178704, 43: 0.78955, 44: 0.000848, 45: 0.080931, 46: 0.162608, 47: 0.094232, 48: 0.063622, 49: 0.619603, 50: 0.916842, 51: 0.571228, 52: 0.830738, 53: 0.360466, 54: 0.73909, 55: 0.089686, 56: 0.351377, 57: 0.816343, 58: 0.034042, 59: 0.601909, 60: 0.602555, 61: 0.746721, 62: 0.738965, 63: 0.125799, 64: 0.309407, 65: 0.870442, 66: 0.364127, 67: 0.835616, 68: 0.315436, 69: 0.0166, 70: 0.484802, 71: 0.725966, 72: 0.193947, 73: 0.912829, 74: 0.710249, 75: 0.897598, 76: 0.919441, 77: 0.325521, 78: 0.156891, 79: 0.970146, 80: 0.422499, 81: 0.897584, 82: 0.461529, 83: 0.960747, 84: 0.966876, 85: 0.738605, 86: 0.130727, 87: 0.438655, 88: 0.324353, 89: 0.631715, 90: 0.160751, 91: 0.9227109999999999, 92: 0.605262, 93: 0.866645, 94: 0.870147, 95: 0.756243, 96: 0.782678, 97: 0.458391, 98: 0.72625, 99: 0.9419419999999999, 100: 0.126714, 101: 0.809405, 102: 0.249702, 103: 0.6545609999999999, 104: 0.057619, 105: 0.9290040000000001, 106: 0.902174, 107: 0.5619420000000001, 108: 0.074827, 109: 0.466551, 110: 0.496638, 111: 0.489108, 112: 0.306338, 113: 0.629524, 114: 0.661102, 115: 0.511675, 116: 0.716156, 117: 0.842669, 118: 0.78521, 119: 0.989973, 120: 0.242024, 121: 0.716923, 122: 0.488884, 123: 0.662336, 124: 0.249068, 125: 0.520008, 126: 0.525688, 127: 0.690258, 128: 0.459448, 129: 0.086672, 130: 0.43717, 131: 0.124421, 132: 0.586607, 133: 0.007454, 134: 0.5107350000000001, 135: 0.585854, 136: 0.622657, 137: 0.974997, 138: 0.375101, 139: 0.341426, 140: 0.909841, 141: 0.5258620000000001, 142: 0.891946, 143: 0.045476, 144: 0.716969, 145: 0.529791, 146: 0.02666, 147: 0.373593, 148: 0.614446, 149: 0.887342, 150: 0.516015, 151: 0.6670970000000001, 152: 0.741605, 153: 0.86826, 154: 0.481873, 155: 0.329113, 156: 0.347144, 157: 0.6370749999999999, 158: 0.984636, 159: 0.709873, 160: 0.88744, 161: 0.696767, 162: 0.5057120000000001, 163: 0.612951, 164: 0.524085, 165: 0.434772, 166: 0.934156, 167: 0.616553, 168: 0.325163, 169: 0.578504, 170: 0.367809, 171: 0.7281530000000001, 172: 0.300398, 173: 0.758286, 174: 0.529595, 175: 0.975902, 176: 0.252444, 177: 0.498476, 178: 0.851077, 179: 0.468285, 180: 0.897201, 181: 0.639848, 182: 0.118994, 183: 0.946993, 184: 0.562922, 185: 0.702607, 186: 0.034692, 187: 0.502594, 188: 0.922218, 189: 0.838293, 190: 0.127951, 191: 0.289025];
soc = [0: 3.859107, 1: 5.09623, 2: 6.564232, 3: 2.772117, 4: 8.887127, 5: 4.704751, 6: 4.005388, 7: 10.836387, 8: 3.788727, 9: 9.798399, 10: 10.614363, 11: 4.115142, 12: 12.133429, 13: 9.73644, 14: 9.545324000000001, 15: 14.115252, 16: 14.080672, 17: 7.687121, 18: 6.070928, 19: 4.537263, 20: 14.511433, 21: 15.644078, 22: 2.815011, 23: 9.397955, 24: 12.305397, 25: 5.073374, 26: 13.128451, 27: 12.460795, 28: 15.3833, 29: 12.806828, 30: 13.604187, 31: 4.928481, 32: 6.755217, 33: 4.623486, 34: 15.533851, 35: 13.339896, 36: 7.435678, 37: 10.863465, 38: 12.259889, 39: 3.757743, 40: 13.20709, 41: 8.379129000000001, 42: 9.495426, 43: 12.865454, 44: 10.616343, 45: 6.968356, 46: 7.995051, 47: 5.023816, 48: 13.504985, 49: 12.356267, 50: 15.390907, 51: 4.356111, 52: 8.312053000000001, 53: 11.31615, 54: 11.712472, 55: 15.310579, 56: 11.485419, 57: 12.572398, 58: 10.113947, 59: 8.940101, 60: 11.276533, 61: 2.662296, 62: 3.313962, 63: 5.449994, 64: 15.073811, 65: 6.473935, 66: 2.874477, 67: 9.224974, 68: 2.673728, 69: 12.00462, 70: 14.960671, 71: 2.927551, 72: 4.162649, 73: 5.386766, 74: 5.689311, 75: 3.796675, 76: 7.410567, 77: 4.566708, 78: 11.188236, 79: 12.890116, 80: 9.919079999999999, 81: 13.507996, 82: 14.024859, 83: 7.058634, 84: 4.044353, 85: 2.863061, 86: 11.917967, 87: 5.576284, 88: 6.573282, 89: 8.349524000000001, 90: 12.528647, 91: 7.344795, 92: 10.961334, 93: 8.178276, 94: 7.073183, 95: 3.002152, 96: 5.625542, 97: 11.028811, 98: 11.034039, 99: 12.277041, 100: 5.507619, 101: 11.265515, 102: 7.217476, 103: 9.368995, 104: 4.090767, 105: 7.832043, 106: 8.003564000000001, 107: 9.782695, 108: 14.355959, 109: 10.802593, 110: 13.87095, 111: 2.716871, 112: 15.023498, 113: 8.026725000000001, 114: 10.924592, 115: 5.604173, 116: 11.116413, 117: 7.407803, 118: 7.615173, 119: 11.899841, 120: 9.864494000000001, 121: 8.045999999999999, 122: 2.974667, 123: 4.169647, 124: 8.398137999999999, 125: 5.115498, 126: 3.950851, 127: 9.516762999999999, 128: 7.086388, 129: 6.33884, 130: 3.003678, 131: 3.238201, 132: 11.221534, 133: 15.473105, 134: 11.748257, 135: 15.256718, 136: 11.047129, 137: 14.883762, 138: 15.582042, 139: 5.75215, 140: 13.123148, 141: 8.722961, 142: 10.353817, 143: 4.578358, 144: 6.091933, 145: 10.2858, 146: 9.053305999999999, 147: 5.351677, 148: 5.914711, 149: 10.078319, 150: 8.718598, 151: 4.064099, 152: 2.851232, 153: 6.251665, 154: 8.130041, 155: 4.107416, 156: 10.974111, 157: 14.043923, 158: 11.23681, 159: 11.713269, 160: 6.964026, 161: 7.512446, 162: 14.79116, 163: 11.305773, 164: 8.346050999999999, 165: 10.293257, 166: 14.166016, 167: 12.569507, 168: 11.403332, 169: 12.740274, 170: 8.001428000000001, 171: 11.120698, 172: 6.348541, 173: 13.884018, 174: 12.142533, 175: 11.63406, 176: 6.819126, 177: 14.200228, 178: 13.21154, 179: 3.632311, 180: 13.423961, 181: 4.806385, 182: 4.329084, 183: 5.781757, 184: 11.077936, 185: 8.874572000000001, 186: 8.360893000000001, 187: 10.740273, 188: 3.228945, 189: 13.122337, 190: 14.436433, 191: 15.389001];
cost = [0: 43.362566, 1: 330.174972, 2: 543.763675, 3: 14.80548, 4: 338.098514, 5: 95.69988600000001, 6: 166.467087, 7: 429.222125, 8: 451.007639, 9: 181.847272, 10: 453.671561, 11: 369.885315, 12: 369.539881, 13: 76.49692, 14: 125.136822, 15: 62.39604, 16: 455.450639, 17: 29.219482, 18: 322.022101, 19: 466.980073, 20: 437.631175, 21: 357.179254, 22: 202.440853, 23: 287.926, 24: 489.198717, 25: 166.33686, 26: 1094.539883, 27: 752.380092, 28: 1068.944264, 29: 113.483066, 30: 1115.17685, 31: 987.8991590000001, 32: 694.748154, 33: 940.510083, 34: 363.195026, 35: 741.708725, 36: 744.947368, 37: 1119.856978, 38: 107.096891, 39: 766.647033, 40: 1137.883142, 41: 10.590409, 42: 507.779625, 43: 1018.560909, 44: 788.377729, 45: 882.400538, 46: 645.591773, 47: 537.125582, 48: 876.9170800000001, 49: 1080.077053, 50: 1061.499869, 51: 368.404172, 52: 93.09675, 53: 391.442355, 54: 531.962837, 55: 150.261013, 56: 263.081323, 57: 347.347311, 58: 62.645505, 59: 571.168874, 60: 1028.315013, 61: 120.67743, 62: 811.112941, 63: 661.867088, 64: 1142.706506, 65: 610.876117, 66: 807.456962, 67: 506.701724, 68: 204.002774, 69: 372.198556, 70: 114.133575, 71: 725.689531, 72: 616.549615, 73: 898.005552, 74: 224.043423, 75: 308.576528, 76: 169.898365, 77: 402.90885, 78: 815.335457, 79: 1129.733609, 80: 540.565339, 81: 393.870336, 82: 182.375871, 83: 339.748251, 84: 1173.70089, 85: 75.904937, 86: 316.927226, 87: 418.188996, 88: 155.845054, 89: 188.099014, 90: 418.577037, 91: 102.384636, 92: 133.421214, 93: 560.59145, 94: 89.361834, 95: 381.0979, 96: 35.000978, 97: 307.879537, 98: 241.401107, 99: 459.894788, 100: 274.582609, 101: 346.02766, 102: 608.565532, 103: 538.184204, 104: 241.161306, 105: 166.942056, 106: 149.939522, 107: 284.612034, 108: 308.927585, 109: 441.875405, 110: 223.994782, 111: 25.039233, 112: 396.024753, 113: 197.294892, 114: 89.802785, 115: 359.713637, 116: 16.129573, 117: 127.030139, 118: 456.918965, 119: 586.041832, 120: 190.043224, 121: 1109.426083, 122: 15.899478, 123: 1074.793882, 124: 877.38994, 125: 962.2040009999999, 126: 421.668488, 127: 758.946117, 128: 578.982156, 129: 324.531517, 130: 1069.231459, 131: 674.0419450000001, 132: 476.118186, 133: 86.494514, 134: 1019.282684, 135: 176.755568, 136: 1041.567895, 137: 569.756648, 138: 251.470313, 139: 1144.541826, 140: 1137.596288, 141: 1091.943502, 142: 487.016196, 143: 534.12877, 144: 590.639785, 145: 711.739538, 146: 34.96079, 147: 536.121414, 148: 225.164085, 149: 558.04294, 150: 328.772297, 151: 249.76696, 152: 354.582687, 153: 96.708263, 154: 298.138237, 155: 138.602279, 156: 960.836923, 157: 117.327673, 158: 1143.558202, 159: 806.136932, 160: 238.337298, 161: 1129.648968, 162: 205.173181, 163: 551.476567, 164: 902.097864, 165: 903.126786, 166: 998.58165, 167: 446.207268, 168: 890.716184, 169: 169.616717, 170: 759.617072, 171: 354.053699, 172: 769.5255969999999, 173: 1062.983946, 174: 1022.659177, 175: 942.615203, 176: 1157.824013, 177: 738.25773, 178: 374.91061, 179: 432.62553, 180: 588.005177, 181: 1133.544159, 182: 274.754265, 183: 579.950351, 184: 554.399378, 185: 76.955102, 186: 213.244046, 187: 431.74516, 188: 515.119418, 189: 485.906982, 190: 187.521755, 191: 376.092358];
earn = [0: 0.742707, 1: 1.96359, 2: 1.586184, 3: 0.315674, 4: 1.023241, 5: 0.326374, 6: 0.674702, 7: 0.163757, 8: 0.581932, 9: 0.5547879999999999, 10: 1.545389, 11: 0.661907, 12: 1.650691, 13: 0.37189, 14: 0.339842, 15: 1.866428, 16: 0.753074, 17: 1.882537, 18: 1.738312, 19: 2.123498, 20: 1.925375, 21: 0.179976, 22: 0.728168, 23: 0.450419, 24: 2.047395, 25: 1.827141, 26: 3.007142, 27: 1.295139, 28: 0.738271, 29: 0.858477, 30: 1.113083, 31: 1.107871, 32: 0.679601, 33: 1.570879, 34: 0.895022, 35: 0.5848, 36: 0.454007, 37: 0.451114, 38: 0.289467, 39: 0.307845, 40: -0.000596, 41: -0.065708, 42: -0.348174, 43: -0.027676, 44: -0.052007, 45: -0.019821, 46: -0.091807, 47: -0.007299, 48: -0.056616, 49: -0.198566, 50: -0.046829, 51: -0.022163, 52: -0.069107, 53: -0.006292, 54: -0.017812, 55: -0.000328, 56: 0.023412, 57: 0.047162, 58: 0.010668, 59: 0.007938000000000001, 60: 0.120124, 61: 0.10273, 62: 0.350277, 63: 1.768852, 64: 0.644111, 65: 1.430762, 66: 1.901052, 67: 2.094651, 68: 1.073182, 69: 0.799983, 70: 1.598296, 71: 0.482381, 72: 2.199244, 73: 2.531432, 74: 1.630092, 75: 3.262035, 76: 1.244361, 77: 1.235023, 78: 1.044447, 79: 1.391936, 80: 2.317143, 81: 0.014744, 82: 0.361421, 83: 1.727073, 84: 1.866537, 85: 0.256925, 86: 1.896936, 87: 1.350133, 88: 1.277093, 89: 1.512901, 90: 0.342276, 91: 1.404837, 92: 0.750665, 93: 2.399668, 94: 0.196849, 95: 1.412578, 96: 2.212684, 97: 1.171284, 98: 2.155411, 99: 1.825126, 100: 1.353215, 101: 2.025679, 102: 2.156922, 103: 1.921797, 104: 1.306226, 105: 0.199332, 106: 1.443224, 107: 1.794786, 108: 1.15484, 109: 2.338711, 110: 1.415138, 111: 1.184416, 112: 0.255483, 113: 0.251444, 114: 1.465091, 115: 1.123997, 116: 0.744286, 117: 2.103328, 118: 1.285814, 119: 1.814525, 120: 1.126078, 121: 2.660999, 122: 2.308681, 123: 3.392094, 124: 3.09152, 125: 3.346853, 126: 2.079133, 127: 0.896948, 128: 1.662763, 129: 1.986908, 130: 1.221723, 131: 1.599831, 132: 2.25015, 133: 1.632132, 134: 1.763669, 135: 1.36034, 136: 0.280802, 137: 0.75191, 138: 0.374159, 139: 0.49021, 140: 0.232487, 141: 0.156612, 142: 0.057924, 143: 0.017108, 144: 0.032443, 145: 0.005261, 146: 0.048274, 147: 0.002235, 148: 0.057856, 149: 0.126825, 150: 0.261363, 151: 0.14055, 152: 0.604191, 153: 1.265181, 154: 0.910998, 155: 1.424881, 156: 1.829391, 157: 1.0844, 158: 0.859542, 159: 1.913404, 160: 0.441127, 161: 1.085628, 162: 1.850367, 163: 2.865318, 164: 0.256512, 165: 0.41767, 166: 2.236073, 167: 2.082243, 168: 3.935239, 169: 1.213202, 170: 1.278442, 171: 0.696098, 172: 4.091612, 173: 0.846032, 174: 0.668876, 175: 1.405326, 176: 1.044864, 177: 0.496384, 178: 2.310019, 179: 0.076233, 180: 2.392786, 181: 2.014833, 182: 1.095926, 183: 0.826812, 184: 1.920508, 185: 2.69993, 186: 1.42874, 187: 1.442468, 188: 1.884057, 189: 1.937138, 190: 0.943558, 191: 1.602829];
total_cost = 91.77062776866057;
total_earn = 37.85530303772892;
