production = [0: 0.0, 1: 0.0, 2: 0.0, 3: 0.0, 4: 0.0, 5: 0.0, 6: 0.0, 7: 0.0, 8: 0.0, 9: 0.0, 10: 0.0, 11: 0.0, 12: 0.0, 13: 0.0, 14: 0.0, 15: 0.0, 16: 0.0, 17: 0.0, 18: 0.0, 19: 0.0, 20: 0.0, 21: 0.0, 22: 0.0, 23: 0.000113, 24: 0.001701, 25: 0.004395, 26: 0.010583, 27: 0.00966, 28: 0.005138, 29: 0.039545, 30: 0.085782, 31: 0.34148, 32: 0.358595, 33: 0.18857, 34: 0.49798, 35: 0.689087, 36: 0.6269, 37: 0.880782, 38: 1.225025, 39: 1.070571, 40: 0.797781, 41: 0.395113, 42: 0.825844, 43: 0.7731130000000001, 44: 0.571364, 45: 0.701702, 46: 0.118431, 47: 0.009412999999999999, 48: 0.008244, 49: 0.01811, 50: 0.008199, 51: 0.042289, 52: 0.044364, 53: 0.314557, 54: 0.249361, 55: 0.046377, 56: 0.670248, 57: 1.195312, 58: 0.393787, 59: 0.619771, 60: 0.09238399999999999, 61: 0.318355, 62: 0.602855, 63: 0.507921, 64: 0.06897499999999999, 65: 0.142143, 66: 0.303454, 67: 0.15625, 68: 0.036187, 69: 0.024048, 70: 0.027527, 71: 0.007156, 72: 0.000962, 73: 0.000273, 74: 0.0, 75: 0.0, 76: 0.0, 77: 0.0, 78: 0.0, 79: 0.0, 80: 0.0, 81: 0.0, 82: 0.0, 83: 0.0, 84: 0.0, 85: 0.0, 86: 0.0, 87: 0.0, 88: 0.0, 89: 0.0, 90: 0.0, 91: 0.0, 92: 0.0, 93: 0.0, 94: 0.0, 95: 0.0, 96: 0.0, 97: 0.0, 98: 0.0, 99: 0.0, 100: 0.0, 101: 0.0, 102: 0.0, 103: 0.0, 104: 0.0, 105: 0.0, 106: 0.0, 107: 0.0, 108: 0.0, 109: 0.0, 110: 0.0, 111: 0.0, 112: 0.0, 113: 0.0, 114: 0.0, 115: 0.0, 116: 0.0, 117: 0.0, 118: 0.0, 119: 5.5e-05, 120: 0.000549, 121: 0.029461, 122: 0.0454, 123: 0.033831, 124: 0.015614, 125: 0.005505, 126: 0.197694, 127: 0.026697, 128: 0.155961, 129: 0.184818, 130: 0.000233, 131: 0.94537, 132: 0.778968, 133: 0.819673, 134: 1.235231, 135: 0.803519, 136: 1.16294, 137: 0.354146, 138: 0.571802, 139: 0.851432, 140: 1.37495, 141: 0.425971, 142: 0.30616, 143: 1.620046, 144: 0.5045539999999999, 145: 0.041055, 146: 1.145248, 147: 0.72937, 148: 0.856239, 149: 0.872431, 150: 0.819756, 151: 0.814709, 152: 0.641531, 153: 0.311453, 154: 0.693446, 155: 0.804834, 156: 0.312355, 157: 0.49157, 158: 0.469557, 159: 0.144685, 160: 0.504233, 161: 0.06787700000000001, 162: 0.285316, 163: 0.016014, 164: 0.084477, 165: 0.054082, 166: 0.034914, 167: 0.016068, 168: 0.001843, 169: 2.3e-05, 170: 0.0, 171: 0.0, 172: 0.0, 173: 0.0, 174: 0.0, 175: 0.0, 176: 0.0, 177: 0.0, 178: 0.0, 179: 0.0, 180: 0.0, 181: 0.0, 182: 0.0, 183: 0.0, 184: 0.0, 185: 0.0, 186: 0.0, 187: 0.0, 188: 0.0, 189: 0.0, 190: 0.0, 191: 0.0];
buy = [0: 162.357809, 1: 108.981312, 2: 207.475988, 3: 757.664342, 4: 882.252743, 5: 395.777729, 6: 356.2873, 7: 559.55511, 8: 544.340604, 9: 972.2376369999999, 10: 653.131693, 11: 184.696953, 12: 552.353892, 13: 671.77844, 14: 979.542193, 15: 339.935629, 16: 171.81071, 17: 969.7173340000001, 18: 942.159367, 19: 677.47001, 20: 353.659, 21: 413.322241, 22: 49.255088, 23: 727.699087, 24: 498.881037, 25: 943.220315, 26: 125.291124, 27: 539.122216, 28: 91.27379999999999, 29: 247.65721, 30: 781.372498, 31: 307.009607, 32: 60.928604, 33: 249.716277, 34: 205.547482, 35: 605.617408, 36: 954.677189, 37: 635.494331, 38: 733.42239, 39: 428.377548, 40: 271.016685, 41: 954.952989, 42: 272.29773, 43: 20.424777, 44: 114.762207, 45: 633.51412, 46: 951.44386, 47: 613.50522, 48: 414.817879, 49: 174.206351, 50: 709.5032660000001, 51: 380.261593, 52: 752.8713299999999, 53: 52.185924, 54: 143.584939, 55: 521.75825, 56: 782.028716, 57: 931.903942, 58: 153.526641, 59: 800.947863, 60: 174.243497, 61: 549.261997, 62: 162.75379, 63: 968.918536, 64: 494.290352, 65: 286.286459, 66: 848.410291, 67: 529.121358, 68: 696.17389, 69: 938.458721, 70: 444.39212, 71: 828.249539, 72: 861.4872370000001, 73: 365.927779, 74: 290.444586, 75: 392.412181, 76: 716.368998, 77: 650.319634, 78: 9.887774, 79: 912.472924, 80: 341.048719, 81: 208.275831, 82: 339.468806, 83: 857.253284, 84: 931.710276, 85: 256.478416, 86: 526.706668, 87: 344.658503, 88: 998.349374, 89: 129.354391, 90: 506.083028, 91: 826.5351020000001, 92: 552.86683, 93: 428.487996, 94: 270.274346, 95: 762.444536, 96: 238.108268, 97: 501.403296, 98: 973.710091, 99: 759.738328, 100: 968.626712, 101: 786.126169, 102: 131.243851, 103: 84.416715, 104: 443.209894, 105: 914.134539, 106: 443.002462, 107: 438.378244, 108: 827.494094, 109: 724.481763, 110: 767.6914870000001, 111: 712.289833, 112: 40.443076, 113: 6.703449, 114: 756.232543, 115: 516.168742, 116: 403.465579, 117: 462.193899, 118: 292.797566, 119: 651.512977, 120: 992.3725010000001, 121: 237.871134, 122: 874.550715, 123: 681.7251220000001, 124: 823.982669, 125: 188.416634, 126: 490.96103, 127: 487.234277, 128: 834.992678, 129: 681.710028, 130: 252.473818, 131: 836.374566, 132: 235.344899, 133: 663.727037, 134: 228.476498, 135: 845.606764, 136: 780.683521, 137: 550.640537, 138: 502.47275, 139: 441.134399, 140: 218.00093, 141: 949.971499, 142: 441.24066, 143: 348.626349, 144: 990.0808060000001, 145: 964.086286, 146: 109.341007, 147: 111.685813, 148: 779.167885, 149: 159.745987, 150: 902.426449, 151: 996.113662, 152: 330.573494, 153: 404.719656, 154: 336.123837, 155: 351.040325, 156: 225.876057, 157: 165.849317, 158: 495.115154, 159: 651.499871, 160: 166.191816, 161: 974.634586, 162: 139.998237, 163: 538.023991, 164: 832.645639, 165: 297.004783, 166: 243.56098, 167: 997.558813, 168: 496.700047, 169: 97.32173400000001, 170: 186.693864, 171: 860.284699, 172: 180.975674, 173: 807.010766, 174: 599.446517, 175: 667.3690790000001, 176: 914.871012, 177: 375.70897, 178: 149.424005, 179: 32.049004, 180: 534.9607150000001, 181: 934.44435, 182: 927.625784, 183: 1.488089, 184: 944.4420260000001, 185: 305.813256, 186: 754.443561, 187: 46.428801, 188: 231.350472, 189: 537.939867, 190: 894.384742, 191: 426.560516];
sell = [0: 0.405985, 1: 2.221225, 2: 3.750501, 3: 2.845554, 4: 0.564544, 5: 0.322185, 6: 0.322983, 7: 1.407905, 8: 2.659094, 9: 2.38199, 10: 0.273247, 11: 1.389546, 12: 0.473753, 13: 1.399215, 14: 2.285975, 15: 3.149932, 16: 0.2339, 17: 3.428813, 18: 2.274366, 19: 2.823739, 20: 1.917749, 21: 3.425845, 22: 2.342825, 23: 2.801489, 24: 2.136537, 25: 3.836585, 26: 2.418671, 27: 3.421187, 28: 2.53381, 29: 2.751424, 30: 1.101259, 31: 0.347084, 32: 1.035995, 33: 2.029624, 34: 2.438549, 35: 0.839182, 36: 3.422825, 37: 0.906894, 38: 1.338283, 39: 2.348902, 40: 2.500858, 41: 1.512805, 42: 0.34132, 43: 3.364117, 44: 2.319336, 45: 3.688736, 46: 1.527056, 47: 0.5175959999999999, 48: 1.190078, 49: 1.46585, 50: 1.182613, 51: 0.211745, 52: 3.75914, 53: 3.392729, 54: 2.211962, 55: 0.367805, 56: 0.160772, 57: 2.515641, 58: 1.966665, 59: 1.145424, 60: 3.920572, 61: 1.826805, 62: 1.214311, 63: 2.308864, 64: 0.09829, 65: 3.144067, 66: 0.713378, 67: 2.520366, 68: 2.390704, 69: 0.084717, 70: 3.624518, 71: 0.667926, 72: 1.169728, 73: 2.342845, 74: 3.104412, 75: 3.380231, 76: 3.999612, 77: 2.580652, 78: 1.913257, 79: 0.841898, 80: 2.222873, 81: 3.077673, 82: 1.089315, 83: 0.585386, 84: 0.487549, 85: 2.840697, 86: 0.407541, 87: 2.504117, 88: 1.789108, 89: 0.766299, 90: 1.274123, 91: 3.380411, 92: 1.106355, 93: 1.560276, 94: 1.013972, 95: 2.821219, 96: 0.295549, 97: 1.691445, 98: 1.333508, 99: 0.036264, 100: 3.196195, 101: 3.25494, 102: 2.922666, 103: 2.670509, 104: 1.229147, 105: 2.97145, 106: 2.206798, 107: 0.647827, 108: 2.844374, 109: 0.36706, 110: 0.103934, 111: 1.990829, 112: 2.438921, 113: 2.659985, 114: 3.541424, 115: 1.527818, 116: 0.151464, 117: 0.262906, 118: 1.597983, 119: 2.88148, 120: 0.522739, 121: 2.844463, 122: 3.32154, 123: 3.83834, 124: 3.00139, 125: 2.864923, 126: 1.371755, 127: 2.914238, 128: 1.527816, 129: 0.086024, 130: 2.674818, 131: 3.691641, 132: 0.425684, 133: 1.986895, 134: 2.135717, 135: 0.115856, 136: 3.620737, 137: 3.725093, 138: 1.11261, 139: 2.885432, 140: 2.108416, 141: 0.111556, 142: 1.048872, 143: 0.476822, 144: 0.347551, 145: 2.646326, 146: 3.282103, 147: 1.145874, 148: 0.594709, 149: 0.193478, 150: 3.25009, 151: 3.459549, 152: 2.532362, 153: 2.710283, 154: 3.879383, 155: 2.084366, 156: 0.240373, 157: 2.552635, 158: 0.269019, 159: 3.235315, 160: 3.179347, 161: 1.261707, 162: 0.058756, 163: 3.259407, 164: 1.498878, 165: 1.529439, 166: 3.571196, 167: 1.162667, 168: 1.044485, 169: 0.456054, 170: 2.774873, 171: 3.776394, 172: 1.965197, 173: 1.207491, 174: 3.160528, 175: 3.902623, 176: 3.793439, 177: 2.33343, 178: 3.180225, 179: 2.101051, 180: 0.260381, 181: 2.787557, 182: 2.048386, 183: 3.519748, 184: 0.103592, 185: 0.449047, 186: 1.692803, 187: 3.050346, 188: 0.7717810000000001, 189: 2.389199, 190: 1.757227, 191: 1.380407];
charge = [0: 0.241332, 1: 0.924712, 2: 0.674136, 3: 0.845088, 4: 0.796145, 5: 0.109608, 6: 0.248537, 7: 0.656519, 8: 0.688692, 9: 0.545807, 10: 0.731146, 11: 0.819724, 12: 0.182506, 13: 0.996564, 14: 0.039089, 15: 0.835027, 16: 0.904288, 17: 0.885586, 18: 0.36363, 19: 0.091673, 20: 0.168363, 21: 0.475748, 22: 0.77179, 23: 0.584017, 24: 0.111529, 25: 0.00617, 26: 0.460816, 27: 0.772082, 28: 0.06815300000000001, 29: 0.392833, 30: 0.88723, 31: 0.554714, 32: 0.058915, 33: 0.851176, 34: 0.144163, 35: 0.555797, 36: 0.122474, 37: 0.755745, 38: 0.63908, 39: 0.880539, 40: 0.7918230000000001, 41: 0.689596, 42: 0.212911, 43: 0.064862, 44: 0.959642, 45: 0.778664, 46: 0.214389, 47: 0.500743, 48: 0.257017, 49: 0.870817, 50: 0.76357, 51: 0.617271, 52: 0.447194, 53: 0.548699, 54: 0.046795, 55: 0.719194, 56: 0.713282, 57: 0.450567, 58: 0.189564, 59: 0.459648, 60: 0.9077769999999999, 61: 0.10796, 62: 0.713979, 63: 0.6636030000000001, 64: 0.110558, 65: 0.103581, 66: 0.992689, 67: 0.687842, 68: 0.27954, 69: 0.07521799999999999, 70: 0.402301, 71: 0.162857, 72: 0.554357, 73: 0.343981, 74: 0.856081, 75: 0.663035, 76: 0.125416, 77: 0.715496, 78: 0.141877, 79: 0.440809, 80: 0.007258, 81: 0.49392, 82: 0.110714, 83: 0.484601, 84: 0.892773, 85: 0.173076, 86: 0.659142, 87: 0.843048, 88: 0.605511, 89: 0.14303, 90: 0.0176, 91: 0.763113, 92: 0.817823, 93: 0.365049, 94: 0.122704, 95: 0.45323, 96: 0.583847, 97: 0.776748, 98: 0.433424, 99: 0.004606, 100: 0.713123, 101: 0.483197, 102: 0.769312, 103: 0.790535, 104: 0.841493, 105: 0.144916, 106: 0.335067, 107: 0.013817, 108: 0.790125, 109: 0.686657, 110: 0.342117, 111: 0.343893, 112: 0.57339, 113: 0.082786, 114: 0.899452, 115: 0.6252259999999999, 116: 0.153301, 117: 0.101478, 118: 0.628046, 119: 0.58473, 120: 0.432712, 121: 0.575114, 122: 0.364578, 123: 0.609283, 124: 0.276567, 125: 0.67144, 126: 0.584042, 127: 0.039846, 128: 0.547771, 129: 0.225726, 130: 0.265692, 131: 0.9270080000000001, 132: 0.406208, 133: 0.565761, 134: 0.732415, 135: 0.464925, 136: 0.569429, 137: 0.20316, 138: 0.158166, 139: 0.5819, 140: 0.114414, 141: 0.121285, 142: 0.29588, 143: 0.932738, 144: 0.6359939999999999, 145: 0.19286, 146: 0.653594, 147: 0.115101, 148: 0.90882, 149: 0.12872, 150: 0.804355, 151: 0.385523, 152: 0.008713, 153: 0.6905790000000001, 154: 0.085854, 155: 0.695739, 156: 0.8380609999999999, 157: 0.162488, 158: 0.856846, 159: 0.550752, 160: 0.879403, 161: 0.927338, 162: 0.654427, 163: 0.608031, 164: 0.705026, 165: 0.07595, 166: 0.858305, 167: 0.5632819999999999, 168: 0.012196, 169: 0.45249, 170: 0.08687300000000001, 171: 0.49291, 172: 0.13287, 173: 0.100603, 174: 0.276496, 175: 0.07740900000000001, 176: 0.829508, 177: 0.428236, 178: 0.539591, 179: 0.797682, 180: 0.872169, 181: 0.492615, 182: 0.08536199999999999, 183: 0.781424, 184: 0.950829, 185: 0.653133, 186: 0.709372, 187: 0.337482, 188: 0.40863, 189: 0.197697, 190: 0.884231, 191: 0.401639];
discharge = [0: 0.827805, 1: 0.450036, 2: 0.1964, 3: 0.321321, 4: 0.865619, 5: 0.5064380000000001, 6: 0.621452, 7: 0.2882, 8: 0.7678, 9: 0.08194, 10: 0.857418, 11: 0.80705, 12: 0.350865, 13: 0.920725, 14: 0.598768, 15: 0.683079, 16: 0.389035, 17: 0.497792, 18: 0.555151, 19: 0.490311, 20: 0.461538, 21: 0.839149, 22: 0.001333, 23: 0.616868, 24: 0.206184, 25: 0.01251, 26: 0.583885, 27: 0.255022, 28: 0.421157, 29: 0.948792, 30: 0.300444, 31: 0.290009, 32: 0.663045, 33: 0.115564, 34: 0.934206, 35: 0.646076, 36: 0.949018, 37: 0.918999, 38: 0.712021, 39: 0.96719, 40: 0.304338, 41: 0.945654, 42: 0.34308, 43: 0.780891, 44: 0.319044, 45: 0.225862, 46: 0.103543, 47: 0.600676, 48: 0.252735, 49: 0.21296, 50: 0.387818, 51: 0.476105, 52: 0.668782, 53: 0.892807, 54: 0.102691, 55: 0.393844, 56: 0.189753, 57: 0.223731, 58: 0.976871, 59: 0.6017940000000001, 60: 0.688783, 61: 0.740945, 62: 0.512888, 63: 0.448017, 64: 0.074833, 65: 0.614193, 66: 0.080331, 67: 0.482059, 68: 0.525179, 69: 0.612308, 70: 0.09175800000000001, 71: 0.774478, 72: 0.760289, 73: 0.543892, 74: 0.744123, 75: 0.891096, 76: 0.254401, 77: 0.249573, 78: 0.403549, 79: 0.441073, 80: 0.223258, 81: 0.810598, 82: 0.632018, 83: 0.394289, 84: 0.765671, 85: 0.529015, 86: 0.819449, 87: 0.866206, 88: 0.182241, 89: 0.959606, 90: 0.5488690000000001, 91: 0.692982, 92: 0.144929, 93: 0.535733, 94: 0.949236, 95: 0.828765, 96: 0.227587, 97: 0.21862, 98: 0.360617, 99: 0.618435, 100: 0.6604370000000001, 101: 0.305504, 102: 0.641626, 103: 0.839874, 104: 0.346792, 105: 0.100268, 106: 0.529469, 107: 0.325384, 108: 0.354206, 109: 0.318066, 110: 0.8204, 111: 0.250403, 112: 0.033887, 113: 0.01796, 114: 0.096996, 115: 0.896757, 116: 0.883579, 117: 0.19745, 118: 0.862338, 119: 0.003239, 120: 0.34559, 121: 0.607055, 122: 0.515118, 123: 0.431123, 124: 0.362701, 125: 0.5952, 126: 0.225766, 127: 0.07995099999999999, 128: 0.120172, 129: 0.055528, 130: 0.566269, 131: 0.7984830000000001, 132: 0.255266, 133: 0.968002, 134: 0.796196, 135: 0.884895, 136: 0.510481, 137: 0.520578, 138: 0.08798599999999999, 139: 0.960759, 140: 0.043056, 141: 0.353325, 142: 0.173603, 143: 0.188479, 144: 0.338496, 145: 0.757343, 146: 0.541673, 147: 0.624409, 148: 0.897954, 149: 0.365676, 150: 0.144816, 151: 0.049854, 152: 0.650338, 153: 0.010034, 154: 0.921786, 155: 0.121988, 156: 0.851071, 157: 0.47334, 158: 0.274863, 159: 0.956503, 160: 0.873576, 161: 0.258632, 162: 0.365635, 163: 0.012207, 164: 0.267435, 165: 0.842391, 166: 0.876749, 167: 0.867181, 168: 0.277727, 169: 0.873761, 170: 0.14543, 171: 0.988399, 172: 0.972867, 173: 0.34754, 174: 0.873246, 175: 0.910311, 176: 0.49703, 177: 0.890497, 178: 0.046556, 179: 0.282904, 180: 0.702601, 181: 0.264829, 182: 0.457267, 183: 0.805795, 184: 0.770756, 185: 0.69523, 186: 0.420264, 187: 0.522624, 188: 0.143576, 189: 0.649156, 190: 0.209956, 191: 0.569832];
soc = [0: 4.804102, 1: 5.010932, 2: 4.019986, 3: 7.387269, 4: 2.999047, 5: 3.749431, 6: 9.731019999999999, 7: 10.211199, 8: 8.094905000000001, 9: 10.297632, 10: 9.338817000000001, 11: 5.655132, 12: 4.502542, 13: 5.502704, 14: 2.863063, 15: 4.11086, 16: 12.074687, 17: 14.364887, 18: 14.396141, 19: 10.675166, 20: 12.285653, 21: 12.605243, 22: 12.816771, 23: 4.46612, 24: 3.530765, 25: 13.004318, 26: 15.566219, 27: 13.091856, 28: 7.343007, 29: 15.020446, 30: 8.259150999999999, 31: 13.669294, 32: 8.656753, 33: 11.192506, 34: 8.799716999999999, 35: 5.876758, 36: 7.533494, 37: 5.510152, 38: 3.350385, 39: 15.334371, 40: 2.896526, 41: 6.176167, 42: 9.133561, 43: 7.353837, 44: 14.128748, 45: 2.941947, 46: 8.761861, 47: 14.936558, 48: 14.605145, 49: 12.126422, 50: 6.315676, 51: 13.831361, 52: 12.685456, 53: 12.837286, 54: 6.86482, 55: 9.941998999999999, 56: 8.503415, 57: 12.151673, 58: 3.361097, 59: 13.359642, 60: 6.403677, 61: 4.627924, 62: 10.173396, 63: 13.292092, 64: 8.314074, 65: 2.719124, 66: 13.934222, 67: 13.965184, 68: 14.964314, 69: 6.349344, 70: 11.496818, 71: 15.416133, 72: 9.456419, 73: 3.659442, 74: 6.364884, 75: 5.604277, 76: 4.100651, 77: 5.076375, 78: 12.076556, 79: 4.057935, 80: 3.853465, 81: 5.47459, 82: 11.325999, 83: 11.846135, 84: 10.080579, 85: 7.818255, 86: 14.976918, 87: 10.007014, 88: 3.742563, 89: 10.641415, 90: 12.424666, 91: 5.826835, 92: 13.258117, 93: 15.569954, 94: 7.176917, 95: 9.659679000000001, 96: 12.231889, 97: 11.096922, 98: 12.732279, 99: 7.460372, 100: 3.959119, 101: 2.809965, 102: 12.199388, 103: 4.106538, 104: 12.509196, 105: 4.215945, 106: 13.802519, 107: 3.75297, 108: 5.466227, 109: 14.453627, 110: 11.729144, 111: 11.908567, 112: 6.584746, 113: 3.935147, 114: 14.958039, 115: 14.755272, 116: 13.09422, 117: 3.950923, 118: 2.737735, 119: 4.406532, 120: 11.796492, 121: 12.423056, 122: 14.900385, 123: 15.490011, 124: 4.032475, 125: 13.403368, 126: 4.351837, 127: 7.358651, 128: 6.175807, 129: 6.781275, 130: 3.634948, 131: 11.368677, 132: 9.6043, 133: 7.649608, 134: 9.964316, 135: 4.425012, 136: 3.54225, 137: 15.155528, 138: 10.429359, 139: 5.21983, 140: 11.548863, 141: 3.559321, 142: 10.273577, 143: 13.939142, 144: 3.124581, 145: 15.17174, 146: 8.054843999999999, 147: 14.593534, 148: 9.012997, 149: 6.171855, 150: 15.198973, 151: 7.342524, 152: 5.317005, 153: 13.940018, 154: 4.023102, 155: 5.545477, 156: 12.962338, 157: 13.43515, 158: 7.39326, 159: 3.487537, 160: 14.70725, 161: 10.234267, 162: 6.790842, 163: 14.000027, 164: 5.618077, 165: 9.787126000000001, 166: 2.796633, 167: 8.014989999999999, 168: 4.448676, 169: 3.442024, 170: 7.587024, 171: 5.447056, 172: 8.061163000000001, 173: 9.351122999999999, 174: 3.343255, 175: 15.162206, 176: 5.1893, 177: 7.79933, 178: 5.986665, 179: 14.861699, 180: 10.481928, 181: 10.859538, 182: 7.972305, 183: 5.558094, 184: 9.610893000000001, 185: 7.94992, 186: 4.627711, 187: 15.145664, 188: 3.341032, 189: 10.335583, 190: 12.144086, 191: 13.215289];
cost = [0: 44.52822, 1: 252.296415, 2: 551.522069, 3: 404.671111, 4: 230.581552, 5: 327.00884, 6: 13.899706, 7: 360.348183, 8: 413.410499, 9: 511.951079, 10: 352.4277, 11: 204.91491, 12: 572.268702, 13: 154.081695, 14: 357.45264, 15: 579.098091, 16: 378.955073, 17: 270.607278, 18: 231.039358, 19: 429.679988, 20: 281.088695, 21: 232.097241, 22: 550.357312, 23: 272.168018, 24: 340.795582, 25: 1042.052937, 26: 72.584577, 27: 367.835224, 28: 401.936466, 29: 306.171995, 30: 517.635194, 31: 154.965689, 32: 45.072179, 33: 964.69623, 34: 752.2556509999999, 35: 1184.008669, 36: 548.634859, 37: 590.817389, 38: 517.987766, 39: 693.2151249999999, 40: 974.069562, 41: 220.846397, 42: 790.976408, 43: 1133.473942, 44: 49.647346, 45: 1113.925876, 46: 392.189761, 47: 1145.462818, 48: 764.51156, 49: 629.511133, 50: 430.161314, 51: 274.850304, 52: 424.819992, 53: 521.879099, 54: 43.934431, 55: 526.8258489999999, 56: 227.971748, 57: 441.564865, 58: 426.797905, 59: 419.091692, 60: 887.8423299999999, 61: 236.544963, 62: 1002.124225, 63: 1184.889125, 64: 1125.352978, 65: 333.992317, 66: 412.371163, 67: 999.49914, 68: 1180.831929, 69: 604.80211, 70: 357.310821, 71: 801.7294869999999, 72: 376.390274, 73: 849.579487, 74: 1160.189651, 75: 535.598427, 76: 501.499025, 77: 303.973716, 78: 956.857535, 79: 998.595108, 80: 474.439593, 81: 134.155582, 82: 397.511496, 83: 983.928756, 84: 396.680718, 85: 166.701674, 86: 1095.891124, 87: 457.742794, 88: 434.229501, 89: 22.047049, 90: 113.001646, 91: 115.815991, 92: 138.506907, 93: 477.178698, 94: 179.667171, 95: 352.690557, 96: 89.23692800000001, 97: 251.961296, 98: 351.393594, 99: 518.915942, 100: 242.970567, 101: 239.516762, 102: 557.230057, 103: 222.649348, 104: 50.366486, 105: 552.6729800000001, 106: 54.397734, 107: 545.499395, 108: 7.035777, 109: 249.802829, 110: 474.08649, 111: 505.050842, 112: 76.81752299999999, 113: 171.309721, 114: 95.090396, 115: 606.239568, 116: 484.095447, 117: 165.361755, 118: 420.83606, 119: 280.375777, 120: 726.4951620000001, 121: 109.459293, 122: 802.002414, 123: 578.4866490000001, 124: 8.439291000000001, 125: 939.88181, 126: 931.138555, 127: 697.938257, 128: 614.330966, 129: 1133.720083, 130: 448.200359, 131: 346.825919, 132: 238.535972, 133: 54.742842, 134: 589.787775, 135: 595.0460420000001, 136: 153.539971, 137: 411.655108, 138: 284.066316, 139: 544.116998, 140: 307.506929, 141: 312.522182, 142: 236.68276, 143: 580.524633, 144: 711.529656, 145: 931.947538, 146: 457.972982, 147: 13.406621, 148: 488.401262, 149: 177.155266, 150: 331.067436, 151: 403.468441, 152: 226.707706, 153: 348.686795, 154: 281.858758, 155: 44.763231, 156: 134.229664, 157: 301.407751, 158: 700.267259, 159: 375.059902, 160: 119.777312, 161: 147.218163, 162: 80.112512, 163: 1094.013571, 164: 159.835006, 165: 761.264228, 166: 310.328198, 167: 1171.478075, 168: 160.064743, 169: 130.370726, 170: 34.804591, 171: 93.440636, 172: 478.594855, 173: 37.671978, 174: 988.053083, 175: 1126.581127, 176: 3.161315, 177: 435.366118, 178: 1081.753316, 179: 404.537386, 180: 898.693428, 181: 810.848939, 182: 1127.964062, 183: 992.802871, 184: 558.008689, 185: 339.227719, 186: 465.047664, 187: 259.33939, 188: 433.899108, 189: 202.227583, 190: 283.86486, 191: 175.604535];
earn = [0: 1.845428, 1: 0.027197, 2: 0.29012, 3: 1.444364, 4: 2.101543, 5: 0.351529, 6: 1.611591, 7: 0.018641, 8: 0.487505, 9: 1.608076, 10: 1.644061, 11: 2.044183, 12: 1.499494, 13: 2.092607, 14: 2.035892, 15: 0.107222, 16: 1.027238, 17: 0.217563, 18: 0.831541, 19: 1.546055, 20: 1.106214, 21: 0.086308, 22: 2.412754, 23: 1.245409, 24: 2.437335, 25: 1.313228, 26: 1.881713, 27: 2.298413, 28: 2.482548, 29: 0.170916, 30: 0.825321, 31: 1.99821, 32: 1.028019, 33: 1.741287, 34: 0.386844, 35: 0.86965, 36: 0.012723, 37: 1.194505, 38: 0.865716, 39: 0.433562, 40: -0.017251, 41: -0.016906, 42: -0.124486, 43: -0.033773, 44: -0.102861, 45: -0.059955, 46: -0.064636, 47: -0.018836, 48: -0.036786, 49: -0.201717, 50: -0.065, 51: -0.019593, 52: -0.010477, 53: -0.019187, 54: -0.031394, 55: -0.000975, 56: 0.013502, 57: 0.044215, 58: 0.008407, 59: 0.172158, 60: 0.877084, 61: 0.384116, 62: 0.572285, 63: 1.217516, 64: 0.91243, 65: 0.919701, 66: 1.991871, 67: 0.142691, 68: 2.772659, 69: 0.708114, 70: 1.402698, 71: 0.396275, 72: 2.728543, 73: 3.462212, 74: 3.900469, 75: 1.544578, 76: 1.954345, 77: 1.027776, 78: 0.407948, 79: 2.229764, 80: 0.324613, 81: 1.151985, 82: 0.924616, 83: 0.356155, 84: 2.902079, 85: 2.712986, 86: 0.044049, 87: 2.466631, 88: 1.328709, 89: 1.693153, 90: 2.374711, 91: 0.166872, 92: 0.293846, 93: 0.067869, 94: 1.672607, 95: 0.233418, 96: 2.244333, 97: 1.473123, 98: 0.827394, 99: 2.216566, 100: 0.017255, 101: 1.319419, 102: 0.98571, 103: 0.203864, 104: 1.131181, 105: 0.837947, 106: 1.568147, 107: 1.086706, 108: 1.118282, 109: 2.351337, 110: 1.608397, 111: 2.258974, 112: 1.411671, 113: 0.639906, 114: 2.365009, 115: 0.26936, 116: 2.040697, 117: 2.281523, 118: 1.320714, 119: 0.669188, 120: 0.5211249999999999, 121: 1.030686, 122: 3.389973, 123: 1.902094, 124: 2.166547, 125: 0.271185, 126: 2.264984, 127: 1.366874, 128: 0.694554, 129: 1.163391, 130: 2.266083, 131: 1.869988, 132: 0.955268, 133: 1.961897, 134: 0.514666, 135: 0.786069, 136: 0.191983, 137: 0.709525, 138: 0.58416, 139: 0.017806, 140: 0.164227, 141: 0.152445, 142: 0.036434, 143: 0.007247, 144: 0.019623, 145: 0.003429, 146: 0.052035, 147: 0.006291, 148: 0.065946, 149: 0.166247, 150: 0.196589, 151: 0.328458, 152: 0.219453, 153: 0.9789870000000001, 154: 1.165756, 155: 0.9975039999999999, 156: 1.810528, 157: 0.565698, 158: 0.759078, 159: 1.578064, 160: 0.879711, 161: 0.882425, 162: 0.622505, 163: 2.051256, 164: 1.941893, 165: 3.140322, 166: 0.629167, 167: 0.208917, 168: 3.310066, 169: 4.354039, 170: 4.440016, 171: 4.025739, 172: 1.475839, 173: 3.569996, 174: 1.100272, 175: 0.567214, 176: 2.816596, 177: 0.347319, 178: 1.181438, 179: 2.439964, 180: 1.579915, 181: 2.363222, 182: 0.276845, 183: 1.330707, 184: 0.428711, 185: 0.291915, 186: 1.361491, 187: 1.935516, 188: 2.648092, 189: 0.236262, 190: 2.523242, 191: 0.800652];
total_cost = 86.51606142337403;
total_earn = 36.65451443665753;
